@Relation urban_new_2021_fold4_train

@ATTRIBUTE f1_minas          NUMERIC  % Μήνας (1-12)
@ATTRIBUTE f2_epochi         NUMERIC  % Εποχή (1=Χειμ 2=Άνοιξ 3=Καλοκ 4=Φθιν)
@ATTRIBUTE f3_ora            NUMERIC  % Ώρα ημέρας (0-23)
@ATTRIBUTE f4_mera_nyxta     NUMERIC  % Μέρα=1 Νύχτα=0
@ATTRIBUTE f5_imera_evdom    NUMERIC  % Ημέρα εβδομάδας (0=Δευτ 6=Κυρ)
@ATTRIBUTE f6_savvatokyriako NUMERIC  % Σαββ/κο=1 Καθημ=0
@ATTRIBUTE f7_trimino        NUMERIC  % Τρίμηνο (1-4)
@ATTRIBUTE f8_nomos          NUMERIC  % Κωδικός Νομού
@ATTRIBUTE f9_typos_xorou    NUMERIC  % Κωδικός τύπου χώρου
@ATTRIBUTE class             {8,9,11} % 8=Μεγάλη 9=Μεσαία 11=Μικρή

@DATA
1,1,15,1,5,1,1,5,87,11
1,1,18,1,0,0,1,5,87,11
1,1,12,1,2,0,1,5,87,11
1,1,7,1,4,0,1,5,96,11
1,1,21,0,6,1,1,5,87,11
1,1,16,1,4,0,1,5,87,11
1,1,19,1,5,1,1,5,73,11
1,1,11,1,5,1,1,5,87,11
2,1,16,1,1,0,1,5,87,11
2,1,21,0,6,1,1,5,73,11
2,1,19,1,2,0,1,5,87,11
2,1,16,1,3,0,1,5,96,11
2,1,11,1,3,0,1,5,87,11
2,1,4,0,3,0,1,5,73,11
2,1,17,1,4,0,1,5,87,11
3,2,14,1,1,0,1,5,87,11
3,2,12,1,4,0,1,5,120,11
3,2,16,1,5,1,1,5,87,11
3,2,8,1,1,0,1,5,87,11
3,2,18,1,3,0,1,5,87,11
3,2,11,1,4,0,1,5,87,11
3,2,20,1,6,1,1,5,87,11
4,2,11,1,2,0,2,5,87,11
4,2,20,1,4,0,2,5,73,11
4,2,8,1,5,1,2,5,87,11
4,2,10,1,1,0,2,5,96,11
4,2,19,1,4,0,2,5,87,11
4,2,13,1,1,0,2,5,87,11
4,2,21,0,3,0,2,5,87,11
5,2,6,0,4,0,2,5,120,11
5,2,10,1,5,1,2,5,87,9
5,2,13,1,3,0,2,5,87,11
6,3,1,0,6,1,2,5,73,8
8,3,20,1,5,1,3,5,87,11
10,4,14,1,6,1,4,5,87,11
10,4,19,1,5,1,4,5,113,11
11,4,23,0,1,0,4,5,73,11
11,4,21,0,4,0,4,5,85,11
11,4,19,1,1,0,4,5,96,11
12,1,18,1,2,0,4,5,87,11
12,1,14,1,5,1,4,5,87,11
12,1,9,1,0,0,4,5,87,11
12,1,10,1,0,0,4,5,87,11
1,1,11,1,1,0,1,5,19,11
1,1,19,1,0,0,1,5,30,11
9,4,9,1,6,1,3,5,19,11
9,4,17,1,6,1,3,5,101,11
10,4,21,0,2,0,4,5,5,11
1,1,12,1,5,1,1,5,85,11
1,1,13,1,6,1,1,5,64,11
1,1,23,0,1,0,1,5,85,11
1,1,2,0,1,0,1,5,85,11
1,1,14,1,3,0,1,5,64,11
1,1,3,0,4,0,1,5,64,11
1,1,8,1,6,1,1,5,64,11
1,1,11,1,1,0,1,5,64,11
1,1,14,1,2,0,1,5,64,11
1,1,0,0,4,0,1,5,56,11
1,1,13,1,4,0,1,5,64,11
1,1,15,1,5,1,1,5,85,11
1,1,20,1,5,1,1,5,64,11
1,1,12,1,6,1,1,5,85,11
1,1,18,1,6,1,1,5,85,11
1,1,6,0,0,0,1,5,85,11
1,1,1,0,0,0,1,5,85,11
1,1,0,0,1,0,1,5,85,11
1,1,9,1,1,0,1,5,64,11
1,1,1,0,2,0,1,5,85,11
1,1,17,1,2,0,1,5,85,11
1,1,7,1,2,0,1,5,85,11
1,1,11,1,3,0,1,5,73,11
1,1,22,0,3,0,1,5,47,11
1,1,1,0,5,1,1,5,71,11
1,1,21,0,5,1,1,5,85,11
1,1,18,1,6,1,1,5,31,11
1,1,19,1,1,0,1,5,85,11
1,1,11,1,1,0,1,5,85,11
1,1,17,1,2,0,1,5,92,11
1,1,17,1,2,0,1,5,85,11
1,1,20,1,2,0,1,5,64,11
1,1,10,1,3,0,1,5,30,11
1,1,23,0,4,0,1,5,85,11
1,1,21,0,5,1,1,5,85,11
1,1,9,1,6,1,1,5,56,11
1,1,18,1,6,1,1,5,85,11
1,1,21,0,6,1,1,5,64,11
2,1,21,0,4,0,1,5,8,11
2,1,16,1,0,0,1,5,29,11
2,1,19,1,3,0,1,5,64,11
2,1,20,1,4,0,1,5,31,8
2,1,5,0,5,1,1,5,19,11
2,1,15,1,3,0,1,5,64,11
2,1,19,1,3,0,1,5,85,11
2,1,10,1,4,0,1,5,71,11
2,1,16,1,4,0,1,5,64,11
2,1,21,0,5,1,1,5,64,8
2,1,21,0,5,1,1,5,64,8
2,1,16,1,6,1,1,5,47,11
2,1,7,1,6,1,1,5,19,11
2,1,22,0,0,0,1,5,92,11
2,1,19,1,0,0,1,5,85,11
2,1,14,1,0,0,1,5,64,11
2,1,2,0,0,0,1,5,85,11
2,1,17,1,1,0,1,5,85,11
2,1,21,0,3,0,1,5,19,11
2,1,18,1,3,0,1,5,56,11
2,1,18,1,4,0,1,5,85,11
3,2,20,1,0,0,1,5,85,11
3,2,15,1,2,0,1,5,19,11
3,2,11,1,3,0,1,5,64,11
3,2,19,1,3,0,1,5,85,11
3,2,22,0,3,0,1,5,64,11
3,2,22,0,4,0,1,5,92,11
3,2,14,1,5,1,1,5,64,11
3,2,13,1,5,1,1,5,85,11
3,2,13,1,5,1,1,5,85,11
3,2,22,0,5,1,1,5,85,11
3,2,13,1,5,1,1,5,85,11
3,2,4,0,6,1,1,5,85,11
3,2,19,1,0,0,1,5,85,11
3,2,19,1,0,0,1,5,85,11
3,2,18,1,0,0,1,5,19,11
3,2,21,0,1,0,1,5,85,11
3,2,19,1,2,0,1,5,64,11
3,2,0,0,3,0,1,5,32,11
3,2,20,1,3,0,1,5,64,11
3,2,17,1,3,0,1,5,64,11
3,2,2,0,4,0,1,5,71,11
3,2,12,1,4,0,1,5,31,8
3,2,1,0,5,1,1,5,85,11
3,2,18,1,6,1,1,5,64,11
3,2,16,1,1,0,1,5,64,11
3,2,1,0,3,0,1,5,19,8
3,2,20,1,5,1,1,5,64,11
3,2,4,0,6,1,1,5,85,11
3,2,12,1,1,0,1,5,64,11
3,2,17,1,2,0,1,5,87,11
3,2,17,1,3,0,1,5,64,11
3,2,5,0,3,0,1,5,56,11
3,2,23,0,4,0,1,5,73,11
3,2,0,0,5,1,1,5,64,11
3,2,13,1,5,1,1,5,87,11
3,2,0,0,5,1,1,5,85,11
3,2,2,0,0,0,1,5,19,11
3,2,1,0,2,0,1,5,64,11
4,2,11,1,6,1,2,5,64,11
4,2,15,1,6,1,2,5,64,11
4,2,17,1,0,0,2,5,56,11
4,2,23,0,1,0,2,5,85,11
4,2,8,1,2,0,2,5,64,11
4,2,9,1,3,0,2,5,64,11
4,2,11,1,5,1,2,5,85,11
4,2,10,1,5,1,2,5,64,11
4,2,0,0,5,1,2,5,92,11
4,2,13,1,6,1,2,5,19,11
4,2,19,1,0,0,2,5,85,11
4,2,22,0,0,0,2,5,64,11
4,2,9,1,1,0,2,5,85,11
4,2,10,1,4,0,2,5,13,8
4,2,4,0,5,1,2,5,92,11
4,2,3,0,5,1,2,5,92,11
4,2,3,0,0,0,2,5,85,11
4,2,18,1,3,0,2,5,85,11
4,2,11,1,3,0,2,5,87,11
4,2,15,1,3,0,2,5,73,11
4,2,17,1,4,0,2,5,47,11
4,2,10,1,5,1,2,5,64,11
4,2,18,1,6,1,2,5,64,11
4,2,18,1,1,0,2,5,64,11
4,2,15,1,1,0,2,5,64,11
4,2,18,1,2,0,2,5,85,11
4,2,8,1,4,0,2,5,85,11
5,2,23,0,5,1,2,5,85,11
5,2,23,0,5,1,2,5,85,11
5,2,1,0,6,1,2,5,85,11
5,2,7,1,0,0,2,5,85,11
5,2,13,1,0,0,2,5,64,11
5,2,5,0,3,0,2,5,85,11
5,2,5,0,3,0,2,5,85,11
5,2,5,0,3,0,2,5,85,11
5,2,5,0,3,0,2,5,85,11
5,2,12,1,4,0,2,5,50,11
5,2,21,0,0,0,2,5,85,11
5,2,1,0,0,0,2,5,85,11
5,2,6,0,1,0,2,5,85,11
5,2,6,0,2,0,2,5,85,11
5,2,11,1,2,0,2,5,82,11
5,2,12,1,4,0,2,5,86,11
5,2,23,0,4,0,2,5,85,11
5,2,3,0,2,0,2,5,64,11
5,2,13,1,2,0,2,5,64,11
5,2,13,1,2,0,2,5,114,11
5,2,21,0,3,0,2,5,64,11
5,2,14,1,3,0,2,5,64,11
5,2,14,1,4,0,2,5,31,11
5,2,3,0,4,0,2,5,81,11
5,2,14,1,5,1,2,5,17,11
5,2,9,1,5,1,2,5,64,11
5,2,7,1,6,1,2,5,85,11
5,2,1,0,6,1,2,5,56,11
5,2,6,0,6,1,2,5,85,11
5,2,20,1,1,0,2,5,64,11
5,2,22,0,1,0,2,5,63,11
5,2,1,0,3,0,2,5,85,11
5,2,2,0,3,0,2,5,64,11
5,2,4,0,3,0,2,5,85,11
5,2,19,1,3,0,2,5,85,11
5,2,19,1,4,0,2,5,85,11
5,2,12,1,5,1,2,5,7,11
5,2,5,0,5,1,2,5,85,11
5,2,20,1,5,1,2,5,85,11
5,2,14,1,5,1,2,5,64,11
5,2,2,0,6,1,2,5,85,11
5,2,19,1,6,1,2,5,92,11
5,2,0,0,0,0,2,5,92,11
6,3,1,0,1,0,2,5,85,11
6,3,8,1,2,0,2,5,85,11
6,3,5,0,2,0,2,5,85,11
6,3,0,0,2,0,2,5,85,11
6,3,20,1,3,0,2,5,64,11
6,3,3,0,4,0,2,5,85,11
6,3,19,1,5,1,2,5,64,11
6,3,6,0,5,1,2,5,64,11
6,3,5,0,5,1,2,5,92,11
6,3,3,0,5,1,2,5,92,11
6,3,16,1,5,1,2,5,85,11
6,3,16,1,1,0,2,5,64,11
6,3,18,1,1,0,2,5,85,11
6,3,12,1,1,0,2,5,19,11
6,3,23,0,1,0,2,5,85,11
6,3,15,1,2,0,2,5,64,8
6,3,21,0,2,0,2,5,19,11
6,3,19,1,4,0,2,5,85,11
6,3,3,0,5,1,2,5,85,11
6,3,3,0,6,1,2,5,120,11
6,3,3,0,0,0,2,5,85,11
6,3,15,1,1,0,2,5,64,11
6,3,19,1,2,0,2,5,19,11
6,3,17,1,2,0,2,5,87,11
6,3,3,0,2,0,2,5,92,11
6,3,23,0,3,0,2,5,85,11
6,3,0,0,5,1,2,5,8,11
6,3,20,1,0,0,2,5,85,11
6,3,10,1,1,0,2,5,19,11
6,3,11,1,1,0,2,5,85,11
6,3,6,0,2,0,2,5,64,11
6,3,11,1,2,0,2,5,64,11
6,3,12,1,4,0,2,5,85,11
6,3,14,1,5,1,2,5,85,11
6,3,4,0,1,0,2,5,92,11
6,3,6,0,1,0,2,5,92,11
6,3,3,0,2,0,2,5,19,11
6,3,8,1,2,0,2,5,64,11
7,3,2,0,4,0,3,5,85,11
7,3,1,0,5,1,3,5,85,11
7,3,22,0,5,1,3,5,85,11
7,3,3,0,6,1,3,5,85,11
7,3,19,1,1,0,3,5,8,11
7,3,13,1,1,0,3,5,64,11
7,3,3,0,1,0,3,5,85,11
7,3,12,1,1,0,3,5,64,11
7,3,14,1,2,0,3,5,64,11
7,3,14,1,3,0,3,5,85,11
7,3,20,1,3,0,3,5,56,11
7,3,20,1,5,1,3,5,17,11
7,3,8,1,6,1,3,5,64,11
7,3,17,1,2,0,3,5,19,11
7,3,22,0,4,0,3,5,64,11
7,3,21,0,4,0,3,5,31,11
7,3,16,1,5,1,3,5,64,11
7,3,17,1,0,0,3,5,85,11
7,3,20,1,2,0,3,5,64,11
7,3,15,1,2,0,3,5,73,11
7,3,6,0,2,0,3,5,85,11
7,3,20,1,3,0,3,5,64,11
7,3,11,1,3,0,3,5,64,11
7,3,15,1,5,1,3,5,92,11
7,3,12,1,5,1,3,5,64,11
7,3,17,1,6,1,3,5,64,11
7,3,9,1,6,1,3,5,47,11
7,3,18,1,0,0,3,5,8,11
7,3,6,0,3,0,3,5,64,11
7,3,20,1,3,0,3,5,17,11
7,3,6,0,4,0,3,5,81,11
7,3,4,0,5,1,3,5,64,11
7,3,8,1,5,1,3,5,19,11
8,3,22,0,6,1,3,5,64,9
8,3,10,1,6,1,3,5,64,11
8,3,14,1,0,0,3,5,85,11
8,3,1,0,1,0,3,5,85,8
8,3,9,1,2,0,3,5,87,8
8,3,21,0,4,0,3,5,85,11
8,3,16,1,4,0,3,5,8,11
8,3,14,1,5,1,3,5,19,11
8,3,18,1,6,1,3,5,105,11
8,3,4,0,6,1,3,5,92,11
8,3,16,1,0,0,3,5,64,11
8,3,23,0,0,0,3,5,64,11
8,3,23,0,3,0,3,5,85,11
8,3,14,1,4,0,3,5,19,11
8,3,0,0,6,1,3,5,64,11
8,3,12,1,6,1,3,5,64,11
8,3,17,1,6,1,3,5,64,11
8,3,12,1,0,0,3,5,78,11
8,3,19,1,1,0,3,5,64,11
8,3,4,0,2,0,3,5,64,11
8,3,9,1,2,0,3,5,39,11
8,3,15,1,4,0,3,5,85,11
8,3,4,0,5,1,3,5,85,11
8,3,15,1,5,1,3,5,94,11
8,3,19,1,2,0,3,5,81,11
8,3,17,1,3,0,3,5,64,11
8,3,7,1,5,1,3,5,101,9
8,3,19,1,6,1,3,5,85,11
8,3,3,0,0,0,3,5,71,11
9,4,4,0,4,0,3,5,85,11
9,4,21,0,5,1,3,5,39,11
9,4,11,1,1,0,3,5,64,11
9,4,9,1,1,0,3,5,85,11
9,4,0,0,4,0,3,5,85,11
9,4,16,1,1,0,3,5,85,11
9,4,8,1,3,0,3,5,64,11
9,4,18,1,5,1,3,5,85,11
9,4,2,0,6,1,3,5,85,11
9,4,23,0,6,1,3,5,85,11
9,4,3,0,3,0,3,5,85,11
9,4,20,1,6,1,3,5,85,11
9,4,15,1,0,0,3,5,114,11
9,4,0,0,1,0,3,5,85,11
10,4,6,0,6,1,4,5,85,11
10,4,15,1,2,0,4,5,31,8
10,4,9,1,2,0,4,5,85,11
10,4,8,1,2,0,4,5,85,11
10,4,7,1,4,0,4,5,19,11
10,4,21,0,4,0,4,5,94,11
10,4,16,1,0,0,4,5,85,11
10,4,0,0,3,0,4,5,85,11
10,4,11,1,4,0,4,5,85,11
10,4,11,1,5,1,4,5,64,11
10,4,12,1,6,1,4,5,85,11
10,4,16,1,2,0,4,5,64,11
10,4,12,1,2,0,4,5,85,11
10,4,4,0,2,0,4,5,85,11
10,4,7,1,3,0,4,5,87,11
10,4,17,1,4,0,4,5,120,11
10,4,5,0,6,1,4,5,99,8
10,4,8,1,6,1,4,5,85,11
10,4,9,1,6,1,4,5,85,11
10,4,3,0,2,0,4,5,85,11
10,4,1,0,2,0,4,5,85,11
10,4,22,0,2,0,4,5,85,11
10,4,20,1,3,0,4,5,47,11
10,4,11,1,4,0,4,5,64,8
10,4,23,0,4,0,4,5,56,11
10,4,1,0,5,1,4,5,64,11
10,4,13,1,5,1,4,5,64,11
10,4,1,0,6,1,4,5,19,11
11,4,16,1,1,0,4,5,19,11
11,4,11,1,3,0,4,5,64,11
11,4,14,1,3,0,4,5,64,11
11,4,18,1,5,1,4,5,85,11
11,4,17,1,5,1,4,5,85,8
11,4,23,0,5,1,4,5,85,11
11,4,17,1,4,0,4,5,85,11
11,4,23,0,5,1,4,5,19,11
11,4,19,1,6,1,4,5,85,11
11,4,16,1,2,0,4,5,76,11
11,4,23,0,2,0,4,5,64,11
11,4,4,0,3,0,4,5,85,11
11,4,11,1,3,0,4,5,47,11
11,4,21,0,3,0,4,5,85,11
11,4,4,0,3,0,4,5,96,11
11,4,19,1,4,0,4,5,73,11
11,4,5,0,5,1,4,5,39,11
11,4,22,0,6,1,4,5,64,11
11,4,11,1,2,0,4,5,64,11
11,4,11,1,3,0,4,5,64,11
11,4,21,0,4,0,4,5,19,9
11,4,0,0,4,0,4,5,19,11
11,4,15,1,4,0,4,5,73,8
11,4,19,1,5,1,4,5,85,11
11,4,4,0,5,1,4,5,85,11
12,1,3,0,2,0,4,5,85,11
12,1,13,1,6,1,4,5,64,11
12,1,21,0,6,1,4,5,64,11
12,1,23,0,0,0,4,5,19,11
12,1,0,0,1,0,4,5,87,11
12,1,21,0,2,0,4,5,85,11
12,1,21,0,3,0,4,5,64,11
12,1,21,0,3,0,4,5,73,11
12,1,15,1,4,0,4,5,8,11
12,1,2,0,6,1,4,5,85,11
12,1,4,0,6,1,4,5,85,11
12,1,12,1,0,0,4,5,64,11
12,1,9,1,0,0,4,5,7,11
12,1,16,1,1,0,4,5,85,11
12,1,11,1,2,0,4,5,64,11
12,1,16,1,3,0,4,5,85,11
12,1,22,0,3,0,4,5,85,11
12,1,7,1,3,0,4,5,85,11
12,1,5,0,4,0,4,5,19,11
12,1,14,1,5,1,4,5,64,11
12,1,13,1,6,1,4,5,64,11
12,1,18,1,0,0,4,5,85,11
12,1,16,1,0,0,4,5,19,11
12,1,3,0,3,0,4,5,85,11
12,1,21,0,4,0,4,5,94,11
12,1,8,1,5,1,4,5,81,11
12,1,23,0,5,1,4,5,85,11
12,1,21,0,5,1,4,5,85,11
12,1,15,1,6,1,4,5,64,11
12,1,9,1,1,0,4,5,64,11
12,1,20,1,4,0,4,5,85,11
1,1,16,1,4,0,1,5,64,11
1,1,10,1,4,0,1,5,64,11
1,1,0,0,4,0,1,5,56,11
1,1,20,1,6,1,1,5,71,11
1,1,12,1,0,0,1,5,64,11
1,1,16,1,1,0,1,5,85,11
1,1,10,1,2,0,1,5,85,11
1,1,17,1,2,0,1,5,85,11
1,1,2,0,2,0,1,5,13,9
1,1,20,1,3,0,1,5,85,11
1,1,9,1,3,0,1,5,64,9
1,1,12,1,3,0,1,5,64,11
1,1,20,1,3,0,1,5,85,11
1,1,2,0,5,1,1,5,85,11
1,1,12,1,5,1,1,5,64,11
1,1,17,1,6,1,1,5,64,11
1,1,20,1,0,0,1,5,64,11
1,1,13,1,3,0,1,5,64,11
1,1,0,0,4,0,1,5,22,9
1,1,20,1,4,0,1,5,63,11
1,1,21,0,4,0,1,5,64,11
1,1,12,1,4,0,1,5,13,11
1,1,10,1,5,1,1,5,85,11
1,1,7,1,6,1,1,5,87,11
1,1,7,1,6,1,1,5,96,11
1,1,10,1,0,0,1,5,64,11
1,1,3,0,1,0,1,5,71,11
1,1,13,1,1,0,1,5,85,11
1,1,20,1,2,0,1,5,64,11
1,1,15,1,2,0,1,5,64,11
1,1,12,1,3,0,1,5,64,11
1,1,12,1,3,0,1,5,96,11
1,1,17,1,3,0,1,5,64,11
1,1,17,1,4,0,1,5,92,11
1,1,6,0,5,1,1,5,64,8
1,1,19,1,6,1,1,5,85,11
1,1,4,0,1,0,1,5,73,11
1,1,2,0,1,0,1,5,64,11
1,1,0,0,2,0,1,5,85,11
1,1,9,1,3,0,1,5,64,11
1,1,7,1,6,1,1,5,85,11
2,1,13,1,1,0,1,5,85,11
2,1,17,1,2,0,1,5,85,11
2,1,9,1,5,1,1,5,57,11
2,1,15,1,5,1,1,5,81,9
2,1,14,1,5,1,1,5,85,11
2,1,0,0,6,1,1,5,85,11
2,1,0,0,6,1,1,5,85,11
2,1,0,0,6,1,1,5,85,11
2,1,3,0,6,1,1,5,85,11
2,1,3,0,6,1,1,5,96,11
2,1,2,0,6,1,1,5,85,11
2,1,8,1,6,1,1,5,96,11
2,1,11,1,6,1,1,5,85,11
2,1,13,1,0,0,1,5,64,11
2,1,16,1,0,0,1,5,56,11
2,1,19,1,1,0,1,5,64,9
2,1,7,1,2,0,1,5,2,11
2,1,17,1,3,0,1,5,7,11
2,1,12,1,3,0,1,5,64,11
2,1,11,1,5,1,1,5,87,11
2,1,10,1,1,0,1,5,30,11
2,1,14,1,2,0,1,5,64,11
2,1,16,1,3,0,1,5,87,11
2,1,12,1,4,0,1,5,85,11
2,1,0,0,5,1,1,5,85,11
2,1,4,0,5,1,1,5,92,11
2,1,9,1,5,1,1,5,85,11
2,1,8,1,5,1,1,5,64,11
2,1,20,1,5,1,1,5,85,11
2,1,16,1,5,1,1,5,1,11
2,1,21,0,5,1,1,5,64,11
2,1,2,0,6,1,1,5,85,11
2,1,2,0,6,1,1,5,85,11
2,1,10,1,6,1,1,5,64,11
2,1,3,0,6,1,1,5,85,11
2,1,21,0,6,1,1,5,85,11
2,1,21,0,6,1,1,5,85,11
2,1,0,0,0,0,1,5,92,11
2,1,19,1,0,0,1,5,64,11
2,1,19,1,0,0,1,5,64,11
2,1,16,1,0,0,1,5,64,11
2,1,18,1,1,0,1,5,85,11
2,1,20,1,2,0,1,5,43,11
2,1,20,1,4,0,1,5,71,11
2,1,0,0,5,1,1,5,7,9
2,1,18,1,5,1,1,5,64,11
2,1,9,1,6,1,1,5,85,11
2,1,6,0,6,1,1,5,82,11
3,2,20,1,0,0,1,5,64,11
3,2,18,1,0,0,1,5,39,11
3,2,22,0,0,0,1,5,120,11
3,2,19,1,2,0,1,5,110,11
3,2,16,1,3,0,1,5,64,11
3,2,14,1,3,0,1,5,87,11
3,2,4,0,4,0,1,5,85,11
3,2,14,1,4,0,1,5,85,11
3,2,12,1,5,1,1,5,85,11
3,2,19,1,6,1,1,5,85,11
3,2,20,1,6,1,1,5,64,11
3,2,19,1,6,1,1,5,85,11
3,2,18,1,0,0,1,5,13,8
3,2,22,0,2,0,1,5,120,11
3,2,7,1,3,0,1,5,120,11
3,2,14,1,3,0,1,5,64,11
3,2,16,1,3,0,1,5,85,11
3,2,19,1,4,0,1,5,87,11
3,2,19,1,4,0,1,5,85,11
3,2,2,0,4,0,1,5,56,11
3,2,18,1,6,1,1,5,85,11
3,2,1,0,2,0,1,5,85,11
3,2,10,1,2,0,1,5,87,11
3,2,18,1,3,0,1,5,87,11
3,2,11,1,3,0,1,5,87,11
3,2,7,1,3,0,1,5,87,11
3,2,18,1,3,0,1,5,87,11
3,2,7,1,3,0,1,5,87,11
3,2,7,1,5,1,1,5,71,11
3,2,10,1,5,1,1,5,64,9
3,2,12,1,6,1,1,5,85,11
3,2,19,1,6,1,1,5,85,11
3,2,23,0,6,1,1,5,71,11
3,2,3,0,6,1,1,5,87,11
3,2,2,0,0,0,1,5,64,11
3,2,14,1,1,0,1,5,64,9
3,2,12,1,1,0,1,5,71,11
3,2,15,1,2,0,1,5,64,11
3,2,1,0,3,0,1,5,56,11
3,2,17,1,3,0,1,5,64,11
3,2,20,1,4,0,1,5,19,11
3,2,4,0,5,1,1,5,19,11
3,2,13,1,6,1,1,5,64,11
3,2,11,1,0,0,1,5,64,11
3,2,17,1,1,0,1,5,120,11
3,2,12,1,2,0,1,5,82,11
4,2,12,1,3,0,2,5,85,11
4,2,20,1,4,0,2,5,85,11
4,2,15,1,5,1,2,5,85,11
4,2,0,0,5,1,2,5,39,9
4,2,22,0,6,1,2,5,71,9
4,2,16,1,6,1,2,5,64,11
4,2,3,0,0,0,2,5,85,11
4,2,11,1,0,0,2,5,17,11
4,2,20,1,1,0,2,5,39,8
4,2,20,1,1,0,2,5,64,11
4,2,4,0,3,0,2,5,85,11
4,2,1,0,3,0,2,5,85,11
4,2,9,1,3,0,2,5,64,11
4,2,4,0,4,0,2,5,85,11
4,2,22,0,4,0,2,5,120,11
4,2,14,1,4,0,2,5,7,9
4,2,13,1,4,0,2,5,19,11
4,2,23,0,5,1,2,5,85,11
4,2,3,0,5,1,2,5,96,11
4,2,2,0,6,1,2,5,85,11
4,2,3,0,6,1,2,5,85,11
4,2,16,1,6,1,2,5,64,11
4,2,17,1,0,0,2,5,19,11
4,2,5,0,2,0,2,5,64,11
4,2,22,0,2,0,2,5,22,8
4,2,17,1,2,0,2,5,7,11
4,2,0,0,4,0,2,5,96,11
4,2,23,0,4,0,2,5,96,11
4,2,18,1,4,0,2,5,64,11
4,2,23,0,5,1,2,5,64,11
4,2,22,0,6,1,2,5,85,11
4,2,6,0,6,1,2,5,71,11
4,2,5,0,0,0,2,5,96,11
4,2,0,0,1,0,2,5,85,11
4,2,14,1,1,0,2,5,64,11
4,2,0,0,2,0,2,5,85,11
4,2,19,1,3,0,2,5,64,9
4,2,10,1,3,0,2,5,87,11
4,2,15,1,3,0,2,5,7,11
4,2,23,0,4,0,2,5,85,11
4,2,13,1,4,0,2,5,39,11
4,2,15,1,4,0,2,5,87,11
4,2,16,1,4,0,2,5,64,11
4,2,6,0,5,1,2,5,7,9
4,2,8,1,5,1,2,5,7,11
4,2,11,1,6,1,2,5,87,11
4,2,8,1,6,1,2,5,7,11
4,2,18,1,6,1,2,5,96,11
4,2,16,1,6,1,2,5,96,11
4,2,16,1,1,0,2,5,64,11
4,2,15,1,1,0,2,5,96,11
4,2,9,1,1,0,2,5,87,11
4,2,1,0,2,0,2,5,96,11
4,2,21,0,2,0,2,5,63,11
4,2,18,1,2,0,2,5,87,11
4,2,22,0,3,0,2,5,85,11
5,2,19,1,5,1,2,5,120,11
5,2,21,0,5,1,2,5,120,11
5,2,19,1,5,1,2,5,96,11
5,2,21,0,5,1,2,5,85,11
5,2,23,0,5,1,2,5,85,11
5,2,1,0,6,1,2,5,85,11
5,2,2,0,6,1,2,5,85,11
5,2,2,0,6,1,2,5,94,11
5,2,15,1,6,1,2,5,64,11
5,2,17,1,0,0,2,5,39,11
5,2,20,1,0,0,2,5,87,11
5,2,18,1,1,0,2,5,85,11
5,2,0,0,3,0,2,5,92,11
5,2,1,0,4,0,2,5,87,11
5,2,14,1,4,0,2,5,64,11
5,2,18,1,5,1,2,5,94,11
5,2,22,0,5,1,2,5,63,11
5,2,23,0,5,1,2,5,85,11
5,2,21,0,6,1,2,5,39,11
5,2,16,1,6,1,2,5,87,11
5,2,13,1,6,1,2,5,28,11
5,2,22,0,6,1,2,5,32,11
5,2,16,1,6,1,2,5,64,11
5,2,23,0,0,0,2,5,85,11
5,2,22,0,0,0,2,5,64,11
5,2,11,1,0,0,2,5,64,11
5,2,4,0,1,0,2,5,64,9
5,2,6,0,1,0,2,5,85,11
5,2,13,1,1,0,2,5,64,9
5,2,21,0,1,0,2,5,85,11
5,2,5,0,2,0,2,5,92,11
5,2,22,0,2,0,2,5,19,11
5,2,13,1,2,0,2,5,1,11
5,2,9,1,2,0,2,5,71,11
5,2,16,1,3,0,2,5,73,11
5,2,0,0,4,0,2,5,85,11
5,2,8,1,4,0,2,5,31,11
5,2,19,1,4,0,2,5,73,11
5,2,22,0,4,0,2,5,64,11
5,2,12,1,4,0,2,5,64,11
5,2,20,1,5,1,2,5,39,11
5,2,4,0,5,1,2,5,56,11
5,2,0,0,5,1,2,5,85,11
5,2,5,0,6,1,2,5,96,11
5,2,9,1,6,1,2,5,85,11
5,2,3,0,0,0,2,5,92,11
5,2,11,1,0,0,2,5,64,11
5,2,20,1,0,0,2,5,85,11
5,2,19,1,1,0,2,5,87,11
5,2,10,1,1,0,2,5,87,11
5,2,1,0,2,0,2,5,85,11
5,2,22,0,2,0,2,5,85,11
5,2,19,1,2,0,2,5,85,11
5,2,19,1,2,0,2,5,85,11
5,2,2,0,3,0,2,5,81,9
5,2,23,0,3,0,2,5,64,11
5,2,15,1,3,0,2,5,64,11
5,2,17,1,4,0,2,5,87,11
5,2,16,1,4,0,2,5,64,11
5,2,23,0,5,1,2,5,85,11
5,2,10,1,0,0,2,5,47,9
5,2,0,0,0,0,2,5,64,11
5,2,2,0,1,0,2,5,85,11
5,2,8,1,1,0,2,5,8,11
5,2,7,1,3,0,2,5,85,11
5,2,16,1,3,0,2,5,71,11
5,2,20,1,3,0,2,5,87,11
5,2,3,0,4,0,2,5,71,11
5,2,23,0,4,0,2,5,64,11
5,2,18,1,4,0,2,5,64,11
5,2,21,0,4,0,2,5,85,11
5,2,8,1,5,1,2,5,64,9
5,2,12,1,0,0,2,5,81,11
6,3,21,0,1,0,2,5,7,11
6,3,22,0,1,0,2,5,96,11
6,3,20,1,2,0,2,5,87,11
6,3,18,1,3,0,2,5,7,11
6,3,23,0,4,0,2,5,39,11
6,3,19,1,5,1,2,5,64,9
6,3,5,0,5,1,2,5,85,11
6,3,1,0,5,1,2,5,85,11
6,3,4,0,5,1,2,5,64,11
6,3,23,0,6,1,2,5,87,11
6,3,16,1,6,1,2,5,85,11
6,3,14,1,6,1,2,5,85,11
6,3,0,0,6,1,2,5,85,11
6,3,21,0,0,0,2,5,64,11
6,3,15,1,0,0,2,5,64,11
6,3,23,0,1,0,2,5,54,11
6,3,16,1,1,0,2,5,64,11
6,3,14,1,1,0,2,5,56,11
6,3,10,1,2,0,2,5,56,11
6,3,13,1,4,0,2,5,64,11
6,3,20,1,5,1,2,5,85,11
6,3,6,0,5,1,2,5,85,11
6,3,23,0,6,1,2,5,92,11
6,3,9,1,6,1,2,5,56,11
6,3,17,1,6,1,2,5,85,11
6,3,15,1,6,1,2,5,85,9
6,3,4,0,1,0,2,5,85,11
6,3,3,0,2,0,2,5,85,11
6,3,9,1,2,0,2,5,56,11
6,3,22,0,2,0,2,5,92,11
6,3,21,0,3,0,2,5,87,11
6,3,12,1,3,0,2,5,87,11
6,3,3,0,4,0,2,5,120,11
6,3,6,0,4,0,2,5,87,9
6,3,21,0,4,0,2,5,118,11
6,3,0,0,3,0,2,5,118,11
6,3,13,1,3,0,2,5,64,11
6,3,21,0,3,0,2,5,85,11
6,3,21,0,3,0,2,5,85,11
6,3,13,1,3,0,2,5,85,11
6,3,11,1,4,0,2,5,64,11
6,3,12,1,4,0,2,5,64,11
6,3,12,1,4,0,2,5,64,11
6,3,22,0,4,0,2,5,64,11
6,3,22,0,5,1,2,5,96,11
6,3,1,0,5,1,2,5,96,11
6,3,5,0,5,1,2,5,85,11
6,3,3,0,0,0,2,5,64,11
6,3,0,0,0,0,2,5,85,11
6,3,21,0,0,0,2,5,87,11
6,3,17,1,1,0,2,5,64,8
7,3,3,0,3,0,3,5,85,11
7,3,11,1,3,0,3,5,64,11
7,3,15,1,3,0,3,5,85,11
7,3,22,0,3,0,3,5,85,11
7,3,2,0,4,0,3,5,87,11
7,3,18,1,4,0,3,5,85,11
7,3,21,0,6,1,3,5,47,11
7,3,8,1,1,0,3,5,64,11
7,3,2,0,2,0,3,5,93,11
7,3,2,0,2,0,3,5,64,11
7,3,11,1,2,0,3,5,56,11
7,3,5,0,3,0,3,5,96,11
7,3,19,1,3,0,3,5,96,11
7,3,23,0,3,0,3,5,87,11
7,3,17,1,3,0,3,5,87,9
7,3,6,0,3,0,3,5,71,11
7,3,18,1,4,0,3,5,85,11
7,3,5,0,4,0,3,5,85,11
7,3,16,1,5,1,3,5,96,11
7,3,20,1,6,1,3,5,87,11
7,3,13,1,6,1,3,5,96,11
7,3,3,0,6,1,3,5,56,11
7,3,18,1,0,0,3,5,85,11
7,3,0,0,1,0,3,5,64,11
7,3,14,1,1,0,3,5,96,11
7,3,23,0,1,0,3,5,85,11
7,3,17,1,2,0,3,5,120,11
7,3,19,1,3,0,3,5,73,11
7,3,20,1,3,0,3,5,7,11
7,3,8,1,4,0,3,5,85,11
7,3,10,1,4,0,3,5,64,11
7,3,6,0,5,1,3,5,87,9
7,3,21,0,6,1,3,5,64,11
7,3,18,1,6,1,3,5,84,11
7,3,1,0,6,1,3,5,7,8
7,3,19,1,0,0,3,5,120,11
7,3,15,1,2,0,3,5,87,11
7,3,4,0,2,0,3,5,111,9
7,3,17,1,3,0,3,5,64,9
7,3,21,0,3,0,3,5,85,11
7,3,14,1,3,0,3,5,19,9
7,3,6,0,4,0,3,5,85,11
7,3,3,0,4,0,3,5,85,11
7,3,5,0,5,1,3,5,120,11
7,3,17,1,6,1,3,5,85,9
7,3,20,1,6,1,3,5,120,11
7,3,18,1,6,1,3,5,64,11
7,3,15,1,6,1,3,5,64,11
7,3,2,0,0,0,3,5,120,11
7,3,2,0,0,0,3,5,85,11
7,3,4,0,0,0,3,5,85,11
7,3,17,1,0,0,3,5,64,11
7,3,19,1,1,0,3,5,87,11
7,3,12,1,1,0,3,5,85,11
7,3,21,0,1,0,3,5,92,11
7,3,16,1,2,0,3,5,85,11
7,3,0,0,3,0,3,5,85,11
7,3,16,1,3,0,3,5,85,11
7,3,11,1,3,0,3,5,20,11
7,3,15,1,4,0,3,5,64,11
7,3,12,1,4,0,3,5,19,11
7,3,10,1,4,0,3,5,87,11
7,3,5,0,5,1,3,5,120,11
8,3,19,1,6,1,3,5,64,11
8,3,19,1,6,1,3,5,87,11
8,3,5,0,6,1,3,5,64,9
8,3,14,1,0,0,3,5,85,11
8,3,5,0,0,0,3,5,64,8
8,3,5,0,0,0,3,5,64,8
8,3,3,0,1,0,3,5,19,11
8,3,10,1,2,0,3,5,64,11
8,3,5,0,3,0,3,5,120,11
8,3,5,0,3,0,3,5,120,11
8,3,20,1,3,0,3,5,85,11
8,3,19,1,3,0,3,5,64,11
8,3,5,0,5,1,3,5,19,11
8,3,19,1,5,1,3,5,64,11
8,3,13,1,6,1,3,5,64,11
8,3,13,1,0,0,3,5,64,9
8,3,12,1,1,0,3,5,87,11
8,3,23,0,3,0,3,5,87,11
8,3,10,1,3,0,3,5,71,11
8,3,9,1,3,0,3,5,64,11
8,3,12,1,3,0,3,5,87,11
8,3,8,1,4,0,3,5,64,11
8,3,8,1,6,1,3,5,96,11
8,3,15,1,6,1,3,5,87,11
8,3,9,1,6,1,3,5,56,9
8,3,19,1,6,1,3,5,64,11
8,3,1,0,0,0,3,5,71,11
8,3,9,1,1,0,3,5,87,11
8,3,0,0,2,0,3,5,87,11
8,3,17,1,2,0,3,5,120,11
8,3,0,0,3,0,3,5,64,11
8,3,2,0,4,0,3,5,85,11
8,3,17,1,4,0,3,5,64,11
8,3,22,0,4,0,3,5,64,11
8,3,5,0,4,0,3,5,87,9
8,3,14,1,5,1,3,5,19,11
8,3,14,1,6,1,3,5,87,11
8,3,19,1,0,0,3,5,120,11
8,3,1,0,2,0,3,5,76,11
8,3,15,1,2,0,3,5,71,11
8,3,3,0,3,0,3,5,87,8
8,3,6,0,5,1,3,5,64,11
8,3,23,0,6,1,3,5,64,9
8,3,11,1,6,1,3,5,64,11
8,3,3,0,0,0,3,5,120,11
8,3,17,1,1,0,3,5,96,11
8,3,18,1,1,0,3,5,87,8
9,4,14,1,2,0,3,5,85,11
9,4,1,0,3,0,3,5,87,11
9,4,20,1,3,0,3,5,64,11
9,4,12,1,3,0,3,5,30,9
9,4,19,1,4,0,3,5,19,8
9,4,6,0,5,1,3,5,87,8
9,4,14,1,5,1,3,5,7,11
9,4,21,0,6,1,3,5,87,11
9,4,18,1,6,1,3,5,85,11
9,4,0,0,0,0,3,5,87,9
9,4,2,0,0,0,3,5,64,9
9,4,16,1,0,0,3,5,64,9
9,4,12,1,0,0,3,5,87,9
9,4,11,1,1,0,3,5,85,11
9,4,22,0,1,0,3,5,71,11
9,4,20,1,3,0,3,5,87,11
9,4,15,1,3,0,3,5,87,9
9,4,3,0,5,1,3,5,85,11
9,4,1,0,5,1,3,5,87,11
9,4,20,1,6,1,3,5,87,11
9,4,19,1,6,1,3,5,39,9
9,4,18,1,6,1,3,5,86,11
9,4,5,0,6,1,3,5,64,11
9,4,22,0,0,0,3,5,29,11
9,4,12,1,0,0,3,5,85,11
9,4,1,0,3,0,3,5,87,11
9,4,4,0,4,0,3,5,85,11
9,4,5,0,4,0,3,5,73,11
9,4,12,1,4,0,3,5,64,9
9,4,6,0,5,1,3,5,87,11
9,4,20,1,6,1,3,5,85,11
9,4,8,1,6,1,3,5,87,11
9,4,5,0,0,0,3,5,92,11
9,4,20,1,1,0,3,5,96,11
9,4,22,0,1,0,3,5,120,11
9,4,15,1,2,0,3,5,64,11
9,4,22,0,3,0,3,5,64,9
9,4,18,1,3,0,3,5,64,11
9,4,5,0,4,0,3,5,87,11
9,4,2,0,4,0,3,5,87,11
9,4,21,0,4,0,3,5,7,11
9,4,7,1,4,0,3,5,64,11
9,4,18,1,4,0,3,5,7,11
9,4,13,1,5,1,3,5,64,11
9,4,21,0,6,1,3,5,87,11
9,4,3,0,6,1,3,5,85,11
9,4,16,1,0,0,3,5,120,11
9,4,8,1,0,0,3,5,92,11
9,4,15,1,1,0,3,5,87,11
9,4,4,0,2,0,3,5,64,11
9,4,1,0,3,0,3,5,92,11
9,4,22,0,3,0,3,5,64,11
9,4,12,1,3,0,3,5,64,11
10,4,3,0,4,0,4,5,110,11
10,4,23,0,4,0,4,5,73,11
10,4,19,1,5,1,4,5,87,11
10,4,17,1,6,1,4,5,85,11
10,4,2,0,6,1,4,5,7,11
10,4,7,1,0,0,4,5,92,11
10,4,11,1,2,0,4,5,73,11
10,4,19,1,2,0,4,5,120,11
10,4,20,1,2,0,4,5,87,9
10,4,3,0,4,0,4,5,120,11
10,4,3,0,4,0,4,5,120,11
10,4,3,0,4,0,4,5,120,11
10,4,3,0,4,0,4,5,85,11
10,4,22,0,5,1,4,5,87,11
10,4,8,1,6,1,4,5,64,11
10,4,1,0,6,1,4,5,71,8
10,4,4,0,0,0,4,5,85,11
10,4,13,1,1,0,4,5,96,11
10,4,18,1,4,0,4,5,96,11
10,4,17,1,5,1,4,5,92,11
10,4,16,1,5,1,4,5,94,11
10,4,9,1,5,1,4,5,64,8
10,4,0,0,6,1,4,5,85,11
10,4,15,1,6,1,4,5,73,11
10,4,18,1,6,1,4,5,64,11
10,4,19,1,0,0,4,5,64,11
10,4,20,1,0,0,4,5,7,11
10,4,20,1,0,0,4,5,50,11
10,4,8,1,0,0,4,5,96,11
10,4,15,1,1,0,4,5,87,11
10,4,12,1,2,0,4,5,96,11
10,4,19,1,3,0,4,5,19,11
10,4,2,0,3,0,4,5,7,11
10,4,10,1,2,0,4,5,85,11
10,4,20,1,3,0,4,5,85,11
10,4,18,1,3,0,4,5,64,11
10,4,19,1,3,0,4,5,85,11
10,4,2,0,4,0,4,5,85,11
10,4,1,0,4,0,4,5,64,9
10,4,21,0,4,0,4,5,7,11
10,4,21,0,5,1,4,5,120,11
10,4,22,0,5,1,4,5,120,11
10,4,18,1,5,1,4,5,64,11
10,4,15,1,5,1,4,5,39,11
10,4,21,0,5,1,4,5,120,11
10,4,0,0,6,1,4,5,120,11
10,4,0,0,6,1,4,5,120,11
10,4,0,0,6,1,4,5,120,11
10,4,0,0,6,1,4,5,120,11
11,4,0,0,0,0,4,5,96,11
11,4,18,1,1,0,4,5,64,11
11,4,16,1,1,0,4,5,39,11
11,4,9,1,1,0,4,5,73,8
11,4,19,1,2,0,4,5,71,11
11,4,17,1,2,0,4,5,74,11
11,4,6,0,3,0,4,5,71,11
11,4,20,1,4,0,4,5,64,11
11,4,10,1,4,0,4,5,87,11
11,4,17,1,5,1,4,5,85,11
11,4,13,1,5,1,4,5,85,11
11,4,22,0,6,1,4,5,85,11
11,4,2,0,6,1,4,5,85,11
11,4,9,1,1,0,4,5,87,11
11,4,11,1,2,0,4,5,64,9
11,4,20,1,3,0,4,5,87,11
11,4,23,0,3,0,4,5,73,11
11,4,6,0,4,0,4,5,39,11
11,4,17,1,4,0,4,5,85,11
11,4,18,1,5,1,4,5,75,11
11,4,3,0,3,0,4,5,85,11
11,4,19,1,5,1,4,5,85,11
11,4,0,0,5,1,4,5,96,11
11,4,19,1,6,1,4,5,64,11
11,4,19,1,6,1,4,5,85,11
11,4,9,1,1,0,4,5,85,11
11,4,20,1,4,0,4,5,96,11
11,4,21,0,4,0,4,5,22,11
11,4,12,1,6,1,4,5,87,11
11,4,12,1,1,0,4,5,64,11
11,4,23,0,1,0,4,5,73,11
11,4,17,1,1,0,4,5,81,11
12,1,6,0,2,0,4,5,64,11
12,1,10,1,2,0,4,5,81,11
12,1,1,0,3,0,4,5,87,11
12,1,15,1,4,0,4,5,7,11
12,1,17,1,4,0,4,5,19,11
12,1,13,1,5,1,4,5,64,11
12,1,12,1,5,1,4,5,39,11
12,1,4,0,6,1,4,5,56,8
12,1,1,0,0,0,4,5,120,11
12,1,12,1,0,0,4,5,85,11
12,1,18,1,0,0,4,5,39,11
12,1,23,0,0,0,4,5,96,11
12,1,0,0,2,0,4,5,96,11
12,1,0,0,2,0,4,5,96,11
12,1,15,1,2,0,4,5,73,11
12,1,20,1,4,0,4,5,64,11
12,1,16,1,4,0,4,5,85,11
12,1,10,1,0,0,4,5,30,11
12,1,8,1,2,0,4,5,98,9
12,1,14,1,2,0,4,5,81,11
12,1,21,0,4,0,4,5,120,11
12,1,10,1,4,0,4,5,120,11
12,1,8,1,4,0,4,5,19,11
12,1,1,0,5,1,4,5,64,8
12,1,17,1,5,1,4,5,39,11
12,1,20,1,5,1,4,5,56,11
12,1,19,1,5,1,4,5,64,9
12,1,18,1,1,0,4,5,64,11
12,1,16,1,2,0,4,5,64,11
12,1,14,1,2,0,4,5,87,11
12,1,6,0,3,0,4,5,120,11
12,1,5,0,3,0,4,5,120,11
12,1,1,0,4,0,4,5,120,11
12,1,4,0,5,1,4,5,64,11
12,1,16,1,6,1,4,5,64,11
12,1,12,1,6,1,4,5,64,11
12,1,9,1,6,1,4,5,64,8
12,1,18,1,0,0,4,5,73,11
12,1,11,1,0,0,4,5,39,11
12,1,1,0,1,0,4,5,96,11
12,1,16,1,1,0,4,5,13,11
12,1,12,1,1,0,4,5,85,11
12,1,23,0,1,0,4,5,85,11
12,1,18,1,3,0,4,5,85,11
12,1,14,1,3,0,4,5,19,11
12,1,15,1,4,0,4,5,85,11
12,1,19,1,4,0,4,5,64,8
1,1,10,1,4,0,1,5,85,11
1,1,22,0,4,0,1,5,85,11
1,1,7,1,0,0,1,5,96,11
1,1,15,1,5,1,1,5,64,11
1,1,18,1,6,1,1,5,85,11
1,1,16,1,1,0,1,5,85,11
1,1,6,0,4,0,1,5,85,11
1,1,19,1,6,1,1,5,85,11
1,1,2,0,0,0,1,5,85,11
1,1,8,1,2,0,1,5,120,11
1,1,21,0,2,0,1,5,64,11
1,1,19,1,4,0,1,5,64,11
1,1,21,0,5,1,1,5,64,11
1,1,22,0,5,1,1,5,64,11
1,1,17,1,6,1,1,5,64,11
2,1,4,0,6,1,1,5,110,11
2,1,4,0,0,0,1,5,76,11
2,1,20,1,1,0,1,5,85,11
2,1,13,1,5,1,1,5,120,11
2,1,16,1,6,1,1,5,64,11
2,1,17,1,0,0,1,5,64,11
2,1,15,1,1,0,1,5,85,11
2,1,22,0,2,0,1,5,85,11
2,1,2,0,3,0,1,5,5,11
2,1,10,1,4,0,1,5,85,11
2,1,5,0,6,1,1,5,101,11
2,1,13,1,6,1,1,5,64,11
2,1,14,1,0,0,1,5,64,11
2,1,12,1,3,0,1,5,64,11
2,1,21,0,6,1,1,5,64,11
3,2,18,1,1,0,1,5,64,11
3,2,10,1,2,0,1,5,19,11
3,2,19,1,2,0,1,5,64,11
3,2,13,1,6,1,1,5,64,11
3,2,5,0,6,1,1,5,29,11
3,2,23,0,0,0,1,5,85,11
3,2,21,0,1,0,1,5,64,11
3,2,2,0,4,0,1,5,19,11
3,2,2,0,4,0,1,5,85,11
3,2,20,1,2,0,1,5,85,11
3,2,20,1,6,1,1,5,85,11
3,2,14,1,1,0,1,5,64,11
3,2,20,1,4,0,1,5,85,11
3,2,22,0,4,0,1,5,85,11
3,2,22,0,4,0,1,5,85,11
3,2,11,1,4,0,1,5,85,11
3,2,10,1,5,1,1,5,47,11
3,2,2,0,6,1,1,5,85,11
3,2,2,0,6,1,1,5,85,11
3,2,14,1,6,1,1,5,85,11
3,2,16,1,0,0,1,5,19,11
3,2,23,0,2,0,1,5,8,11
4,2,0,0,4,0,2,5,64,11
4,2,0,0,4,0,2,5,85,11
4,2,23,0,5,1,2,5,85,11
4,2,12,1,6,1,2,5,85,11
4,2,14,1,1,0,2,5,64,11
4,2,12,1,4,0,2,5,85,11
4,2,12,1,4,0,2,5,85,11
4,2,15,1,5,1,2,5,85,11
4,2,0,0,6,1,2,5,64,11
4,2,10,1,0,0,2,5,63,11
4,2,12,1,1,0,2,5,64,11
4,2,23,0,2,0,2,5,85,11
4,2,9,1,4,0,2,5,64,11
4,2,9,1,1,0,2,5,73,11
4,2,2,0,2,0,2,5,85,11
4,2,5,0,2,0,2,5,8,11
4,2,17,1,3,0,2,5,39,11
4,2,9,1,4,0,2,5,85,11
4,2,12,1,4,0,2,5,64,11
4,2,16,1,5,1,2,5,85,11
4,2,16,1,1,0,2,5,64,11
4,2,19,1,2,0,2,5,85,11
4,2,1,0,2,0,2,5,64,11
4,2,0,0,4,0,2,5,85,11
5,2,20,1,6,1,2,5,64,11
5,2,23,0,6,1,2,5,64,11
5,2,14,1,0,0,2,5,64,11
5,2,19,1,1,0,2,5,85,11
5,2,15,1,1,0,2,5,64,11
5,2,15,1,2,0,2,5,64,11
5,2,20,1,3,0,2,5,64,11
5,2,18,1,5,1,2,5,85,11
5,2,2,0,6,1,2,5,85,11
5,2,19,1,4,0,2,5,87,11
5,2,9,1,4,0,2,5,19,11
5,2,22,0,6,1,2,5,85,11
5,2,14,1,6,1,2,5,19,11
5,2,1,0,6,1,2,5,85,11
5,2,17,1,1,0,2,5,64,11
5,2,12,1,1,0,2,5,47,11
5,2,19,1,5,1,2,5,85,11
5,2,15,1,0,0,2,5,64,11
5,2,14,1,1,0,2,5,85,11
5,2,10,1,1,0,2,5,85,11
5,2,17,1,1,0,2,5,85,11
5,2,8,1,2,0,2,5,85,11
5,2,0,0,5,1,2,5,64,11
5,2,3,0,6,1,2,5,85,11
5,2,13,1,0,0,2,5,64,11
6,3,14,1,1,0,2,5,19,11
6,3,20,1,3,0,2,5,64,11
6,3,14,1,5,1,2,5,87,11
6,3,21,0,5,1,2,5,85,11
6,3,13,1,6,1,2,5,74,11
6,3,21,0,6,1,2,5,86,11
6,3,18,1,0,0,2,5,19,11
6,3,17,1,0,0,2,5,64,11
6,3,12,1,2,0,2,5,64,11
6,3,17,1,1,0,2,5,64,11
6,3,18,1,2,0,2,5,85,11
6,3,12,1,2,0,2,5,64,11
6,3,21,0,2,0,2,5,47,11
6,3,22,0,2,0,2,5,64,11
6,3,3,0,2,0,2,5,19,11
6,3,1,0,3,0,2,5,85,11
6,3,22,0,4,0,2,5,63,11
6,3,16,1,4,0,2,5,64,11
6,3,2,0,5,1,2,5,19,11
6,3,15,1,6,1,2,5,85,11
6,3,2,0,0,0,2,5,85,11
6,3,7,1,0,0,2,5,31,11
6,3,12,1,0,0,2,5,99,11
6,3,17,1,1,0,2,5,64,11
6,3,4,0,2,0,2,5,64,11
7,3,17,1,3,0,3,5,64,11
7,3,13,1,6,1,3,5,87,11
7,3,10,1,0,0,3,5,19,11
7,3,12,1,0,0,3,5,74,11
7,3,20,1,0,0,3,5,85,11
7,3,22,0,0,0,3,5,8,11
7,3,0,0,3,0,3,5,8,11
7,3,19,1,3,0,3,5,87,11
7,3,11,1,4,0,3,5,19,11
7,3,5,0,4,0,3,5,85,11
7,3,10,1,5,1,3,5,85,11
7,3,21,0,6,1,3,5,63,11
7,3,23,0,6,1,3,5,87,9
7,3,15,1,6,1,3,5,87,9
7,3,14,1,6,1,3,5,85,11
7,3,15,1,0,0,3,5,64,11
7,3,17,1,0,0,3,5,64,11
7,3,9,1,2,0,3,5,29,11
7,3,12,1,3,0,3,5,87,11
7,3,17,1,4,0,3,5,19,11
7,3,9,1,5,1,3,5,80,11
7,3,15,1,6,1,3,5,87,11
7,3,9,1,3,0,3,5,39,11
7,3,23,0,3,0,3,5,85,11
7,3,3,0,5,1,3,5,19,11
7,3,23,0,6,1,3,5,64,11
7,3,15,1,2,0,3,5,85,11
7,3,4,0,2,0,3,5,8,11
7,3,16,1,3,0,3,5,92,11
7,3,21,0,3,0,3,5,87,11
7,3,5,0,4,0,3,5,85,11
7,3,12,1,5,1,3,5,87,11
8,3,21,0,6,1,3,5,92,11
8,3,7,1,6,1,3,5,85,11
8,3,23,0,4,0,3,5,64,11
8,3,14,1,4,0,3,5,19,11
8,3,6,0,1,0,3,5,47,11
8,3,19,1,1,0,3,5,71,11
8,3,20,1,5,1,3,5,80,11
8,3,21,0,0,0,3,5,64,11
8,3,1,0,0,0,3,5,85,11
8,3,21,0,4,0,3,5,85,11
8,3,1,0,0,0,3,5,64,11
8,3,5,0,1,0,3,5,85,11
8,3,19,1,1,0,3,5,64,11
8,3,22,0,2,0,3,5,85,11
8,3,12,1,5,1,3,5,64,11
8,3,19,1,5,1,3,5,85,11
9,4,13,1,2,0,3,5,85,11
9,4,10,1,6,1,3,5,64,11
9,4,19,1,6,1,3,5,64,11
9,4,13,1,2,0,3,5,85,11
9,4,5,0,3,0,3,5,64,11
9,4,1,0,5,1,3,5,64,11
9,4,3,0,5,1,3,5,92,11
9,4,3,0,0,0,3,5,64,11
9,4,14,1,0,0,3,5,64,11
9,4,19,1,1,0,3,5,64,11
9,4,18,1,2,0,3,5,85,11
9,4,14,1,3,0,3,5,64,11
9,4,14,1,4,0,3,5,85,11
9,4,20,1,0,0,3,5,63,11
9,4,9,1,2,0,3,5,64,11
9,4,19,1,5,1,3,5,1,11
9,4,12,1,5,1,3,5,64,11
9,4,4,0,5,1,3,5,64,11
9,4,20,1,1,0,3,5,63,11
10,4,8,1,5,1,4,5,64,11
10,4,22,0,0,0,4,5,96,11
10,4,1,0,0,0,4,5,85,11
10,4,1,0,2,0,4,5,85,11
10,4,11,1,4,0,4,5,64,11
10,4,12,1,6,1,4,5,64,11
10,4,5,0,0,0,4,5,19,11
10,4,9,1,1,0,4,5,19,11
10,4,20,1,3,0,4,5,64,11
10,4,0,0,5,1,4,5,19,11
10,4,20,1,0,0,4,5,64,11
10,4,18,1,1,0,4,5,19,11
10,4,15,1,4,0,4,5,6,11
10,4,11,1,4,0,4,5,64,11
10,4,21,0,5,1,4,5,19,11
11,4,19,1,0,0,4,5,85,11
11,4,18,1,0,0,4,5,85,11
11,4,17,1,0,0,4,5,64,11
11,4,5,0,6,1,4,5,85,11
11,4,16,1,1,0,4,5,85,11
11,4,4,0,6,1,4,5,34,11
11,4,9,1,1,0,4,5,1,11
11,4,12,1,0,0,4,5,71,11
11,4,23,0,0,0,4,5,92,11
11,4,2,0,1,0,4,5,64,11
11,4,10,1,0,0,4,5,56,11
12,1,11,1,4,0,4,5,85,11
12,1,17,1,2,0,4,5,85,11
12,1,15,1,3,0,4,5,64,11
12,1,3,0,5,1,4,5,19,11
12,1,14,1,0,0,4,5,92,11
12,1,19,1,2,0,4,5,85,11
12,1,10,1,3,0,4,5,64,11
12,1,21,0,3,0,4,5,64,11
12,1,16,1,1,0,4,5,64,11
12,1,20,1,1,0,4,5,63,11
12,1,9,1,2,0,4,5,64,11
12,1,16,1,3,0,4,5,1,11
12,1,16,1,3,0,4,5,56,11
12,1,5,0,4,0,4,5,85,11
12,1,15,1,0,0,4,5,85,11
1,1,19,1,3,0,1,5,73,11
2,1,17,1,2,0,1,5,19,11
2,1,18,1,4,0,1,5,87,11
3,2,11,1,2,0,1,5,1,11
3,2,13,1,5,1,1,5,1,11
3,2,17,1,4,0,1,5,85,11
3,2,11,1,2,0,1,5,64,11
4,2,19,1,0,0,2,5,64,11
4,2,17,1,2,0,2,5,86,11
4,2,13,1,1,0,2,5,1,11
4,2,23,0,3,0,2,5,85,11
4,2,15,1,3,0,2,5,64,11
5,2,9,1,6,1,2,5,87,11
5,2,7,1,6,1,2,5,87,11
6,3,13,1,6,1,2,5,85,11
6,3,18,1,5,1,2,5,85,11
7,3,21,0,5,1,3,5,64,11
9,4,19,1,5,1,3,5,64,9
9,4,22,0,5,1,3,5,87,11
9,4,17,1,6,1,3,5,64,11
10,4,12,1,6,1,4,5,73,11
11,4,17,1,0,0,4,5,64,11
11,4,16,1,2,0,4,5,73,9
12,1,10,1,4,0,4,5,39,11
12,1,23,0,5,1,4,5,73,11
12,1,15,1,6,1,4,5,120,11
12,1,16,1,1,0,4,5,120,11
12,1,13,1,5,1,4,5,120,11
1,1,1,0,4,0,1,5,92,11
1,1,3,0,4,0,1,5,92,11
1,1,17,1,6,1,1,5,92,11
1,1,17,1,6,1,1,5,92,11
1,1,20,1,2,0,1,5,92,11
1,1,17,1,2,0,1,5,120,11
1,1,11,1,4,0,1,5,70,11
1,1,12,1,5,1,1,5,64,11
1,1,18,1,3,0,1,5,120,11
1,1,11,1,5,1,1,5,64,11
1,1,23,0,6,1,1,5,73,11
1,1,16,1,3,0,1,5,64,11
1,1,1,0,6,1,1,5,71,11
1,1,18,1,1,0,1,5,120,11
1,1,17,1,4,0,1,5,119,11
1,1,18,1,4,0,1,5,120,11
1,1,11,1,5,1,1,5,92,11
2,1,17,1,1,0,1,5,102,11
2,1,21,0,2,0,1,5,13,11
2,1,21,0,0,0,1,5,64,11
2,1,13,1,0,0,1,5,19,11
2,1,5,0,4,0,1,5,92,11
2,1,21,0,5,1,1,5,64,11
2,1,14,1,1,0,1,5,104,11
2,1,7,1,3,0,1,5,64,11
3,2,21,0,0,0,1,5,64,11
3,2,23,0,2,0,1,5,47,11
3,2,19,1,0,0,1,5,64,11
3,2,0,0,3,0,1,5,71,9
3,2,20,1,3,0,1,5,92,11
3,2,14,1,5,1,1,5,120,11
3,2,23,0,1,0,1,5,71,11
3,2,16,1,2,0,1,5,64,11
3,2,14,1,3,0,1,5,39,11
3,2,15,1,6,1,1,5,92,11
4,2,23,0,5,1,2,5,71,11
4,2,20,1,3,0,2,5,92,11
4,2,18,1,3,0,2,5,64,11
4,2,10,1,0,0,2,5,92,11
4,2,8,1,0,0,2,5,64,11
4,2,13,1,3,0,2,5,64,11
4,2,21,0,4,0,2,5,64,11
5,2,0,0,6,1,2,5,64,11
5,2,19,1,6,1,2,5,64,8
5,2,19,1,0,0,2,5,41,11
5,2,8,1,0,0,2,5,64,11
5,2,21,0,1,0,2,5,92,11
5,2,18,1,1,0,2,5,19,11
5,2,11,1,5,1,2,5,64,11
5,2,23,0,0,0,2,5,64,11
5,2,17,1,0,0,2,5,64,11
5,2,11,1,1,0,2,5,64,11
5,2,22,0,2,0,2,5,92,11
5,2,10,1,4,0,2,5,64,11
5,2,7,1,4,0,2,5,64,11
5,2,8,1,6,1,2,5,64,11
5,2,23,0,0,0,2,5,64,11
5,2,12,1,2,0,2,5,71,8
5,2,13,1,2,0,2,5,64,11
5,2,9,1,4,0,2,5,64,8
5,2,1,0,6,1,2,5,71,11
6,3,9,1,2,0,2,5,19,11
6,3,3,0,2,0,2,5,92,11
6,3,19,1,2,0,2,5,64,11
6,3,14,1,0,0,2,5,47,11
6,3,22,0,4,0,2,5,71,11
6,3,18,1,6,1,2,5,7,11
6,3,6,0,0,0,2,5,92,11
6,3,9,1,5,1,2,5,92,11
6,3,2,0,1,0,2,5,64,11
6,3,18,1,2,0,2,5,47,11
6,3,20,1,2,0,2,5,85,11
6,3,11,1,3,0,2,5,92,11
6,3,22,0,2,0,2,5,85,11
7,3,20,1,4,0,3,5,64,11
7,3,9,1,0,0,3,5,64,8
7,3,17,1,1,0,3,5,64,11
7,3,15,1,2,0,3,5,29,11
7,3,23,0,2,0,3,5,71,11
7,3,21,0,5,1,3,5,64,11
7,3,19,1,2,0,3,5,64,11
7,3,16,1,2,0,3,5,85,11
7,3,8,1,3,0,3,5,64,11
7,3,23,0,6,1,3,5,56,11
7,3,9,1,3,0,3,5,76,11
7,3,21,0,5,1,3,5,85,11
7,3,17,1,6,1,3,5,71,11
7,3,22,0,0,0,3,5,85,11
7,3,22,0,5,1,3,5,64,11
8,3,12,1,3,0,3,5,85,11
8,3,0,0,5,1,3,5,64,11
8,3,11,1,6,1,3,5,64,11
8,3,7,1,4,0,3,5,64,11
8,3,13,1,4,0,3,5,64,11
8,3,15,1,5,1,3,5,85,11
8,3,10,1,3,0,3,5,85,11
8,3,16,1,4,0,3,5,64,9
8,3,14,1,4,0,3,5,64,11
8,3,11,1,1,0,3,5,85,11
8,3,5,0,1,0,3,5,81,11
9,4,2,0,2,0,3,5,85,11
9,4,12,1,4,0,3,5,85,11
9,4,20,1,4,0,3,5,71,11
9,4,1,0,1,0,3,5,64,11
9,4,18,1,2,0,3,5,71,11
9,4,4,0,3,0,3,5,85,11
9,4,12,1,3,0,3,5,64,11
9,4,1,0,4,0,3,5,85,11
9,4,22,0,4,0,3,5,85,11
9,4,1,0,1,0,3,5,85,11
9,4,2,0,3,0,3,5,64,11
9,4,12,1,6,1,3,5,64,11
9,4,13,1,1,0,3,5,64,11
9,4,16,1,3,0,3,5,64,11
9,4,18,1,3,0,3,5,85,11
10,4,14,1,0,0,4,5,47,11
10,4,15,1,3,0,4,5,64,11
10,4,17,1,3,0,4,5,64,11
10,4,23,0,4,0,4,5,85,11
10,4,11,1,5,1,4,5,85,11
10,4,9,1,6,1,4,5,71,11
10,4,4,0,3,0,4,5,71,11
10,4,16,1,6,1,4,5,64,11
10,4,10,1,1,0,4,5,71,11
10,4,10,1,1,0,4,5,85,11
10,4,11,1,1,0,4,5,85,11
10,4,12,1,1,0,4,5,85,11
10,4,13,1,4,0,4,5,64,11
11,4,19,1,0,0,4,5,31,11
11,4,14,1,0,0,4,5,85,11
11,4,13,1,5,1,4,5,64,11
11,4,20,1,2,0,4,5,64,11
11,4,6,0,0,0,4,5,71,11
11,4,3,0,2,0,4,5,85,11
11,4,18,1,6,1,4,5,64,11
11,4,14,1,6,1,4,5,64,11
11,4,13,1,0,0,4,5,64,11
11,4,3,0,0,0,4,5,64,11
11,4,10,1,4,0,4,5,85,11
11,4,0,0,6,1,4,5,64,11
12,1,21,0,2,0,4,5,85,11
12,1,14,1,2,0,4,5,71,11
12,1,15,1,5,1,4,5,64,11
12,1,13,1,5,1,4,5,64,11
12,1,15,1,5,1,4,5,64,11
12,1,11,1,1,0,4,5,92,11
12,1,22,0,2,0,4,5,64,11
12,1,11,1,2,0,4,5,85,11
12,1,20,1,1,0,4,5,64,11
12,1,13,1,2,0,4,5,64,9
12,1,19,1,4,0,4,5,85,11
12,1,10,1,5,1,4,5,85,11
12,1,22,0,5,1,4,5,92,11
12,1,18,1,6,1,4,5,85,11
12,1,20,1,4,0,4,5,85,11
1,1,22,0,6,1,1,5,87,11
1,1,0,0,0,0,1,5,71,11
1,1,2,0,1,0,1,5,120,11
1,1,20,1,4,0,1,5,120,11
1,1,17,1,4,0,1,5,71,11
1,1,16,1,6,1,1,5,87,11
1,1,6,0,6,1,1,5,71,11
1,1,4,0,0,0,1,5,92,11
1,1,23,0,1,0,1,5,71,11
1,1,6,0,1,0,1,5,13,8
1,1,21,0,2,0,1,5,64,11
1,1,21,0,2,0,1,5,64,11
1,1,21,0,3,0,1,5,120,11
1,1,19,1,4,0,1,5,71,8
1,1,20,1,4,0,1,5,120,11
1,1,12,1,5,1,1,5,120,11
1,1,19,1,6,1,1,5,120,11
1,1,12,1,1,0,1,5,87,11
1,1,22,0,1,0,1,5,120,11
1,1,19,1,2,0,1,5,71,11
1,1,20,1,2,0,1,5,22,11
1,1,21,0,4,0,1,5,120,11
1,1,18,1,5,1,1,5,117,11
1,1,17,1,5,1,1,5,87,11
1,1,19,1,1,0,1,5,87,11
1,1,19,1,3,0,1,5,96,11
1,1,22,0,5,1,1,5,120,11
2,1,16,1,0,0,1,5,87,11
2,1,20,1,0,0,1,5,39,11
2,1,18,1,3,0,1,5,120,11
2,1,16,1,3,0,1,5,96,11
2,1,4,0,4,0,1,5,19,11
2,1,1,0,6,1,1,5,19,11
2,1,8,1,6,1,1,5,96,11
2,1,15,1,2,0,1,5,71,11
2,1,18,1,5,1,1,5,19,11
2,1,19,1,5,1,1,5,39,11
2,1,4,0,5,1,1,5,19,11
2,1,17,1,5,1,1,5,96,11
2,1,22,0,0,0,1,5,22,11
2,1,20,1,0,0,1,5,73,11
2,1,6,0,1,0,1,5,39,11
2,1,22,0,1,0,1,5,96,11
2,1,18,1,4,0,1,5,45,11
2,1,12,1,4,0,1,5,96,11
2,1,11,1,4,0,1,5,39,11
2,1,20,1,5,1,1,5,73,11
2,1,18,1,5,1,1,5,73,11
2,1,13,1,0,0,1,5,73,11
2,1,17,1,0,0,1,5,71,11
2,1,1,0,1,0,1,5,71,11
2,1,11,1,2,0,1,5,19,11
2,1,10,1,4,0,1,5,96,11
2,1,23,0,6,1,1,5,19,11
3,2,13,1,1,0,1,5,87,11
3,2,16,1,2,0,1,5,96,11
3,2,11,1,2,0,1,5,19,11
3,2,23,0,2,0,1,5,96,11
3,2,19,1,3,0,1,5,87,11
3,2,23,0,3,0,1,5,120,11
3,2,18,1,5,1,1,5,96,11
3,2,22,0,5,1,1,5,96,11
3,2,22,0,5,1,1,5,71,11
3,2,19,1,6,1,1,5,73,11
3,2,17,1,6,1,1,5,73,11
3,2,19,1,2,0,1,5,73,11
3,2,3,0,3,0,1,5,120,11
3,2,6,0,5,1,1,5,71,11
3,2,13,1,6,1,1,5,55,11
3,2,18,1,0,0,1,5,96,11
3,2,19,1,1,0,1,5,120,11
3,2,20,1,2,0,1,5,87,11
3,2,11,1,3,0,1,5,96,11
3,2,22,0,3,0,1,5,73,11
3,2,17,1,4,0,1,5,87,11
3,2,20,1,4,0,1,5,87,11
3,2,16,1,6,1,1,5,73,11
3,2,21,0,6,1,1,5,39,11
3,2,15,1,0,0,1,5,96,11
3,2,18,1,1,0,1,5,64,11
3,2,19,1,3,0,1,5,87,11
3,2,18,1,6,1,1,5,96,11
3,2,19,1,0,0,1,5,87,11
3,2,16,1,0,0,1,5,87,11
3,2,14,1,0,0,1,5,64,11
3,2,7,1,1,0,1,5,64,11
3,2,19,1,2,0,1,5,45,11
4,2,12,1,4,0,2,5,96,11
4,2,3,0,4,0,2,5,7,8
4,2,7,1,6,1,2,5,85,11
4,2,9,1,6,1,2,5,87,11
4,2,1,0,0,0,2,5,19,11
4,2,12,1,2,0,2,5,51,11
4,2,18,1,2,0,2,5,51,11
4,2,0,0,3,0,2,5,51,8
4,2,8,1,3,0,2,5,87,8
4,2,20,1,4,0,2,5,87,11
4,2,18,1,5,1,2,5,85,11
4,2,11,1,6,1,2,5,73,8
4,2,0,0,3,0,2,5,19,11
4,2,11,1,3,0,2,5,87,11
4,2,18,1,3,0,2,5,87,11
4,2,15,1,5,1,2,5,87,11
4,2,16,1,5,1,2,5,87,11
4,2,1,0,6,1,2,5,87,11
4,2,23,0,6,1,2,5,87,11
4,2,19,1,6,1,2,5,64,11
4,2,0,0,6,1,2,5,87,11
4,2,7,1,1,0,2,5,71,11
4,2,21,0,3,0,2,5,87,11
4,2,19,1,4,0,2,5,87,11
4,2,18,1,0,0,2,5,87,11
4,2,17,1,1,0,2,5,96,11
4,2,22,0,1,0,2,5,87,11
4,2,22,0,1,0,2,5,87,11
4,2,17,1,1,0,2,5,96,11
4,2,9,1,1,0,2,5,87,11
4,2,1,0,1,0,2,5,56,11
4,2,13,1,3,0,2,5,87,11
4,2,22,0,3,0,2,5,71,11
4,2,14,1,3,0,2,5,87,11
4,2,4,0,4,0,2,5,87,11
4,2,1,0,4,0,2,5,85,11
5,2,21,0,5,1,2,5,71,9
5,2,16,1,5,1,2,5,73,11
5,2,9,1,5,1,2,5,73,11
5,2,11,1,5,1,2,5,73,11
5,2,12,1,6,1,2,5,92,11
5,2,21,0,6,1,2,5,85,11
5,2,18,1,0,0,2,5,87,11
5,2,18,1,0,0,2,5,87,11
5,2,23,0,4,0,2,5,96,11
5,2,12,1,4,0,2,5,96,11
5,2,18,1,4,0,2,5,96,11
5,2,0,0,4,0,2,5,71,9
5,2,5,0,5,1,2,5,19,9
5,2,1,0,5,1,2,5,19,9
5,2,21,0,6,1,2,5,96,11
5,2,0,0,0,0,2,5,120,11
5,2,19,1,1,0,2,5,96,11
5,2,21,0,1,0,2,5,96,11
5,2,21,0,1,0,2,5,120,11
5,2,4,0,2,0,2,5,87,11
5,2,12,1,3,0,2,5,87,11
5,2,14,1,3,0,2,5,87,11
5,2,22,0,4,0,2,5,64,11
5,2,10,1,4,0,2,5,71,11
5,2,22,0,4,0,2,5,71,11
5,2,21,0,5,1,2,5,87,11
5,2,21,0,6,1,2,5,87,11
5,2,11,1,0,0,2,5,22,11
5,2,23,0,1,0,2,5,87,11
5,2,10,1,3,0,2,5,96,11
5,2,2,0,4,0,2,5,87,11
5,2,23,0,4,0,2,5,96,11
5,2,12,1,4,0,2,5,87,11
5,2,8,1,4,0,2,5,87,11
5,2,16,1,5,1,2,5,73,11
5,2,12,1,5,1,2,5,96,11
5,2,1,0,6,1,2,5,96,11
5,2,9,1,6,1,2,5,87,11
5,2,8,1,0,0,2,5,87,11
5,2,14,1,2,0,2,5,96,11
5,2,10,1,3,0,2,5,87,11
5,2,10,1,3,0,2,5,87,11
5,2,22,0,6,1,2,5,96,11
5,2,23,0,6,1,2,5,87,11
5,2,12,1,6,1,2,5,87,11
5,2,18,1,6,1,2,5,87,11
5,2,9,1,6,1,2,5,87,11
5,2,7,1,6,1,2,5,87,11
5,2,7,1,0,0,2,5,87,11
5,2,9,1,0,0,2,5,96,11
5,2,3,0,0,0,2,5,87,11
5,2,17,1,0,0,2,5,92,11
6,3,14,1,1,0,2,5,96,11
6,3,16,1,1,0,2,5,87,11
6,3,14,1,2,0,2,5,87,11
6,3,17,1,2,0,2,5,87,11
6,3,2,0,3,0,2,5,87,11
6,3,4,0,6,1,2,5,85,11
6,3,20,1,6,1,2,5,87,11
6,3,21,0,0,0,2,5,96,11
6,3,20,1,0,0,2,5,96,11
6,3,15,1,0,0,2,5,96,11
6,3,14,1,0,0,2,5,87,11
6,3,17,1,1,0,2,5,87,9
6,3,23,0,2,0,2,5,39,11
6,3,6,0,3,0,2,5,85,11
6,3,14,1,4,0,2,5,87,11
6,3,21,0,1,0,2,5,87,11
6,3,21,0,6,1,2,5,87,11
6,3,0,0,0,0,2,5,87,11
6,3,17,1,0,0,2,5,96,9
6,3,6,0,3,0,2,5,96,11
6,3,17,1,6,1,2,5,47,11
6,3,10,1,0,0,2,5,87,11
6,3,13,1,0,0,2,5,85,11
6,3,21,0,0,0,2,5,85,11
6,3,22,0,1,0,2,5,87,11
6,3,20,1,2,0,2,5,71,11
7,3,10,1,3,0,3,5,87,11
7,3,3,0,4,0,3,5,71,11
7,3,23,0,1,0,3,5,87,11
7,3,22,0,3,0,3,5,22,11
7,3,5,0,3,0,3,5,19,11
7,3,12,1,4,0,3,5,96,11
7,3,17,1,5,1,3,5,96,11
7,3,8,1,5,1,3,5,96,11
7,3,21,0,5,1,3,5,96,11
7,3,19,1,6,1,3,5,87,11
7,3,16,1,6,1,3,5,87,11
7,3,18,1,0,0,3,5,87,11
7,3,14,1,1,0,3,5,87,11
7,3,21,0,1,0,3,5,87,11
7,3,15,1,2,0,3,5,87,11
7,3,17,1,2,0,3,5,87,11
7,3,16,1,5,1,3,5,87,11
7,3,14,1,5,1,3,5,87,11
7,3,19,1,5,1,3,5,87,11
7,3,18,1,0,0,3,5,96,11
7,3,23,0,1,0,3,5,87,11
7,3,20,1,1,0,3,5,87,11
7,3,21,0,1,0,3,5,87,11
7,3,22,0,2,0,3,5,87,11
7,3,0,0,2,0,3,5,87,11
7,3,0,0,3,0,3,5,87,11
7,3,10,1,0,0,3,5,87,11
7,3,16,1,1,0,3,5,87,11
7,3,0,0,1,0,3,5,87,11
7,3,2,0,1,0,3,5,71,11
7,3,11,1,2,0,3,5,96,11
7,3,10,1,2,0,3,5,96,11
7,3,21,0,2,0,3,5,96,11
7,3,21,0,3,0,3,5,87,9
7,3,7,1,5,1,3,5,87,11
8,3,13,1,6,1,3,5,87,8
8,3,19,1,6,1,3,5,87,11
8,3,3,0,0,0,3,5,71,11
8,3,13,1,0,0,3,5,64,11
8,3,23,0,3,0,3,5,87,11
8,3,15,1,5,1,3,5,87,11
8,3,8,1,5,1,3,5,64,8
8,3,21,0,6,1,3,5,87,11
8,3,19,1,0,0,3,5,87,11
8,3,0,0,1,0,3,5,96,11
8,3,19,1,2,0,3,5,87,11
8,3,17,1,2,0,3,5,96,11
8,3,18,1,2,0,3,5,96,11
8,3,20,1,3,0,3,5,64,11
8,3,2,0,4,0,3,5,87,11
8,3,3,0,5,1,3,5,71,11
8,3,3,0,5,1,3,5,71,11
8,3,6,0,5,1,3,5,71,11
8,3,19,1,5,1,3,5,7,11
8,3,21,0,6,1,3,5,87,11
8,3,22,0,1,0,3,5,87,11
8,3,12,1,1,0,3,5,96,11
8,3,0,0,3,0,3,5,71,11
8,3,21,0,4,0,3,5,71,11
8,3,10,1,6,1,3,5,87,11
8,3,22,0,6,1,3,5,64,8
8,3,2,0,1,0,3,5,87,11
8,3,1,0,2,0,3,5,87,11
8,3,21,0,5,1,3,5,22,11
8,3,14,1,6,1,3,5,87,11
8,3,5,0,1,0,3,5,96,11
8,3,20,1,1,0,3,5,87,11
9,4,21,0,3,0,3,5,87,11
9,4,12,1,4,0,3,5,87,11
9,4,16,1,4,0,3,5,22,11
9,4,23,0,4,0,3,5,120,8
9,4,14,1,6,1,3,5,87,11
9,4,18,1,6,1,3,5,96,11
9,4,22,0,6,1,3,5,96,11
9,4,4,0,0,0,3,5,22,11
9,4,17,1,0,0,3,5,22,11
9,4,19,1,1,0,3,5,96,11
9,4,14,1,3,0,3,5,87,11
9,4,20,1,3,0,3,5,87,11
9,4,12,1,3,0,3,5,87,11
9,4,12,1,4,0,3,5,3,11
9,4,9,1,5,1,3,5,96,11
9,4,22,0,0,0,3,5,73,11
9,4,11,1,1,0,3,5,96,11
9,4,22,0,1,0,3,5,96,11
9,4,21,0,1,0,3,5,96,11
9,4,23,0,1,0,3,5,73,11
9,4,16,1,1,0,3,5,96,11
9,4,8,1,2,0,3,5,87,11
9,4,6,0,3,0,3,5,19,11
9,4,15,1,5,1,3,5,96,11
9,4,14,1,1,0,3,5,87,11
9,4,12,1,2,0,3,5,96,11
9,4,1,0,3,0,3,5,71,11
9,4,22,0,3,0,3,5,87,11
10,4,2,0,4,0,4,5,87,11
10,4,11,1,5,1,4,5,96,11
10,4,2,0,6,1,4,5,120,11
10,4,10,1,2,0,4,5,87,11
10,4,19,1,2,0,4,5,87,11
10,4,17,1,3,0,4,5,87,11
10,4,13,1,3,0,4,5,71,11
10,4,23,0,1,0,4,5,96,11
10,4,19,1,3,0,4,5,87,11
10,4,3,0,4,0,4,5,71,11
10,4,1,0,5,1,4,5,71,11
10,4,2,0,6,1,4,5,71,9
10,4,17,1,1,0,4,5,87,11
10,4,21,0,2,0,4,5,73,11
10,4,17,1,5,1,4,5,87,11
10,4,18,1,0,0,4,5,64,11
10,4,12,1,1,0,4,5,64,11
10,4,14,1,4,0,4,5,71,11
10,4,21,0,4,0,4,5,87,11
11,4,21,0,0,0,4,5,96,11
11,4,16,1,5,1,4,5,87,11
11,4,10,1,1,0,4,5,86,11
11,4,23,0,2,0,4,5,71,11
11,4,8,1,4,0,4,5,19,11
11,4,20,1,6,1,4,5,87,11
11,4,17,1,6,1,4,5,87,11
11,4,16,1,6,1,4,5,87,11
11,4,13,1,1,0,4,5,64,11
11,4,18,1,1,0,4,5,87,11
11,4,15,1,2,0,4,5,87,11
11,4,21,0,4,0,4,5,96,11
11,4,21,0,5,1,4,5,120,11
11,4,12,1,6,1,4,5,96,11
11,4,13,1,6,1,4,5,87,11
11,4,2,0,1,0,4,5,71,11
11,4,0,0,3,0,4,5,64,8
11,4,8,1,4,0,4,5,87,11
11,4,12,1,5,1,4,5,96,11
11,4,2,0,6,1,4,5,19,11
11,4,1,0,0,0,4,5,71,11
12,1,17,1,2,0,4,5,73,11
12,1,20,1,2,0,4,5,87,11
12,1,19,1,3,0,4,5,19,11
12,1,10,1,4,0,4,5,19,11
12,1,1,0,4,0,4,5,120,11
12,1,14,1,6,1,4,5,87,11
12,1,8,1,6,1,4,5,29,11
12,1,11,1,0,0,4,5,64,11
12,1,20,1,1,0,4,5,71,11
12,1,23,0,3,0,4,5,85,11
12,1,15,1,5,1,4,5,73,11
12,1,13,1,0,0,4,5,73,11
12,1,19,1,0,0,4,5,87,11
12,1,10,1,3,0,4,5,96,11
12,1,12,1,4,0,4,5,87,11
12,1,18,1,5,1,4,5,71,11
12,1,23,0,0,0,4,5,73,11
12,1,11,1,2,0,4,5,96,11
12,1,21,0,3,0,4,5,73,8
12,1,9,1,4,0,4,5,71,11
12,1,19,1,0,0,4,5,39,11
12,1,13,1,0,0,4,5,87,11
12,1,7,1,2,0,4,5,120,11
1,1,16,1,5,1,1,5,64,11
1,1,16,1,1,0,1,5,64,11
1,1,20,1,2,0,1,5,85,11
1,1,1,0,3,0,1,5,85,11
1,1,19,1,3,0,1,5,85,11
1,1,20,1,5,1,1,5,85,11
1,1,12,1,5,1,1,5,64,11
1,1,22,0,6,1,1,5,85,11
1,1,17,1,6,1,1,5,64,11
1,1,19,1,6,1,1,5,85,11
1,1,22,0,1,0,1,5,85,11
1,1,21,0,1,0,1,5,85,11
1,1,15,1,1,0,1,5,85,11
1,1,14,1,3,0,1,5,85,11
1,1,14,1,3,0,1,5,64,11
1,1,11,1,5,1,1,5,85,11
1,1,15,1,5,1,1,5,19,11
1,1,18,1,5,1,1,5,63,11
1,1,23,0,5,1,1,5,64,11
1,1,16,1,0,0,1,5,64,11
1,1,16,1,0,0,1,5,64,11
1,1,21,0,0,0,1,5,64,11
1,1,18,1,2,0,1,5,64,11
1,1,8,1,4,0,1,5,85,11
1,1,22,0,4,0,1,5,85,11
1,1,16,1,4,0,1,5,85,11
1,1,21,0,6,1,1,5,85,11
1,1,16,1,6,1,1,5,63,11
1,1,10,1,6,1,1,5,64,11
2,1,3,0,0,0,1,5,19,11
2,1,20,1,3,0,1,5,64,11
2,1,20,1,4,0,1,5,85,11
2,1,8,1,5,1,1,5,19,11
2,1,22,0,0,0,1,5,7,11
2,1,20,1,2,0,1,5,64,11
2,1,23,0,4,0,1,5,104,11
2,1,11,1,5,1,1,5,64,11
2,1,15,1,6,1,1,5,64,11
2,1,1,0,6,1,1,5,58,11
2,1,9,1,1,0,1,5,39,11
2,1,12,1,3,0,1,5,64,11
2,1,20,1,4,0,1,5,19,11
2,1,11,1,6,1,1,5,64,11
2,1,16,1,6,1,1,5,85,11
2,1,3,0,1,0,1,5,85,11
2,1,10,1,2,0,1,5,85,11
2,1,10,1,4,0,1,5,64,11
2,1,20,1,5,1,1,5,64,11
2,1,15,1,5,1,1,5,73,11
2,1,5,0,5,1,1,5,85,11
2,1,13,1,6,1,1,5,64,8
2,1,5,0,6,1,1,5,19,11
2,1,23,0,6,1,1,5,100,11
3,2,0,0,0,0,1,5,64,11
3,2,21,0,0,0,1,5,64,11
3,2,15,1,3,0,1,5,64,11
3,2,10,1,5,1,1,5,85,11
3,2,8,1,3,0,1,5,64,8
3,2,11,1,6,1,1,5,85,11
3,2,15,1,1,0,1,5,64,11
3,2,22,0,2,0,1,5,85,11
3,2,20,1,3,0,1,5,63,11
3,2,16,1,5,1,1,5,64,11
3,2,22,0,5,1,1,5,63,11
4,2,14,1,3,0,2,5,102,11
4,2,3,0,2,0,2,5,85,11
4,2,9,1,0,0,2,5,64,11
4,2,1,0,2,0,2,5,56,11
4,2,9,1,2,0,2,5,19,11
4,2,3,0,4,0,2,5,19,11
5,2,21,0,5,1,2,5,92,11
5,2,19,1,5,1,2,5,85,11
5,2,19,1,5,1,2,5,87,11
5,2,21,0,5,1,2,5,87,11
5,2,14,1,6,1,2,5,85,11
5,2,4,0,6,1,2,5,92,8
5,2,21,0,1,0,2,5,64,11
5,2,15,1,1,0,2,5,64,11
5,2,14,1,3,0,2,5,85,11
5,2,1,0,4,0,2,5,85,11
5,2,18,1,5,1,2,5,87,11
5,2,19,1,5,1,2,5,87,11
5,2,21,0,6,1,2,5,8,11
5,2,13,1,0,0,2,5,87,8
5,2,3,0,2,0,2,5,74,11
5,2,21,0,4,0,2,5,85,11
5,2,20,1,5,1,2,5,63,11
5,2,12,1,6,1,2,5,64,11
5,2,4,0,1,0,2,5,64,11
5,2,11,1,1,0,2,5,96,11
5,2,20,1,1,0,2,5,63,11
5,2,18,1,4,0,2,5,85,11
5,2,19,1,1,0,2,5,55,11
5,2,14,1,5,1,2,5,87,11
5,2,19,1,0,0,2,5,1,11
6,3,22,0,1,0,2,5,85,11
6,3,12,1,4,0,2,5,87,11
6,3,16,1,5,1,2,5,85,11
6,3,3,0,6,1,2,5,85,11
6,3,22,0,1,0,2,5,92,11
6,3,15,1,6,1,2,5,64,11
6,3,16,1,1,0,2,5,85,11
7,3,3,0,3,0,3,5,85,11
7,3,19,1,4,0,3,5,85,11
7,3,14,1,5,1,3,5,87,11
7,3,1,0,2,0,3,5,85,11
7,3,8,1,3,0,3,5,94,11
7,3,13,1,3,0,3,5,92,11
7,3,20,1,0,0,3,5,63,11
7,3,0,0,1,0,3,5,92,11
7,3,12,1,3,0,3,5,87,11
7,3,15,1,5,1,3,5,64,11
7,3,21,0,0,0,3,5,64,11
7,3,14,1,2,0,3,5,85,11
7,3,12,1,3,0,3,5,47,11
7,3,22,0,6,1,3,5,87,11
7,3,3,0,4,0,3,5,39,11
7,3,14,1,4,0,3,5,19,11
8,3,0,0,6,1,3,5,64,11
8,3,14,1,6,1,3,5,92,11
8,3,11,1,2,0,3,5,81,11
8,3,10,1,5,1,3,5,96,11
8,3,20,1,5,1,3,5,73,11
8,3,18,1,0,0,3,5,96,11
8,3,15,1,1,0,3,5,96,11
8,3,15,1,1,0,3,5,92,11
8,3,17,1,6,1,3,5,86,11
8,3,12,1,0,0,3,5,63,11
9,4,10,1,2,0,3,5,64,11
9,4,19,1,0,0,3,5,87,11
9,4,13,1,0,0,3,5,22,11
9,4,17,1,2,0,3,5,64,11
9,4,5,0,6,1,3,5,85,11
9,4,3,0,0,0,3,5,19,11
9,4,12,1,4,0,3,5,96,11
9,4,20,1,5,1,3,5,87,11
9,4,9,1,1,0,3,5,87,11
9,4,23,0,3,0,3,5,78,11
10,4,17,1,6,1,4,5,1,11
10,4,0,0,0,0,4,5,120,11
10,4,21,0,1,0,4,5,64,11
10,4,16,1,3,0,4,5,64,11
10,4,19,1,4,0,4,5,85,11
10,4,12,1,4,0,4,5,64,11
10,4,6,0,4,0,4,5,92,11
10,4,17,1,5,1,4,5,64,11
10,4,11,1,5,1,4,5,64,11
10,4,16,1,6,1,4,5,64,11
10,4,12,1,6,1,4,5,64,11
10,4,11,1,5,1,4,5,64,11
10,4,13,1,0,0,4,5,64,11
10,4,23,0,5,1,4,5,41,11
10,4,20,1,2,0,4,5,64,11
10,4,20,1,2,0,4,5,85,11
10,4,22,0,2,0,4,5,64,11
11,4,20,1,0,0,4,5,19,11
11,4,20,1,1,0,4,5,85,11
11,4,19,1,6,1,4,5,19,11
11,4,10,1,1,0,4,5,19,11
11,4,21,0,2,0,4,5,1,11
11,4,6,0,5,1,4,5,76,11
11,4,13,1,6,1,4,5,106,11
11,4,14,1,1,0,4,5,85,11
11,4,17,1,1,0,4,5,64,11
11,4,21,0,2,0,4,5,85,11
11,4,16,1,2,0,4,5,64,11
11,4,22,0,4,0,4,5,56,8
11,4,10,1,5,1,4,5,85,11
11,4,17,1,5,1,4,5,64,11
11,4,19,1,5,1,4,5,64,11
11,4,23,0,6,1,4,5,85,11
11,4,18,1,6,1,4,5,13,11
11,4,3,0,0,0,4,5,85,11
11,4,10,1,5,1,4,5,64,11
12,1,13,1,3,0,4,5,64,11
12,1,20,1,6,1,4,5,85,11
12,1,7,1,6,1,4,5,64,11
12,1,7,1,0,0,4,5,19,11
12,1,0,0,0,0,4,5,19,11
12,1,22,0,2,0,4,5,63,11
12,1,14,1,2,0,4,5,85,11
12,1,12,1,3,0,4,5,64,11
12,1,13,1,4,0,4,5,64,11
12,1,1,0,4,0,4,5,64,11
12,1,9,1,6,1,4,5,85,11
12,1,13,1,6,1,4,5,85,11
12,1,16,1,0,0,4,5,85,11
12,1,23,0,2,0,4,5,63,11
12,1,7,1,3,0,4,5,19,11
12,1,20,1,3,0,4,5,85,11
12,1,22,0,4,0,4,5,63,11
12,1,19,1,5,1,4,5,92,11
12,1,3,0,5,1,4,5,92,11
12,1,9,1,5,1,4,5,92,11
12,1,2,0,5,1,4,5,85,11
12,1,0,0,5,1,4,5,85,11
12,1,19,1,6,1,4,5,64,11
12,1,22,0,6,1,4,5,64,11
12,1,4,0,0,0,4,5,85,11
12,1,11,1,0,0,4,5,19,11
12,1,14,1,2,0,4,5,92,11
1,1,17,1,4,0,1,5,64,11
1,1,12,1,4,0,1,5,39,11
1,1,12,1,5,1,1,5,64,11
1,1,17,1,5,1,1,5,64,11
1,1,17,1,6,1,1,5,48,11
1,1,14,1,6,1,1,5,73,11
1,1,16,1,1,0,1,5,87,11
1,1,13,1,0,0,1,5,87,11
1,1,10,1,0,0,1,5,87,11
1,1,0,0,0,0,1,5,64,11
1,1,3,0,1,0,1,5,120,11
1,1,11,1,1,0,1,5,19,11
1,1,11,1,2,0,1,5,64,11
1,1,20,1,2,0,1,5,64,11
1,1,14,1,3,0,1,5,120,11
1,1,3,0,4,0,1,5,19,11
1,1,23,0,4,0,1,5,64,11
1,1,7,1,4,0,1,5,64,11
1,1,11,1,5,1,1,5,64,11
1,1,22,0,5,1,1,5,58,9
1,1,11,1,5,1,1,5,20,11
1,1,13,1,6,1,1,5,64,11
1,1,16,1,0,0,1,5,120,11
1,1,15,1,1,0,1,5,73,11
1,1,18,1,2,0,1,5,13,9
1,1,17,1,3,0,1,5,64,11
1,1,12,1,5,1,1,5,73,11
1,1,19,1,0,0,1,5,87,11
1,1,10,1,0,0,1,5,120,11
1,1,3,0,3,0,1,5,73,11
1,1,14,1,4,0,1,5,96,11
1,1,16,1,4,0,1,5,39,11
1,1,19,1,4,0,1,5,63,11
1,1,17,1,4,0,1,5,87,11
1,1,19,1,6,1,1,5,120,11
1,1,19,1,6,1,1,5,64,11
1,1,7,1,6,1,1,5,87,11
1,1,0,0,6,1,1,5,64,11
1,1,19,1,6,1,1,5,64,11
2,1,19,1,0,0,1,5,64,11
2,1,1,0,1,0,1,5,64,11
2,1,3,0,2,0,1,5,73,11
2,1,16,1,3,0,1,5,19,11
2,1,8,1,6,1,1,5,7,11
2,1,8,1,6,1,1,5,96,11
2,1,11,1,0,0,1,5,87,11
2,1,15,1,0,0,1,5,120,11
2,1,19,1,0,0,1,5,64,11
2,1,1,0,1,0,1,5,120,11
2,1,14,1,2,0,1,5,96,11
2,1,13,1,4,0,1,5,64,11
2,1,19,1,5,1,1,5,64,11
2,1,19,1,6,1,1,5,120,11
2,1,20,1,6,1,1,5,64,11
2,1,8,1,0,0,1,5,104,11
2,1,9,1,1,0,1,5,120,11
2,1,18,1,1,0,1,5,64,11
2,1,19,1,1,0,1,5,64,11
2,1,19,1,2,0,1,5,64,11
2,1,5,0,2,0,1,5,64,11
2,1,15,1,3,0,1,5,39,11
2,1,12,1,3,0,1,5,19,11
2,1,10,1,3,0,1,5,120,11
2,1,19,1,4,0,1,5,64,11
2,1,15,1,4,0,1,5,120,11
2,1,12,1,5,1,1,5,87,11
2,1,19,1,6,1,1,5,120,11
2,1,17,1,0,0,1,5,120,11
2,1,16,1,0,0,1,5,120,11
2,1,19,1,0,0,1,5,120,11
2,1,18,1,1,0,1,5,120,11
2,1,13,1,3,0,1,5,73,9
2,1,12,1,4,0,1,5,19,11
2,1,11,1,4,0,1,5,87,11
2,1,2,0,6,1,1,5,120,11
3,2,20,1,1,0,1,5,64,11
3,2,16,1,1,0,1,5,64,11
3,2,19,1,2,0,1,5,19,11
3,2,22,0,5,1,1,5,64,11
3,2,21,0,6,1,1,5,120,11
3,2,2,0,0,0,1,5,20,11
3,2,12,1,5,1,1,5,87,11
3,2,5,0,5,1,1,5,73,11
3,2,13,1,5,1,1,5,86,11
3,2,9,1,6,1,1,5,120,11
3,2,14,1,0,0,1,5,80,11
3,2,18,1,0,0,1,5,47,11
3,2,21,0,1,0,1,5,64,11
3,2,16,1,3,0,1,5,87,11
3,2,21,0,6,1,1,5,64,11
3,2,15,1,2,0,1,5,96,11
3,2,8,1,3,0,1,5,64,11
3,2,20,1,3,0,1,5,73,11
3,2,13,1,4,0,1,5,120,11
3,2,17,1,4,0,1,5,71,11
3,2,8,1,5,1,1,5,64,11
3,2,20,1,1,0,1,5,64,11
4,2,12,1,6,1,2,5,64,11
4,2,14,1,1,0,2,5,96,11
4,2,1,0,3,0,2,5,19,11
4,2,19,1,3,0,2,5,19,11
4,2,22,0,6,1,2,5,64,11
4,2,17,1,6,1,2,5,19,11
4,2,9,1,1,0,2,5,87,11
4,2,12,1,4,0,2,5,73,11
4,2,7,1,4,0,2,5,73,11
4,2,16,1,5,1,2,5,104,11
4,2,20,1,6,1,2,5,39,11
4,2,13,1,0,0,2,5,73,11
4,2,22,0,0,0,2,5,64,11
4,2,13,1,1,0,2,5,117,11
5,2,20,1,5,1,2,5,94,11
5,2,21,0,5,1,2,5,96,11
5,2,13,1,6,1,2,5,47,11
5,2,13,1,6,1,2,5,64,11
5,2,15,1,6,1,2,5,87,11
5,2,22,0,0,0,2,5,85,11
5,2,21,0,1,0,2,5,47,11
5,2,17,1,2,0,2,5,19,11
5,2,18,1,4,0,2,5,87,11
5,2,14,1,4,0,2,5,19,11
5,2,22,0,0,0,2,5,87,11
5,2,20,1,0,0,2,5,87,11
5,2,19,1,0,0,2,5,96,11
5,2,22,0,1,0,2,5,120,11
5,2,20,1,1,0,2,5,120,11
5,2,16,1,2,0,2,5,19,11
5,2,1,0,3,0,2,5,73,11
5,2,21,0,4,0,2,5,118,11
5,2,21,0,4,0,2,5,49,11
5,2,21,0,5,1,2,5,96,11
5,2,16,1,5,1,2,5,19,11
5,2,17,1,0,0,2,5,96,11
5,2,15,1,1,0,2,5,49,11
5,2,6,0,4,0,2,5,120,9
5,2,14,1,4,0,2,5,102,11
5,2,20,1,4,0,2,5,8,11
5,2,15,1,1,0,2,5,102,11
5,2,6,0,3,0,2,5,97,11
5,2,19,1,4,0,2,5,87,11
5,2,19,1,6,1,2,5,73,11
5,2,22,0,6,1,2,5,19,11
5,2,17,1,0,0,2,5,56,8
6,3,2,0,2,0,2,5,87,11
6,3,18,1,3,0,2,5,87,11
6,3,20,1,6,1,2,5,39,11
6,3,18,1,1,0,2,5,19,11
6,3,0,0,2,0,2,5,87,11
6,3,22,0,2,0,2,5,120,11
6,3,12,1,2,0,2,5,120,11
6,3,22,0,4,0,2,5,120,11
6,3,19,1,5,1,2,5,81,11
6,3,21,0,6,1,2,5,49,11
6,3,9,1,1,0,2,5,92,11
6,3,23,0,2,0,2,5,64,11
6,3,0,0,4,0,2,5,49,11
6,3,12,1,5,1,2,5,96,11
6,3,22,0,0,0,2,5,85,11
6,3,16,1,2,0,2,5,118,11
6,3,20,1,3,0,2,5,47,11
6,3,22,0,4,0,2,5,109,11
6,3,4,0,1,0,2,5,71,9
6,3,13,1,2,0,2,5,87,11
7,3,13,1,3,0,3,5,64,11
7,3,20,1,4,0,3,5,96,11
7,3,19,1,4,0,3,5,64,11
7,3,6,0,5,1,3,5,64,11
7,3,10,1,4,0,3,5,96,11
7,3,18,1,0,0,3,5,19,11
7,3,11,1,1,0,3,5,56,11
7,3,15,1,1,0,3,5,49,11
7,3,15,1,2,0,3,5,85,11
7,3,1,0,2,0,3,5,64,11
7,3,1,0,2,0,3,5,64,11
7,3,18,1,3,0,3,5,64,9
7,3,19,1,6,1,3,5,78,11
7,3,8,1,0,0,3,5,85,11
7,3,13,1,0,0,3,5,96,11
7,3,6,0,2,0,3,5,85,11
7,3,20,1,2,0,3,5,85,11
7,3,18,1,2,0,3,5,96,11
7,3,15,1,3,0,3,5,56,11
8,3,2,0,6,1,3,5,85,11
8,3,13,1,0,0,3,5,85,11
8,3,14,1,0,0,3,5,55,11
8,3,21,0,6,1,3,5,87,11
8,3,17,1,6,1,3,5,64,11
8,3,17,1,2,0,3,5,87,11
8,3,1,0,3,0,3,5,87,8
8,3,15,1,4,0,3,5,96,11
8,3,1,0,4,0,3,5,64,11
8,3,20,1,6,1,3,5,96,11
8,3,15,1,1,0,3,5,92,11
8,3,18,1,4,0,3,5,64,11
8,3,6,0,6,1,3,5,64,11
8,3,5,0,6,1,3,5,96,11
8,3,9,1,1,0,3,5,85,11
8,3,1,0,5,1,3,5,63,11
8,3,1,0,6,1,3,5,71,11
9,4,11,1,5,1,3,5,110,11
9,4,15,1,5,1,3,5,87,11
9,4,8,1,0,0,3,5,85,11
9,4,0,0,0,0,3,5,64,11
9,4,20,1,1,0,3,5,64,11
9,4,22,0,1,0,3,5,96,11
9,4,20,1,2,0,3,5,71,11
9,4,9,1,4,0,3,5,85,11
9,4,16,1,4,0,3,5,96,11
9,4,8,1,6,1,3,5,87,11
9,4,6,0,4,0,3,5,64,11
9,4,21,0,6,1,3,5,96,11
9,4,2,0,0,0,3,5,49,11
9,4,3,0,3,0,3,5,96,11
9,4,0,0,0,0,3,5,64,11
9,4,22,0,0,0,3,5,63,11
9,4,19,1,3,0,3,5,71,11
10,4,14,1,5,1,4,5,64,11
10,4,23,0,3,0,4,5,64,11
10,4,17,1,3,0,4,5,96,11
10,4,11,1,3,0,4,5,96,11
10,4,21,0,3,0,4,5,71,11
10,4,18,1,3,0,4,5,64,9
10,4,16,1,5,1,4,5,96,11
10,4,23,0,2,0,4,5,87,11
10,4,13,1,4,0,4,5,64,11
10,4,5,0,5,1,4,5,71,8
10,4,5,0,5,1,4,5,64,11
10,4,23,0,0,0,4,5,64,8
10,4,19,1,0,0,4,5,64,11
10,4,21,0,1,0,4,5,39,11
10,4,21,0,1,0,4,5,64,11
11,4,2,0,5,1,4,5,56,11
11,4,10,1,5,1,4,5,87,11
11,4,13,1,1,0,4,5,71,11
11,4,11,1,1,0,4,5,64,11
11,4,0,0,5,1,4,5,64,11
11,4,1,0,0,0,4,5,96,11
12,1,18,1,6,1,4,5,64,11
12,1,14,1,6,1,4,5,64,11
12,1,23,0,6,1,4,5,96,11
12,1,20,1,1,0,4,5,64,11
12,1,13,1,5,1,4,5,96,11
12,1,0,0,5,1,4,5,96,11
12,1,17,1,6,1,4,5,64,11
12,1,19,1,4,0,4,5,87,11
12,1,13,1,4,0,4,5,96,11
12,1,17,1,4,0,4,5,96,11
12,1,22,0,4,0,4,5,64,11
12,1,0,0,5,1,4,5,85,11
12,1,22,0,5,1,4,5,63,11
12,1,21,0,6,1,4,5,64,11
12,1,19,1,6,1,4,5,64,11
12,1,19,1,0,0,4,5,71,11
12,1,19,1,0,0,4,5,64,11
12,1,14,1,1,0,4,5,64,11
12,1,22,0,2,0,4,5,64,11
12,1,13,1,2,0,4,5,96,11
12,1,21,0,3,0,4,5,47,11
12,1,11,1,5,1,4,5,64,11
12,1,6,0,0,0,4,5,96,11
1,1,20,1,4,0,1,5,64,11
1,1,16,1,5,1,1,5,64,11
1,1,17,1,5,1,1,5,87,11
1,1,17,1,5,1,1,5,85,11
1,1,7,1,6,1,1,5,39,11
1,1,20,1,1,0,1,5,64,11
1,1,21,0,6,1,1,5,19,11
1,1,7,1,1,0,1,5,64,11
1,1,15,1,1,0,1,5,64,11
1,1,14,1,2,0,1,5,64,11
1,1,15,1,2,0,1,5,85,11
1,1,11,1,3,0,1,5,64,11
1,1,10,1,3,0,1,5,64,11
1,1,19,1,3,0,1,5,85,11
1,1,13,1,3,0,1,5,85,11
1,1,21,0,4,0,1,5,64,11
1,1,10,1,5,1,1,5,87,11
1,1,5,0,6,1,1,5,64,11
1,1,18,1,0,0,1,5,19,11
1,1,22,0,1,0,1,5,64,11
1,1,5,0,1,0,1,5,73,8
1,1,7,1,2,0,1,5,64,11
1,1,13,1,2,0,1,5,73,11
1,1,19,1,2,0,1,5,85,11
1,1,13,1,2,0,1,5,85,11
1,1,16,1,3,0,1,5,85,11
1,1,5,0,5,1,1,5,64,9
1,1,19,1,6,1,1,5,85,11
1,1,16,1,0,0,1,5,8,11
1,1,19,1,2,0,1,5,64,11
1,1,22,0,2,0,1,5,64,11
1,1,22,0,2,0,1,5,64,11
1,1,10,1,4,0,1,5,39,11
1,1,1,0,5,1,1,5,85,11
1,1,22,0,5,1,1,5,47,11
1,1,7,1,6,1,1,5,120,11
1,1,18,1,6,1,1,5,64,11
1,1,15,1,6,1,1,5,64,11
2,1,19,1,1,0,1,5,85,11
2,1,1,0,3,0,1,5,73,11
2,1,4,0,3,0,1,5,29,11
2,1,13,1,3,0,1,5,64,11
2,1,18,1,3,0,1,5,85,11
2,1,20,1,5,1,1,5,64,11
2,1,20,1,2,0,1,5,85,11
2,1,20,1,2,0,1,5,85,11
2,1,16,1,2,0,1,5,85,9
2,1,12,1,2,0,1,5,64,11
2,1,19,1,2,0,1,5,19,11
2,1,22,0,2,0,1,5,19,11
2,1,21,0,2,0,1,5,85,11
2,1,20,1,3,0,1,5,85,11
2,1,20,1,4,0,1,5,64,11
2,1,13,1,5,1,1,5,64,11
2,1,18,1,5,1,1,5,63,11
2,1,10,1,6,1,1,5,73,11
2,1,19,1,0,0,1,5,73,11
2,1,16,1,1,0,1,5,85,11
2,1,13,1,2,0,1,5,73,9
2,1,16,1,2,0,1,5,64,11
2,1,14,1,2,0,1,5,85,11
2,1,2,0,2,0,1,5,64,11
2,1,20,1,3,0,1,5,39,11
2,1,14,1,4,0,1,5,85,11
2,1,14,1,4,0,1,5,85,11
2,1,18,1,5,1,1,5,85,11
2,1,12,1,5,1,1,5,64,11
2,1,16,1,6,1,1,5,19,9
2,1,15,1,6,1,1,5,85,11
2,1,8,1,2,0,1,5,85,11
2,1,23,0,2,0,1,5,87,9
2,1,21,0,2,0,1,5,73,11
2,1,20,1,3,0,1,5,64,11
2,1,22,0,4,0,1,5,64,11
2,1,12,1,6,1,1,5,85,11
2,1,22,0,6,1,1,5,64,11
2,1,22,0,6,1,1,5,64,11
3,2,12,1,0,0,1,5,43,11
3,2,22,0,0,0,1,5,85,11
3,2,14,1,2,0,1,5,85,9
3,2,20,1,2,0,1,5,85,11
3,2,14,1,3,0,1,5,64,11
3,2,6,0,4,0,1,5,85,11
3,2,10,1,6,1,1,5,71,11
3,2,10,1,6,1,1,5,120,11
3,2,21,0,3,0,1,5,56,11
3,2,19,1,3,0,1,5,64,11
3,2,15,1,4,0,1,5,87,11
3,2,16,1,4,0,1,5,64,11
3,2,20,1,4,0,1,5,64,11
3,2,19,1,4,0,1,5,85,11
3,2,11,1,6,1,1,5,85,11
3,2,18,1,0,0,1,5,64,11
3,2,17,1,0,0,1,5,73,11
3,2,10,1,0,0,1,5,87,11
3,2,10,1,0,0,1,5,19,11
3,2,18,1,0,0,1,5,19,11
3,2,22,0,0,0,1,5,87,11
3,2,4,0,1,0,1,5,87,11
3,2,18,1,1,0,1,5,85,11
3,2,13,1,1,0,1,5,64,11
3,2,0,0,3,0,1,5,87,11
3,2,13,1,3,0,1,5,87,11
3,2,11,1,3,0,1,5,87,11
3,2,23,0,3,0,1,5,19,11
3,2,21,0,5,1,1,5,64,11
3,2,0,0,6,1,1,5,73,8
3,2,19,1,2,0,1,5,85,11
3,2,9,1,3,0,1,5,85,11
3,2,21,0,3,0,1,5,85,11
3,2,14,1,3,0,1,5,47,11
3,2,9,1,3,0,1,5,64,11
3,2,19,1,4,0,1,5,85,11
3,2,23,0,4,0,1,5,85,11
3,2,10,1,6,1,1,5,85,11
3,2,21,0,0,0,1,5,47,11
3,2,16,1,0,0,1,5,56,11
3,2,17,1,1,0,1,5,73,11
4,2,18,1,4,0,2,5,85,11
4,2,8,1,4,0,2,5,64,11
4,2,11,1,0,0,2,5,73,11
4,2,20,1,0,0,2,5,73,11
4,2,10,1,3,0,2,5,39,11
4,2,19,1,4,0,2,5,85,11
4,2,10,1,5,1,2,5,85,11
4,2,12,1,5,1,2,5,87,11
4,2,4,0,6,1,2,5,64,11
4,2,17,1,6,1,2,5,64,11
4,2,21,0,6,1,2,5,63,11
4,2,5,0,6,1,2,5,85,11
4,2,17,1,1,0,2,5,64,11
4,2,19,1,2,0,2,5,87,11
4,2,22,0,5,1,2,5,64,11
4,2,22,0,5,1,2,5,64,11
4,2,11,1,0,0,2,5,19,11
4,2,11,1,0,0,2,5,39,11
4,2,5,0,2,0,2,5,19,11
4,2,9,1,2,0,2,5,39,11
4,2,16,1,2,0,2,5,64,11
4,2,16,1,6,1,2,5,64,11
4,2,23,0,0,0,2,5,64,11
4,2,17,1,0,0,2,5,85,11
4,2,22,0,0,0,2,5,64,11
4,2,20,1,0,0,2,5,87,11
4,2,9,1,3,0,2,5,85,11
4,2,23,0,3,0,2,5,73,11
5,2,22,0,5,1,2,5,85,11
5,2,17,1,6,1,2,5,85,11
5,2,8,1,6,1,2,5,47,9
5,2,16,1,0,0,2,5,85,11
5,2,18,1,0,0,2,5,85,11
5,2,11,1,1,0,2,5,85,11
5,2,22,0,1,0,2,5,85,11
5,2,18,1,5,1,2,5,87,11
5,2,19,1,0,0,2,5,45,11
5,2,21,0,1,0,2,5,63,11
5,2,21,0,1,0,2,5,87,11
5,2,16,1,2,0,2,5,56,8
5,2,19,1,4,0,2,5,8,11
5,2,21,0,6,1,2,5,85,11
5,2,15,1,0,0,2,5,87,9
5,2,19,1,1,0,2,5,87,11
5,2,2,0,4,0,2,5,87,11
5,2,13,1,4,0,2,5,8,11
5,2,0,0,5,1,2,5,64,11
5,2,21,0,5,1,2,5,64,11
5,2,9,1,2,0,2,5,64,11
6,3,0,0,2,0,2,5,85,11
6,3,10,1,2,0,2,5,85,11
6,3,0,0,2,0,2,5,85,11
6,3,14,1,4,0,2,5,85,11
6,3,11,1,0,0,2,5,85,11
6,3,15,1,1,0,2,5,14,9
6,3,20,1,1,0,2,5,64,11
6,3,19,1,2,0,2,5,63,11
6,3,18,1,3,0,2,5,73,11
6,3,0,0,4,0,2,5,87,11
6,3,14,1,4,0,2,5,8,11
6,3,20,1,1,0,2,5,19,11
6,3,21,0,1,0,2,5,85,11
6,3,18,1,1,0,2,5,85,11
6,3,5,0,1,0,2,5,64,11
6,3,15,1,1,0,2,5,73,11
6,3,2,0,1,0,2,5,19,11
6,3,18,1,2,0,2,5,73,11
6,3,4,0,4,0,2,5,92,11
6,3,19,1,4,0,2,5,31,11
6,3,8,1,2,0,2,5,22,11
6,3,21,0,2,0,2,5,7,11
7,3,23,0,3,0,3,5,64,11
7,3,15,1,3,0,3,5,19,9
7,3,16,1,3,0,3,5,85,11
7,3,23,0,3,0,3,5,87,11
7,3,19,1,3,0,3,5,87,11
7,3,13,1,4,0,3,5,96,11
7,3,15,1,4,0,3,5,73,11
7,3,0,0,4,0,3,5,85,11
7,3,15,1,4,0,3,5,87,11
7,3,8,1,4,0,3,5,64,11
7,3,18,1,2,0,3,5,31,11
7,3,15,1,3,0,3,5,64,11
7,3,21,0,3,0,3,5,73,11
7,3,17,1,3,0,3,5,91,11
7,3,14,1,3,0,3,5,87,11
7,3,13,1,1,0,3,5,19,11
7,3,9,1,1,0,3,5,47,11
7,3,9,1,1,0,3,5,47,11
7,3,17,1,2,0,3,5,19,11
7,3,22,0,2,0,3,5,87,11
7,3,1,0,2,0,3,5,63,11
7,3,23,0,2,0,3,5,94,11
7,3,14,1,2,0,3,5,87,11
7,3,4,0,3,0,3,5,71,11
7,3,17,1,3,0,3,5,109,11
7,3,6,0,3,0,3,5,54,9
7,3,19,1,2,0,3,5,7,11
7,3,9,1,2,0,3,5,64,11
7,3,11,1,2,0,3,5,74,11
7,3,20,1,2,0,3,5,87,11
7,3,11,1,2,0,3,5,64,9
7,3,19,1,2,0,3,5,19,11
7,3,3,0,2,0,3,5,85,11
7,3,0,0,2,0,3,5,64,11
7,3,4,0,3,0,3,5,85,11
7,3,20,1,5,1,3,5,63,11
7,3,15,1,3,0,3,5,64,11
7,3,13,1,4,0,3,5,85,11
7,3,21,0,4,0,3,5,73,11
7,3,16,1,5,1,3,5,56,11
8,3,8,1,2,0,3,5,19,11
8,3,5,0,2,0,3,5,64,11
8,3,7,1,3,0,3,5,7,11
8,3,18,1,4,0,3,5,87,11
8,3,21,0,4,0,3,5,56,11
8,3,16,1,0,0,3,5,64,11
8,3,19,1,2,0,3,5,56,11
8,3,14,1,2,0,3,5,48,11
8,3,17,1,1,0,3,5,64,11
8,3,1,0,1,0,3,5,64,11
8,3,2,0,3,0,3,5,85,11
8,3,18,1,3,0,3,5,64,11
8,3,19,1,3,0,3,5,73,9
8,3,22,0,2,0,3,5,63,11
8,3,12,1,2,0,3,5,64,11
8,3,19,1,3,0,3,5,85,11
8,3,1,0,3,0,3,5,45,11
8,3,12,1,3,0,3,5,73,11
8,3,15,1,6,1,3,5,63,11
9,4,4,0,2,0,3,5,64,11
9,4,13,1,3,0,3,5,73,11
9,4,12,1,3,0,3,5,19,11
9,4,7,1,0,0,3,5,19,11
9,4,1,0,0,0,3,5,56,11
9,4,0,0,1,0,3,5,73,11
9,4,17,1,2,0,3,5,73,11
9,4,4,0,3,0,3,5,56,11
9,4,8,1,3,0,3,5,64,11
9,4,11,1,4,0,3,5,19,11
9,4,20,1,5,1,3,5,31,11
9,4,20,1,5,1,3,5,64,11
9,4,21,0,0,0,3,5,63,11
9,4,11,1,1,0,3,5,64,11
9,4,13,1,1,0,3,5,19,11
9,4,17,1,2,0,3,5,117,11
9,4,19,1,3,0,3,5,64,11
9,4,19,1,5,1,3,5,64,11
9,4,2,0,5,1,3,5,73,11
9,4,1,0,6,1,3,5,85,11
9,4,4,0,2,0,3,5,73,9
9,4,2,0,6,1,3,5,39,11
9,4,15,1,0,0,3,5,38,11
9,4,4,0,1,0,3,5,85,11
10,4,5,0,4,0,4,5,85,11
10,4,5,0,0,0,4,5,85,11
10,4,5,0,0,0,4,5,85,11
10,4,13,1,0,0,4,5,64,11
10,4,10,1,2,0,4,5,64,11
10,4,19,1,3,0,4,5,94,11
10,4,22,0,4,0,4,5,19,11
10,4,9,1,4,0,4,5,85,11
10,4,12,1,1,0,4,5,39,11
10,4,0,0,6,1,4,5,13,11
10,4,20,1,0,0,4,5,63,11
10,4,12,1,6,1,4,5,44,9
10,4,9,1,1,0,4,5,64,11
10,4,19,1,1,0,4,5,19,11
10,4,11,1,2,0,4,5,85,11
11,4,14,1,0,0,4,5,73,11
11,4,20,1,0,0,4,5,104,11
11,4,6,0,1,0,4,5,85,11
11,4,16,1,5,1,4,5,64,11
11,4,20,1,6,1,4,5,85,11
11,4,15,1,6,1,4,5,64,11
11,4,16,1,6,1,4,5,87,11
11,4,22,0,2,0,4,5,87,11
11,4,15,1,2,0,4,5,85,11
11,4,9,1,3,0,4,5,64,11
11,4,17,1,4,0,4,5,19,11
11,4,23,0,5,1,4,5,85,11
11,4,8,1,5,1,4,5,64,11
11,4,2,0,0,0,4,5,56,11
11,4,23,0,2,0,4,5,73,11
12,1,19,1,6,1,4,5,85,11
12,1,12,1,2,0,4,5,82,11
12,1,22,0,2,0,4,5,85,11
12,1,17,1,2,0,4,5,87,11
12,1,18,1,4,0,4,5,73,11
12,1,22,0,5,1,4,5,85,11
12,1,18,1,6,1,4,5,73,11
12,1,16,1,6,1,4,5,19,11
12,1,13,1,6,1,4,5,85,11
12,1,16,1,0,0,4,5,64,9
12,1,19,1,1,0,4,5,64,9
12,1,19,1,4,0,4,5,64,8
12,1,9,1,5,1,4,5,73,11
12,1,23,0,6,1,4,5,85,11
12,1,5,0,0,0,4,5,64,9
12,1,12,1,0,0,4,5,85,11
12,1,14,1,1,0,4,5,85,11
12,1,17,1,1,0,4,5,47,11
12,1,19,1,1,0,4,5,85,11
12,1,11,1,2,0,4,5,13,11
12,1,6,0,4,0,4,5,85,11
12,1,14,1,5,1,4,5,85,11
12,1,19,1,5,1,4,5,64,11
12,1,1,0,6,1,4,5,85,11
12,1,21,0,6,1,4,5,85,11
12,1,2,0,6,1,4,5,85,11
12,1,18,1,6,1,4,5,85,11
12,1,13,1,6,1,4,5,85,11
12,1,15,1,1,0,4,5,85,11
12,1,12,1,1,0,4,5,85,9
12,1,19,1,4,0,4,5,14,11
12,1,13,1,4,0,4,5,19,11
1,1,23,0,4,0,1,5,87,11
1,1,0,0,4,0,1,5,64,11
1,1,23,0,4,0,1,5,85,11
1,1,0,0,5,1,1,5,85,11
1,1,18,1,5,1,1,5,64,11
1,1,3,0,5,1,1,5,92,11
1,1,19,1,6,1,1,5,73,11
1,1,15,1,2,0,1,5,120,11
1,1,15,1,3,0,1,5,71,11
1,1,18,1,3,0,1,5,85,11
1,1,19,1,3,0,1,5,63,11
1,1,23,0,4,0,1,5,92,11
1,1,22,0,0,0,1,5,73,11
1,1,0,0,4,0,1,5,120,11
1,1,9,1,4,0,1,5,66,11
1,1,17,1,5,1,1,5,73,11
1,1,19,1,5,1,1,5,39,11
1,1,6,0,5,1,1,5,73,11
1,1,12,1,6,1,1,5,120,11
1,1,12,1,6,1,1,5,64,11
1,1,20,1,0,0,1,5,8,11
1,1,21,0,0,0,1,5,39,11
1,1,19,1,0,0,1,5,64,11
1,1,16,1,0,0,1,5,120,11
1,1,14,1,1,0,1,5,120,11
1,1,20,1,2,0,1,5,71,11
1,1,23,0,2,0,1,5,96,11
1,1,23,0,2,0,1,5,96,11
1,1,23,0,2,0,1,5,96,11
1,1,22,0,2,0,1,5,87,11
1,1,23,0,2,0,1,5,120,11
1,1,23,0,2,0,1,5,120,11
1,1,23,0,2,0,1,5,71,11
1,1,19,1,4,0,1,5,7,11
1,1,11,1,5,1,1,5,96,11
1,1,3,0,5,1,1,5,71,11
1,1,11,1,0,0,1,5,71,11
1,1,21,0,0,0,1,5,85,11
1,1,14,1,0,0,1,5,39,11
1,1,0,0,1,0,1,5,71,11
1,1,17,1,2,0,1,5,86,11
1,1,10,1,3,0,1,5,39,11
1,1,14,1,5,1,1,5,71,11
1,1,20,1,5,1,1,5,87,11
1,1,21,0,5,1,1,5,64,11
2,1,2,0,0,0,1,5,120,11
2,1,22,0,0,0,1,5,71,11
2,1,22,0,2,0,1,5,87,11
2,1,17,1,3,0,1,5,106,9
2,1,15,1,3,0,1,5,87,11
2,1,17,1,4,0,1,5,85,11
2,1,23,0,5,1,1,5,92,11
2,1,1,0,2,0,1,5,120,11
2,1,6,0,2,0,1,5,85,11
2,1,20,1,3,0,1,5,63,11
2,1,23,0,3,0,1,5,71,11
2,1,19,1,4,0,1,5,63,11
2,1,23,0,4,0,1,5,120,11
2,1,5,0,5,1,1,5,64,11
2,1,5,0,5,1,1,5,120,11
2,1,6,0,5,1,1,5,120,11
2,1,17,1,5,1,1,5,73,11
2,1,13,1,6,1,1,5,120,11
2,1,20,1,0,0,1,5,118,11
2,1,8,1,0,0,1,5,64,11
2,1,22,0,1,0,1,5,96,11
2,1,13,1,1,0,1,5,118,11
2,1,12,1,3,0,1,5,39,11
2,1,4,0,4,0,1,5,39,11
2,1,22,0,6,1,1,5,96,11
2,1,2,0,1,0,1,5,71,11
2,1,22,0,2,0,1,5,120,11
2,1,12,1,2,0,1,5,39,11
2,1,8,1,2,0,1,5,39,11
2,1,2,0,5,1,1,5,39,11
3,2,22,0,1,0,1,5,71,9
3,2,12,1,1,0,1,5,106,11
3,2,21,0,1,0,1,5,22,11
3,2,5,0,2,0,1,5,120,11
3,2,14,1,2,0,1,5,85,11
3,2,16,1,2,0,1,5,87,11
3,2,22,0,3,0,1,5,64,11
3,2,19,1,3,0,1,5,92,11
3,2,8,1,3,0,1,5,64,11
3,2,19,1,5,1,1,5,96,11
3,2,4,0,5,1,1,5,120,11
3,2,22,0,6,1,1,5,92,11
3,2,16,1,6,1,1,5,96,11
3,2,20,1,0,0,1,5,87,11
3,2,23,0,1,0,1,5,120,11
3,2,2,0,2,0,1,5,120,11
3,2,14,1,3,0,1,5,45,11
3,2,0,0,3,0,1,5,7,11
3,2,4,0,3,0,1,5,64,9
3,2,2,0,3,0,1,5,71,11
3,2,6,0,4,0,1,5,7,11
3,2,20,1,6,1,1,5,85,11
3,2,14,1,6,1,1,5,92,11
3,2,14,1,1,0,1,5,85,11
3,2,20,1,3,0,1,5,87,11
3,2,13,1,3,0,1,5,64,11
3,2,7,1,1,0,1,5,120,11
3,2,22,0,2,0,1,5,87,11
3,2,10,1,3,0,1,5,86,11
3,2,3,0,5,1,1,5,71,11
3,2,2,0,6,1,1,5,96,11
3,2,13,1,0,0,1,5,64,11
3,2,19,1,1,0,1,5,1,11
4,2,15,1,4,0,2,5,92,11
4,2,13,1,5,1,2,5,71,11
4,2,3,0,6,1,2,5,85,11
4,2,3,0,6,1,2,5,120,11
4,2,22,0,6,1,2,5,120,9
4,2,2,0,6,1,2,5,120,11
4,2,19,1,1,0,2,5,71,11
4,2,19,1,1,0,2,5,87,11
4,2,20,1,1,0,2,5,85,11
4,2,19,1,0,0,2,5,120,11
4,2,11,1,2,0,2,5,87,11
4,2,22,0,3,0,2,5,73,11
4,2,21,0,4,0,2,5,63,11
4,2,21,0,4,0,2,5,87,11
4,2,10,1,4,0,2,5,87,11
4,2,10,1,4,0,2,5,87,11
4,2,19,1,6,1,2,5,64,11
4,2,12,1,1,0,2,5,71,11
4,2,0,0,2,0,2,5,73,11
4,2,22,0,2,0,2,5,120,11
4,2,15,1,2,0,2,5,73,11
4,2,22,0,4,0,2,5,87,11
5,2,21,0,5,1,2,5,92,9
5,2,22,0,5,1,2,5,64,11
5,2,0,0,6,1,2,5,87,11
5,2,1,0,6,1,2,5,85,11
5,2,0,0,6,1,2,5,85,11
5,2,23,0,1,0,2,5,71,11
5,2,20,1,1,0,2,5,87,11
5,2,16,1,1,0,2,5,120,11
5,2,20,1,1,0,2,5,85,11
5,2,21,0,4,0,2,5,1,11
5,2,21,0,5,1,2,5,87,11
5,2,21,0,5,1,2,5,87,11
5,2,20,1,6,1,2,5,87,11
5,2,13,1,6,1,2,5,87,11
5,2,11,1,0,0,2,5,64,11
5,2,16,1,2,0,2,5,87,11
5,2,13,1,2,0,2,5,8,11
5,2,15,1,3,0,2,5,87,11
5,2,11,1,3,0,2,5,87,11
5,2,14,1,3,0,2,5,73,11
5,2,13,1,3,0,2,5,64,11
5,2,23,0,4,0,2,5,63,11
5,2,18,1,4,0,2,5,87,11
5,2,23,0,5,1,2,5,92,11
5,2,16,1,5,1,2,5,87,11
5,2,21,0,1,0,2,5,96,11
5,2,18,1,1,0,2,5,87,11
5,2,18,1,1,0,2,5,87,11
5,2,12,1,2,0,2,5,87,11
5,2,17,1,2,0,2,5,87,11
5,2,23,0,2,0,2,5,96,11
5,2,8,1,3,0,2,5,71,11
5,2,17,1,3,0,2,5,87,11
5,2,23,0,3,0,2,5,63,11
5,2,23,0,4,0,2,5,87,11
5,2,21,0,4,0,2,5,85,11
5,2,8,1,4,0,2,5,73,11
5,2,19,1,0,0,2,5,87,11
5,2,17,1,1,0,2,5,87,11
5,2,14,1,1,0,2,5,120,11
5,2,9,1,1,0,2,5,71,11
5,2,18,1,2,0,2,5,87,11
5,2,8,1,6,1,2,5,92,11
5,2,10,1,6,1,2,5,96,11
5,2,16,1,0,0,2,5,74,11
6,3,0,0,1,0,2,5,77,11
6,3,20,1,1,0,2,5,87,11
6,3,0,0,1,0,2,5,87,11
6,3,16,1,1,0,2,5,87,11
6,3,23,0,3,0,2,5,87,11
6,3,20,1,3,0,2,5,87,11
6,3,20,1,4,0,2,5,87,11
6,3,0,0,5,1,2,5,87,11
6,3,15,1,6,1,2,5,64,11
6,3,5,0,6,1,2,5,87,11
6,3,16,1,0,0,2,5,87,11
6,3,1,0,0,0,2,5,120,11
6,3,1,0,0,0,2,5,120,11
6,3,22,0,0,0,2,5,87,11
6,3,4,0,1,0,2,5,96,11
6,3,11,1,0,0,2,5,64,11
6,3,12,1,1,0,2,5,87,11
6,3,0,0,1,0,2,5,71,11
6,3,18,1,3,0,2,5,87,11
6,3,14,1,4,0,2,5,87,11
6,3,10,1,4,0,2,5,64,9
6,3,16,1,4,0,2,5,87,11
6,3,23,0,6,1,2,5,87,11
6,3,10,1,0,0,2,5,87,11
6,3,23,0,2,0,2,5,87,11
6,3,23,0,3,0,2,5,87,11
6,3,6,0,3,0,2,5,71,11
6,3,20,1,4,0,2,5,64,11
6,3,14,1,5,1,2,5,87,9
6,3,2,0,5,1,2,5,71,11
6,3,15,1,6,1,2,5,7,11
7,3,2,0,4,0,3,5,71,11
7,3,4,0,4,0,3,5,73,11
7,3,2,0,5,1,3,5,39,11
7,3,9,1,5,1,3,5,71,11
7,3,23,0,2,0,3,5,120,11
7,3,18,1,2,0,3,5,87,11
7,3,19,1,2,0,3,5,118,11
7,3,1,0,3,0,3,5,87,11
7,3,10,1,3,0,3,5,71,11
7,3,13,1,3,0,3,5,64,9
7,3,16,1,4,0,3,5,87,11
7,3,17,1,5,1,3,5,87,11
7,3,22,0,5,1,3,5,87,11
7,3,22,0,5,1,3,5,87,11
7,3,22,0,0,0,3,5,71,11
7,3,19,1,0,0,3,5,120,11
7,3,15,1,1,0,3,5,96,11
7,3,12,1,1,0,3,5,87,11
7,3,22,0,2,0,3,5,92,11
7,3,15,1,2,0,3,5,71,11
7,3,8,1,3,0,3,5,71,11
7,3,21,0,3,0,3,5,96,11
7,3,14,1,3,0,3,5,87,11
7,3,6,0,4,0,3,5,92,11
7,3,14,1,5,1,3,5,71,11
7,3,0,0,5,1,3,5,87,11
7,3,21,0,6,1,3,5,85,9
7,3,18,1,6,1,3,5,47,11
7,3,20,1,1,0,3,5,78,11
7,3,15,1,2,0,3,5,87,11
7,3,10,1,2,0,3,5,64,11
7,3,17,1,3,0,3,5,87,11
7,3,22,0,4,0,3,5,85,11
7,3,19,1,4,0,3,5,120,11
7,3,19,1,4,0,3,5,71,11
7,3,1,0,4,0,3,5,87,11
7,3,0,0,4,0,3,5,96,11
7,3,18,1,5,1,3,5,96,11
7,3,16,1,5,1,3,5,120,11
7,3,1,0,5,1,3,5,85,11
7,3,3,0,6,1,3,5,71,9
7,3,3,0,0,0,3,5,71,11
7,3,18,1,0,0,3,5,87,11
7,3,20,1,0,0,3,5,87,11
7,3,19,1,0,0,3,5,87,11
7,3,17,1,0,0,3,5,85,11
7,3,13,1,1,0,3,5,71,11
7,3,15,1,2,0,3,5,96,11
7,3,12,1,2,0,3,5,96,11
7,3,20,1,3,0,3,5,87,11
7,3,19,1,3,0,3,5,64,9
7,3,18,1,4,0,3,5,92,11
7,3,18,1,4,0,3,5,96,11
7,3,17,1,4,0,3,5,7,11
7,3,16,1,5,1,3,5,87,11
7,3,22,0,5,1,3,5,36,11
7,3,0,0,5,1,3,5,87,11
8,3,8,1,0,0,3,5,71,11
8,3,10,1,0,0,3,5,73,9
8,3,4,0,1,0,3,5,85,11
8,3,19,1,1,0,3,5,64,11
8,3,0,0,1,0,3,5,87,11
8,3,21,0,2,0,3,5,87,11
8,3,16,1,2,0,3,5,87,11
8,3,22,0,3,0,3,5,87,11
8,3,17,1,3,0,3,5,87,11
8,3,16,1,5,1,3,5,85,11
8,3,15,1,5,1,3,5,85,11
8,3,16,1,5,1,3,5,85,11
8,3,19,1,1,0,3,5,64,11
8,3,12,1,2,0,3,5,85,11
8,3,14,1,4,0,3,5,8,11
8,3,8,1,4,0,3,5,87,11
8,3,12,1,6,1,3,5,85,11
8,3,6,0,6,1,3,5,96,11
8,3,17,1,6,1,3,5,87,11
8,3,19,1,0,0,3,5,78,11
8,3,21,0,3,0,3,5,96,11
8,3,17,1,5,1,3,5,120,11
8,3,7,1,2,0,3,5,85,11
8,3,15,1,2,0,3,5,86,11
8,3,20,1,4,0,3,5,73,11
8,3,8,1,6,1,3,5,76,11
8,3,18,1,1,0,3,5,64,11
9,4,20,1,2,0,3,5,87,11
9,4,16,1,3,0,3,5,22,9
9,4,20,1,4,0,3,5,87,11
9,4,18,1,4,0,3,5,87,11
9,4,22,0,5,1,3,5,64,11
9,4,20,1,0,0,3,5,87,11
9,4,11,1,0,0,3,5,87,11
9,4,17,1,4,0,3,5,87,11
9,4,17,1,4,0,3,5,85,11
9,4,19,1,6,1,3,5,87,11
9,4,4,0,0,0,3,5,87,11
9,4,22,0,0,0,3,5,7,11
9,4,20,1,1,0,3,5,96,11
9,4,18,1,1,0,3,5,24,11
9,4,19,1,2,0,3,5,87,11
9,4,23,0,2,0,3,5,71,11
9,4,13,1,2,0,3,5,71,11
9,4,12,1,4,0,3,5,71,11
9,4,17,1,4,0,3,5,87,11
9,4,12,1,4,0,3,5,87,11
9,4,13,1,6,1,3,5,87,11
9,4,18,1,6,1,3,5,85,11
9,4,20,1,0,0,3,5,47,11
9,4,23,0,1,0,3,5,105,11
9,4,3,0,2,0,3,5,71,11
9,4,1,0,2,0,3,5,96,11
9,4,19,1,2,0,3,5,87,11
9,4,13,1,3,0,3,5,64,11
9,4,10,1,3,0,3,5,87,11
9,4,11,1,3,0,3,5,87,11
9,4,21,0,4,0,3,5,120,11
9,4,12,1,4,0,3,5,64,11
9,4,2,0,4,0,3,5,71,11
9,4,1,0,5,1,3,5,120,11
9,4,10,1,0,0,3,5,87,11
9,4,8,1,0,0,3,5,71,11
9,4,10,1,3,0,3,5,87,11
9,4,11,1,3,0,3,5,87,11
9,4,21,0,3,0,3,5,64,11
9,4,19,1,3,0,3,5,64,11
10,4,20,1,4,0,4,5,87,11
10,4,23,0,4,0,4,5,87,11
10,4,7,1,5,1,4,5,64,11
10,4,12,1,5,1,4,5,120,11
10,4,7,1,5,1,4,5,71,11
10,4,2,0,5,1,4,5,63,11
10,4,23,0,6,1,4,5,87,11
10,4,0,0,6,1,4,5,63,11
10,4,22,0,6,1,4,5,87,11
10,4,16,1,0,0,4,5,7,11
10,4,21,0,0,0,4,5,85,11
10,4,11,1,2,0,4,5,87,11
10,4,22,0,5,1,4,5,64,11
10,4,6,0,0,0,4,5,120,11
10,4,4,0,1,0,4,5,22,11
10,4,18,1,4,0,4,5,73,11
10,4,12,1,1,0,4,5,87,11
10,4,21,0,1,0,4,5,120,11
10,4,5,0,6,1,4,5,120,11
10,4,18,1,0,0,4,5,64,11
10,4,20,1,0,0,4,5,120,11
10,4,20,1,1,0,4,5,120,11
10,4,1,0,2,0,4,5,120,11
10,4,7,1,2,0,4,5,7,11
10,4,12,1,3,0,4,5,73,11
10,4,21,0,3,0,4,5,63,11
10,4,1,0,4,0,4,5,120,11
10,4,2,0,4,0,4,5,120,11
10,4,1,0,4,0,4,5,85,11
10,4,19,1,5,1,4,5,92,11
10,4,13,1,6,1,4,5,7,11
10,4,0,0,6,1,4,5,71,11
10,4,3,0,6,1,4,5,120,11
11,4,23,0,0,0,4,5,120,11
11,4,19,1,2,0,4,5,87,11
11,4,20,1,2,0,4,5,71,11
11,4,19,1,3,0,4,5,120,11
11,4,19,1,3,0,4,5,120,11
11,4,3,0,4,0,4,5,87,11
11,4,23,0,5,1,4,5,87,11
11,4,7,1,5,1,4,5,61,11
11,4,3,0,0,0,4,5,47,11
11,4,0,0,1,0,4,5,85,11
11,4,1,0,1,0,4,5,87,11
11,4,4,0,4,0,4,5,71,11
11,4,17,1,4,0,4,5,87,11
11,4,18,1,5,1,4,5,92,11
11,4,17,1,0,0,4,5,92,11
11,4,17,1,1,0,4,5,39,11
11,4,5,0,3,0,4,5,71,11
11,4,21,0,5,1,4,5,64,11
11,4,2,0,0,0,4,5,71,11
11,4,2,0,6,1,4,5,71,11
11,4,2,0,6,1,4,5,120,11
11,4,3,0,0,0,4,5,64,9
11,4,17,1,1,0,4,5,87,11
12,1,4,0,2,0,4,5,120,11
12,1,22,0,4,0,4,5,39,11
12,1,9,1,4,0,4,5,87,11
12,1,21,0,6,1,4,5,120,11
12,1,19,1,6,1,4,5,120,11
12,1,8,1,6,1,4,5,73,11
12,1,16,1,2,0,4,5,71,11
12,1,21,0,3,0,4,5,87,11
12,1,19,1,4,0,4,5,87,11
12,1,19,1,4,0,4,5,120,11
12,1,23,0,4,0,4,5,120,11
12,1,6,0,5,1,4,5,120,11
12,1,15,1,5,1,4,5,7,11
12,1,0,0,6,1,4,5,92,11
12,1,22,0,6,1,4,5,120,11
12,1,19,1,0,0,4,5,120,11
12,1,15,1,0,0,4,5,120,11
12,1,12,1,0,0,4,5,120,11
12,1,9,1,1,0,4,5,64,9
12,1,18,1,1,0,4,5,64,11
12,1,3,0,2,0,4,5,64,11
12,1,15,1,2,0,4,5,56,11
12,1,23,0,2,0,4,5,120,11
12,1,13,1,3,0,4,5,120,11
12,1,14,1,3,0,4,5,64,9
12,1,17,1,3,0,4,5,64,11
12,1,21,0,3,0,4,5,120,11
12,1,0,0,5,1,4,5,87,11
12,1,15,1,5,1,4,5,64,11
12,1,17,1,5,1,4,5,120,11
12,1,12,1,6,1,4,5,120,11
12,1,17,1,0,0,4,5,120,11
12,1,21,0,0,0,4,5,87,11
12,1,21,0,1,0,4,5,120,11
12,1,17,1,1,0,4,5,64,11
12,1,0,0,2,0,4,5,71,11
12,1,15,1,2,0,4,5,120,11
12,1,18,1,3,0,4,5,120,11
12,1,1,0,4,0,4,5,39,11
12,1,2,0,4,0,4,5,71,11
12,1,17,1,4,0,4,5,64,11
12,1,12,1,6,1,4,5,120,11
12,1,19,1,6,1,4,5,71,11
12,1,16,1,0,0,4,5,120,11
12,1,23,0,0,0,4,5,120,11
12,1,17,1,1,0,4,5,87,11
12,1,19,1,3,0,4,5,63,11
12,1,17,1,4,0,4,5,96,11
12,1,17,1,4,0,4,5,96,11
1,1,0,0,5,1,1,5,85,11
1,1,21,0,5,1,1,5,64,11
1,1,18,1,6,1,1,5,64,11
1,1,0,0,3,0,1,5,87,11
1,1,19,1,3,0,1,5,64,11
1,1,16,1,3,0,1,5,87,11
1,1,13,1,4,0,1,5,73,11
1,1,10,1,5,1,1,5,85,11
1,1,14,1,6,1,1,5,120,11
1,1,1,0,1,0,1,5,87,11
1,1,18,1,3,0,1,5,64,11
1,1,17,1,4,0,1,5,45,11
1,1,19,1,5,1,1,5,73,11
1,1,21,0,6,1,1,5,57,11
1,1,14,1,6,1,1,5,85,11
1,1,7,1,0,0,1,5,87,11
1,1,17,1,1,0,1,5,87,11
1,1,23,0,1,0,1,5,87,11
1,1,20,1,1,0,1,5,85,11
1,1,17,1,3,0,1,5,85,11
1,1,12,1,3,0,1,5,85,11
1,1,12,1,5,1,1,5,85,11
1,1,14,1,6,1,1,5,39,11
1,1,7,1,0,0,1,5,73,11
1,1,1,0,1,0,1,5,71,8
1,1,21,0,2,0,1,5,85,11
1,1,17,1,3,0,1,5,64,11
1,1,16,1,3,0,1,5,87,11
1,1,3,0,5,1,1,5,87,11
1,1,9,1,6,1,1,5,87,11
1,1,19,1,6,1,1,5,85,11
1,1,20,1,6,1,1,5,85,11
2,1,12,1,2,0,1,5,56,11
2,1,16,1,2,0,1,5,87,11
2,1,19,1,3,0,1,5,85,11
2,1,7,1,4,0,1,5,84,11
2,1,18,1,4,0,1,5,19,11
2,1,20,1,1,0,1,5,87,11
2,1,13,1,3,0,1,5,85,11
2,1,18,1,4,0,1,5,85,11
2,1,4,0,4,0,1,5,85,11
2,1,1,0,0,0,1,5,85,11
2,1,2,0,3,0,1,5,13,8
2,1,21,0,6,1,1,5,85,11
2,1,20,1,2,0,1,5,85,11
2,1,12,1,5,1,1,5,87,11
3,2,23,0,0,0,1,5,85,11
3,2,23,0,0,0,1,5,85,11
3,2,19,1,1,0,1,5,39,8
3,2,0,0,2,0,1,5,85,11
3,2,0,0,2,0,1,5,85,11
3,2,21,0,6,1,1,5,19,11
3,2,13,1,1,0,1,5,87,11
3,2,15,1,1,0,1,5,85,11
3,2,2,0,2,0,1,5,85,11
3,2,16,1,3,0,1,5,73,11
3,2,18,1,5,1,1,5,87,11
3,2,19,1,6,1,1,5,64,11
3,2,10,1,6,1,1,5,64,11
3,2,11,1,6,1,1,5,87,11
3,2,22,0,0,0,1,5,87,11
3,2,12,1,0,0,1,5,87,11
3,2,13,1,1,0,1,5,87,11
3,2,16,1,2,0,1,5,85,11
3,2,16,1,5,1,1,5,64,8
3,2,17,1,3,0,1,5,64,11
3,2,11,1,4,0,1,5,85,11
3,2,18,1,6,1,1,5,87,11
4,2,8,1,3,0,2,5,85,11
4,2,23,0,4,0,2,5,64,11
4,2,15,1,2,0,2,5,64,11
4,2,12,1,3,0,2,5,87,11
4,2,16,1,4,0,2,5,85,11
4,2,2,0,6,1,2,5,85,11
4,2,3,0,6,1,2,5,73,11
4,2,20,1,6,1,2,5,64,11
4,2,11,1,6,1,2,5,87,11
4,2,0,0,1,0,2,5,64,11
4,2,10,1,1,0,2,5,56,11
4,2,23,0,4,0,2,5,64,11
4,2,16,1,6,1,2,5,87,11
4,2,20,1,6,1,2,5,64,11
4,2,23,0,6,1,2,5,87,11
4,2,16,1,1,0,2,5,39,11
4,2,12,1,1,0,2,5,87,11
4,2,19,1,2,0,2,5,87,11
4,2,13,1,3,0,2,5,12,8
4,2,16,1,4,0,2,5,87,11
4,2,11,1,5,1,2,5,19,11
4,2,17,1,6,1,2,5,87,11
4,2,20,1,2,0,2,5,87,11
4,2,14,1,3,0,2,5,87,11
4,2,12,1,3,0,2,5,87,11
4,2,13,1,4,0,2,5,73,11
4,2,20,1,4,0,2,5,85,11
4,2,9,1,4,0,2,5,85,11
5,2,21,0,5,1,2,5,85,11
5,2,2,0,5,1,2,5,56,11
5,2,1,0,5,1,2,5,56,11
5,2,18,1,5,1,2,5,85,11
5,2,16,1,5,1,2,5,87,11
5,2,23,0,6,1,2,5,85,11
5,2,13,1,0,0,2,5,39,8
5,2,11,1,3,0,2,5,85,11
5,2,17,1,2,0,2,5,87,11
5,2,8,1,3,0,2,5,85,11
5,2,14,1,1,0,2,5,92,11
5,2,23,0,1,0,2,5,73,11
5,2,21,0,0,0,2,5,85,11
5,2,11,1,0,0,2,5,73,11
5,2,8,1,1,0,2,5,19,11
5,2,19,1,3,0,2,5,85,11
5,2,2,0,5,1,2,5,1,11
5,2,18,1,6,1,2,5,39,11
6,3,13,1,1,0,2,5,85,11
6,3,6,0,3,0,2,5,85,11
6,3,20,1,4,0,2,5,64,11
6,3,17,1,3,0,2,5,73,11
6,3,15,1,4,0,2,5,85,11
6,3,15,1,5,1,2,5,87,11
6,3,4,0,0,0,2,5,85,11
6,3,8,1,2,0,2,5,64,11
6,3,21,0,2,0,2,5,85,11
6,3,13,1,3,0,2,5,87,11
6,3,20,1,3,0,2,5,87,11
6,3,14,1,4,0,2,5,85,11
6,3,19,1,5,1,2,5,87,11
6,3,10,1,6,1,2,5,85,11
6,3,0,0,1,0,2,5,64,8
6,3,23,0,2,0,2,5,85,11
6,3,0,0,6,1,2,5,85,11
7,3,19,1,5,1,3,5,85,11
7,3,16,1,5,1,3,5,87,11
7,3,18,1,6,1,3,5,87,11
7,3,17,1,1,0,3,5,85,11
7,3,11,1,2,0,3,5,87,11
7,3,8,1,4,0,3,5,19,11
7,3,9,1,6,1,3,5,64,11
7,3,17,1,2,0,3,5,73,8
7,3,11,1,0,0,3,5,87,11
7,3,21,0,6,1,3,5,87,11
7,3,11,1,6,1,3,5,92,11
7,3,0,0,1,0,3,5,87,8
7,3,15,1,1,0,3,5,87,8
7,3,5,0,3,0,3,5,19,11
7,3,14,1,3,0,3,5,87,11
7,3,8,1,4,0,3,5,87,11
8,3,11,1,0,0,3,5,71,11
8,3,15,1,2,0,3,5,85,11
8,3,13,1,2,0,3,5,85,11
8,3,15,1,3,0,3,5,87,11
8,3,12,1,4,0,3,5,43,11
8,3,7,1,1,0,3,5,31,11
8,3,11,1,0,0,3,5,92,11
8,3,9,1,0,0,3,5,85,11
8,3,0,0,0,0,3,5,87,11
8,3,19,1,5,1,3,5,87,11
8,3,2,0,1,0,3,5,87,11
8,3,2,0,1,0,3,5,87,11
8,3,5,0,0,0,3,5,71,8
8,3,12,1,0,0,3,5,19,11
9,4,17,1,3,0,3,5,87,8
9,4,15,1,3,0,3,5,87,11
9,4,16,1,6,1,3,5,85,11
9,4,21,0,0,0,3,5,41,11
9,4,22,0,1,0,3,5,87,11
9,4,20,1,5,1,3,5,56,11
9,4,14,1,2,0,3,5,87,11
9,4,15,1,5,1,3,5,64,11
9,4,20,1,6,1,3,5,92,11
9,4,15,1,4,0,3,5,85,11
9,4,17,1,5,1,3,5,85,11
9,4,8,1,1,0,3,5,85,11
10,4,18,1,4,0,4,5,85,11
10,4,2,0,6,1,4,5,19,11
10,4,20,1,6,1,4,5,64,11
10,4,15,1,6,1,4,5,118,11
10,4,7,1,6,1,4,5,85,11
10,4,13,1,1,0,4,5,87,11
10,4,11,1,1,0,4,5,87,11
10,4,5,0,3,0,4,5,85,11
10,4,7,1,2,0,4,5,87,11
10,4,9,1,3,0,4,5,92,11
10,4,11,1,6,1,4,5,87,11
11,4,11,1,4,0,4,5,73,11
11,4,11,1,5,1,4,5,87,11
11,4,19,1,6,1,4,5,19,11
11,4,14,1,6,1,4,5,73,11
11,4,12,1,6,1,4,5,87,11
11,4,9,1,2,0,4,5,87,11
11,4,19,1,2,0,4,5,73,11
11,4,10,1,5,1,4,5,87,11
11,4,1,0,5,1,4,5,87,11
11,4,22,0,6,1,4,5,85,11
11,4,0,0,1,0,4,5,63,11
11,4,21,0,2,0,4,5,73,11
11,4,8,1,2,0,4,5,85,11
11,4,22,0,4,0,4,5,19,11
11,4,11,1,6,1,4,5,87,11
11,4,21,0,4,0,4,5,73,11
11,4,20,1,4,0,4,5,39,11
11,4,5,0,4,0,4,5,19,11
12,1,17,1,2,0,4,5,87,11
12,1,14,1,2,0,4,5,87,11
12,1,9,1,2,0,4,5,87,11
12,1,11,1,6,1,4,5,120,11
12,1,23,0,6,1,4,5,120,11
12,1,23,0,1,0,4,5,120,11
12,1,18,1,3,0,4,5,19,11
12,1,12,1,6,1,4,5,87,11
12,1,9,1,6,1,4,5,87,11
12,1,13,1,6,1,4,5,73,11
12,1,15,1,0,0,4,5,87,11
12,1,18,1,3,0,4,5,64,11
12,1,15,1,3,0,4,5,120,11
12,1,1,0,2,0,4,5,120,11
12,1,19,1,2,0,4,5,64,11
12,1,19,1,2,0,4,5,64,11
12,1,22,0,3,0,4,5,120,11
12,1,11,1,4,0,4,5,120,11
12,1,23,0,6,1,4,5,120,11
12,1,10,1,1,0,4,5,85,11
12,1,0,0,2,0,4,5,3,11
12,1,16,1,2,0,4,5,85,11
12,1,12,1,3,0,4,5,120,11
12,1,19,1,4,0,4,5,64,11
12,1,13,1,4,0,4,5,64,11
1,1,11,1,4,0,1,5,73,11
1,1,16,1,4,0,1,5,120,11
1,1,9,1,5,1,1,5,96,11
1,1,11,1,4,0,1,5,120,11
1,1,20,1,6,1,1,5,87,11
2,1,19,1,6,1,1,5,13,9
2,1,3,0,3,0,1,5,19,11
2,1,3,0,4,0,1,5,73,9
2,1,20,1,0,0,1,5,120,11
2,1,22,0,3,0,1,5,120,11
2,1,12,1,6,1,1,5,120,11
2,1,22,0,2,0,1,5,87,11
3,2,13,1,0,0,1,5,87,11
3,2,20,1,1,0,1,5,39,11
3,2,3,0,4,0,1,5,73,9
3,2,23,0,5,1,1,5,19,11
3,2,12,1,1,0,1,5,96,11
3,2,19,1,2,0,1,5,7,11
3,2,0,0,0,0,1,5,87,11
3,2,23,0,2,0,1,5,87,11
3,2,13,1,4,0,1,5,87,11
3,2,23,0,0,0,1,5,87,11
4,2,14,1,6,1,2,5,74,11
4,2,0,0,1,0,2,5,87,11
4,2,15,1,3,0,2,5,87,11
4,2,1,0,0,0,2,5,19,11
4,2,9,1,0,0,2,5,87,11
4,2,12,1,3,0,2,5,96,11
4,2,22,0,0,0,2,5,87,11
4,2,23,0,4,0,2,5,120,11
5,2,21,0,5,1,2,5,34,11
5,2,21,0,5,1,2,5,87,11
5,2,11,1,1,0,2,5,87,11
5,2,16,1,6,1,2,5,73,11
6,3,15,1,4,0,2,5,87,11
6,3,13,1,6,1,2,5,73,11
6,3,15,1,3,0,2,5,87,11
6,3,8,1,6,1,2,5,73,9
6,3,21,0,1,0,2,5,87,11
7,3,22,0,3,0,3,5,87,9
7,3,9,1,4,0,3,5,19,11
7,3,9,1,4,0,3,5,87,11
7,3,13,1,4,0,3,5,87,11
7,3,12,1,6,1,3,5,87,9
7,3,14,1,6,1,3,5,87,9
7,3,15,1,1,0,3,5,73,11
7,3,20,1,2,0,3,5,73,11
7,3,10,1,5,1,3,5,34,11
7,3,21,0,5,1,3,5,87,11
7,3,7,1,6,1,3,5,87,11
7,3,10,1,2,0,3,5,87,9
7,3,20,1,2,0,3,5,73,11
7,3,11,1,0,0,3,5,87,11
7,3,9,1,2,0,3,5,120,11
8,3,12,1,6,1,3,5,87,11
8,3,14,1,1,0,3,5,12,11
8,3,21,0,4,0,3,5,87,11
8,3,18,1,2,0,3,5,34,11
8,3,14,1,5,1,3,5,87,11
8,3,7,1,5,1,3,5,64,11
8,3,22,0,5,1,3,5,1,11
8,3,16,1,3,0,3,5,87,11
9,4,19,1,2,0,3,5,19,11
9,4,20,1,4,0,3,5,87,11
9,4,14,1,6,1,3,5,87,9
9,4,12,1,3,0,3,5,87,11
10,4,15,1,6,1,4,5,73,9
10,4,0,0,1,0,4,5,94,11
10,4,1,0,1,0,4,5,74,11
10,4,17,1,2,0,4,5,96,11
10,4,9,1,4,0,4,5,71,11
10,4,22,0,5,1,4,5,96,11
12,1,14,1,3,0,4,5,87,11
12,1,0,0,2,0,4,5,120,11
12,1,18,1,6,1,4,5,47,11
12,1,16,1,1,0,4,5,73,11
12,1,23,0,1,0,4,5,73,11
12,1,14,1,4,0,4,5,39,11
1,1,17,1,5,1,1,5,87,11
1,1,18,1,5,1,1,5,87,11
1,1,16,1,5,1,1,5,85,11
1,1,4,0,0,0,1,5,87,11
1,1,14,1,0,0,1,5,87,11
1,1,18,1,1,0,1,5,87,11
1,1,12,1,6,1,1,5,114,11
2,1,16,1,1,0,1,5,85,11
3,2,20,1,1,0,1,5,73,11
3,2,10,1,3,0,1,5,87,11
4,2,13,1,3,0,2,5,87,11
5,2,11,1,2,0,2,5,87,11
5,2,15,1,6,1,2,5,87,11
5,2,11,1,6,1,2,5,78,11
5,2,10,1,1,0,2,5,87,11
6,3,17,1,3,0,2,5,19,11
6,3,16,1,0,0,2,5,73,11
7,3,22,0,3,0,3,5,87,11
7,3,13,1,0,0,3,5,87,11
7,3,1,0,1,0,3,5,92,11
7,3,14,1,4,0,3,5,87,11
8,3,19,1,3,0,3,5,120,11
8,3,10,1,6,1,3,5,120,11
8,3,13,1,0,0,3,5,87,11
8,3,14,1,1,0,3,5,87,11
9,4,13,1,5,1,3,5,87,11
10,4,9,1,2,0,4,5,87,11
10,4,22,0,2,0,4,5,120,11
10,4,23,0,0,0,4,5,120,11
10,4,15,1,1,0,4,5,73,11
11,4,11,1,0,0,4,5,96,11
11,4,11,1,6,1,4,5,87,11
11,4,11,1,0,0,4,5,87,11
12,1,20,1,3,0,4,5,85,11
12,1,20,1,5,1,4,5,120,11
12,1,16,1,6,1,4,5,8,11
12,1,19,1,1,0,4,5,87,11
12,1,19,1,6,1,4,5,87,11
1,1,12,1,5,1,1,5,33,11
1,1,13,1,6,1,1,5,64,11
1,1,23,0,0,0,1,5,85,11
1,1,16,1,0,0,1,5,85,11
1,1,15,1,6,1,1,5,64,11
1,1,4,0,0,0,1,5,85,11
1,1,4,0,1,0,1,5,85,11
2,1,19,1,5,1,1,5,85,11
2,1,20,1,6,1,1,5,85,11
2,1,3,0,5,1,1,5,33,11
3,2,4,0,4,0,1,5,85,11
3,2,1,0,5,1,1,5,85,11
3,2,0,0,5,1,1,5,39,11
3,2,16,1,5,1,1,5,8,11
3,2,22,0,6,1,1,5,85,11
3,2,16,1,0,0,1,5,85,11
3,2,8,1,4,0,1,5,22,11
3,2,0,0,6,1,1,5,85,11
3,2,6,0,6,1,1,5,85,11
4,2,8,1,0,0,2,5,73,9
4,2,21,0,5,1,2,5,64,11
4,2,1,0,3,0,2,5,85,11
4,2,9,1,4,0,2,5,56,9
5,2,18,1,5,1,2,5,85,11
5,2,16,1,6,1,2,5,87,11
5,2,19,1,6,1,2,5,87,11
5,2,12,1,1,0,2,5,87,11
5,2,13,1,2,0,2,5,85,11
5,2,13,1,6,1,2,5,96,11
5,2,19,1,1,0,2,5,64,11
5,2,15,1,2,0,2,5,87,11
5,2,3,0,2,0,2,5,87,11
5,2,17,1,4,0,2,5,87,11
5,2,21,0,5,1,2,5,87,11
6,3,9,1,2,0,2,5,85,11
6,3,18,1,6,1,2,5,85,11
6,3,13,1,0,0,2,5,85,11
6,3,3,0,1,0,2,5,87,11
6,3,16,1,2,0,2,5,85,11
7,3,1,0,3,0,3,5,85,11
7,3,13,1,4,0,3,5,64,11
7,3,16,1,4,0,3,5,87,11
7,3,20,1,0,0,3,5,85,11
7,3,22,0,1,0,3,5,73,11
7,3,0,0,1,0,3,5,97,11
7,3,9,1,2,0,3,5,117,11
7,3,16,1,3,0,3,5,117,11
8,3,20,1,1,0,3,5,64,11
8,3,13,1,1,0,3,5,64,11
8,3,9,1,4,0,3,5,87,11
9,4,16,1,4,0,3,5,85,11
9,4,14,1,0,0,3,5,87,8
9,4,16,1,0,0,3,5,87,9
9,4,6,0,0,0,3,5,85,11
9,4,0,0,6,1,3,5,85,11
10,4,2,0,3,0,4,5,19,11
10,4,23,0,3,0,4,5,39,11
10,4,3,0,2,0,4,5,13,11
10,4,22,0,3,0,4,5,87,11
11,4,21,0,1,0,4,5,73,11
11,4,10,1,2,0,4,5,64,11
11,4,19,1,1,0,4,5,19,11
11,4,22,0,0,0,4,5,118,11
12,1,8,1,0,0,4,5,85,11
12,1,3,0,6,1,4,5,19,11
12,1,17,1,2,0,4,5,85,11
12,1,5,0,5,1,4,5,87,11
12,1,18,1,6,1,4,5,73,11
12,1,22,0,1,0,4,5,120,11
1,1,10,1,1,0,1,5,64,11
1,1,23,0,3,0,1,5,71,11
1,1,0,0,1,0,1,5,64,11
1,1,16,1,2,0,1,5,85,11
1,1,13,1,3,0,1,5,64,11
1,1,18,1,1,0,1,5,85,11
1,1,21,0,3,0,1,5,85,11
1,1,20,1,3,0,1,5,85,11
1,1,10,1,3,0,1,5,64,11
2,1,9,1,2,0,1,5,85,11
2,1,19,1,3,0,1,5,64,9
2,1,17,1,2,0,1,5,85,11
2,1,14,1,2,0,1,5,64,11
2,1,16,1,5,1,1,5,31,11
2,1,18,1,6,1,1,5,64,11
2,1,10,1,1,0,1,5,85,9
3,2,13,1,1,0,1,5,64,11
3,2,22,0,3,0,1,5,85,11
3,2,19,1,2,0,1,5,64,11
3,2,21,0,2,0,1,5,85,11
3,2,11,1,4,0,1,5,73,11
3,2,21,0,5,1,1,5,85,11
3,2,8,1,2,0,1,5,64,11
3,2,14,1,3,0,1,5,64,11
3,2,20,1,0,0,1,5,85,11
3,2,20,1,2,0,1,5,85,11
3,2,0,0,6,1,1,5,85,11
4,2,21,0,3,0,2,5,85,11
4,2,17,1,4,0,2,5,85,11
4,2,16,1,0,0,2,5,77,11
4,2,18,1,4,0,2,5,85,11
4,2,22,0,4,0,2,5,85,11
4,2,18,1,0,0,2,5,100,9
4,2,12,1,3,0,2,5,64,11
4,2,2,0,1,0,2,5,19,9
4,2,13,1,2,0,2,5,7,8
4,2,13,1,0,0,2,5,64,11
4,2,8,1,1,0,2,5,64,11
4,2,1,0,1,0,2,5,85,11
4,2,22,0,3,0,2,5,85,11
4,2,23,0,4,0,2,5,63,11
5,2,21,0,5,1,2,5,85,11
5,2,22,0,5,1,2,5,64,11
5,2,17,1,5,1,2,5,8,11
5,2,0,0,6,1,2,5,64,11
5,2,0,0,0,0,2,5,85,11
5,2,3,0,2,0,2,5,85,11
5,2,18,1,5,1,2,5,8,11
5,2,19,1,6,1,2,5,64,11
5,2,0,0,4,0,2,5,7,11
5,2,4,0,4,0,2,5,7,11
5,2,1,0,5,1,2,5,19,11
5,2,6,0,5,1,2,5,13,11
5,2,20,1,5,1,2,5,8,9
5,2,22,0,5,1,2,5,120,11
6,3,17,1,6,1,2,5,8,11
6,3,23,0,5,1,2,5,85,11
6,3,2,0,2,0,2,5,85,11
6,3,23,0,1,0,2,5,8,11
6,3,16,1,4,0,2,5,64,11
6,3,16,1,5,1,2,5,64,11
6,3,20,1,6,1,2,5,64,11
7,3,23,0,5,1,3,5,64,11
7,3,12,1,4,0,3,5,64,11
7,3,1,0,6,1,3,5,120,11
7,3,16,1,1,0,3,5,64,11
7,3,6,0,1,0,3,5,85,11
7,3,4,0,1,0,3,5,64,11
7,3,23,0,5,1,3,5,85,11
8,3,17,1,6,1,3,5,64,11
8,3,9,1,2,0,3,5,64,11
9,4,21,0,4,0,3,5,85,11
9,4,22,0,6,1,3,5,64,11
9,4,12,1,3,0,3,5,64,11
9,4,21,0,0,0,3,5,64,11
9,4,20,1,3,0,3,5,64,11
9,4,22,0,4,0,3,5,56,11
9,4,15,1,0,0,3,5,64,11
10,4,0,0,0,0,4,5,87,9
10,4,8,1,0,0,4,5,64,11
10,4,17,1,0,0,4,5,64,11
10,4,1,0,3,0,4,5,56,8
10,4,19,1,4,0,4,5,56,11
10,4,19,1,2,0,4,5,7,11
10,4,22,0,5,1,4,5,64,11
10,4,16,1,1,0,4,5,64,11
11,4,0,0,6,1,4,5,71,11
11,4,16,1,3,0,4,5,120,11
11,4,22,0,5,1,4,5,64,9
11,4,4,0,6,1,4,5,71,11
11,4,3,0,6,1,4,5,64,9
12,1,8,1,5,1,4,5,73,11
12,1,21,0,0,0,4,5,19,11
12,1,21,0,4,0,4,5,31,11
12,1,22,0,5,1,4,5,64,11
12,1,3,0,0,0,4,5,120,11
12,1,2,0,1,0,4,5,120,11
12,1,18,1,6,1,4,5,120,11
12,1,6,0,0,0,4,5,1,11
1,1,13,1,0,0,1,5,85,11
1,1,7,1,1,0,1,5,85,11
1,1,4,0,2,0,1,5,85,11
1,1,13,1,2,0,1,5,85,11
1,1,3,0,5,1,1,5,85,11
1,1,1,0,5,1,1,5,85,11
1,1,22,0,0,0,1,5,1,11
1,1,8,1,4,0,1,5,73,11
2,1,19,1,2,0,1,5,78,11
2,1,18,1,3,0,1,5,64,11
2,1,13,1,6,1,1,5,92,11
2,1,10,1,0,0,1,5,120,11
3,2,1,0,1,0,1,5,19,11
3,2,2,0,3,0,1,5,92,11
3,2,3,0,0,0,1,5,120,11
3,2,19,1,2,0,1,5,96,11
3,2,19,1,2,0,1,5,64,11
3,2,22,0,2,0,1,5,96,11
3,2,2,0,4,0,1,5,19,9
3,2,6,0,5,1,1,5,56,11
4,2,19,1,2,0,2,5,39,9
4,2,2,0,1,0,2,5,76,9
4,2,22,0,6,1,2,5,19,11
5,2,8,1,5,1,2,5,56,11
5,2,23,0,5,1,2,5,64,11
5,2,12,1,4,0,2,5,87,11
5,2,3,0,0,0,2,5,19,11
5,2,13,1,1,0,2,5,73,11
5,2,19,1,3,0,2,5,87,11
5,2,1,0,5,1,2,5,120,11
5,2,2,0,5,1,2,5,74,11
5,2,11,1,6,1,2,5,87,11
5,2,20,1,6,1,2,5,87,11
5,2,13,1,6,1,2,5,87,11
5,2,12,1,6,1,2,5,87,11
5,2,22,0,6,1,2,5,92,11
5,2,9,1,0,0,2,5,87,11
5,2,20,1,2,0,2,5,92,11
5,2,19,1,3,0,2,5,87,11
5,2,18,1,3,0,2,5,87,11
5,2,13,1,3,0,2,5,87,11
5,2,2,0,1,0,2,5,96,11
5,2,13,1,1,0,2,5,39,11
5,2,23,0,3,0,2,5,63,11
5,2,22,0,5,1,2,5,87,11
5,2,19,1,6,1,2,5,87,11
5,2,17,1,6,1,2,5,87,11
5,2,21,0,6,1,2,5,87,11
6,3,0,0,1,0,2,5,13,11
6,3,1,0,3,0,2,5,87,11
6,3,17,1,4,0,2,5,87,11
6,3,17,1,5,1,2,5,87,9
6,3,17,1,2,0,2,5,87,11
6,3,22,0,3,0,2,5,92,11
6,3,10,1,5,1,2,5,87,11
6,3,20,1,5,1,2,5,87,11
6,3,4,0,2,0,2,5,92,11
6,3,23,0,6,1,2,5,87,11
7,3,23,0,5,1,3,5,87,11
7,3,21,0,6,1,3,5,87,11
7,3,11,1,2,0,3,5,87,11
7,3,14,1,2,0,3,5,87,11
7,3,15,1,2,0,3,5,87,11
7,3,4,0,4,0,3,5,64,11
7,3,4,0,6,1,3,5,120,11
7,3,18,1,3,0,3,5,87,11
7,3,14,1,3,0,3,5,17,9
7,3,17,1,3,0,3,5,87,11
7,3,1,0,5,1,3,5,85,11
7,3,1,0,6,1,3,5,87,11
7,3,1,0,0,0,3,5,92,11
7,3,19,1,4,0,3,5,64,11
7,3,21,0,3,0,3,5,64,11
8,3,7,1,1,0,3,5,56,11
8,3,0,0,1,0,3,5,92,11
8,3,17,1,2,0,3,5,19,11
8,3,5,0,2,0,3,5,8,11
8,3,14,1,3,0,3,5,56,11
8,3,5,0,6,1,3,5,64,11
8,3,9,1,1,0,3,5,70,11
8,3,5,0,4,0,3,5,19,11
8,3,9,1,5,1,3,5,85,11
8,3,13,1,0,0,3,5,87,11
9,4,5,0,3,0,3,5,87,11
9,4,21,0,1,0,3,5,19,11
9,4,12,1,1,0,3,5,87,11
9,4,15,1,2,0,3,5,73,11
9,4,21,0,4,0,3,5,39,11
9,4,14,1,6,1,3,5,92,11
9,4,19,1,6,1,3,5,92,11
9,4,11,1,1,0,3,5,19,11
9,4,14,1,3,0,3,5,19,11
10,4,7,1,0,0,4,5,63,11
10,4,13,1,4,0,4,5,64,9
10,4,21,0,4,0,4,5,100,11
10,4,13,1,2,0,4,5,64,11
12,1,18,1,3,0,4,5,73,11
12,1,1,0,4,0,4,5,85,11
12,1,0,0,5,1,4,5,85,11
12,1,1,0,5,1,4,5,85,11
12,1,3,0,6,1,4,5,85,11
12,1,15,1,0,0,4,5,56,11
12,1,9,1,2,0,4,5,92,11
12,1,0,0,0,0,4,5,85,11
12,1,3,0,2,0,4,5,85,11
1,1,20,1,1,0,1,5,64,11
1,1,17,1,3,0,1,5,87,11
1,1,9,1,3,0,1,5,87,11
1,1,18,1,1,0,1,5,87,9
1,1,13,1,5,1,1,5,73,11
2,1,13,1,1,0,1,5,73,11
2,1,9,1,5,1,1,5,87,11
2,1,9,1,6,1,1,5,96,11
3,2,17,1,1,0,1,5,1,11
3,2,9,1,0,0,1,5,64,11
3,2,11,1,3,0,1,5,70,11
3,2,8,1,3,0,1,5,104,11
4,2,20,1,1,0,2,5,73,9
4,2,8,1,3,0,2,5,71,11
4,2,9,1,6,1,2,5,64,11
4,2,11,1,1,0,2,5,64,11
4,2,18,1,2,0,2,5,33,11
4,2,19,1,3,0,2,5,87,11
5,2,22,0,6,1,2,5,117,11
5,2,21,0,0,0,2,5,63,11
5,2,20,1,1,0,2,5,87,11
5,2,15,1,4,0,2,5,87,11
5,2,0,0,6,1,2,5,87,11
5,2,16,1,0,0,2,5,7,11
5,2,2,0,1,0,2,5,64,11
5,2,15,1,5,1,2,5,64,11
5,2,16,1,2,0,2,5,87,11
5,2,6,0,6,1,2,5,78,11
5,2,17,1,0,0,2,5,87,11
5,2,20,1,2,0,2,5,87,11
6,3,16,1,4,0,2,5,87,11
6,3,0,0,1,0,2,5,73,11
6,3,16,1,2,0,2,5,87,11
6,3,19,1,0,0,2,5,87,11
6,3,6,0,2,0,2,5,99,9
6,3,21,0,4,0,2,5,87,11
6,3,22,0,0,0,2,5,63,11
6,3,9,1,0,0,2,5,39,11
7,3,14,1,3,0,3,5,87,11
8,3,12,1,6,1,3,5,96,11
8,3,10,1,1,0,3,5,96,11
8,3,6,0,6,1,3,5,119,11
8,3,14,1,1,0,3,5,96,11
9,4,19,1,3,0,3,5,87,11
9,4,13,1,0,0,3,5,111,9
9,4,22,0,4,0,3,5,87,11
9,4,8,1,2,0,3,5,82,8
9,4,19,1,2,0,3,5,87,11
10,4,17,1,1,0,4,5,85,11
10,4,15,1,1,0,4,5,87,11
10,4,18,1,5,1,4,5,73,11
10,4,10,1,6,1,4,5,64,11
11,4,18,1,5,1,4,5,90,11
11,4,22,0,1,0,4,5,96,11
11,4,5,0,5,1,4,5,85,11
12,1,0,0,2,0,4,5,85,11
12,1,14,1,3,0,4,5,85,11
12,1,14,1,2,0,4,5,64,9
12,1,7,1,0,0,4,5,73,9
12,1,18,1,5,1,4,5,96,11
1,1,16,1,5,1,1,5,87,11
1,1,20,1,0,0,1,5,19,11
1,1,19,1,1,0,1,5,87,11
1,1,9,1,5,1,1,5,87,11
1,1,20,1,1,0,1,5,87,11
1,1,20,1,3,0,1,5,73,11
1,1,14,1,3,0,1,5,85,11
1,1,7,1,6,1,1,5,87,11
1,1,9,1,0,0,1,5,87,11
1,1,16,1,1,0,1,5,87,11
1,1,19,1,4,0,1,5,87,11
1,1,15,1,5,1,1,5,87,11
1,1,16,1,5,1,1,5,87,11
1,1,19,1,5,1,1,5,87,11
1,1,3,0,6,1,1,5,87,11
1,1,5,0,6,1,1,5,87,11
1,1,17,1,0,0,1,5,87,11
1,1,21,0,0,0,1,5,87,11
1,1,14,1,4,0,1,5,120,11
2,1,18,1,4,0,1,5,87,11
2,1,11,1,5,1,1,5,87,11
2,1,22,0,6,1,1,5,22,8
2,1,4,0,1,0,1,5,87,11
2,1,20,1,1,0,1,5,87,11
2,1,13,1,5,1,1,5,120,9
2,1,20,1,5,1,1,5,19,11
2,1,1,0,6,1,1,5,87,11
2,1,3,0,4,0,1,5,71,11
2,1,7,1,6,1,1,5,71,11
2,1,21,0,1,0,1,5,73,11
2,1,14,1,6,1,1,5,87,11
3,2,20,1,0,0,1,5,87,11
3,2,17,1,1,0,1,5,87,11
3,2,12,1,2,0,1,5,87,11
3,2,18,1,2,0,1,5,87,11
3,2,6,0,3,0,1,5,74,11
3,2,15,1,3,0,1,5,87,11
3,2,21,0,3,0,1,5,87,11
3,2,8,1,4,0,1,5,87,11
3,2,12,1,4,0,1,5,87,11
3,2,13,1,4,0,1,5,87,11
3,2,18,1,4,0,1,5,87,11
3,2,19,1,4,0,1,5,87,11
3,2,1,0,5,1,1,5,19,11
3,2,18,1,5,1,1,5,87,11
3,2,19,1,0,0,1,5,92,11
3,2,14,1,0,0,1,5,87,11
3,2,17,1,0,0,1,5,87,11
3,2,19,1,0,0,1,5,87,11
3,2,20,1,1,0,1,5,87,11
3,2,9,1,2,0,1,5,87,11
3,2,10,1,2,0,1,5,87,11
3,2,16,1,2,0,1,5,87,11
3,2,17,1,2,0,1,5,87,11
3,2,13,1,3,0,1,5,87,11
3,2,18,1,3,0,1,5,87,11
3,2,16,1,3,0,1,5,87,11
3,2,9,1,5,1,1,5,71,11
3,2,20,1,5,1,1,5,87,11
3,2,20,1,4,0,1,5,85,11
3,2,10,1,6,1,1,5,117,11
3,2,16,1,3,0,1,5,71,11
3,2,12,1,0,0,1,5,87,11
3,2,23,0,2,0,1,5,87,11
4,2,17,1,3,0,2,5,87,11
4,2,20,1,5,1,2,5,87,11
4,2,20,1,6,1,2,5,73,11
4,2,11,1,0,0,2,5,34,11
4,2,13,1,1,0,2,5,19,11
4,2,20,1,3,0,2,5,94,11
4,2,16,1,3,0,2,5,103,9
4,2,18,1,5,1,2,5,87,11
4,2,12,1,6,1,2,5,87,11
4,2,17,1,6,1,2,5,87,11
4,2,19,1,6,1,2,5,87,11
4,2,10,1,1,0,2,5,87,11
4,2,20,1,2,0,2,5,87,11
4,2,21,0,3,0,2,5,87,11
4,2,19,1,5,1,2,5,117,11
4,2,15,1,0,0,2,5,87,11
4,2,20,1,0,0,2,5,87,11
4,2,12,1,1,0,2,5,87,11
4,2,12,1,3,0,2,5,87,11
4,2,10,1,3,0,2,5,73,11
4,2,12,1,4,0,2,5,87,11
4,2,21,0,0,0,2,5,77,11
4,2,20,1,2,0,2,5,96,11
4,2,23,0,2,0,2,5,87,11
4,2,17,1,3,0,2,5,87,11
5,2,14,1,5,1,2,5,87,11
5,2,4,0,6,1,2,5,85,11
5,2,9,1,1,0,2,5,96,11
5,2,12,1,3,0,2,5,87,11
5,2,12,1,3,0,2,5,87,11
5,2,1,0,6,1,2,5,13,11
5,2,1,0,6,1,2,5,87,9
5,2,13,1,6,1,2,5,19,11
5,2,20,1,1,0,2,5,87,11
5,2,23,0,1,0,2,5,87,11
5,2,13,1,2,0,2,5,87,11
5,2,19,1,3,0,2,5,87,11
5,2,1,0,3,0,2,5,71,11
5,2,8,1,4,0,2,5,87,11
5,2,13,1,4,0,2,5,87,11
5,2,18,1,4,0,2,5,87,11
5,2,14,1,6,1,2,5,87,11
5,2,13,1,6,1,2,5,87,9
5,2,22,0,6,1,2,5,87,11
5,2,20,1,6,1,2,5,87,11
5,2,23,0,6,1,2,5,87,11
5,2,12,1,0,0,2,5,120,11
5,2,8,1,2,0,2,5,87,11
5,2,21,0,2,0,2,5,96,11
5,2,20,1,3,0,2,5,87,11
5,2,17,1,3,0,2,5,87,11
5,2,20,1,4,0,2,5,87,11
5,2,14,1,1,0,2,5,87,9
5,2,17,1,4,0,2,5,87,11
5,2,13,1,5,1,2,5,87,11
5,2,12,1,5,1,2,5,87,11
6,3,9,1,1,0,2,5,87,11
6,3,17,1,2,0,2,5,87,11
6,3,8,1,3,0,2,5,87,11
6,3,8,1,4,0,2,5,87,11
6,3,21,0,5,1,2,5,13,11
6,3,16,1,6,1,2,5,87,11
6,3,15,1,0,0,2,5,87,11
6,3,13,1,1,0,2,5,87,11
6,3,2,0,3,0,2,5,85,11
6,3,16,1,3,0,2,5,87,11
6,3,15,1,1,0,2,5,87,9
6,3,15,1,1,0,2,5,87,11
6,3,19,1,2,0,2,5,71,11
6,3,11,1,4,0,2,5,13,8
6,3,13,1,0,0,2,5,87,11
6,3,22,0,0,0,2,5,19,11
6,3,16,1,1,0,2,5,1,11
6,3,16,1,2,0,2,5,39,11
6,3,11,1,3,0,2,5,87,11
6,3,7,1,4,0,2,5,87,11
6,3,13,1,6,1,2,5,87,11
6,3,16,1,0,0,2,5,87,11
6,3,16,1,1,0,2,5,96,11
6,3,11,1,2,0,2,5,85,11
7,3,2,0,4,0,3,5,87,11
7,3,23,0,0,0,3,5,87,11
7,3,13,1,2,0,3,5,22,9
7,3,19,1,3,0,3,5,87,11
7,3,14,1,4,0,3,5,3,9
7,3,12,1,5,1,3,5,19,9
7,3,17,1,5,1,3,5,73,11
7,3,12,1,6,1,3,5,87,11
7,3,19,1,0,0,3,5,87,11
7,3,10,1,2,0,3,5,87,11
7,3,23,0,2,0,3,5,45,8
7,3,18,1,4,0,3,5,87,11
7,3,21,0,4,0,3,5,87,9
7,3,16,1,0,0,3,5,99,11
7,3,0,0,1,0,3,5,19,11
7,3,4,0,2,0,3,5,19,11
7,3,13,1,2,0,3,5,87,11
7,3,8,1,3,0,3,5,73,11
7,3,1,0,5,1,3,5,71,11
7,3,1,0,5,1,3,5,19,11
7,3,13,1,5,1,3,5,87,11
7,3,22,0,6,1,3,5,87,11
7,3,17,1,3,0,3,5,71,11
7,3,15,1,5,1,3,5,87,11
8,3,12,1,6,1,3,5,73,11
8,3,12,1,2,0,3,5,87,11
8,3,19,1,2,0,3,5,87,11
8,3,13,1,4,0,3,5,87,9
8,3,10,1,0,0,3,5,87,11
8,3,4,0,4,0,3,5,120,11
8,3,18,1,6,1,3,5,87,11
9,4,10,1,6,1,3,5,73,11
9,4,6,0,0,0,3,5,87,11
9,4,10,1,1,0,3,5,87,11
9,4,4,0,1,0,3,5,87,11
9,4,0,0,6,1,3,5,19,11
9,4,18,1,2,0,3,5,13,8
9,4,21,0,4,0,3,5,73,11
9,4,12,1,6,1,3,5,87,11
9,4,14,1,0,0,3,5,13,11
9,4,19,1,2,0,3,5,13,11
9,4,1,0,2,0,3,5,45,8
9,4,6,0,3,0,3,5,87,11
9,4,14,1,4,0,3,5,71,11
9,4,13,1,4,0,3,5,87,11
9,4,12,1,6,1,3,5,87,11
9,4,13,1,2,0,3,5,120,11
9,4,6,0,2,0,3,5,87,9
9,4,7,1,2,0,3,5,87,11
10,4,15,1,1,0,4,5,87,11
10,4,9,1,3,0,4,5,87,11
10,4,7,1,4,0,4,5,19,11
10,4,9,1,4,0,4,5,120,11
10,4,21,0,5,1,4,5,120,11
10,4,20,1,6,1,4,5,19,11
10,4,21,0,6,1,4,5,19,11
10,4,20,1,1,0,4,5,87,11
10,4,10,1,3,0,4,5,120,11
11,4,11,1,0,0,4,5,87,11
11,4,18,1,0,0,4,5,87,11
11,4,1,0,3,0,4,5,71,11
11,4,17,1,6,1,4,5,87,11
11,4,4,0,0,0,4,5,85,11
11,4,0,0,0,0,4,5,22,11
11,4,13,1,5,1,4,5,73,11
11,4,13,1,1,0,4,5,87,11
11,4,11,1,3,0,4,5,87,11
11,4,15,1,3,0,4,5,87,11
11,4,16,1,6,1,4,5,87,11
11,4,16,1,6,1,4,5,87,11
12,1,17,1,6,1,4,5,19,11
12,1,17,1,6,1,4,5,20,11
12,1,11,1,4,0,4,5,87,11
12,1,13,1,0,0,4,5,87,11
12,1,11,1,4,0,4,5,19,11
12,1,4,0,1,0,4,5,19,11
12,1,0,0,5,1,4,5,71,11
1,1,14,1,4,0,1,5,96,11
1,1,12,1,5,1,1,5,27,11
1,1,16,1,5,1,1,5,96,11
1,1,2,0,6,1,1,5,19,11
1,1,12,1,0,0,1,5,3,11
1,1,10,1,5,1,1,5,87,9
1,1,17,1,5,1,1,5,55,11
1,1,21,0,4,0,1,5,87,11
2,1,17,1,3,0,1,5,87,11
2,1,12,1,6,1,1,5,87,11
2,1,11,1,3,0,1,5,96,11
2,1,17,1,5,1,1,5,96,11
2,1,14,1,6,1,1,5,111,9
2,1,19,1,0,0,1,5,87,11
2,1,18,1,4,0,1,5,7,11
3,2,23,0,1,0,1,5,96,11
3,2,9,1,2,0,1,5,87,11
3,2,12,1,2,0,1,5,87,11
3,2,19,1,2,0,1,5,87,11
3,2,19,1,2,0,1,5,87,11
3,2,13,1,3,0,1,5,3,11
3,2,7,1,5,1,1,5,120,11
3,2,10,1,5,1,1,5,120,11
3,2,19,1,0,0,1,5,27,11
3,2,14,1,2,0,1,5,120,11
3,2,14,1,2,0,1,5,87,11
3,2,9,1,4,0,1,5,73,11
3,2,20,1,2,0,1,5,62,11
3,2,14,1,4,0,1,5,96,11
3,2,11,1,4,0,1,5,34,9
3,2,14,1,5,1,1,5,117,11
3,2,19,1,5,1,1,5,87,11
4,2,9,1,4,0,2,5,96,11
4,2,4,0,5,1,2,5,19,11
4,2,19,1,0,0,2,5,3,11
4,2,22,0,0,0,2,5,3,11
4,2,14,1,4,0,2,5,3,11
4,2,5,0,4,0,2,5,62,11
4,2,12,1,6,1,2,5,3,11
4,2,15,1,1,0,2,5,96,11
4,2,12,1,2,0,2,5,3,11
4,2,21,0,4,0,2,5,85,11
4,2,15,1,5,1,2,5,87,11
4,2,10,1,6,1,2,5,85,11
4,2,15,1,2,0,2,5,35,9
4,2,21,0,2,0,2,5,120,11
4,2,16,1,4,0,2,5,85,11
4,2,14,1,0,0,2,5,87,9
4,2,17,1,0,0,2,5,87,11
4,2,19,1,3,0,2,5,87,11
5,2,12,1,6,1,2,5,96,11
5,2,18,1,0,0,2,5,87,11
5,2,14,1,2,0,2,5,96,11
5,2,19,1,2,0,2,5,87,11
5,2,17,1,3,0,2,5,87,11
5,2,9,1,6,1,2,5,13,11
5,2,13,1,6,1,2,5,87,9
5,2,14,1,1,0,2,5,96,11
5,2,7,1,2,0,2,5,3,11
5,2,12,1,5,1,2,5,87,11
5,2,20,1,5,1,2,5,120,11
5,2,15,1,0,0,2,5,87,11
5,2,12,1,1,0,2,5,117,11
5,2,17,1,1,0,2,5,87,11
5,2,9,1,2,0,2,5,117,11
5,2,23,0,2,0,2,5,87,11
5,2,14,1,0,0,2,5,96,11
6,3,12,1,1,0,2,5,96,11
6,3,17,1,1,0,2,5,3,11
6,3,14,1,2,0,2,5,3,11
6,3,21,0,2,0,2,5,19,11
6,3,15,1,5,1,2,5,87,11
6,3,7,1,5,1,2,5,89,9
6,3,9,1,3,0,2,5,73,11
6,3,17,1,2,0,2,5,96,11
7,3,15,1,5,1,3,5,35,11
7,3,11,1,5,1,3,5,96,11
7,3,14,1,2,0,3,5,19,11
7,3,18,1,3,0,3,5,87,11
7,3,10,1,4,0,3,5,27,11
7,3,10,1,0,0,3,5,96,11
7,3,14,1,0,0,3,5,96,11
7,3,13,1,4,0,3,5,87,11
7,3,1,0,3,0,3,5,3,11
8,3,9,1,0,0,3,5,3,11
8,3,1,0,3,0,3,5,3,11
8,3,11,1,4,0,3,5,73,9
8,3,9,1,6,1,3,5,96,11
8,3,16,1,3,0,3,5,87,11
8,3,18,1,5,1,3,5,3,11
8,3,13,1,5,1,3,5,85,11
8,3,19,1,6,1,3,5,87,11
8,3,13,1,6,1,3,5,96,11
8,3,0,0,2,0,3,5,96,11
9,4,2,0,4,0,3,5,96,11
9,4,11,1,5,1,3,5,87,11
9,4,16,1,1,0,3,5,87,11
9,4,10,1,2,0,3,5,13,11
9,4,20,1,5,1,3,5,96,11
9,4,21,0,0,0,3,5,87,11
9,4,10,1,3,0,3,5,3,11
10,4,1,0,6,1,4,5,64,11
10,4,20,1,3,0,4,5,87,11
10,4,8,1,1,0,4,5,87,11
10,4,20,1,3,0,4,5,27,11
10,4,7,1,4,0,4,5,96,11
10,4,19,1,3,0,4,5,3,11
10,4,14,1,4,0,4,5,87,11
10,4,17,1,6,1,4,5,73,11
11,4,15,1,0,0,4,5,3,11
11,4,15,1,1,0,4,5,96,11
11,4,19,1,1,0,4,5,3,11
11,4,12,1,2,0,4,5,3,11
11,4,15,1,2,0,4,5,96,11
11,4,18,1,5,1,4,5,87,11
11,4,19,1,6,1,4,5,96,11
11,4,14,1,3,0,4,5,3,11
11,4,17,1,4,0,4,5,3,11
11,4,21,0,6,1,4,5,96,11
11,4,9,1,6,1,4,5,3,11
11,4,15,1,0,0,4,5,3,11
11,4,16,1,1,0,4,5,87,9
11,4,16,1,1,0,4,5,94,11
11,4,14,1,4,0,4,5,85,11
11,4,6,0,5,1,4,5,73,9
12,1,8,1,3,0,4,5,96,11
12,1,15,1,1,0,4,5,3,11
12,1,15,1,2,0,4,5,117,11
12,1,19,1,2,0,4,5,3,11
12,1,10,1,3,0,4,5,87,11
12,1,17,1,3,0,4,5,117,11
12,1,15,1,5,1,4,5,120,11
12,1,10,1,6,1,4,5,64,11
12,1,10,1,1,0,4,5,3,11
12,1,14,1,3,0,4,5,27,11
12,1,7,1,3,0,4,5,3,11
12,1,11,1,3,0,4,5,3,11
12,1,6,0,4,0,4,5,3,11
12,1,17,1,6,1,4,5,117,11
12,1,18,1,4,0,4,5,3,11
1,1,10,1,6,1,1,5,85,11
2,1,15,1,6,1,1,5,87,11
3,2,15,1,3,0,1,5,96,11
3,2,2,0,5,1,1,5,19,11
4,2,14,1,3,0,2,5,96,11
5,2,21,0,5,1,2,5,73,11
6,3,18,1,2,0,2,5,87,11
8,3,23,0,1,0,3,5,96,11
11,4,12,1,5,1,4,5,87,11
11,4,19,1,0,0,4,5,96,11
12,1,17,1,5,1,4,5,120,11
3,2,16,1,0,0,1,5,85,8
3,2,16,1,0,0,1,5,85,8
4,2,15,1,1,0,2,5,85,11
5,2,13,1,6,1,2,5,71,11
6,3,22,0,2,0,2,5,71,11
7,3,20,1,1,0,3,5,85,11
7,3,12,1,3,0,3,5,71,11
7,3,14,1,0,0,3,5,19,11
8,3,4,0,6,1,3,5,71,11
8,3,1,0,2,0,3,5,19,9
8,3,14,1,4,0,3,5,71,11
8,3,10,1,1,0,3,5,19,11
9,4,11,1,1,0,3,5,71,11
10,4,17,1,0,0,4,5,71,11
11,4,23,0,5,1,4,5,71,11
1,1,23,0,5,1,1,5,96,11
1,1,14,1,5,1,1,5,73,11
1,1,12,1,5,1,1,5,73,11
1,1,15,1,5,1,1,5,19,8
1,1,21,0,3,0,1,5,87,11
1,1,12,1,5,1,1,5,87,11
2,1,15,1,0,0,1,5,87,11
2,1,13,1,2,0,1,5,45,11
2,1,21,0,0,0,1,5,85,11
3,2,10,1,3,0,1,5,19,11
3,2,11,1,2,0,1,5,87,9
3,2,11,1,6,1,1,5,87,11
3,2,13,1,3,0,1,5,87,11
3,2,15,1,4,0,1,5,96,11
3,2,19,1,4,0,1,5,85,11
3,2,18,1,6,1,1,5,87,11
3,2,19,1,0,0,1,5,87,11
4,2,20,1,3,0,2,5,87,11
4,2,12,1,0,0,2,5,87,11
4,2,19,1,5,1,2,5,73,11
4,2,13,1,2,0,2,5,117,11
4,2,20,1,4,0,2,5,96,11
4,2,11,1,3,0,2,5,19,11
4,2,1,0,5,1,2,5,87,11
4,2,11,1,5,1,2,5,104,11
4,2,1,0,5,1,2,5,85,11
5,2,21,0,5,1,2,5,85,11
5,2,17,1,2,0,2,5,96,11
5,2,19,1,2,0,2,5,96,11
5,2,17,1,3,0,2,5,85,11
5,2,17,1,3,0,2,5,85,11
5,2,11,1,4,0,2,5,70,11
5,2,16,1,4,0,2,5,87,11
5,2,14,1,1,0,2,5,13,11
6,3,14,1,1,0,2,5,87,11
6,3,13,1,4,0,2,5,96,11
6,3,13,1,3,0,2,5,87,11
6,3,6,0,6,1,2,5,87,11
6,3,13,1,3,0,2,5,87,11
6,3,21,0,6,1,2,5,19,11
6,3,14,1,6,1,2,5,73,11
7,3,14,1,3,0,3,5,69,11
7,3,13,1,4,0,3,5,87,11
7,3,16,1,0,0,3,5,87,11
7,3,4,0,0,0,3,5,19,9
7,3,14,1,3,0,3,5,87,11
7,3,16,1,5,1,3,5,73,11
7,3,10,1,0,0,3,5,64,11
8,3,16,1,3,0,3,5,19,9
8,3,20,1,3,0,3,5,120,11
8,3,22,0,5,1,3,5,87,11
8,3,19,1,1,0,3,5,96,11
9,4,7,1,1,0,3,5,96,11
9,4,20,1,5,1,3,5,96,11
9,4,13,1,5,1,3,5,87,11
9,4,2,0,0,0,3,5,85,11
9,4,13,1,0,0,3,5,96,11
10,4,4,0,4,0,4,5,111,9
10,4,8,1,0,0,4,5,71,11
11,4,14,1,1,0,4,5,13,11
11,4,5,0,4,0,4,5,104,11
11,4,22,0,5,1,4,5,29,11
11,4,0,0,6,1,4,5,96,11
11,4,17,1,6,1,4,5,87,11
11,4,14,1,1,0,4,5,96,9
11,4,13,1,3,0,4,5,73,11
12,1,19,1,3,0,4,5,87,11
12,1,18,1,3,0,4,5,73,9
12,1,11,1,4,0,4,5,87,11
12,1,12,1,1,0,4,5,87,11
12,1,1,0,4,0,4,5,19,11
12,1,8,1,1,0,4,5,19,9
1,1,15,1,4,0,1,5,8,11
1,1,13,1,6,1,1,5,73,11
1,1,15,1,6,1,1,5,87,11
1,1,17,1,3,0,1,5,87,11
1,1,11,1,4,0,1,5,87,11
1,1,15,1,3,0,1,5,87,11
1,1,16,1,3,0,1,5,96,11
1,1,9,1,6,1,1,5,120,11
1,1,11,1,6,1,1,5,120,11
1,1,17,1,6,1,1,5,87,11
1,1,19,1,1,0,1,5,73,11
1,1,20,1,1,0,1,5,120,11
1,1,13,1,0,0,1,5,87,11
1,1,17,1,4,0,1,5,87,11
1,1,19,1,5,1,1,5,73,11
1,1,12,1,6,1,1,5,96,11
1,1,15,1,6,1,1,5,96,11
2,1,9,1,5,1,1,5,105,11
2,1,21,0,3,0,1,5,19,11
2,1,15,1,6,1,1,5,87,11
2,1,15,1,2,0,1,5,87,11
2,1,9,1,4,0,1,5,87,11
2,1,9,1,6,1,1,5,87,11
2,1,16,1,6,1,1,5,87,11
2,1,21,0,6,1,1,5,87,11
3,2,15,1,0,0,1,5,19,11
3,2,15,1,0,0,1,5,87,11
3,2,16,1,0,0,1,5,87,11
3,2,14,1,2,0,1,5,87,11
3,2,17,1,2,0,1,5,45,11
3,2,17,1,2,0,1,5,73,11
3,2,18,1,3,0,1,5,87,11
3,2,9,1,5,1,1,5,87,11
3,2,12,1,5,1,1,5,87,11
3,2,15,1,6,1,1,5,87,11
4,2,9,1,4,0,2,5,85,11
4,2,9,1,6,1,2,5,87,11
4,2,14,1,2,0,2,5,96,11
4,2,13,1,5,1,2,5,3,11
4,2,18,1,6,1,2,5,87,11
4,2,11,1,0,0,2,5,87,11
4,2,20,1,0,0,2,5,87,11
4,2,11,1,1,0,2,5,3,11
4,2,12,1,3,0,2,5,87,11
4,2,21,0,4,0,2,5,85,11
4,2,0,0,6,1,2,5,73,11
4,2,14,1,6,1,2,5,51,11
4,2,16,1,6,1,2,5,96,11
4,2,13,1,0,0,2,5,87,11
4,2,16,1,4,0,2,5,51,11
5,2,10,1,2,0,2,5,85,11
5,2,18,1,3,0,2,5,3,11
5,2,20,1,0,0,2,5,87,11
5,2,11,1,1,0,2,5,87,11
5,2,1,0,3,0,2,5,96,11
5,2,20,1,3,0,2,5,87,11
5,2,16,1,5,1,2,5,87,11
5,2,20,1,6,1,2,5,96,11
5,2,12,1,0,0,2,5,96,11
5,2,17,1,0,0,2,5,87,11
5,2,23,0,2,0,2,5,87,11
5,2,21,0,3,0,2,5,87,11
6,3,17,1,6,1,2,5,87,11
6,3,11,1,0,0,2,5,118,11
6,3,15,1,1,0,2,5,87,11
6,3,16,1,1,0,2,5,3,11
6,3,13,1,6,1,2,5,96,11
6,3,15,1,2,0,2,5,87,11
6,3,23,0,4,0,2,5,73,11
6,3,13,1,0,0,2,5,120,11
7,3,23,0,5,1,3,5,87,11
7,3,21,0,5,1,3,5,87,11
7,3,10,1,5,1,3,5,87,11
7,3,5,0,6,1,3,5,96,11
7,3,19,1,0,0,3,5,19,11
7,3,19,1,3,0,3,5,87,11
7,3,2,0,6,1,3,5,73,11
7,3,9,1,2,0,3,5,87,11
7,3,14,1,4,0,3,5,87,11
8,3,14,1,1,0,3,5,87,8
8,3,16,1,4,0,3,5,87,8
8,3,20,1,5,1,3,5,34,11
8,3,15,1,3,0,3,5,96,11
8,3,7,1,6,1,3,5,71,11
8,3,12,1,0,0,3,5,73,8
9,4,22,0,5,1,3,5,87,8
9,4,13,1,5,1,3,5,96,11
9,4,14,1,0,0,3,5,47,11
9,4,8,1,0,0,3,5,87,11
9,4,2,0,0,0,3,5,96,11
9,4,19,1,2,0,3,5,96,11
9,4,8,1,2,0,3,5,3,11
9,4,17,1,6,1,3,5,8,11
9,4,9,1,0,0,3,5,87,11
9,4,15,1,0,0,3,5,87,11
9,4,19,1,4,0,3,5,87,11
9,4,0,0,0,0,3,5,73,11
9,4,21,0,0,0,3,5,96,11
10,4,21,0,5,1,4,5,87,11
10,4,23,0,6,1,4,5,87,11
10,4,21,0,6,1,4,5,87,11
10,4,23,0,6,1,4,5,87,11
10,4,2,0,2,0,4,5,87,11
10,4,2,0,2,0,4,5,87,11
10,4,13,1,4,0,4,5,87,11
10,4,17,1,6,1,4,5,87,11
10,4,0,0,3,0,4,5,73,11
10,4,12,1,3,0,4,5,87,11
10,4,9,1,4,0,4,5,87,11
10,4,22,0,1,0,4,5,87,11
10,4,18,1,3,0,4,5,87,11
10,4,13,1,0,0,4,5,87,11
10,4,22,0,6,1,4,5,87,11
11,4,20,1,0,0,4,5,87,11
11,4,13,1,3,0,4,5,56,11
11,4,17,1,5,1,4,5,3,11
11,4,15,1,1,0,4,5,73,11
11,4,7,1,4,0,4,5,96,11
11,4,6,0,1,0,4,5,87,11
11,4,17,1,1,0,4,5,87,11
11,4,16,1,0,0,4,5,87,11
11,4,16,1,0,0,4,5,87,11
11,4,16,1,6,1,4,5,56,11
11,4,12,1,6,1,4,5,85,11
11,4,10,1,1,0,4,5,87,11
12,1,11,1,3,0,4,5,73,11
12,1,17,1,3,0,4,5,87,11
12,1,9,1,0,0,4,5,87,11
12,1,22,0,2,0,4,5,87,11
12,1,0,0,0,0,4,5,85,11
12,1,18,1,2,0,4,5,73,11
12,1,7,1,4,0,4,5,87,11
12,1,10,1,4,0,4,5,87,11
12,1,8,1,3,0,4,5,19,11
12,1,15,1,5,1,4,5,97,11
12,1,23,0,2,0,4,5,14,11
12,1,19,1,4,0,4,5,85,11
1,1,11,1,6,1,1,5,71,9
1,1,1,0,0,0,1,5,87,9
1,1,3,0,5,1,1,5,96,11
1,1,15,1,6,1,1,5,87,8
1,1,13,1,4,0,1,5,87,11
1,1,12,1,0,0,1,5,64,11
1,1,18,1,5,1,1,5,87,11
1,1,13,1,3,0,1,5,64,11
1,1,20,1,5,1,1,5,87,11
1,1,1,0,6,1,1,5,85,11
2,1,8,1,0,0,1,5,96,11
2,1,2,0,1,0,1,5,96,11
2,1,17,1,3,0,1,5,87,11
2,1,13,1,5,1,1,5,87,11
2,1,11,1,6,1,1,5,96,11
2,1,13,1,0,0,1,5,87,11
2,1,13,1,0,0,1,5,87,11
2,1,19,1,0,0,1,5,87,11
2,1,20,1,3,0,1,5,87,11
2,1,16,1,6,1,1,5,85,11
2,1,21,0,0,0,1,5,85,11
2,1,19,1,6,1,1,5,64,11
2,1,11,1,1,0,1,5,64,11
2,1,12,1,5,1,1,5,87,11
2,1,20,1,5,1,1,5,87,11
2,1,17,1,6,1,1,5,96,11
2,1,18,1,6,1,1,5,39,11
2,1,17,1,6,1,1,5,85,11
3,2,15,1,0,0,1,5,87,11
3,2,14,1,0,0,1,5,87,9
3,2,13,1,5,1,1,5,87,9
3,2,11,1,6,1,1,5,87,9
3,2,1,0,6,1,1,5,87,11
3,2,15,1,6,1,1,5,87,11
3,2,23,0,0,0,1,5,87,11
3,2,21,0,3,0,1,5,64,11
3,2,12,1,4,0,1,5,87,11
3,2,7,1,4,0,1,5,96,11
3,2,9,1,0,0,1,5,87,11
3,2,14,1,1,0,1,5,87,11
3,2,11,1,3,0,1,5,87,11
3,2,16,1,4,0,1,5,87,11
3,2,14,1,5,1,1,5,87,11
3,2,17,1,5,1,1,5,87,11
3,2,15,1,6,1,1,5,87,11
4,2,21,0,4,0,2,5,87,11
4,2,21,0,0,0,2,5,96,11
4,2,6,0,3,0,2,5,71,11
4,2,21,0,3,0,2,5,64,11
4,2,18,1,4,0,2,5,64,11
4,2,18,1,5,1,2,5,87,11
4,2,12,1,6,1,2,5,85,11
4,2,12,1,6,1,2,5,87,11
4,2,13,1,1,0,2,5,87,11
4,2,9,1,1,0,2,5,87,11
4,2,19,1,1,0,2,5,87,11
4,2,9,1,3,0,2,5,64,11
4,2,20,1,3,0,2,5,87,11
4,2,21,0,4,0,2,5,71,11
4,2,13,1,6,1,2,5,19,11
4,2,12,1,2,0,2,5,87,11
4,2,14,1,4,0,2,5,87,11
4,2,9,1,6,1,2,5,87,11
4,2,15,1,6,1,2,5,87,11
4,2,12,1,1,0,2,5,87,11
4,2,12,1,2,0,2,5,87,11
5,2,13,1,5,1,2,5,87,11
5,2,17,1,6,1,2,5,87,11
5,2,9,1,6,1,2,5,87,11
5,2,12,1,3,0,2,5,85,11
5,2,17,1,6,1,2,5,19,11
5,2,22,0,2,0,2,5,45,11
5,2,10,1,3,0,2,5,87,11
5,2,13,1,6,1,2,5,87,11
5,2,12,1,5,1,2,5,87,11
5,2,16,1,6,1,2,5,87,11
5,2,19,1,6,1,2,5,87,11
5,2,7,1,0,0,2,5,19,11
5,2,19,1,0,0,2,5,87,11
5,2,20,1,0,0,2,5,87,11
5,2,9,1,1,0,2,5,19,11
5,2,16,1,4,0,2,5,87,11
5,2,18,1,5,1,2,5,87,11
5,2,20,1,6,1,2,5,87,11
5,2,11,1,6,1,2,5,87,11
6,3,23,0,1,0,2,5,87,11
6,3,16,1,4,0,2,5,87,11
6,3,16,1,5,1,2,5,87,11
6,3,21,0,5,1,2,5,19,11
6,3,5,0,0,0,2,5,85,11
6,3,21,0,0,0,2,5,87,11
6,3,14,1,1,0,2,5,87,11
6,3,14,1,3,0,2,5,64,11
6,3,13,1,3,0,2,5,87,11
6,3,12,1,0,0,2,5,87,11
6,3,20,1,0,0,2,5,87,11
6,3,23,0,2,0,2,5,87,11
6,3,21,0,2,0,2,5,87,11
6,3,22,0,3,0,2,5,87,11
6,3,12,1,6,1,2,5,87,11
6,3,15,1,1,0,2,5,87,11
6,3,18,1,3,0,2,5,85,11
6,3,21,0,5,1,2,5,87,11
6,3,12,1,5,1,2,5,87,11
6,3,17,1,0,0,2,5,87,11
6,3,8,1,1,0,2,5,87,11
6,3,13,1,2,0,2,5,87,11
7,3,14,1,4,0,3,5,87,11
7,3,21,0,0,0,3,5,87,11
7,3,18,1,1,0,3,5,87,11
7,3,20,1,2,0,3,5,87,11
7,3,21,0,3,0,3,5,87,11
7,3,12,1,5,1,3,5,87,11
7,3,23,0,0,0,3,5,85,11
7,3,21,0,2,0,3,5,87,9
7,3,19,1,3,0,3,5,71,11
7,3,8,1,3,0,3,5,87,11
7,3,15,1,4,0,3,5,87,11
7,3,13,1,4,0,3,5,87,11
7,3,4,0,5,1,3,5,87,11
7,3,19,1,5,1,3,5,73,11
7,3,4,0,6,1,3,5,87,9
7,3,20,1,0,0,3,5,85,11
7,3,14,1,3,0,3,5,22,11
7,3,8,1,3,0,3,5,87,11
7,3,20,1,5,1,3,5,87,11
7,3,12,1,6,1,3,5,73,11
7,3,17,1,1,0,3,5,87,11
7,3,12,1,2,0,3,5,87,11
7,3,7,1,2,0,3,5,87,9
7,3,23,0,4,0,3,5,87,11
8,3,11,1,0,0,3,5,87,11
8,3,16,1,0,0,3,5,87,11
8,3,20,1,0,0,3,5,87,11
8,3,23,0,0,0,3,5,87,11
8,3,10,1,1,0,3,5,87,11
8,3,11,1,1,0,3,5,85,11
8,3,15,1,4,0,3,5,87,11
8,3,12,1,5,1,3,5,87,11
8,3,17,1,6,1,3,5,87,11
8,3,13,1,0,0,3,5,87,11
8,3,17,1,2,0,3,5,87,11
8,3,20,1,3,0,3,5,87,11
8,3,16,1,3,0,3,5,87,11
8,3,15,1,1,0,3,5,87,11
8,3,16,1,3,0,3,5,87,11
8,3,10,1,0,0,3,5,87,11
8,3,9,1,1,0,3,5,87,11
8,3,15,1,1,0,3,5,87,11
9,4,8,1,2,0,3,5,85,11
9,4,11,1,4,0,3,5,87,11
9,4,13,1,4,0,3,5,87,11
9,4,14,1,4,0,3,5,19,11
9,4,8,1,5,1,3,5,73,8
9,4,13,1,1,0,3,5,64,11
9,4,16,1,4,0,3,5,87,11
9,4,15,1,5,1,3,5,87,11
9,4,3,0,0,0,3,5,71,11
9,4,8,1,3,0,3,5,87,11
10,4,8,1,5,1,4,5,3,9
10,4,6,0,5,1,4,5,64,11
10,4,18,1,6,1,4,5,13,11
10,4,11,1,0,0,4,5,87,11
10,4,19,1,1,0,4,5,87,11
10,4,14,1,4,0,4,5,87,11
10,4,20,1,6,1,4,5,87,8
10,4,10,1,6,1,4,5,87,11
10,4,9,1,3,0,4,5,47,11
10,4,15,1,4,0,4,5,85,11
10,4,7,1,6,1,4,5,64,11
10,4,14,1,6,1,4,5,64,11
10,4,16,1,3,0,4,5,71,9
10,4,13,1,4,0,4,5,87,11
10,4,19,1,6,1,4,5,71,11
10,4,22,0,4,0,4,5,85,11
11,4,10,1,0,0,4,5,85,11
11,4,8,1,0,0,4,5,64,11
11,4,21,0,2,0,4,5,64,11
11,4,11,1,5,1,4,5,73,11
11,4,21,0,5,1,4,5,85,11
11,4,16,1,0,0,4,5,87,11
11,4,17,1,1,0,4,5,87,11
11,4,12,1,3,0,4,5,87,11
11,4,12,1,3,0,4,5,87,11
11,4,17,1,5,1,4,5,87,11
11,4,11,1,5,1,4,5,96,11
11,4,17,1,6,1,4,5,87,11
11,4,14,1,1,0,4,5,87,11
11,4,8,1,5,1,4,5,87,11
12,1,9,1,4,0,4,5,87,11
12,1,16,1,4,0,4,5,87,11
12,1,18,1,6,1,4,5,85,11
12,1,16,1,6,1,4,5,85,11
12,1,11,1,2,0,4,5,87,11
12,1,17,1,4,0,4,5,87,11
12,1,20,1,4,0,4,5,85,11
12,1,16,1,4,0,4,5,87,11
12,1,16,1,5,1,4,5,87,11
12,1,18,1,6,1,4,5,39,11
12,1,16,1,6,1,4,5,96,11
12,1,16,1,0,0,4,5,87,11
12,1,9,1,0,0,4,5,87,9
12,1,16,1,1,0,4,5,13,9
12,1,12,1,4,0,4,5,85,11
12,1,20,1,4,0,4,5,73,11
1,1,10,1,5,1,1,5,87,11
1,1,15,1,6,1,1,5,73,11
1,1,12,1,0,0,1,5,87,11
1,1,20,1,4,0,1,5,64,11
1,1,15,1,6,1,1,5,73,11
1,1,11,1,6,1,1,5,87,11
1,1,7,1,0,0,1,5,87,11
1,1,18,1,0,0,1,5,87,11
1,1,7,1,1,0,1,5,87,11
1,1,5,0,6,1,1,5,19,11
1,1,17,1,6,1,1,5,120,11
1,1,9,1,0,0,1,5,87,11
1,1,12,1,1,0,1,5,87,11
1,1,13,1,3,0,1,5,87,11
1,1,9,1,5,1,1,5,87,11
1,1,3,0,6,1,1,5,73,11
1,1,15,1,3,0,1,5,87,11
2,1,1,0,1,0,1,5,96,11
2,1,12,1,3,0,1,5,47,11
2,1,10,1,3,0,1,5,85,11
2,1,20,1,5,1,1,5,85,11
2,1,16,1,4,0,1,5,73,11
2,1,16,1,6,1,1,5,73,11
2,1,17,1,1,0,1,5,87,11
2,1,18,1,2,0,1,5,87,11
2,1,12,1,6,1,1,5,87,11
2,1,13,1,6,1,1,5,87,11
3,2,15,1,2,0,1,5,87,11
3,2,16,1,2,0,1,5,87,11
3,2,13,1,3,0,1,5,85,11
3,2,9,1,6,1,1,5,87,11
3,2,10,1,6,1,1,5,87,11
3,2,18,1,1,0,1,5,73,11
3,2,12,1,2,0,1,5,87,11
3,2,19,1,4,0,1,5,73,11
3,2,16,1,4,0,1,5,87,11
3,2,11,1,4,0,1,5,87,11
3,2,18,1,4,0,1,5,87,11
3,2,19,1,4,0,1,5,73,11
3,2,19,1,4,0,1,5,87,11
3,2,22,0,5,1,1,5,87,11
3,2,1,0,5,1,1,5,73,11
3,2,16,1,0,0,1,5,85,11
3,2,15,1,1,0,1,5,73,11
3,2,12,1,2,0,1,5,87,11
3,2,18,1,6,1,1,5,87,11
3,2,16,1,6,1,1,5,85,11
3,2,21,0,1,0,1,5,73,11
3,2,16,1,1,0,1,5,87,11
3,2,21,0,2,0,1,5,73,11
3,2,18,1,2,0,1,5,87,11
3,2,13,1,4,0,1,5,87,11
3,2,18,1,6,1,1,5,87,11
3,2,11,1,2,0,1,5,73,11
4,2,2,0,3,0,2,5,92,11
4,2,15,1,4,0,2,5,87,11
4,2,15,1,4,0,2,5,87,11
4,2,7,1,4,0,2,5,85,11
4,2,21,0,4,0,2,5,73,11
4,2,19,1,5,1,2,5,87,11
4,2,20,1,5,1,2,5,85,11
4,2,2,0,0,0,2,5,85,11
4,2,11,1,0,0,2,5,87,11
4,2,11,1,0,0,2,5,87,11
4,2,12,1,0,0,2,5,85,11
4,2,18,1,0,0,2,5,87,11
4,2,19,1,4,0,2,5,87,11
4,2,17,1,4,0,2,5,73,11
4,2,20,1,6,1,2,5,87,11
4,2,13,1,2,0,2,5,87,11
4,2,21,0,3,0,2,5,87,11
4,2,15,1,3,0,2,5,87,9
4,2,2,0,3,0,2,5,87,11
4,2,20,1,4,0,2,5,87,11
4,2,12,1,5,1,2,5,87,11
4,2,17,1,6,1,2,5,73,11
4,2,21,0,6,1,2,5,87,11
4,2,14,1,0,0,2,5,87,9
4,2,11,1,1,0,2,5,19,11
4,2,19,1,1,0,2,5,87,11
4,2,11,1,1,0,2,5,35,9
4,2,13,1,4,0,2,5,87,11
4,2,20,1,4,0,2,5,85,11
4,2,23,0,6,1,2,5,87,11
4,2,19,1,0,0,2,5,87,11
4,2,15,1,0,0,2,5,87,11
4,2,21,0,0,0,2,5,87,11
4,2,16,1,1,0,2,5,87,11
4,2,19,1,3,0,2,5,87,11
4,2,20,1,3,0,2,5,87,11
5,2,12,1,5,1,2,5,87,11
5,2,23,0,5,1,2,5,73,11
5,2,12,1,6,1,2,5,87,11
5,2,22,0,6,1,2,5,85,11
5,2,20,1,0,0,2,5,87,11
5,2,22,0,3,0,2,5,85,11
5,2,21,0,3,0,2,5,73,11
5,2,21,0,4,0,2,5,73,11
5,2,20,1,5,1,2,5,73,9
5,2,19,1,5,1,2,5,87,9
5,2,15,1,1,0,2,5,96,11
5,2,10,1,2,0,2,5,87,11
5,2,13,1,6,1,2,5,73,11
5,2,20,1,2,0,2,5,87,11
5,2,6,0,5,1,2,5,87,9
5,2,3,0,5,1,2,5,87,11
5,2,11,1,6,1,2,5,87,11
6,3,12,1,1,0,2,5,87,11
6,3,12,1,2,0,2,5,96,11
6,3,19,1,2,0,2,5,87,11
6,3,13,1,3,0,2,5,73,11
6,3,15,1,3,0,2,5,87,8
6,3,19,1,4,0,2,5,87,11
6,3,13,1,5,1,2,5,87,11
6,3,0,0,0,0,2,5,85,11
6,3,17,1,0,0,2,5,87,11
6,3,15,1,2,0,2,5,87,11
6,3,11,1,4,0,2,5,96,11
6,3,9,1,5,1,2,5,87,11
6,3,15,1,6,1,2,5,87,11
6,3,16,1,2,0,2,5,87,9
6,3,9,1,3,0,2,5,85,11
6,3,21,0,3,0,2,5,73,11
6,3,22,0,3,0,2,5,87,11
6,3,21,0,0,0,2,5,87,11
6,3,23,0,1,0,2,5,85,11
6,3,23,0,4,0,2,5,85,11
6,3,17,1,4,0,2,5,87,11
7,3,13,1,5,1,3,5,85,11
7,3,18,1,0,0,3,5,87,11
7,3,3,0,0,0,3,5,85,11
7,3,19,1,2,0,3,5,87,11
7,3,2,0,5,1,3,5,85,11
7,3,13,1,6,1,3,5,87,11
7,3,13,1,2,0,3,5,87,11
7,3,18,1,6,1,3,5,73,9
7,3,19,1,2,0,3,5,87,11
7,3,15,1,2,0,3,5,85,11
8,3,10,1,6,1,3,5,96,11
8,3,22,0,6,1,3,5,87,11
8,3,18,1,6,1,3,5,73,8
8,3,11,1,1,0,3,5,96,11
8,3,8,1,3,0,3,5,87,11
8,3,2,0,5,1,3,5,87,11
8,3,7,1,5,1,3,5,73,11
8,3,21,0,5,1,3,5,87,11
8,3,18,1,6,1,3,5,87,11
8,3,9,1,2,0,3,5,87,11
8,3,22,0,2,0,3,5,64,11
8,3,18,1,4,0,3,5,87,11
8,3,1,0,0,0,3,5,87,11
8,3,12,1,0,0,3,5,87,11
8,3,21,0,1,0,3,5,41,11
8,3,12,1,3,0,3,5,87,11
8,3,0,0,5,1,3,5,87,11
9,4,5,0,5,1,3,5,64,11
9,4,12,1,6,1,3,5,73,11
9,4,10,1,1,0,3,5,85,11
9,4,13,1,5,1,3,5,85,11
9,4,19,1,5,1,3,5,64,11
9,4,20,1,5,1,3,5,87,11
9,4,12,1,2,0,3,5,87,11
9,4,19,1,4,0,3,5,87,11
9,4,12,1,4,0,3,5,87,11
10,4,10,1,5,1,4,5,87,11
10,4,19,1,0,0,4,5,73,11
10,4,9,1,4,0,4,5,87,11
10,4,18,1,5,1,4,5,87,11
10,4,21,0,5,1,4,5,22,11
10,4,11,1,0,0,4,5,87,11
10,4,22,0,2,0,4,5,96,11
10,4,23,0,2,0,4,5,96,11
10,4,23,0,4,0,4,5,96,11
10,4,12,1,0,0,4,5,96,11
10,4,3,0,4,0,4,5,87,11
11,4,18,1,0,0,4,5,87,11
11,4,18,1,0,0,4,5,87,11
11,4,10,1,0,0,4,5,87,11
11,4,9,1,2,0,4,5,87,11
11,4,13,1,3,0,4,5,73,11
11,4,15,1,4,0,4,5,87,11
11,4,13,1,5,1,4,5,96,11
11,4,16,1,5,1,4,5,96,11
11,4,20,1,3,0,4,5,73,11
11,4,13,1,5,1,4,5,87,11
11,4,15,1,5,1,4,5,87,11
11,4,22,0,6,1,4,5,87,11
11,4,12,1,0,0,4,5,96,11
11,4,19,1,1,0,4,5,73,11
11,4,7,1,1,0,4,5,87,11
11,4,21,0,4,0,4,5,73,11
11,4,23,0,2,0,4,5,73,11
11,4,15,1,1,0,4,5,87,11
12,1,20,1,3,0,4,5,96,11
12,1,16,1,6,1,4,5,87,11
12,1,12,1,6,1,4,5,96,11
12,1,10,1,6,1,4,5,96,11
12,1,1,0,5,1,4,5,96,11
12,1,15,1,6,1,4,5,87,11
12,1,18,1,1,0,4,5,73,11
12,1,19,1,1,0,4,5,87,11
12,1,15,1,0,0,4,5,87,11
12,1,7,1,0,0,4,5,87,11
12,1,14,1,2,0,4,5,87,11
12,1,9,1,4,0,4,5,87,11
12,1,13,1,4,0,4,5,87,11
1,1,10,1,1,0,1,42,104,11
1,1,7,1,5,1,1,42,85,11
1,1,13,1,6,1,1,42,85,11
1,1,17,1,6,1,1,42,13,11
1,1,22,0,6,1,1,42,85,11
1,1,12,1,1,0,1,42,39,9
1,1,17,1,3,0,1,42,85,11
1,1,20,1,3,0,1,42,39,11
2,1,12,1,4,0,1,42,87,11
2,1,18,1,4,0,1,42,73,9
2,1,20,1,4,0,1,42,71,9
2,1,13,1,5,1,1,42,87,11
2,1,18,1,5,1,1,42,39,11
2,1,18,1,0,0,1,42,39,9
2,1,5,0,3,0,1,42,85,11
2,1,15,1,5,1,1,42,87,11
2,1,14,1,6,1,1,42,85,11
2,1,1,0,3,0,1,42,85,11
2,1,0,0,5,1,1,42,96,11
2,1,5,0,5,1,1,42,56,11
3,2,11,1,0,0,1,42,85,11
3,2,14,1,2,0,1,42,85,11
3,2,9,1,2,0,1,42,96,11
3,2,19,1,6,1,1,42,64,11
3,2,17,1,0,0,1,42,64,11
3,2,19,1,3,0,1,42,39,11
3,2,12,1,4,0,1,42,96,11
3,2,15,1,5,1,1,42,19,11
3,2,12,1,6,1,1,42,96,11
3,2,17,1,6,1,1,42,96,11
3,2,20,1,1,0,1,42,96,11
4,2,12,1,5,1,2,42,85,11
4,2,17,1,0,0,2,42,85,11
4,2,15,1,2,0,2,42,13,11
4,2,5,0,5,1,2,42,19,9
4,2,5,0,5,1,2,42,19,11
4,2,19,1,6,1,2,42,63,11
4,2,2,0,6,1,2,42,73,11
5,2,18,1,6,1,2,42,29,11
5,2,18,1,2,0,2,42,39,11
5,2,11,1,5,1,2,42,47,11
5,2,13,1,6,1,2,42,19,11
5,2,19,1,5,1,2,42,64,11
5,2,16,1,3,0,2,42,85,11
5,2,12,1,0,0,2,42,85,11
6,3,19,1,5,1,2,42,3,11
6,3,16,1,0,0,2,42,85,11
6,3,14,1,2,0,2,42,106,11
6,3,15,1,3,0,2,42,3,11
6,3,14,1,5,1,2,42,73,9
6,3,13,1,1,0,2,42,19,11
7,3,16,1,3,0,3,42,96,11
7,3,0,0,5,1,3,42,85,11
7,3,11,1,3,0,3,42,87,11
7,3,20,1,4,0,3,42,73,11
7,3,1,0,3,0,3,42,96,11
7,3,4,0,0,0,3,42,85,11
7,3,0,0,1,0,3,42,85,11
7,3,0,0,1,0,3,42,85,11
7,3,10,1,1,0,3,42,96,11
7,3,20,1,1,0,3,42,85,11
8,3,22,0,1,0,3,42,85,11
8,3,18,1,3,0,3,42,87,11
8,3,16,1,4,0,3,42,104,11
8,3,23,0,5,1,3,42,96,11
8,3,13,1,0,0,3,42,73,11
8,3,2,0,2,0,3,42,85,11
8,3,3,0,2,0,3,42,85,11
8,3,3,0,2,0,3,42,85,11
8,3,6,0,6,1,3,42,87,11
9,4,2,0,5,1,3,42,101,11
9,4,12,1,0,0,3,42,19,9
9,4,19,1,3,0,3,42,96,11
9,4,22,0,3,0,3,42,85,11
9,4,16,1,0,0,3,42,87,11
9,4,2,0,6,1,3,42,96,11
9,4,15,1,1,0,3,42,87,11
10,4,20,1,4,0,4,42,39,11
10,4,5,0,6,1,4,42,19,11
10,4,11,1,1,0,4,42,3,11
10,4,21,0,1,0,4,42,85,11
10,4,16,1,2,0,4,42,85,11
10,4,11,1,3,0,4,42,96,11
10,4,18,1,3,0,4,42,71,11
10,4,12,1,0,0,4,42,73,8
10,4,16,1,0,0,4,42,85,11
10,4,9,1,1,0,4,42,71,11
10,4,12,1,6,1,4,42,73,11
11,4,16,1,0,0,4,42,71,11
11,4,23,0,2,0,4,42,19,11
11,4,20,1,3,0,4,42,85,11
11,4,18,1,0,0,4,42,87,11
11,4,23,0,4,0,4,42,85,11
11,4,16,1,5,1,4,42,85,11
11,4,17,1,1,0,4,42,71,11
11,4,10,1,6,1,4,42,96,11
11,4,10,1,2,0,4,42,96,11
11,4,17,1,2,0,4,42,64,11
12,1,12,1,3,0,4,42,73,11
12,1,18,1,6,1,4,42,64,11
12,1,3,0,4,0,4,42,85,11
12,1,15,1,0,0,4,42,73,11
12,1,15,1,5,1,4,42,13,11
12,1,19,1,3,0,4,42,19,11
1,1,18,1,5,1,1,42,85,11
2,1,19,1,2,0,1,42,85,11
2,1,16,1,6,1,1,42,12,8
2,1,20,1,6,1,1,42,73,11
3,2,23,0,5,1,1,42,120,11
5,2,18,1,1,0,2,42,104,11
5,2,22,0,5,1,2,42,85,11
6,3,13,1,3,0,2,42,85,11
7,3,23,0,4,0,3,42,13,8
8,3,17,1,6,1,3,42,104,11
8,3,20,1,6,1,3,42,87,11
8,3,19,1,4,0,3,42,104,11
8,3,19,1,2,0,3,42,87,11
10,4,0,0,0,0,4,42,47,11
10,4,20,1,3,0,4,42,73,11
10,4,14,1,1,0,4,42,85,11
10,4,13,1,0,0,4,42,3,11
11,4,10,1,5,1,4,42,73,8
11,4,12,1,5,1,4,42,118,11
11,4,0,0,1,0,4,42,19,11
11,4,7,1,1,0,4,42,85,11
11,4,14,1,1,0,4,42,3,11
11,4,20,1,6,1,4,42,73,11
12,1,10,1,4,0,4,42,73,11
12,1,16,1,5,1,4,42,73,11
12,1,21,0,5,1,4,42,120,11
12,1,14,1,2,0,4,42,87,11
3,2,18,1,1,0,1,42,62,11
3,2,12,1,6,1,1,42,73,11
3,2,19,1,6,1,1,42,19,11
3,2,16,1,3,0,1,42,62,11
4,2,19,1,2,0,2,42,19,11
4,2,20,1,2,0,2,42,19,11
6,3,12,1,2,0,2,42,87,11
9,4,19,1,3,0,3,42,12,8
10,4,15,1,4,0,4,42,12,9
10,4,13,1,5,1,4,42,12,11
10,4,22,0,0,0,4,42,96,11
10,4,12,1,4,0,4,42,71,11
12,1,15,1,5,1,4,42,73,11
12,1,16,1,1,0,4,42,71,11
2,1,17,1,3,0,1,42,104,11
3,2,15,1,2,0,1,42,96,11
3,2,20,1,4,0,1,42,85,11
5,2,23,0,0,0,2,42,45,11
5,2,20,1,1,0,2,42,87,11
7,3,16,1,6,1,3,42,85,11
8,3,19,1,0,0,3,42,73,9
8,3,13,1,1,0,3,42,87,11
8,3,3,0,2,0,3,42,19,11
8,3,19,1,6,1,3,42,87,11
9,4,19,1,2,0,3,42,19,11
9,4,22,0,3,0,3,42,96,11
10,4,17,1,6,1,4,42,25,11
10,4,11,1,2,0,4,42,71,11
11,4,15,1,3,0,4,42,96,11
1,1,16,1,4,0,1,21,64,11
1,1,20,1,4,0,1,21,87,11
1,1,12,1,5,1,1,21,85,11
1,1,18,1,0,0,1,21,96,11
1,1,17,1,1,0,1,21,87,11
1,1,10,1,4,0,1,21,85,11
1,1,11,1,4,0,1,21,87,11
2,1,10,1,0,0,1,21,87,11
2,1,20,1,3,0,1,21,6,11
2,1,15,1,4,0,1,21,87,11
2,1,12,1,6,1,1,21,87,11
2,1,15,1,2,0,1,21,96,11
2,1,10,1,3,0,1,21,96,11
2,1,18,1,3,0,1,21,96,11
2,1,21,0,5,1,1,21,64,11
2,1,13,1,6,1,1,21,96,11
2,1,14,1,6,1,1,21,96,11
2,1,19,1,6,1,1,21,96,11
3,2,11,1,2,0,1,21,64,11
3,2,6,0,3,0,1,21,39,8
3,2,11,1,6,1,1,21,71,11
3,2,16,1,2,0,1,21,96,11
3,2,19,1,2,0,1,21,96,11
3,2,17,1,2,0,1,21,85,11
3,2,9,1,4,0,1,21,92,11
4,2,18,1,5,1,2,21,96,11
5,2,12,1,4,0,2,21,73,11
5,2,20,1,6,1,2,21,105,11
5,2,22,0,6,1,2,21,96,11
6,3,6,0,2,0,2,21,71,11
6,3,12,1,1,0,2,21,64,11
7,3,17,1,3,0,3,21,87,11
7,3,10,1,5,1,3,21,85,11
7,3,20,1,0,0,3,21,73,11
7,3,11,1,4,0,3,21,96,11
8,3,21,0,0,0,3,21,71,11
8,3,15,1,3,0,3,21,96,11
8,3,19,1,3,0,3,21,64,11
9,4,15,1,3,0,3,21,71,11
9,4,15,1,4,0,3,21,64,11
9,4,17,1,0,0,3,21,71,11
9,4,17,1,0,0,3,21,96,11
9,4,17,1,3,0,3,21,73,11
9,4,23,0,3,0,3,21,64,11
10,4,17,1,5,1,4,21,85,11
10,4,0,0,6,1,4,21,71,11
10,4,7,1,0,0,4,21,64,11
10,4,13,1,0,0,4,21,71,11
11,4,13,1,0,0,4,21,71,9
11,4,20,1,4,0,4,21,96,11
11,4,10,1,6,1,4,21,85,11
12,1,18,1,4,0,4,21,85,11
12,1,17,1,0,0,4,21,66,11
12,1,12,1,4,0,4,21,101,11
12,1,12,1,5,1,4,21,85,11
12,1,16,1,5,1,4,21,96,11
12,1,12,1,6,1,4,21,85,11
12,1,21,0,0,0,4,21,85,11
2,1,19,1,3,0,1,21,39,9
3,2,14,1,2,0,1,21,96,11
3,2,16,1,2,0,1,21,87,11
3,2,13,1,4,0,1,21,96,11
3,2,0,0,0,0,1,21,64,11
4,2,17,1,1,0,2,21,96,11
7,3,10,1,4,0,3,21,19,11
7,3,14,1,5,1,3,21,96,11
7,3,11,1,5,1,3,21,87,11
8,3,14,1,1,0,3,21,87,11
8,3,21,0,3,0,3,21,71,11
9,4,21,0,4,0,3,21,81,11
11,4,1,0,0,0,4,21,66,11
12,1,11,1,3,0,4,21,19,11
12,1,18,1,3,0,4,21,87,11
1,1,22,0,0,0,1,21,104,11
1,1,23,0,1,0,1,21,73,11
1,1,14,1,5,1,1,21,71,9
1,1,14,1,5,1,1,21,66,11
1,1,22,0,6,1,1,21,1,11
1,1,15,1,1,0,1,21,73,11
1,1,1,0,4,0,1,21,85,11
1,1,19,1,4,0,1,21,120,11
2,1,14,1,5,1,1,21,73,11
2,1,14,1,0,0,1,21,120,11
2,1,14,1,3,0,1,21,64,9
2,1,18,1,5,1,1,21,120,11
2,1,12,1,0,0,1,21,120,11
2,1,15,1,2,0,1,21,96,11
3,2,18,1,1,0,1,21,103,11
3,2,8,1,5,1,1,21,73,8
4,2,16,1,2,0,2,21,73,11
4,2,18,1,0,0,2,21,104,11
4,2,9,1,3,0,2,21,73,11
5,2,11,1,1,0,2,21,87,11
5,2,14,1,3,0,2,21,64,11
6,3,21,0,6,1,2,21,48,11
6,3,17,1,2,0,2,21,96,9
7,3,11,1,6,1,3,21,45,8
7,3,17,1,5,1,3,21,120,11
7,3,13,1,6,1,3,21,96,11
7,3,13,1,6,1,3,21,96,11
7,3,23,0,5,1,3,21,49,11
8,3,15,1,1,0,3,21,87,9
8,3,18,1,0,0,3,21,104,11
8,3,22,0,5,1,3,21,104,11
8,3,11,1,1,0,3,21,19,11
9,4,14,1,5,1,3,21,87,11
9,4,14,1,5,1,3,21,87,11
9,4,18,1,3,0,3,21,117,11
9,4,22,0,4,0,3,21,72,11
9,4,7,1,5,1,3,21,64,11
9,4,12,1,5,1,3,21,85,11
9,4,18,1,6,1,3,21,87,11
9,4,12,1,1,0,3,21,96,11
11,4,21,0,1,0,4,21,120,11
11,4,11,1,1,0,4,21,96,11
12,1,14,1,3,0,4,21,39,9
12,1,19,1,3,0,4,21,104,11
12,1,17,1,0,0,4,21,64,9
1,1,22,0,0,0,1,21,56,8
2,1,18,1,5,1,1,21,73,11
2,1,20,1,5,1,1,21,87,11
2,1,20,1,0,0,1,21,85,11
2,1,21,0,2,0,1,21,85,11
3,2,11,1,1,0,1,21,73,11
3,2,10,1,4,0,1,21,85,11
3,2,0,0,5,1,1,21,87,11
4,2,18,1,3,0,2,21,118,11
5,2,16,1,1,0,2,21,73,8
5,2,4,0,2,0,2,21,85,11
5,2,15,1,5,1,2,21,87,11
6,3,12,1,5,1,2,21,85,11
7,3,11,1,4,0,3,21,13,11
7,3,12,1,5,1,3,21,96,11
9,4,0,0,6,1,3,21,47,8
9,4,18,1,0,0,3,21,87,11
9,4,11,1,2,0,3,21,87,11
11,4,16,1,0,0,4,21,73,11
11,4,19,1,3,0,4,21,96,11
12,1,21,0,5,1,4,21,63,11
12,1,14,1,4,0,4,21,73,11
1,1,8,1,1,0,1,9,73,11
1,1,21,0,2,0,1,9,47,11
1,1,7,1,4,0,1,9,13,11
1,1,7,1,5,1,1,9,73,11
1,1,9,1,6,1,1,9,73,11
1,1,11,1,4,0,1,9,64,11
1,1,13,1,4,0,1,9,73,11
1,1,22,0,4,0,1,9,85,11
1,1,19,1,5,1,1,9,12,11
2,1,15,1,3,0,1,9,19,11
2,1,10,1,4,0,1,9,65,11
2,1,22,0,4,0,1,9,85,11
2,1,20,1,6,1,1,9,64,9
2,1,7,1,1,0,1,9,19,11
2,1,11,1,1,0,1,9,73,11
2,1,11,1,1,0,1,9,64,11
2,1,13,1,2,0,1,9,96,11
2,1,15,1,3,0,1,9,96,11
2,1,7,1,6,1,1,9,47,11
2,1,18,1,6,1,1,9,12,11
2,1,2,0,1,0,1,9,96,11
2,1,12,1,5,1,1,9,96,11
2,1,14,1,6,1,1,9,96,11
3,2,8,1,0,0,1,9,85,11
3,2,16,1,2,0,1,9,96,11
3,2,11,1,4,0,1,9,73,11
3,2,19,1,4,0,1,9,96,11
3,2,18,1,5,1,1,9,87,11
3,2,20,1,6,1,1,9,13,9
3,2,13,1,0,0,1,9,96,11
3,2,20,1,5,1,1,9,8,11
3,2,22,0,0,0,1,9,64,11
3,2,12,1,2,0,1,9,87,11
3,2,13,1,2,0,1,9,39,11
3,2,14,1,2,0,1,9,73,11
3,2,21,0,3,0,1,9,96,11
3,2,16,1,5,1,1,9,73,11
3,2,18,1,1,0,1,9,64,11
3,2,16,1,2,0,1,9,64,11
3,2,17,1,4,0,1,9,96,11
3,2,13,1,5,1,1,9,73,11
3,2,18,1,5,1,1,9,73,11
3,2,20,1,5,1,1,9,96,11
3,2,8,1,0,0,1,9,73,9
3,2,19,1,2,0,1,9,96,11
4,2,20,1,1,0,2,9,64,11
4,2,9,1,4,0,2,9,84,11
4,2,13,1,5,1,2,9,92,11
5,2,21,0,6,1,2,9,19,11
5,2,20,1,3,0,2,9,96,11
5,2,15,1,3,0,2,9,96,11
5,2,20,1,4,0,2,9,87,11
5,2,20,1,6,1,2,9,96,11
5,2,11,1,0,0,2,9,71,11
5,2,22,0,0,0,2,9,96,11
5,2,1,0,2,0,2,9,73,8
5,2,10,1,2,0,2,9,13,11
5,2,13,1,4,0,2,9,87,11
5,2,12,1,5,1,2,9,56,11
5,2,19,1,5,1,2,9,73,11
5,2,19,1,5,1,2,9,73,11
5,2,12,1,2,0,2,9,87,11
5,2,22,0,2,0,2,9,71,11
5,2,20,1,4,0,2,9,64,11
5,2,12,1,5,1,2,9,78,11
5,2,21,0,5,1,2,9,64,11
5,2,10,1,4,0,2,9,87,11
5,2,16,1,5,1,2,9,73,11
6,3,7,1,1,0,2,9,96,11
6,3,10,1,3,0,2,9,64,11
6,3,17,1,6,1,2,9,47,11
6,3,11,1,0,0,2,9,73,11
6,3,8,1,2,0,2,9,19,11
6,3,19,1,4,0,2,9,109,9
6,3,22,0,5,1,2,9,85,11
6,3,11,1,2,0,2,9,96,11
7,3,17,1,3,0,3,9,87,11
7,3,19,1,3,0,3,9,73,11
7,3,17,1,4,0,3,9,19,11
7,3,7,1,6,1,3,9,62,11
7,3,23,0,6,1,3,9,73,11
7,3,8,1,3,0,3,9,62,11
7,3,19,1,5,1,3,9,87,11
7,3,2,0,1,0,3,9,19,11
7,3,11,1,1,0,3,9,96,11
7,3,11,1,1,0,3,9,87,11
7,3,11,1,4,0,3,9,96,11
7,3,14,1,2,0,3,9,64,11
7,3,18,1,3,0,3,9,96,11
7,3,20,1,3,0,3,9,19,11
7,3,11,1,4,0,3,9,73,11
8,3,12,1,6,1,3,9,96,11
8,3,8,1,0,0,3,9,87,11
8,3,19,1,2,0,3,9,87,11
8,3,16,1,3,0,3,9,87,11
8,3,16,1,4,0,3,9,96,11
8,3,12,1,5,1,3,9,87,11
8,3,16,1,0,0,3,9,96,11
8,3,10,1,1,0,3,9,87,11
8,3,10,1,3,0,3,9,47,11
8,3,21,0,3,0,3,9,96,11
8,3,17,1,4,0,3,9,94,11
8,3,0,0,5,1,3,9,104,11
8,3,18,1,1,0,3,9,73,11
8,3,16,1,2,0,3,9,87,11
8,3,5,0,3,0,3,9,104,11
8,3,9,1,3,0,3,9,96,11
8,3,16,1,3,0,3,9,19,11
8,3,11,1,4,0,3,9,87,11
8,3,16,1,5,1,3,9,87,11
8,3,14,1,2,0,3,9,87,11
8,3,8,1,3,0,3,9,73,11
8,3,0,0,3,0,3,9,120,11
9,4,18,1,2,0,3,9,87,11
9,4,20,1,6,1,3,9,96,11
9,4,19,1,6,1,3,9,62,11
9,4,12,1,2,0,3,9,96,11
9,4,19,1,2,0,3,9,12,9
9,4,0,0,6,1,3,9,96,11
9,4,17,1,6,1,3,9,104,11
9,4,22,0,5,1,3,9,13,9
9,4,13,1,6,1,3,9,96,11
9,4,16,1,0,0,3,9,25,11
9,4,12,1,1,0,3,9,96,11
10,4,19,1,4,0,4,9,62,11
10,4,14,1,6,1,4,9,87,11
10,4,16,1,1,0,4,9,108,11
10,4,12,1,2,0,4,9,71,11
10,4,4,0,3,0,4,9,73,9
10,4,19,1,3,0,4,9,96,11
10,4,8,1,4,0,4,9,96,11
10,4,11,1,0,0,4,9,14,11
10,4,12,1,4,0,4,9,120,11
10,4,16,1,5,1,4,9,104,11
10,4,12,1,6,1,4,9,120,11
10,4,19,1,1,0,4,9,96,11
10,4,18,1,3,0,4,9,96,11
11,4,9,1,1,0,4,9,87,11
11,4,16,1,1,0,4,9,64,11
11,4,15,1,2,0,4,9,85,11
11,4,18,1,3,0,4,9,96,11
11,4,19,1,4,0,4,9,73,11
11,4,13,1,6,1,4,9,64,11
11,4,17,1,6,1,4,9,78,11
11,4,15,1,2,0,4,9,64,11
11,4,15,1,2,0,4,9,19,11
11,4,16,1,5,1,4,9,96,11
11,4,11,1,1,0,4,9,13,11
11,4,13,1,2,0,4,9,64,11
11,4,16,1,4,0,4,9,85,11
11,4,17,1,4,0,4,9,96,11
11,4,23,0,4,0,4,9,96,11
11,4,9,1,5,1,4,9,96,11
12,1,16,1,4,0,4,9,25,11
12,1,17,1,0,0,4,9,73,11
12,1,23,0,6,1,4,9,104,11
12,1,9,1,2,0,4,9,73,11
12,1,6,0,4,0,4,9,73,11
12,1,9,1,4,0,4,9,73,11
12,1,11,1,0,0,4,9,85,11
12,1,21,0,1,0,4,9,96,11
12,1,19,1,4,0,4,9,64,11
12,1,17,1,6,1,4,9,92,11
12,1,7,1,0,0,4,9,64,11
12,1,19,1,2,0,4,9,96,11
12,1,1,0,3,0,4,9,73,11
12,1,8,1,3,0,4,9,73,11
2,1,11,1,0,0,1,9,96,11
3,2,0,0,5,1,1,9,73,11
3,2,14,1,6,1,1,9,62,11
3,2,10,1,1,0,1,9,64,11
3,2,8,1,1,0,1,9,73,11
4,2,14,1,5,1,2,9,87,11
4,2,18,1,6,1,2,9,96,11
5,2,10,1,6,1,2,9,96,11
7,3,12,1,6,1,3,9,87,11
8,3,7,1,4,0,3,9,87,11
8,3,17,1,0,0,3,9,87,11
9,4,15,1,3,0,3,9,73,11
10,4,20,1,2,0,4,9,73,11
10,4,18,1,1,0,4,9,19,9
11,4,17,1,3,0,4,9,96,11
11,4,20,1,5,1,4,9,65,9
2,1,11,1,5,1,1,9,14,11
9,4,9,1,3,0,3,9,33,11
11,4,18,1,0,0,4,9,73,11
1,1,14,1,5,1,1,37,73,11
1,1,12,1,2,0,1,37,64,11
1,1,17,1,2,0,1,37,92,11
1,1,20,1,1,0,1,37,19,11
1,1,3,0,0,0,1,37,96,11
1,1,15,1,0,0,1,37,96,11
1,1,18,1,1,0,1,37,19,11
1,1,16,1,2,0,1,37,96,11
1,1,17,1,6,1,1,37,96,11
1,1,15,1,0,0,1,37,19,11
1,1,18,1,0,0,1,37,13,11
1,1,13,1,1,0,1,37,96,11
1,1,14,1,2,0,1,37,92,11
1,1,17,1,3,0,1,37,39,8
1,1,20,1,5,1,1,37,39,11
2,1,19,1,0,0,1,37,47,8
2,1,13,1,3,0,1,37,19,11
2,1,15,1,6,1,1,37,13,11
2,1,19,1,6,1,1,37,96,11
2,1,19,1,0,0,1,37,19,11
2,1,15,1,1,0,1,37,7,11
2,1,14,1,5,1,1,37,64,11
2,1,1,0,6,1,1,37,39,9
2,1,17,1,5,1,1,37,64,11
2,1,17,1,6,1,1,37,87,11
2,1,20,1,6,1,1,37,64,11
2,1,15,1,0,0,1,37,96,11
2,1,20,1,0,0,1,37,96,11
2,1,14,1,1,0,1,37,87,11
2,1,15,1,1,0,1,37,13,11
2,1,16,1,1,0,1,37,96,11
2,1,9,1,3,0,1,37,87,11
2,1,16,1,5,1,1,37,96,11
3,2,21,0,1,0,1,37,39,11
3,2,13,1,2,0,1,37,96,11
3,2,8,1,4,0,1,37,71,11
3,2,18,1,4,0,1,37,71,11
3,2,19,1,4,0,1,37,96,11
3,2,19,1,4,0,1,37,96,11
3,2,12,1,5,1,1,37,73,11
3,2,12,1,6,1,1,37,71,11
3,2,14,1,6,1,1,37,64,11
3,2,12,1,1,0,1,37,64,11
3,2,13,1,1,0,1,37,73,11
3,2,18,1,1,0,1,37,71,11
3,2,17,1,2,0,1,37,96,11
3,2,17,1,0,0,1,37,87,11
3,2,18,1,0,0,1,37,64,11
3,2,12,1,4,0,1,37,73,11
3,2,12,1,5,1,1,37,92,11
3,2,16,1,5,1,1,37,39,11
3,2,11,1,6,1,1,37,92,11
3,2,11,1,6,1,1,37,96,11
3,2,19,1,1,0,1,37,39,11
3,2,12,1,3,0,1,37,71,11
3,2,10,1,4,0,1,37,56,11
3,2,19,1,4,0,1,37,71,11
3,2,19,1,5,1,1,37,13,11
3,2,20,1,5,1,1,37,73,11
3,2,11,1,6,1,1,37,96,11
3,2,14,1,6,1,1,37,96,11
3,2,13,1,2,0,1,37,96,11
3,2,15,1,2,0,1,37,96,11
4,2,21,0,2,0,2,37,39,11
4,2,2,0,6,1,2,37,94,11
4,2,21,0,0,0,2,37,96,11
4,2,15,1,4,0,2,37,87,11
4,2,23,0,1,0,2,37,19,11
4,2,17,1,2,0,2,37,87,11
4,2,19,1,3,0,2,37,73,11
4,2,16,1,4,0,2,37,96,11
5,2,12,1,2,0,2,37,96,11
5,2,20,1,6,1,2,37,92,11
5,2,19,1,5,1,2,37,71,11
5,2,19,1,6,1,2,37,87,11
5,2,20,1,6,1,2,37,96,11
5,2,20,1,0,0,2,37,96,11
5,2,17,1,2,0,2,37,87,11
5,2,21,0,2,0,2,37,92,11
5,2,14,1,3,0,2,37,87,11
5,2,15,1,3,0,2,37,96,11
5,2,13,1,4,0,2,37,56,11
5,2,17,1,5,1,2,37,73,11
5,2,10,1,1,0,2,37,96,11
5,2,16,1,1,0,2,37,96,11
5,2,18,1,2,0,2,37,87,11
5,2,22,0,5,1,2,37,96,11
6,3,12,1,3,0,2,37,19,11
6,3,22,0,3,0,2,37,96,11
6,3,20,1,4,0,2,37,96,11
6,3,15,1,0,0,2,37,64,11
6,3,10,1,1,0,2,37,96,11
6,3,12,1,3,0,2,37,92,11
6,3,23,0,3,0,2,37,73,11
6,3,11,1,6,1,2,37,96,11
6,3,14,1,1,0,2,37,47,11
6,3,18,1,3,0,2,37,87,11
6,3,14,1,6,1,2,37,96,11
6,3,15,1,2,0,2,37,96,11
7,3,10,1,3,0,3,37,96,11
7,3,11,1,5,1,3,37,96,11
7,3,0,0,6,1,3,37,104,11
7,3,18,1,6,1,3,37,96,11
7,3,11,1,0,0,3,37,96,11
7,3,11,1,0,0,3,37,19,11
7,3,22,0,0,0,3,37,71,11
7,3,19,1,1,0,3,37,96,11
7,3,16,1,2,0,3,37,96,11
7,3,18,1,3,0,3,37,73,11
7,3,19,1,4,0,3,37,92,11
7,3,13,1,5,1,3,37,96,11
7,3,14,1,5,1,3,37,96,11
7,3,11,1,6,1,3,37,96,11
7,3,17,1,6,1,3,37,96,11
7,3,23,0,6,1,3,37,96,11
7,3,11,1,0,0,3,37,96,11
7,3,15,1,0,0,3,37,96,11
7,3,19,1,0,0,3,37,96,11
7,3,19,1,2,0,3,37,96,11
7,3,8,1,3,0,3,37,96,11
7,3,18,1,3,0,3,37,96,11
7,3,14,1,4,0,3,37,96,11
7,3,20,1,4,0,3,37,96,11
7,3,10,1,5,1,3,37,96,11
7,3,12,1,5,1,3,37,96,11
7,3,18,1,5,1,3,37,96,11
7,3,18,1,5,1,3,37,96,11
7,3,3,0,5,1,3,37,45,9
7,3,5,0,6,1,3,37,45,11
7,3,14,1,6,1,3,37,96,11
7,3,13,1,6,1,3,37,96,11
7,3,16,1,0,0,3,37,96,11
7,3,16,1,0,0,3,37,96,11
7,3,18,1,0,0,3,37,96,11
7,3,13,1,1,0,3,37,96,11
7,3,19,1,1,0,3,37,96,11
7,3,18,1,2,0,3,37,87,11
7,3,13,1,3,0,3,37,96,11
7,3,19,1,3,0,3,37,96,11
7,3,8,1,4,0,3,37,96,11
7,3,13,1,4,0,3,37,96,11
7,3,15,1,4,0,3,37,96,11
7,3,16,1,4,0,3,37,96,11
7,3,17,1,4,0,3,37,96,11
7,3,17,1,4,0,3,37,96,11
7,3,20,1,4,0,3,37,96,11
7,3,22,0,4,0,3,37,64,11
7,3,17,1,5,1,3,37,96,11
7,3,20,1,6,1,3,37,96,11
7,3,21,0,6,1,3,37,96,11
7,3,12,1,0,0,3,37,96,11
7,3,11,1,0,0,3,37,96,11
7,3,16,1,0,0,3,37,96,11
7,3,21,0,0,0,3,37,96,11
7,3,10,1,1,0,3,37,96,11
7,3,11,1,1,0,3,37,96,11
7,3,12,1,1,0,3,37,96,11
7,3,16,1,1,0,3,37,64,11
7,3,19,1,1,0,3,37,118,11
7,3,17,1,2,0,3,37,96,11
7,3,15,1,3,0,3,37,96,11
7,3,11,1,4,0,3,37,96,11
7,3,14,1,4,0,3,37,87,11
7,3,15,1,4,0,3,37,19,11
7,3,16,1,4,0,3,37,96,11
7,3,19,1,4,0,3,37,87,11
7,3,13,1,5,1,3,37,96,11
7,3,16,1,5,1,3,37,96,11
7,3,16,1,5,1,3,37,96,11
7,3,21,0,5,1,3,37,96,11
7,3,23,0,5,1,3,37,96,11
7,3,18,1,5,1,3,37,19,11
8,3,12,1,6,1,3,37,96,11
8,3,18,1,0,0,3,37,96,11
8,3,22,0,0,0,3,37,96,11
8,3,17,1,1,0,3,37,96,11
8,3,10,1,2,0,3,37,96,11
8,3,12,1,2,0,3,37,96,11
8,3,15,1,2,0,3,37,96,11
8,3,23,0,2,0,3,37,96,11
8,3,7,1,3,0,3,37,96,11
8,3,18,1,3,0,3,37,96,11
8,3,8,1,4,0,3,37,96,11
8,3,16,1,4,0,3,37,96,11
8,3,16,1,4,0,3,37,96,11
8,3,20,1,6,1,3,37,87,11
8,3,21,0,6,1,3,37,96,11
8,3,17,1,0,0,3,37,96,11
8,3,19,1,0,0,3,37,96,11
8,3,21,0,0,0,3,37,96,11
8,3,20,1,2,0,3,37,96,11
8,3,0,0,5,1,3,37,96,11
8,3,14,1,5,1,3,37,96,11
8,3,13,1,5,1,3,37,96,11
8,3,19,1,5,1,3,37,96,11
8,3,21,0,0,0,3,37,73,11
8,3,16,1,1,0,3,37,96,11
8,3,19,1,1,0,3,37,96,11
8,3,7,1,2,0,3,37,96,11
8,3,15,1,2,0,3,37,19,11
8,3,9,1,3,0,3,37,96,11
8,3,23,0,3,0,3,37,73,11
8,3,10,1,4,0,3,37,92,11
8,3,12,1,4,0,3,37,87,11
8,3,12,1,4,0,3,37,87,11
8,3,16,1,4,0,3,37,96,11
8,3,12,1,5,1,3,37,64,11
8,3,17,1,5,1,3,37,96,11
8,3,19,1,5,1,3,37,96,11
8,3,20,1,5,1,3,37,96,11
8,3,23,0,5,1,3,37,96,11
8,3,16,1,6,1,3,37,96,11
8,3,17,1,6,1,3,37,96,11
8,3,12,1,0,0,3,37,96,11
8,3,18,1,0,0,3,37,87,11
8,3,16,1,1,0,3,37,96,11
8,3,17,1,1,0,3,37,96,11
8,3,21,0,1,0,3,37,47,11
8,3,12,1,2,0,3,37,96,11
8,3,21,0,2,0,3,37,96,11
8,3,23,0,2,0,3,37,96,11
8,3,7,1,3,0,3,37,92,11
8,3,13,1,4,0,3,37,96,11
8,3,20,1,5,1,3,37,96,11
8,3,6,0,6,1,3,37,14,8
8,3,20,1,6,1,3,37,96,11
8,3,10,1,0,0,3,37,96,11
8,3,11,1,0,0,3,37,87,11
8,3,15,1,0,0,3,37,96,11
8,3,23,0,0,0,3,37,96,11
8,3,8,1,1,0,3,37,96,11
9,4,11,1,2,0,3,37,87,11
9,4,13,1,2,0,3,37,87,11
9,4,14,1,3,0,3,37,96,11
9,4,10,1,4,0,3,37,47,11
9,4,16,1,4,0,3,37,96,11
9,4,22,0,5,1,3,37,96,11
9,4,23,0,5,1,3,37,96,11
9,4,19,1,6,1,3,37,96,11
9,4,7,1,0,0,3,37,96,11
9,4,10,1,0,0,3,37,96,11
9,4,15,1,0,0,3,37,96,11
9,4,22,0,0,0,3,37,78,11
9,4,19,1,1,0,3,37,96,11
9,4,17,1,3,0,3,37,96,11
9,4,1,0,3,0,3,37,96,11
9,4,14,1,3,0,3,37,87,11
9,4,18,1,6,1,3,37,96,11
9,4,10,1,0,0,3,37,96,11
9,4,16,1,0,0,3,37,96,11
9,4,9,1,1,0,3,37,104,11
9,4,13,1,1,0,3,37,92,11
9,4,10,1,4,0,3,37,64,11
9,4,21,0,4,0,3,37,96,11
9,4,20,1,6,1,3,37,96,11
9,4,13,1,0,0,3,37,96,11
9,4,17,1,2,0,3,37,87,11
9,4,19,1,2,0,3,37,96,11
9,4,10,1,3,0,3,37,87,9
9,4,16,1,3,0,3,37,96,11
9,4,19,1,3,0,3,37,96,11
10,4,16,1,5,1,4,37,87,11
10,4,22,0,5,1,4,37,87,11
10,4,16,1,6,1,4,37,87,11
10,4,12,1,6,1,4,37,96,11
10,4,12,1,6,1,4,37,96,11
10,4,18,1,6,1,4,37,96,11
10,4,16,1,6,1,4,37,96,11
10,4,16,1,0,0,4,37,87,8
10,4,19,1,0,0,4,37,96,11
10,4,17,1,1,0,4,37,96,11
10,4,18,1,2,0,4,37,96,11
10,4,9,1,3,0,4,37,19,11
10,4,17,1,3,0,4,37,87,11
10,4,18,1,3,0,4,37,87,11
10,4,17,1,5,1,4,37,64,11
10,4,21,0,6,1,4,37,96,11
10,4,5,0,1,0,4,37,104,11
10,4,0,0,1,0,4,37,96,11
10,4,23,0,1,0,4,37,64,11
10,4,12,1,1,0,4,37,71,11
10,4,17,1,1,0,4,37,73,11
10,4,14,1,1,0,4,37,96,11
10,4,17,1,1,0,4,37,96,11
10,4,21,0,1,0,4,37,92,11
10,4,21,0,2,0,4,37,64,11
10,4,15,1,3,0,4,37,87,11
10,4,17,1,4,0,4,37,71,11
10,4,18,1,6,1,4,37,39,11
11,4,14,1,2,0,4,37,39,11
11,4,0,0,6,1,4,37,64,11
11,4,17,1,1,0,4,37,87,11
11,4,13,1,2,0,4,37,96,11
11,4,15,1,2,0,4,37,92,11
11,4,18,1,2,0,4,37,19,11
11,4,19,1,3,0,4,37,64,11
11,4,17,1,4,0,4,37,45,11
11,4,13,1,6,1,4,37,96,11
11,4,15,1,6,1,4,37,96,11
11,4,20,1,6,1,4,37,71,11
11,4,6,0,3,0,4,37,96,11
11,4,17,1,5,1,4,37,22,11
11,4,20,1,5,1,4,37,92,11
11,4,11,1,6,1,4,37,92,11
11,4,18,1,0,0,4,37,92,11
12,1,17,1,5,1,4,37,92,11
12,1,13,1,4,0,4,37,64,11
12,1,19,1,6,1,4,37,118,11
12,1,15,1,1,0,4,37,21,11
12,1,12,1,2,0,4,37,92,11
12,1,10,1,4,0,4,37,73,11
12,1,17,1,4,0,4,37,19,11
12,1,11,1,0,0,4,37,92,11
12,1,23,0,0,0,4,37,64,11
12,1,13,1,3,0,4,37,96,11
12,1,18,1,3,0,4,37,87,11
12,1,12,1,3,0,4,37,19,11
12,1,11,1,6,1,4,37,71,11
12,1,17,1,0,0,4,37,39,11
12,1,13,1,2,0,4,37,73,11
12,1,21,0,2,0,4,37,39,11
12,1,10,1,3,0,4,37,56,11
12,1,18,1,4,0,4,37,92,11
12,1,17,1,4,0,4,37,85,11
9,4,2,0,1,0,3,37,22,11
9,4,16,1,4,0,3,37,87,11
1,1,19,1,3,0,1,37,13,9
2,1,12,1,5,1,1,37,87,11
3,2,17,1,5,1,1,37,85,11
4,2,20,1,4,0,2,37,87,11
6,3,17,1,5,1,2,37,104,11
8,3,15,1,2,0,3,37,96,11
8,3,17,1,6,1,3,37,3,11
8,3,11,1,4,0,3,37,96,11
9,4,14,1,2,0,3,37,87,11
9,4,16,1,6,1,3,37,96,11
9,4,10,1,5,1,3,37,96,11
9,4,14,1,2,0,3,37,96,11
10,4,15,1,4,0,4,37,104,11
10,4,16,1,0,0,4,37,96,11
11,4,15,1,3,0,4,37,96,11
11,4,13,1,2,0,4,37,96,11
12,1,14,1,4,0,4,37,85,11
12,1,12,1,1,0,4,37,87,11
1,1,17,1,0,0,1,11,73,11
1,1,22,0,4,0,1,11,19,11
1,1,12,1,5,1,1,11,85,11
1,1,11,1,0,0,1,11,87,11
1,1,12,1,5,1,1,11,39,11
1,1,11,1,1,0,1,11,85,11
1,1,19,1,2,0,1,11,120,11
1,1,21,0,2,0,1,11,120,11
1,1,4,0,6,1,1,11,7,11
1,1,12,1,4,0,1,11,96,11
2,1,7,1,0,0,1,11,104,11
2,1,19,1,6,1,1,11,96,11
2,1,15,1,6,1,1,11,96,11
2,1,22,0,1,0,1,11,87,11
2,1,18,1,2,0,1,11,120,11
2,1,0,0,3,0,1,11,120,11
2,1,13,1,6,1,1,11,85,11
2,1,12,1,6,1,1,11,85,11
3,2,20,1,1,0,1,11,64,11
3,2,19,1,4,0,1,11,96,11
3,2,14,1,4,0,1,11,96,11
3,2,21,0,4,0,1,11,120,11
3,2,19,1,5,1,1,11,120,11
3,2,5,0,1,0,1,11,104,11
3,2,8,1,6,1,1,11,85,11
3,2,23,0,0,0,1,11,85,11
3,2,19,1,3,0,1,11,85,11
3,2,12,1,6,1,1,11,85,11
3,2,16,1,1,0,1,11,64,11
4,2,11,1,6,1,2,11,120,11
4,2,23,0,1,0,2,11,85,11
4,2,16,1,2,0,2,11,87,11
4,2,15,1,2,0,2,11,120,11
4,2,23,0,4,0,2,11,85,11
4,2,14,1,6,1,2,11,104,11
4,2,11,1,1,0,2,11,27,11
4,2,11,1,2,0,2,11,96,11
4,2,4,0,3,0,2,11,73,8
4,2,23,0,4,0,2,11,120,11
5,2,22,0,5,1,2,11,64,11
5,2,14,1,3,0,2,11,64,11
5,2,1,0,0,0,2,11,71,8
5,2,12,1,5,1,2,11,85,11
6,3,9,1,3,0,2,11,96,11
6,3,16,1,2,0,2,11,96,11
6,3,16,1,0,0,2,11,85,11
6,3,18,1,3,0,2,11,13,11
6,3,14,1,3,0,2,11,71,11
6,3,8,1,5,1,2,11,81,9
7,3,20,1,3,0,3,11,96,11
7,3,13,1,5,1,3,11,56,11
7,3,19,1,6,1,3,11,74,11
7,3,20,1,2,0,3,11,96,11
7,3,18,1,4,0,3,11,96,11
7,3,16,1,1,0,3,11,96,11
7,3,22,0,1,0,3,11,87,11
8,3,12,1,2,0,3,11,96,11
8,3,10,1,2,0,3,11,63,11
8,3,13,1,1,0,3,11,87,11
8,3,17,1,5,1,3,11,96,11
8,3,0,0,0,0,3,11,96,11
8,3,2,0,0,0,3,11,96,11
8,3,18,1,4,0,3,11,96,11
8,3,17,1,6,1,3,11,96,11
8,3,13,1,2,0,3,11,85,11
8,3,15,1,1,0,3,11,96,11
9,4,16,1,4,0,3,11,96,11
9,4,1,0,6,1,3,11,120,11
9,4,2,0,6,1,3,11,87,11
9,4,10,1,1,0,3,11,96,11
9,4,18,1,1,0,3,11,25,11
10,4,11,1,6,1,4,11,87,9
10,4,11,1,0,0,4,11,96,11
10,4,15,1,1,0,4,11,96,11
10,4,19,1,2,0,4,11,64,11
10,4,2,0,4,0,4,11,96,11
10,4,8,1,1,0,4,11,87,11
10,4,18,1,1,0,4,11,19,11
10,4,13,1,0,0,4,11,19,11
11,4,15,1,5,1,4,11,96,11
11,4,14,1,0,0,4,11,71,11
11,4,17,1,0,0,4,11,96,11
11,4,19,1,4,0,4,11,96,11
11,4,20,1,6,1,4,11,96,11
11,4,12,1,3,0,4,11,96,11
11,4,14,1,4,0,4,11,47,11
12,1,20,1,2,0,4,11,47,11
12,1,13,1,2,0,4,11,96,11
12,1,7,1,5,1,4,11,92,11
12,1,17,1,2,0,4,11,85,11
12,1,17,1,6,1,4,11,85,11
12,1,19,1,1,0,4,11,96,11
12,1,4,0,2,0,4,11,64,11
12,1,9,1,2,0,4,11,96,11
12,1,13,1,5,1,4,11,92,11
12,1,10,1,1,0,4,11,71,11
4,2,16,1,0,0,2,11,64,11
7,3,18,1,1,0,3,11,56,11
3,2,13,1,3,0,1,11,73,11
3,2,22,0,4,0,1,11,85,11
4,2,0,0,0,0,2,11,96,11
5,2,21,0,1,0,2,11,85,11
5,2,21,0,1,0,2,11,85,11
5,2,19,1,4,0,2,11,104,11
6,3,10,1,2,0,2,11,99,11
7,3,9,1,0,0,3,11,96,11
9,4,8,1,3,0,3,11,104,11
1,1,17,1,4,0,1,11,73,11
1,1,19,1,6,1,1,11,19,9
1,1,20,1,6,1,1,11,120,11
1,1,11,1,1,0,1,11,73,11
1,1,12,1,5,1,1,11,73,9
1,1,6,0,1,0,1,11,73,11
1,1,6,0,4,0,1,11,85,11
2,1,9,1,0,0,1,11,64,11
2,1,18,1,4,0,1,11,87,11
2,1,15,1,6,1,1,11,85,11
2,1,17,1,1,0,1,11,85,11
2,1,10,1,3,0,1,11,85,11
3,2,17,1,1,0,1,11,85,11
3,2,10,1,3,0,1,11,64,11
3,2,9,1,2,0,1,11,104,11
3,2,18,1,1,0,1,11,87,11
3,2,12,1,5,1,1,11,85,11
4,2,11,1,6,1,2,11,73,11
4,2,15,1,1,0,2,11,87,11
5,2,13,1,3,0,2,11,22,11
5,2,15,1,5,1,2,11,87,11
5,2,17,1,2,0,2,11,71,11
5,2,17,1,2,0,2,11,13,11
5,2,18,1,4,0,2,11,3,11
5,2,18,1,4,0,2,11,7,11
5,2,18,1,4,0,2,11,13,11
6,3,14,1,4,0,2,11,71,11
6,3,16,1,5,1,2,11,96,11
6,3,17,1,6,1,2,11,7,11
6,3,11,1,3,0,2,11,22,11
6,3,14,1,3,0,2,11,19,11
7,3,13,1,0,0,3,11,96,11
7,3,16,1,3,0,3,11,87,11
7,3,6,0,2,0,3,11,85,11
7,3,13,1,4,0,3,11,3,11
7,3,1,0,1,0,3,11,3,11
7,3,7,1,5,1,3,11,3,11
8,3,10,1,6,1,3,11,64,11
8,3,12,1,6,1,3,11,87,11
8,3,20,1,2,0,3,11,104,11
8,3,1,0,5,1,3,11,13,9
8,3,17,1,3,0,3,11,19,11
8,3,15,1,4,0,3,11,87,11
8,3,4,0,0,0,3,11,87,11
9,4,11,1,6,1,3,11,87,9
9,4,9,1,4,0,3,11,13,11
11,4,19,1,0,0,4,11,22,11
11,4,7,1,3,0,4,11,85,11
11,4,13,1,5,1,4,11,20,11
11,4,21,0,6,1,4,11,64,11
11,4,8,1,4,0,4,11,56,9
11,4,10,1,4,0,4,11,87,11
11,4,22,0,6,1,4,11,73,11
12,1,15,1,3,0,4,11,85,11
8,3,11,1,0,0,3,11,87,11
9,4,17,1,6,1,3,11,19,9
9,4,18,1,6,1,3,11,96,11
9,4,16,1,2,0,3,11,104,11
11,4,3,0,1,0,4,11,104,11
1,1,14,1,5,1,1,11,39,11
1,1,14,1,0,0,1,11,120,11
1,1,18,1,4,0,1,11,92,11
1,1,8,1,0,0,1,11,39,11
3,2,9,1,6,1,1,11,73,8
3,2,14,1,4,0,1,11,73,11
4,2,21,0,0,0,2,11,73,11
5,2,9,1,1,0,2,11,87,11
5,2,13,1,2,0,2,11,3,9
6,3,13,1,0,0,2,11,85,11
6,3,20,1,0,0,2,11,85,11
6,3,22,0,1,0,2,11,120,11
6,3,9,1,5,1,2,11,96,11
6,3,19,1,6,1,2,11,73,9
7,3,15,1,5,1,3,11,96,11
7,3,10,1,4,0,3,11,13,11
7,3,14,1,3,0,3,11,87,11
7,3,13,1,1,0,3,11,96,11
7,3,15,1,1,0,3,11,87,11
7,3,12,1,4,0,3,11,87,11
7,3,14,1,4,0,3,11,87,11
8,3,19,1,3,0,3,11,19,11
8,3,13,1,1,0,3,11,96,11
8,3,18,1,6,1,3,11,20,11
9,4,15,1,6,1,3,11,87,9
9,4,16,1,4,0,3,11,78,11
9,4,16,1,6,1,3,11,96,11
10,4,19,1,0,0,4,11,120,11
10,4,19,1,1,0,4,11,73,11
10,4,16,1,2,0,4,11,64,11
11,4,8,1,3,0,4,11,96,11
11,4,22,0,3,0,4,11,73,11
11,4,11,1,0,0,4,11,73,11
12,1,11,1,5,1,4,11,92,11
12,1,10,1,6,1,4,11,92,11
12,1,20,1,0,0,4,11,64,11
2,1,12,1,1,0,1,11,19,9
3,2,19,1,5,1,1,11,73,11
3,2,16,1,6,1,1,11,62,11
3,2,19,1,5,1,1,11,13,11
5,2,21,0,1,0,2,11,73,8
6,3,19,1,5,1,2,11,12,11
7,3,21,0,6,1,3,11,71,11
7,3,10,1,5,1,3,11,42,11
8,3,15,1,2,0,3,11,96,11
8,3,15,1,3,0,3,11,96,11
8,3,11,1,4,0,3,11,12,9
9,4,12,1,5,1,3,11,12,9
9,4,19,1,1,0,3,11,96,11
10,4,20,1,5,1,4,11,73,11
1,1,15,1,4,0,1,19,64,11
1,1,18,1,4,0,1,19,56,11
1,1,23,0,0,0,1,19,63,9
1,1,16,1,0,0,1,19,56,11
1,1,12,1,5,1,1,19,64,11
1,1,1,0,6,1,1,19,64,11
1,1,7,1,5,1,1,19,64,11
1,1,17,1,6,1,1,19,77,11
1,1,20,1,6,1,1,19,64,11
1,1,23,0,0,0,1,19,120,11
1,1,19,1,2,0,1,19,64,11
1,1,5,0,5,1,1,19,71,11
1,1,21,0,1,0,1,19,39,11
1,1,6,0,2,0,1,19,39,11
2,1,10,1,2,0,1,19,71,11
2,1,19,1,2,0,1,19,73,11
2,1,23,0,4,0,1,19,85,11
2,1,7,1,5,1,1,19,96,11
2,1,16,1,2,0,1,19,85,11
2,1,20,1,3,0,1,19,120,11
2,1,1,0,6,1,1,19,64,11
2,1,16,1,0,0,1,19,120,11
2,1,17,1,0,0,1,19,64,9
2,1,1,0,2,0,1,19,19,11
2,1,16,1,2,0,1,19,64,11
2,1,21,0,2,0,1,19,64,11
2,1,1,0,3,0,1,19,64,11
2,1,5,0,3,0,1,19,19,11
2,1,23,0,4,0,1,19,56,11
2,1,1,0,6,1,1,19,19,11
2,1,0,0,6,1,1,19,86,11
3,2,19,1,0,0,1,19,92,11
3,2,22,0,1,0,1,19,64,11
3,2,5,0,2,0,1,19,19,11
3,2,10,1,2,0,1,19,47,11
3,2,23,0,2,0,1,19,64,11
3,2,9,1,3,0,1,19,120,11
3,2,20,1,5,1,1,19,96,11
3,2,21,0,0,0,1,19,64,11
3,2,21,0,1,0,1,19,64,11
3,2,20,1,5,1,1,19,64,11
3,2,5,0,3,0,1,19,64,9
3,2,11,1,3,0,1,19,96,11
3,2,22,0,3,0,1,19,64,11
3,2,1,0,4,0,1,19,19,11
3,2,18,1,5,1,1,19,64,11
3,2,20,1,5,1,1,19,19,11
3,2,14,1,6,1,1,19,64,11
3,2,19,1,0,0,1,19,64,11
3,2,19,1,6,1,1,19,92,11
3,2,3,0,6,1,1,19,39,9
3,2,6,0,2,0,1,19,86,11
4,2,12,1,3,0,2,19,29,11
4,2,13,1,3,0,2,19,30,11
4,2,12,1,6,1,2,19,64,11
4,2,19,1,1,0,2,19,71,11
4,2,15,1,3,0,2,19,19,11
4,2,20,1,4,0,2,19,73,11
4,2,2,0,6,1,2,19,120,11
4,2,4,0,0,0,2,19,85,9
4,2,9,1,2,0,2,19,64,11
4,2,4,0,4,0,2,19,85,11
4,2,4,0,4,0,2,19,47,11
5,2,1,0,0,0,2,19,74,11
5,2,10,1,0,0,2,19,64,11
5,2,12,1,0,0,2,19,73,11
5,2,0,0,1,0,2,19,96,11
5,2,20,1,2,0,2,19,37,9
5,2,0,0,4,0,2,19,85,11
5,2,0,0,4,0,2,19,120,11
5,2,1,0,4,0,2,19,64,11
5,2,22,0,4,0,2,19,56,11
5,2,20,1,5,1,2,19,64,11
5,2,16,1,5,1,2,19,64,9
5,2,19,1,0,0,2,19,74,11
5,2,22,0,0,0,2,19,64,11
5,2,23,0,0,0,2,19,120,11
5,2,0,0,1,0,2,19,108,11
5,2,13,1,3,0,2,19,73,11
5,2,23,0,5,1,2,19,120,11
5,2,18,1,0,0,2,19,85,11
5,2,3,0,3,0,2,19,120,11
5,2,3,0,3,0,2,19,63,11
6,3,22,0,3,0,2,19,96,11
6,3,8,1,6,1,2,19,64,9
6,3,0,0,2,0,2,19,74,11
6,3,1,0,4,0,2,19,56,11
6,3,2,0,3,0,2,19,19,11
6,3,2,0,4,0,2,19,19,11
6,3,14,1,4,0,2,19,87,11
6,3,23,0,0,0,2,19,64,11
6,3,2,0,0,0,2,19,29,11
7,3,12,1,6,1,3,19,85,11
7,3,1,0,0,0,3,19,120,11
7,3,21,0,0,0,3,19,92,11
7,3,12,1,1,0,3,19,64,11
7,3,8,1,3,0,3,19,64,9
7,3,14,1,4,0,3,19,19,11
7,3,2,0,0,0,3,19,85,11
7,3,10,1,1,0,3,19,63,11
7,3,11,1,1,0,3,19,64,11
8,3,0,0,1,0,3,19,64,11
8,3,15,1,0,0,3,19,96,11
8,3,20,1,6,1,3,19,64,11
8,3,11,1,4,0,3,19,64,11
8,3,5,0,0,0,3,19,73,11
8,3,15,1,4,0,3,19,52,11
8,3,22,0,5,1,3,19,56,11
9,4,20,1,2,0,3,19,13,11
9,4,17,1,2,0,3,19,64,11
9,4,14,1,4,0,3,19,96,11
9,4,2,0,2,0,3,19,73,11
9,4,20,1,3,0,3,19,64,11
9,4,10,1,4,0,3,19,19,11
9,4,5,0,6,1,3,19,56,11
9,4,17,1,6,1,3,19,64,11
9,4,3,0,4,0,3,19,29,11
9,4,9,1,4,0,3,19,47,11
9,4,16,1,3,0,3,19,64,11
10,4,17,1,4,0,4,19,64,11
10,4,3,0,4,0,4,19,64,11
10,4,0,0,5,1,4,19,64,11
10,4,0,0,6,1,4,19,64,11
10,4,12,1,0,0,4,19,57,11
10,4,15,1,0,0,4,19,64,11
10,4,23,0,1,0,4,19,120,11
10,4,1,0,2,0,4,19,120,11
10,4,19,1,4,0,4,19,120,11
10,4,5,0,6,1,4,19,120,11
10,4,2,0,2,0,4,19,64,11
10,4,19,1,3,0,4,19,71,11
10,4,14,1,4,0,4,19,73,11
10,4,0,0,3,0,4,19,75,11
10,4,16,1,3,0,4,19,64,11
10,4,1,0,3,0,4,19,85,11
10,4,1,0,5,1,4,19,85,11
10,4,0,0,1,0,4,19,71,11
10,4,12,1,3,0,4,19,96,11
10,4,13,1,3,0,4,19,64,11
10,4,20,1,4,0,4,19,92,11
10,4,15,1,5,1,4,19,64,11
10,4,3,0,5,1,4,19,85,11
11,4,8,1,0,0,4,19,64,11
11,4,18,1,5,1,4,19,64,11
11,4,2,0,1,0,4,19,64,11
11,4,9,1,2,0,4,19,64,11
11,4,11,1,2,0,4,19,56,11
11,4,6,0,3,0,4,19,119,11
11,4,13,1,4,0,4,19,48,11
11,4,19,1,5,1,4,19,47,11
11,4,12,1,6,1,4,19,121,11
11,4,20,1,6,1,4,19,85,11
11,4,3,0,0,0,4,19,64,11
11,4,17,1,2,0,4,19,47,11
11,4,1,0,5,1,4,19,87,11
11,4,13,1,3,0,4,19,64,11
11,4,2,0,4,0,4,19,63,11
12,1,15,1,4,0,4,19,64,11
12,1,14,1,5,1,4,19,64,11
12,1,22,0,5,1,4,19,85,11
12,1,11,1,6,1,4,19,64,11
12,1,22,0,3,0,4,19,85,11
12,1,11,1,0,0,4,19,64,11
12,1,18,1,2,0,4,19,71,11
12,1,18,1,3,0,4,19,73,11
12,1,22,0,4,0,4,19,39,11
12,1,20,1,2,0,4,19,80,11
1,1,12,1,4,0,1,19,92,11
1,1,21,0,4,0,1,19,64,11
1,1,16,1,4,0,1,19,96,11
1,1,4,0,6,1,1,19,3,9
1,1,16,1,6,1,1,19,96,11
1,1,3,0,0,0,1,19,19,11
1,1,11,1,0,0,1,19,2,11
1,1,18,1,2,0,1,19,64,11
1,1,20,1,2,0,1,19,64,11
1,1,15,1,4,0,1,19,105,11
1,1,21,0,4,0,1,19,96,11
1,1,18,1,5,1,1,19,3,11
1,1,16,1,5,1,1,19,92,11
1,1,22,0,1,0,1,19,39,11
1,1,20,1,1,0,1,19,92,11
1,1,3,0,2,0,1,19,64,11
1,1,7,1,3,0,1,19,85,11
1,1,20,1,3,0,1,19,39,11
1,1,15,1,4,0,1,19,96,11
1,1,20,1,4,0,1,19,7,11
1,1,16,1,4,0,1,19,13,11
1,1,18,1,4,0,1,19,39,11
1,1,0,0,4,0,1,19,96,11
1,1,1,0,5,1,1,19,120,11
1,1,9,1,5,1,1,19,39,11
1,1,15,1,5,1,1,19,64,11
1,1,17,1,6,1,1,19,92,11
1,1,0,0,6,1,1,19,85,11
1,1,19,1,6,1,1,19,64,11
1,1,22,0,6,1,1,19,63,11
1,1,19,1,0,0,1,19,73,11
1,1,7,1,1,0,1,19,13,9
1,1,15,1,1,0,1,19,3,11
1,1,20,1,2,0,1,19,96,11
1,1,14,1,2,0,1,19,87,11
1,1,8,1,2,0,1,19,64,11
1,1,19,1,3,0,1,19,64,11
1,1,21,0,4,0,1,19,7,11
1,1,10,1,5,1,1,19,64,11
1,1,5,0,6,1,1,19,96,11
1,1,1,0,6,1,1,19,87,11
1,1,3,0,6,1,1,19,96,11
1,1,23,0,1,0,1,19,73,11
1,1,17,1,1,0,1,19,22,11
1,1,6,0,2,0,1,19,96,11
1,1,20,1,2,0,1,19,105,11
1,1,22,0,3,0,1,19,3,11
1,1,1,0,5,1,1,19,7,11
1,1,21,0,5,1,1,19,92,11
1,1,22,0,6,1,1,19,7,11
1,1,15,1,6,1,1,19,3,11
2,1,9,1,3,0,1,19,64,11
2,1,18,1,3,0,1,19,56,11
2,1,19,1,6,1,1,19,96,11
2,1,18,1,0,0,1,19,73,11
2,1,11,1,0,0,1,19,122,11
2,1,2,0,1,0,1,19,96,11
2,1,9,1,2,0,1,19,96,11
2,1,14,1,3,0,1,19,87,11
2,1,0,0,4,0,1,19,92,11
2,1,12,1,5,1,1,19,39,11
2,1,17,1,6,1,1,19,64,11
2,1,6,0,1,0,1,19,14,8
2,1,17,1,1,0,1,19,92,11
2,1,8,1,1,0,1,19,92,11
2,1,13,1,2,0,1,19,96,11
2,1,2,0,2,0,1,19,92,11
2,1,4,0,2,0,1,19,87,11
2,1,11,1,2,0,1,19,105,11
2,1,13,1,3,0,1,19,87,11
2,1,18,1,4,0,1,19,64,11
2,1,21,0,4,0,1,19,87,11
2,1,18,1,4,0,1,19,92,11
2,1,23,0,5,1,1,19,7,11
2,1,12,1,6,1,1,19,92,11
2,1,9,1,6,1,1,19,64,11
2,1,15,1,0,0,1,19,87,11
2,1,6,0,1,0,1,19,64,11
2,1,2,0,1,0,1,19,87,11
2,1,18,1,1,0,1,19,45,11
2,1,20,1,3,0,1,19,38,11
2,1,14,1,3,0,1,19,96,11
2,1,19,1,4,0,1,19,96,11
2,1,19,1,4,0,1,19,19,11
2,1,20,1,5,1,1,19,71,11
2,1,10,1,5,1,1,19,87,11
2,1,1,0,5,1,1,19,64,11
2,1,2,0,5,1,1,19,19,9
2,1,20,1,6,1,1,19,73,11
2,1,19,1,6,1,1,19,92,11
2,1,11,1,6,1,1,19,96,11
3,2,14,1,0,0,1,19,87,11
3,2,21,0,1,0,1,19,92,11
3,2,8,1,1,0,1,19,92,11
3,2,21,0,1,0,1,19,22,11
3,2,15,1,3,0,1,19,87,9
3,2,14,1,3,0,1,19,22,11
3,2,14,1,3,0,1,19,64,11
3,2,11,1,3,0,1,19,64,11
3,2,17,1,3,0,1,19,39,11
3,2,9,1,5,1,1,19,64,11
3,2,22,0,6,1,1,19,92,11
3,2,13,1,0,0,1,19,96,11
3,2,13,1,0,0,1,19,96,11
3,2,13,1,0,0,1,19,87,11
3,2,7,1,2,0,1,19,31,11
3,2,23,0,4,0,1,19,71,11
3,2,16,1,5,1,1,19,87,11
3,2,16,1,5,1,1,19,87,11
3,2,23,0,5,1,1,19,120,11
3,2,22,0,5,1,1,19,120,11
3,2,22,0,5,1,1,19,120,11
3,2,13,1,5,1,1,19,55,11
3,2,14,1,6,1,1,19,64,11
3,2,2,0,6,1,1,19,87,11
3,2,21,0,0,0,1,19,120,11
3,2,0,0,0,0,1,19,87,11
3,2,16,1,0,0,1,19,105,11
3,2,16,1,1,0,1,19,96,11
3,2,21,0,1,0,1,19,96,11
3,2,12,1,1,0,1,19,87,11
3,2,13,1,1,0,1,19,87,11
3,2,22,0,1,0,1,19,96,11
3,2,12,1,1,0,1,19,96,11
3,2,13,1,2,0,1,19,87,11
3,2,4,0,2,0,1,19,71,11
3,2,22,0,3,0,1,19,14,8
3,2,12,1,5,1,1,19,64,11
3,2,22,0,6,1,1,19,92,11
3,2,21,0,0,0,1,19,73,11
3,2,12,1,0,0,1,19,64,8
3,2,3,0,1,0,1,19,92,11
3,2,16,1,2,0,1,19,39,11
3,2,20,1,3,0,1,19,92,11
3,2,21,0,3,0,1,19,92,11
3,2,10,1,3,0,1,19,13,9
3,2,19,1,4,0,1,19,45,11
3,2,21,0,4,0,1,19,87,11
3,2,22,0,4,0,1,19,92,11
3,2,19,1,4,0,1,19,96,11
3,2,9,1,4,0,1,19,13,11
3,2,12,1,5,1,1,19,92,11
3,2,19,1,0,0,1,19,96,11
3,2,10,1,1,0,1,19,64,11
3,2,16,1,1,0,1,19,96,11
3,2,21,0,1,0,1,19,71,11
3,2,21,0,1,0,1,19,71,11
3,2,10,1,2,0,1,19,87,11
4,2,19,1,3,0,2,19,87,11
4,2,0,0,3,0,2,19,87,11
4,2,4,0,3,0,2,19,19,11
4,2,0,0,4,0,2,19,92,11
4,2,21,0,4,0,2,19,7,11
4,2,19,1,4,0,2,19,87,9
4,2,12,1,5,1,2,19,3,9
4,2,16,1,5,1,2,19,87,11
4,2,22,0,5,1,2,19,74,11
4,2,23,0,5,1,2,19,92,11
4,2,2,0,5,1,2,19,87,11
4,2,15,1,5,1,2,19,106,8
4,2,3,0,6,1,2,19,96,11
4,2,12,1,0,0,2,19,19,11
4,2,22,0,0,0,2,19,105,11
4,2,13,1,1,0,2,19,39,11
4,2,10,1,2,0,2,19,12,9
4,2,16,1,2,0,2,19,92,11
4,2,23,0,2,0,2,19,92,11
4,2,22,0,2,0,2,19,38,11
4,2,0,0,2,0,2,19,92,11
4,2,23,0,4,0,2,19,74,11
4,2,17,1,4,0,2,19,19,11
4,2,22,0,5,1,2,19,96,11
4,2,19,1,6,1,2,19,92,11
4,2,2,0,0,0,2,19,92,11
4,2,11,1,0,0,2,19,96,11
4,2,15,1,0,0,2,19,87,11
4,2,14,1,1,0,2,19,96,11
4,2,20,1,1,0,2,19,65,11
4,2,18,1,2,0,2,19,19,9
4,2,20,1,2,0,2,19,87,11
4,2,18,1,3,0,2,19,96,11
4,2,17,1,3,0,2,19,3,11
4,2,18,1,3,0,2,19,73,11
4,2,13,1,4,0,2,19,96,9
4,2,21,0,6,1,2,19,92,11
4,2,10,1,0,0,2,19,39,11
4,2,8,1,0,0,2,19,17,11
4,2,4,0,0,0,2,19,92,11
4,2,1,0,0,0,2,19,64,11
4,2,22,0,2,0,2,19,87,11
4,2,18,1,3,0,2,19,87,11
4,2,0,0,4,0,2,19,19,11
4,2,19,1,5,1,2,19,87,11
4,2,16,1,0,0,2,19,19,11
4,2,22,0,1,0,2,19,92,11
4,2,22,0,1,0,2,19,92,11
4,2,22,0,3,0,2,19,19,11
5,2,0,0,5,1,2,19,96,11
5,2,0,0,5,1,2,19,92,11
5,2,0,0,5,1,2,19,92,11
5,2,4,0,6,1,2,19,96,11
5,2,12,1,6,1,2,19,64,11
5,2,23,0,6,1,2,19,92,11
5,2,9,1,0,0,2,19,120,11
5,2,5,0,0,0,2,19,64,11
5,2,0,0,0,0,2,19,92,11
5,2,2,0,0,0,2,19,92,11
5,2,21,0,0,0,2,19,92,11
5,2,16,1,2,0,2,19,50,11
5,2,20,1,3,0,2,19,87,11
5,2,22,0,3,0,2,19,92,11
5,2,16,1,5,1,2,19,87,11
5,2,0,0,5,1,2,19,96,11
5,2,17,1,5,1,2,19,57,11
5,2,6,0,6,1,2,19,120,11
5,2,6,0,6,1,2,19,120,11
5,2,0,0,6,1,2,19,1,11
5,2,4,0,6,1,2,19,96,11
5,2,22,0,6,1,2,19,92,11
5,2,22,0,6,1,2,19,64,11
5,2,11,1,0,0,2,19,7,11
5,2,18,1,0,0,2,19,64,11
5,2,17,1,0,0,2,19,87,11
5,2,16,1,1,0,2,19,64,11
5,2,14,1,1,0,2,19,87,11
5,2,20,1,1,0,2,19,103,9
5,2,3,0,1,0,2,19,71,11
5,2,19,1,2,0,2,19,120,11
5,2,23,0,2,0,2,19,3,11
5,2,19,1,2,0,2,19,96,11
5,2,2,0,2,0,2,19,87,11
5,2,20,1,3,0,2,19,96,11
5,2,22,0,3,0,2,19,96,11
5,2,14,1,4,0,2,19,27,9
5,2,22,0,5,1,2,19,92,11
5,2,20,1,6,1,2,19,39,11
5,2,12,1,6,1,2,19,92,11
5,2,22,0,1,0,2,19,71,11
5,2,21,0,1,0,2,19,87,11
5,2,23,0,1,0,2,19,87,11
5,2,16,1,1,0,2,19,87,11
5,2,4,0,2,0,2,19,64,11
5,2,11,1,2,0,2,19,87,11
5,2,13,1,3,0,2,19,87,11
5,2,2,0,3,0,2,19,96,11
5,2,0,0,3,0,2,19,92,11
5,2,0,0,4,0,2,19,71,11
5,2,0,0,4,0,2,19,92,11
5,2,20,1,4,0,2,19,64,9
5,2,22,0,6,1,2,19,73,11
5,2,20,1,6,1,2,19,92,11
5,2,12,1,6,1,2,19,87,11
5,2,19,1,0,0,2,19,87,11
5,2,2,0,1,0,2,19,120,11
5,2,12,1,2,0,2,19,64,11
5,2,11,1,2,0,2,19,71,11
5,2,1,0,2,0,2,19,120,11
5,2,14,1,2,0,2,19,71,11
5,2,0,0,3,0,2,19,87,11
5,2,2,0,3,0,2,19,96,11
5,2,4,0,4,0,2,19,71,11
5,2,12,1,4,0,2,19,120,11
5,2,2,0,5,1,2,19,109,11
5,2,17,1,5,1,2,19,71,9
5,2,0,0,5,1,2,19,92,11
5,2,16,1,5,1,2,19,64,11
5,2,1,0,6,1,2,19,57,11
5,2,14,1,6,1,2,19,59,11
5,2,16,1,6,1,2,19,39,11
5,2,0,0,0,0,2,19,87,11
6,3,15,1,3,0,2,19,87,11
6,3,22,0,3,0,2,19,87,11
6,3,23,0,3,0,2,19,92,11
6,3,16,1,5,1,2,19,96,11
6,3,20,1,6,1,2,19,64,11
6,3,4,0,6,1,2,19,19,11
6,3,6,0,6,1,2,19,92,11
6,3,12,1,6,1,2,19,117,11
6,3,18,1,0,0,2,19,87,11
6,3,19,1,0,0,2,19,87,11
6,3,17,1,1,0,2,19,64,11
6,3,4,0,1,0,2,19,71,11
6,3,3,0,3,0,2,19,7,11
6,3,1,0,3,0,2,19,64,11
6,3,11,1,3,0,2,19,3,11
6,3,8,1,3,0,2,19,64,11
6,3,15,1,4,0,2,19,96,11
6,3,16,1,6,1,2,19,87,11
6,3,15,1,6,1,2,19,87,11
6,3,12,1,6,1,2,19,73,11
6,3,22,0,0,0,2,19,96,11
6,3,19,1,1,0,2,19,87,11
6,3,11,1,2,0,2,19,64,11
6,3,18,1,2,0,2,19,3,11
6,3,22,0,2,0,2,19,31,11
6,3,22,0,3,0,2,19,105,11
6,3,14,1,5,1,2,19,87,11
6,3,17,1,6,1,2,19,64,11
6,3,10,1,6,1,2,19,19,11
6,3,23,0,0,0,2,19,87,11
6,3,19,1,0,0,2,19,96,11
6,3,17,1,0,0,2,19,96,11
6,3,2,0,1,0,2,19,71,11
6,3,20,1,2,0,2,19,96,11
6,3,16,1,3,0,2,19,29,11
6,3,11,1,3,0,2,19,102,11
6,3,18,1,3,0,2,19,87,11
6,3,18,1,4,0,2,19,96,11
6,3,20,1,5,1,2,19,19,11
6,3,1,0,6,1,2,19,96,11
6,3,17,1,6,1,2,19,22,9
6,3,17,1,6,1,2,19,22,9
6,3,2,0,6,1,2,19,19,11
6,3,14,1,0,0,2,19,27,11
6,3,11,1,0,0,2,19,71,11
6,3,21,0,1,0,2,19,87,11
6,3,18,1,1,0,2,19,87,11
6,3,2,0,2,0,2,19,87,11
7,3,23,0,3,0,3,19,56,9
7,3,13,1,3,0,3,19,92,11
7,3,10,1,5,1,3,19,96,11
7,3,2,0,6,1,3,19,96,11
7,3,19,1,6,1,3,19,96,11
7,3,9,1,0,0,3,19,64,11
7,3,12,1,0,0,3,19,65,11
7,3,11,1,0,0,3,19,19,11
7,3,17,1,0,0,3,19,96,11
7,3,20,1,0,0,3,19,87,11
7,3,18,1,0,0,3,19,87,11
7,3,0,0,1,0,3,19,87,11
7,3,19,1,1,0,3,19,96,11
7,3,4,0,2,0,3,19,71,9
7,3,21,0,3,0,3,19,87,11
7,3,1,0,4,0,3,19,120,11
7,3,7,1,4,0,3,19,87,11
7,3,11,1,4,0,3,19,71,11
7,3,23,0,5,1,3,19,39,11
7,3,15,1,5,1,3,19,120,11
7,3,11,1,5,1,3,19,19,11
7,3,13,1,6,1,3,19,96,11
7,3,19,1,6,1,3,19,96,11
7,3,14,1,0,0,3,19,71,11
7,3,15,1,1,0,3,19,120,11
7,3,18,1,1,0,3,19,96,11
7,3,16,1,1,0,3,19,64,11
7,3,13,1,2,0,3,19,87,11
7,3,4,0,2,0,3,19,120,11
7,3,0,0,2,0,3,19,64,11
7,3,17,1,2,0,3,19,96,11
7,3,0,0,3,0,3,19,19,11
7,3,1,0,3,0,3,19,96,11
7,3,15,1,5,1,3,19,13,11
7,3,15,1,5,1,3,19,56,11
7,3,20,1,6,1,3,19,8,11
7,3,17,1,6,1,3,19,96,11
7,3,20,1,0,0,3,19,31,11
7,3,11,1,0,0,3,19,73,11
7,3,16,1,1,0,3,19,87,11
7,3,23,0,1,0,3,19,3,11
7,3,16,1,1,0,3,19,39,11
7,3,17,1,2,0,3,19,87,9
7,3,12,1,2,0,3,19,96,11
7,3,5,0,2,0,3,19,87,11
7,3,8,1,2,0,3,19,87,11
7,3,19,1,3,0,3,19,96,11
7,3,13,1,3,0,3,19,96,11
7,3,19,1,3,0,3,19,64,11
7,3,23,0,3,0,3,19,96,11
7,3,22,0,5,1,3,19,87,11
7,3,9,1,5,1,3,19,96,11
7,3,22,0,6,1,3,19,96,11
7,3,3,0,6,1,3,19,71,11
7,3,4,0,0,0,3,19,87,11
7,3,0,0,0,0,3,19,87,11
7,3,17,1,0,0,3,19,22,11
7,3,19,1,0,0,3,19,87,11
7,3,11,1,0,0,3,19,120,11
7,3,11,1,1,0,3,19,109,11
7,3,0,0,1,0,3,19,96,11
7,3,19,1,1,0,3,19,120,11
7,3,2,0,1,0,3,19,71,11
7,3,15,1,2,0,3,19,87,11
7,3,12,1,2,0,3,19,73,11
7,3,13,1,3,0,3,19,87,11
7,3,9,1,3,0,3,19,87,11
7,3,14,1,3,0,3,19,96,11
7,3,9,1,3,0,3,19,64,11
7,3,18,1,4,0,3,19,64,11
7,3,3,0,5,1,3,19,56,11
7,3,12,1,5,1,3,19,3,11
7,3,17,1,5,1,3,19,7,11
8,3,11,1,6,1,3,19,87,11
8,3,15,1,6,1,3,19,64,11
8,3,8,1,1,0,3,19,96,11
8,3,22,0,1,0,3,19,96,11
8,3,0,0,3,0,3,19,96,11
8,3,21,0,3,0,3,19,96,11
8,3,9,1,3,0,3,19,96,11
8,3,8,1,4,0,3,19,87,11
8,3,20,1,5,1,3,19,39,11
8,3,18,1,5,1,3,19,64,11
8,3,20,1,5,1,3,19,96,11
8,3,21,0,5,1,3,19,42,11
8,3,13,1,5,1,3,19,10,11
8,3,8,1,5,1,3,19,87,11
8,3,4,0,6,1,3,19,96,11
8,3,23,0,6,1,3,19,87,9
8,3,2,0,6,1,3,19,92,11
8,3,18,1,0,0,3,19,117,11
8,3,11,1,0,0,3,19,27,11
8,3,1,0,0,0,3,19,87,11
8,3,20,1,0,0,3,19,39,11
8,3,6,0,1,0,3,19,87,11
8,3,3,0,1,0,3,19,87,11
8,3,21,0,1,0,3,19,92,11
8,3,10,1,2,0,3,19,96,11
8,3,12,1,3,0,3,19,92,11
8,3,23,0,4,0,3,19,96,11
8,3,19,1,5,1,3,19,64,11
8,3,5,0,5,1,3,19,64,11
8,3,5,0,6,1,3,19,73,11
8,3,18,1,0,0,3,19,87,11
8,3,22,0,0,0,3,19,92,11
8,3,12,1,0,0,3,19,122,11
8,3,11,1,0,0,3,19,96,11
8,3,12,1,1,0,3,19,96,11
8,3,22,0,1,0,3,19,64,11
8,3,14,1,2,0,3,19,87,11
8,3,11,1,4,0,3,19,87,11
8,3,21,0,1,0,3,19,47,11
8,3,9,1,1,0,3,19,87,11
8,3,20,1,2,0,3,19,92,11
8,3,1,0,2,0,3,19,120,11
8,3,7,1,3,0,3,19,87,11
8,3,12,1,4,0,3,19,64,11
8,3,19,1,5,1,3,19,3,11
8,3,23,0,5,1,3,19,87,11
8,3,17,1,6,1,3,19,87,9
8,3,14,1,6,1,3,19,96,11
8,3,15,1,6,1,3,19,96,11
8,3,19,1,6,1,3,19,96,11
8,3,12,1,0,0,3,19,96,11
8,3,15,1,0,0,3,19,31,11
8,3,3,0,1,0,3,19,56,11
8,3,17,1,1,0,3,19,39,11
8,3,12,1,1,0,3,19,19,11
8,3,10,1,1,0,3,19,64,11
9,4,23,0,2,0,3,19,96,11
9,4,20,1,3,0,3,19,87,11
9,4,2,0,4,0,3,19,56,11
9,4,0,0,5,1,3,19,19,11
9,4,23,0,5,1,3,19,64,11
9,4,21,0,5,1,3,19,92,11
9,4,20,1,6,1,3,19,47,11
9,4,18,1,6,1,3,19,87,11
9,4,12,1,0,0,3,19,87,11
9,4,15,1,0,0,3,19,64,11
9,4,17,1,2,0,3,19,120,11
9,4,15,1,2,0,3,19,87,11
9,4,4,0,3,0,3,19,92,11
9,4,1,0,4,0,3,19,118,11
9,4,0,0,4,0,3,19,64,11
9,4,6,0,5,1,3,19,96,11
9,4,2,0,5,1,3,19,87,11
9,4,17,1,5,1,3,19,96,11
9,4,13,1,5,1,3,19,19,11
9,4,3,0,6,1,3,19,87,11
9,4,5,0,0,0,3,19,74,11
9,4,18,1,1,0,3,19,19,11
9,4,18,1,1,0,3,19,87,9
9,4,0,0,2,0,3,19,92,11
9,4,16,1,3,0,3,19,87,11
9,4,14,1,3,0,3,19,87,11
9,4,9,1,4,0,3,19,87,11
9,4,20,1,4,0,3,19,87,11
9,4,13,1,4,0,3,19,96,11
9,4,3,0,6,1,3,19,96,11
9,4,23,0,6,1,3,19,64,11
9,4,14,1,6,1,3,19,19,11
9,4,13,1,6,1,3,19,19,11
9,4,12,1,6,1,3,19,19,11
9,4,15,1,0,0,3,19,64,11
9,4,1,0,0,0,3,19,64,11
9,4,0,0,0,0,3,19,87,11
9,4,23,0,1,0,3,19,87,11
9,4,12,1,1,0,3,19,87,11
9,4,20,1,4,0,3,19,64,11
9,4,7,1,4,0,3,19,87,11
9,4,22,0,4,0,3,19,96,11
9,4,10,1,4,0,3,19,87,11
9,4,19,1,5,1,3,19,64,11
9,4,18,1,5,1,3,19,47,11
9,4,10,1,0,0,3,19,96,11
9,4,11,1,0,0,3,19,19,11
9,4,12,1,1,0,3,19,19,11
9,4,10,1,1,0,3,19,19,11
9,4,3,0,1,0,3,19,120,11
9,4,21,0,1,0,3,19,87,11
9,4,22,0,3,0,3,19,71,11
10,4,21,0,4,0,4,19,120,11
10,4,23,0,5,1,4,19,87,11
10,4,20,1,5,1,4,19,120,11
10,4,17,1,5,1,4,19,7,11
10,4,14,1,5,1,4,19,96,11
10,4,20,1,5,1,4,19,19,11
10,4,16,1,5,1,4,19,3,11
10,4,15,1,5,1,4,19,64,11
10,4,19,1,6,1,4,19,92,11
10,4,18,1,6,1,4,19,92,11
10,4,21,0,6,1,4,19,87,11
10,4,13,1,6,1,4,19,87,11
10,4,4,0,6,1,4,19,96,11
10,4,3,0,6,1,4,19,96,11
10,4,2,0,6,1,4,19,96,11
10,4,4,0,6,1,4,19,120,11
10,4,4,0,6,1,4,19,120,11
10,4,23,0,6,1,4,19,120,11
10,4,23,0,0,0,4,19,96,11
10,4,8,1,0,0,4,19,19,11
10,4,17,1,0,0,4,19,96,11
10,4,13,1,1,0,4,19,87,11
10,4,22,0,1,0,4,19,92,11
10,4,22,0,2,0,4,19,87,11
10,4,0,0,2,0,4,19,96,11
10,4,7,1,3,0,4,19,87,11
10,4,19,1,3,0,4,19,87,11
10,4,21,0,3,0,4,19,19,11
10,4,20,1,4,0,4,19,96,11
10,4,23,0,5,1,4,19,22,11
10,4,9,1,5,1,4,19,19,11
10,4,0,0,6,1,4,19,73,11
10,4,16,1,0,0,4,19,96,11
10,4,10,1,2,0,4,19,63,11
10,4,8,1,2,0,4,19,19,11
10,4,15,1,3,0,4,19,64,11
10,4,18,1,3,0,4,19,13,8
10,4,11,1,6,1,4,19,47,11
10,4,13,1,0,0,4,19,13,11
10,4,19,1,1,0,4,19,87,11
10,4,23,0,2,0,4,19,92,11
10,4,11,1,2,0,4,19,87,11
10,4,13,1,2,0,4,19,87,11
10,4,10,1,2,0,4,19,4,11
10,4,22,0,2,0,4,19,64,11
10,4,17,1,3,0,4,19,94,11
10,4,2,0,3,0,4,19,96,11
10,4,19,1,5,1,4,19,73,11
10,4,20,1,5,1,4,19,73,11
10,4,16,1,6,1,4,19,87,11
10,4,23,0,0,0,4,19,96,11
10,4,8,1,1,0,4,19,96,11
10,4,20,1,2,0,4,19,87,8
10,4,23,0,2,0,4,19,120,11
10,4,18,1,5,1,4,19,87,11
10,4,1,0,6,1,4,19,87,11
10,4,12,1,6,1,4,19,13,11
11,4,10,1,0,0,4,19,96,11
11,4,11,1,0,0,4,19,96,11
11,4,2,0,1,0,4,19,19,11
11,4,18,1,0,0,4,19,39,11
11,4,23,0,0,0,4,19,87,11
11,4,17,1,0,0,4,19,19,11
11,4,21,0,2,0,4,19,39,11
11,4,21,0,3,0,4,19,3,11
11,4,20,1,3,0,4,19,19,11
11,4,15,1,3,0,4,19,39,11
11,4,23,0,0,0,4,19,120,11
11,4,23,0,0,0,4,19,87,8
11,4,12,1,0,0,4,19,73,11
11,4,19,1,1,0,4,19,87,11
11,4,18,1,2,0,4,19,96,11
11,4,0,0,2,0,4,19,120,9
11,4,0,0,3,0,4,19,92,11
11,4,20,1,4,0,4,19,64,11
11,4,20,1,4,0,4,19,96,11
11,4,11,1,4,0,4,19,64,11
11,4,17,1,4,0,4,19,92,11
11,4,17,1,5,1,4,19,103,11
11,4,2,0,5,1,4,19,92,11
11,4,1,0,6,1,4,19,120,11
11,4,16,1,6,1,4,19,31,11
11,4,14,1,6,1,4,19,64,11
11,4,13,1,6,1,4,19,64,11
11,4,13,1,2,0,4,19,96,11
11,4,4,0,4,0,4,19,19,11
11,4,1,0,0,0,4,19,96,11
11,4,21,0,1,0,4,19,92,11
12,1,11,1,2,0,4,19,64,11
12,1,17,1,2,0,4,19,87,11
12,1,16,1,3,0,4,19,64,11
12,1,17,1,4,0,4,19,7,11
12,1,1,0,4,0,4,19,39,11
12,1,14,1,5,1,4,19,96,11
12,1,12,1,5,1,4,19,92,11
12,1,21,0,0,0,4,19,19,11
12,1,3,0,1,0,4,19,64,11
12,1,20,1,1,0,4,19,96,11
12,1,19,1,2,0,4,19,64,11
12,1,2,0,2,0,4,19,64,11
12,1,19,1,2,0,4,19,22,9
12,1,22,0,5,1,4,19,58,11
12,1,18,1,6,1,4,19,64,11
12,1,17,1,6,1,4,19,39,11
12,1,23,0,0,0,4,19,13,11
12,1,0,0,0,0,4,19,87,11
12,1,2,0,0,0,4,19,7,11
12,1,17,1,0,0,4,19,7,11
12,1,13,1,1,0,4,19,39,11
12,1,2,0,3,0,4,19,64,11
12,1,9,1,3,0,4,19,96,11
12,1,22,0,4,0,4,19,109,11
12,1,5,0,5,1,4,19,64,11
12,1,13,1,5,1,4,19,92,11
12,1,5,0,5,1,4,19,64,11
12,1,16,1,5,1,4,19,87,11
12,1,17,1,6,1,4,19,87,11
12,1,21,0,6,1,4,19,64,11
12,1,18,1,6,1,4,19,92,11
12,1,19,1,0,0,4,19,73,11
12,1,7,1,1,0,4,19,96,11
12,1,12,1,1,0,4,19,45,11
12,1,7,1,2,0,4,19,96,11
12,1,9,1,2,0,4,19,92,11
12,1,10,1,3,0,4,19,64,9
12,1,20,1,3,0,4,19,87,11
12,1,20,1,4,0,4,19,39,11
12,1,22,0,4,0,4,19,74,11
12,1,17,1,4,0,4,19,7,11
12,1,13,1,4,0,4,19,19,11
12,1,18,1,4,0,4,19,64,11
12,1,10,1,5,1,4,19,92,11
12,1,0,0,6,1,4,19,96,11
12,1,1,0,6,1,4,19,73,11
12,1,14,1,6,1,4,19,73,11
12,1,9,1,0,0,4,19,64,11
12,1,4,0,0,0,4,19,73,8
12,1,1,0,0,0,4,19,96,11
12,1,17,1,1,0,4,19,39,11
12,1,23,0,2,0,4,19,19,11
12,1,0,0,4,0,4,19,19,11
12,1,2,0,4,0,4,19,120,11
12,1,22,0,4,0,4,19,64,11
1,1,6,0,6,1,1,19,13,11
1,1,12,1,1,0,1,19,34,11
1,1,17,1,4,0,1,19,92,11
1,1,17,1,2,0,1,19,73,11
1,1,14,1,4,0,1,19,87,11
2,1,23,0,1,0,1,19,73,11
2,1,10,1,0,0,1,19,34,11
2,1,22,0,3,0,1,19,73,11
2,1,7,1,3,0,1,19,64,11
3,2,9,1,1,0,1,19,64,9
3,2,18,1,5,1,1,19,96,11
3,2,20,1,5,1,1,19,3,11
3,2,9,1,6,1,1,19,87,11
3,2,13,1,6,1,1,19,87,11
3,2,11,1,2,0,1,19,3,11
3,2,12,1,2,0,1,19,3,11
3,2,18,1,3,0,1,19,96,11
3,2,10,1,2,0,1,19,87,11
3,2,13,1,2,0,1,19,73,11
3,2,8,1,5,1,1,19,12,11
3,2,21,0,5,1,1,19,104,11
3,2,12,1,5,1,1,19,87,11
3,2,9,1,1,0,1,19,96,11
4,2,21,0,3,0,2,19,96,11
4,2,21,0,3,0,2,19,96,11
4,2,17,1,6,1,2,19,96,11
4,2,3,0,6,1,2,19,92,11
4,2,8,1,1,0,2,19,87,11
4,2,23,0,1,0,2,19,87,11
4,2,12,1,1,0,2,19,31,11
4,2,13,1,0,0,2,19,96,11
4,2,16,1,2,0,2,19,96,11
4,2,14,1,1,0,2,19,73,11
4,2,10,1,1,0,2,19,64,11
5,2,21,0,5,1,2,19,96,11
5,2,11,1,5,1,2,19,19,11
5,2,21,0,2,0,2,19,96,11
5,2,5,0,4,0,2,19,73,11
5,2,12,1,6,1,2,19,87,11
5,2,20,1,2,0,2,19,87,11
5,2,10,1,5,1,2,19,73,11
6,3,0,0,6,1,2,19,71,11
6,3,22,0,6,1,2,19,19,11
6,3,19,1,6,1,2,19,87,11
6,3,17,1,1,0,2,19,73,11
6,3,18,1,2,0,2,19,3,11
6,3,10,1,3,0,2,19,120,11
6,3,2,0,6,1,2,19,92,11
7,3,6,0,5,1,3,19,96,11
7,3,21,0,0,0,3,19,96,11
7,3,13,1,2,0,3,19,87,11
7,3,2,0,3,0,3,19,64,11
7,3,16,1,1,0,3,19,96,11
7,3,6,0,4,0,3,19,96,11
7,3,20,1,5,1,3,19,96,11
7,3,17,1,5,1,3,19,96,11
7,3,20,1,0,0,3,19,96,11
7,3,17,1,3,0,3,19,71,11
7,3,1,0,3,0,3,19,39,11
8,3,7,1,1,0,3,19,96,11
8,3,4,0,4,0,3,19,19,9
8,3,20,1,6,1,3,19,96,11
8,3,21,0,2,0,3,19,19,11
8,3,22,0,3,0,3,19,92,11
8,3,18,1,6,1,3,19,96,11
8,3,14,1,6,1,3,19,19,11
8,3,20,1,0,0,3,19,96,11
9,4,0,0,4,0,3,19,56,11
9,4,12,1,4,0,3,19,87,9
9,4,16,1,6,1,3,19,3,9
9,4,4,0,4,0,3,19,92,11
9,4,18,1,4,0,3,19,3,11
9,4,14,1,4,0,3,19,96,11
10,4,21,0,5,1,4,19,39,9
10,4,16,1,0,0,4,19,96,11
10,4,18,1,1,0,4,19,96,11
10,4,8,1,0,0,4,19,96,11
10,4,10,1,3,0,4,19,73,11
10,4,17,1,1,0,4,19,56,11
10,4,13,1,2,0,4,19,12,9
10,4,16,1,1,0,4,19,96,11
10,4,10,1,3,0,4,19,96,11
10,4,3,0,6,1,4,19,12,11
11,4,18,1,6,1,4,19,96,11
11,4,16,1,5,1,4,19,96,11
11,4,13,1,1,0,4,19,96,11
11,4,17,1,2,0,4,19,12,11
11,4,17,1,2,0,4,19,96,11
11,4,18,1,2,0,4,19,73,11
12,1,14,1,2,0,4,19,96,11
12,1,14,1,0,0,4,19,39,11
12,1,9,1,6,1,4,19,39,11
12,1,4,0,0,0,4,19,73,9
12,1,15,1,2,0,4,19,64,11
1,1,15,1,4,0,1,19,96,11
1,1,0,0,4,0,1,19,87,11
1,1,11,1,5,1,1,19,73,11
1,1,18,1,4,0,1,19,96,11
1,1,15,1,6,1,1,19,73,11
1,1,14,1,3,0,1,19,96,11
1,1,16,1,1,0,1,19,96,11
1,1,10,1,1,0,1,19,96,11
1,1,19,1,3,0,1,19,96,11
1,1,12,1,3,0,1,19,73,11
1,1,20,1,6,1,1,19,96,11
1,1,8,1,2,0,1,19,12,11
1,1,6,0,6,1,1,19,26,11
1,1,16,1,6,1,1,19,96,11
2,1,10,1,2,0,1,19,96,11
2,1,11,1,2,0,1,19,13,11
2,1,11,1,2,0,1,19,13,9
2,1,10,1,4,0,1,19,73,11
2,1,11,1,3,0,1,19,96,11
2,1,12,1,3,0,1,19,96,11
2,1,11,1,4,0,1,19,96,11
2,1,12,1,2,0,1,19,96,11
2,1,17,1,3,0,1,19,96,11
2,1,17,1,6,1,1,19,96,11
2,1,12,1,6,1,1,19,96,11
2,1,12,1,1,0,1,19,87,11
2,1,12,1,2,0,1,19,96,11
2,1,13,1,3,0,1,19,96,11
2,1,13,1,3,0,1,19,96,11
2,1,12,1,5,1,1,19,96,11
2,1,12,1,6,1,1,19,73,11
2,1,12,1,6,1,1,19,96,11
3,2,19,1,0,0,1,19,96,11
3,2,15,1,1,0,1,19,96,11
3,2,14,1,2,0,1,19,96,11
3,2,10,1,3,0,1,19,96,11
3,2,19,1,4,0,1,19,96,11
3,2,17,1,4,0,1,19,96,11
3,2,20,1,4,0,1,19,96,11
3,2,13,1,4,0,1,19,96,11
3,2,4,0,5,1,1,19,87,11
3,2,1,0,5,1,1,19,85,11
3,2,18,1,5,1,1,19,96,11
3,2,18,1,0,0,1,19,96,11
3,2,12,1,6,1,1,19,96,11
3,2,16,1,6,1,1,19,96,11
3,2,21,0,0,0,1,19,87,11
3,2,12,1,1,0,1,19,96,11
3,2,9,1,1,0,1,19,117,11
3,2,18,1,2,0,1,19,39,11
3,2,17,1,2,0,1,19,96,11
3,2,19,1,2,0,1,19,96,11
3,2,15,1,3,0,1,19,3,11
3,2,13,1,4,0,1,19,96,11
3,2,17,1,5,1,1,19,96,11
3,2,15,1,5,1,1,19,96,11
3,2,13,1,6,1,1,19,96,11
3,2,20,1,6,1,1,19,87,11
3,2,16,1,1,0,1,19,96,11
3,2,14,1,1,0,1,19,96,11
4,2,14,1,3,0,2,19,87,11
4,2,18,1,3,0,2,19,87,11
4,2,15,1,4,0,2,19,96,11
4,2,13,1,4,0,2,19,3,11
4,2,18,1,5,1,2,19,96,11
4,2,9,1,5,1,2,19,96,11
4,2,12,1,5,1,2,19,96,11
4,2,20,1,0,0,2,19,87,11
4,2,14,1,2,0,2,19,39,11
4,2,0,0,3,0,2,19,87,11
4,2,16,1,0,0,2,19,96,11
4,2,13,1,0,0,2,19,96,11
4,2,17,1,0,0,2,19,96,11
4,2,18,1,2,0,2,19,120,11
4,2,14,1,3,0,2,19,96,11
4,2,21,0,3,0,2,19,96,11
4,2,19,1,1,0,2,19,114,11
4,2,14,1,3,0,2,19,96,11
5,2,21,0,5,1,2,19,96,11
5,2,21,0,6,1,2,19,96,11
5,2,11,1,0,0,2,19,120,11
5,2,15,1,3,0,2,19,96,11
5,2,7,1,3,0,2,19,120,11
5,2,12,1,6,1,2,19,12,11
5,2,15,1,6,1,2,19,96,11
5,2,12,1,0,0,2,19,47,11
5,2,13,1,1,0,2,19,96,11
5,2,17,1,1,0,2,19,96,11
5,2,19,1,1,0,2,19,71,11
5,2,18,1,6,1,2,19,96,11
5,2,19,1,0,0,2,19,96,11
5,2,14,1,0,0,2,19,96,11
5,2,8,1,2,0,2,19,96,11
5,2,14,1,3,0,2,19,71,11
5,2,23,0,6,1,2,19,87,11
6,3,22,0,5,1,2,19,96,11
6,3,4,0,6,1,2,19,96,11
6,3,13,1,4,0,2,19,96,11
6,3,22,0,1,0,2,19,96,11
6,3,22,0,2,0,2,19,121,11
6,3,16,1,2,0,2,19,96,11
6,3,13,1,3,0,2,19,19,11
6,3,14,1,3,0,2,19,19,9
6,3,12,1,4,0,2,19,96,11
6,3,12,1,1,0,2,19,96,11
6,3,16,1,3,0,2,19,96,9
6,3,15,1,6,1,2,19,3,9
6,3,5,0,1,0,2,19,13,8
6,3,12,1,1,0,2,19,96,11
6,3,18,1,2,0,2,19,96,11
6,3,15,1,2,0,2,19,96,11
7,3,18,1,4,0,3,19,96,11
7,3,22,0,5,1,3,19,64,11
7,3,18,1,0,0,3,19,96,11
7,3,11,1,1,0,3,19,3,11
7,3,16,1,1,0,3,19,3,11
7,3,14,1,2,0,3,19,73,11
7,3,13,1,4,0,3,19,96,11
7,3,9,1,4,0,3,19,96,11
7,3,19,1,6,1,3,19,87,11
7,3,1,0,3,0,3,19,96,11
7,3,13,1,4,0,3,19,96,11
7,3,21,0,6,1,3,19,96,9
7,3,18,1,1,0,3,19,96,11
7,3,0,0,1,0,3,19,19,11
7,3,22,0,0,0,3,19,96,11
8,3,13,1,0,0,3,19,26,8
8,3,20,1,0,0,3,19,96,11
8,3,8,1,0,0,3,19,19,11
8,3,10,1,1,0,3,19,118,11
8,3,15,1,3,0,3,19,96,9
8,3,7,1,4,0,3,19,103,11
8,3,20,1,5,1,3,19,3,11
8,3,18,1,0,0,3,19,3,11
8,3,18,1,1,0,3,19,96,11
8,3,1,0,4,0,3,19,96,11
8,3,17,1,1,0,3,19,3,11
8,3,12,1,2,0,3,19,45,11
8,3,19,1,4,0,3,19,96,11
8,3,18,1,0,0,3,19,3,11
8,3,13,1,0,0,3,19,3,11
9,4,17,1,2,0,3,19,96,11
9,4,14,1,5,1,3,19,96,11
9,4,17,1,0,0,3,19,87,11
9,4,13,1,1,0,3,19,96,11
9,4,8,1,2,0,3,19,3,11
9,4,18,1,5,1,3,19,3,11
9,4,18,1,1,0,3,19,96,11
9,4,11,1,2,0,3,19,73,11
9,4,18,1,2,0,3,19,96,11
9,4,9,1,3,0,3,19,120,11
9,4,16,1,3,0,3,19,96,11
9,4,15,1,5,1,3,19,87,9
9,4,23,0,1,0,3,19,96,11
9,4,18,1,3,0,3,19,87,11
9,4,11,1,5,1,3,19,96,11
9,4,15,1,6,1,3,19,19,11
9,4,18,1,2,0,3,19,96,11
10,4,20,1,6,1,4,19,96,11
10,4,14,1,2,0,4,19,96,11
10,4,15,1,2,0,4,19,73,11
10,4,6,0,2,0,4,19,19,11
10,4,6,0,6,1,4,19,92,11
10,4,18,1,3,0,4,19,87,11
10,4,15,1,5,1,4,19,96,11
10,4,10,1,0,0,4,19,73,11
10,4,16,1,1,0,4,19,3,11
10,4,20,1,2,0,4,19,96,11
10,4,18,1,3,0,4,19,96,11
10,4,2,0,6,1,4,19,73,11
11,4,13,1,5,1,4,19,74,11
11,4,12,1,0,0,4,19,96,11
11,4,13,1,1,0,4,19,96,11
11,4,16,1,3,0,4,19,87,11
12,1,15,1,0,0,4,19,96,11
12,1,21,0,1,0,4,19,39,11
12,1,8,1,1,0,4,19,73,11
12,1,15,1,4,0,4,19,96,11
12,1,4,0,3,0,4,19,73,11
12,1,21,0,3,0,4,19,73,11
12,1,11,1,3,0,4,19,96,11
12,1,13,1,4,0,4,19,96,11
12,1,22,0,4,0,4,19,73,11
1,1,20,1,4,0,1,19,64,11
1,1,14,1,5,1,1,19,92,11
1,1,14,1,1,0,1,19,71,11
1,1,16,1,2,0,1,19,71,11
1,1,11,1,5,1,1,19,64,11
1,1,11,1,4,0,1,19,64,11
1,1,17,1,5,1,1,19,64,11
1,1,23,0,5,1,1,19,92,11
1,1,10,1,0,0,1,19,73,11
1,1,16,1,1,0,1,19,76,11
1,1,10,1,1,0,1,19,92,11
1,1,20,1,2,0,1,19,64,11
1,1,12,1,3,0,1,19,7,11
1,1,20,1,3,0,1,19,64,11
1,1,14,1,5,1,1,19,64,11
1,1,20,1,5,1,1,19,73,11
1,1,18,1,5,1,1,19,73,11
1,1,2,0,6,1,1,19,71,11
1,1,14,1,2,0,1,19,64,11
1,1,22,0,2,0,1,19,73,11
1,1,18,1,2,0,1,19,64,11
1,1,0,0,3,0,1,19,96,11
1,1,10,1,3,0,1,19,96,11
1,1,16,1,4,0,1,19,64,11
1,1,22,0,5,1,1,19,92,11
1,1,2,0,5,1,1,19,71,11
1,1,21,0,6,1,1,19,64,11
1,1,20,1,6,1,1,19,64,11
2,1,0,0,0,0,1,19,64,11
2,1,13,1,1,0,1,19,64,11
2,1,1,0,2,0,1,19,71,11
2,1,20,1,5,1,1,19,92,11
2,1,16,1,6,1,1,19,59,11
2,1,15,1,1,0,1,19,39,9
2,1,9,1,1,0,1,19,92,11
2,1,10,1,2,0,1,19,92,11
2,1,15,1,3,0,1,19,3,11
2,1,19,1,4,0,1,19,64,11
2,1,18,1,4,0,1,19,71,11
2,1,14,1,6,1,1,19,92,11
2,1,16,1,6,1,1,19,64,11
2,1,0,0,2,0,1,19,92,11
2,1,10,1,3,0,1,19,106,9
2,1,0,0,4,0,1,19,71,11
2,1,15,1,4,0,1,19,87,11
2,1,10,1,5,1,1,19,64,11
2,1,13,1,6,1,1,19,96,11
2,1,19,1,6,1,1,19,92,11
2,1,12,1,6,1,1,19,64,11
2,1,21,0,6,1,1,19,92,11
2,1,11,1,0,0,1,19,71,11
2,1,17,1,1,0,1,19,64,11
2,1,13,1,1,0,1,19,71,11
2,1,17,1,2,0,1,19,84,11
2,1,10,1,5,1,1,19,71,11
3,2,23,0,1,0,1,19,86,11
3,2,14,1,1,0,1,19,87,11
3,2,13,1,2,0,1,19,73,11
3,2,8,1,2,0,1,19,79,11
3,2,1,0,4,0,1,19,96,11
3,2,0,0,4,0,1,19,92,11
3,2,16,1,4,0,1,19,64,11
3,2,19,1,4,0,1,19,64,11
3,2,18,1,0,0,1,19,92,11
3,2,21,0,1,0,1,19,92,11
3,2,13,1,6,1,1,19,64,11
3,2,12,1,0,0,1,19,3,11
3,2,7,1,0,0,1,19,64,11
3,2,3,0,3,0,1,19,56,11
3,2,16,1,3,0,1,19,22,11
3,2,17,1,3,0,1,19,3,11
3,2,19,1,3,0,1,19,64,11
3,2,19,1,3,0,1,19,64,11
3,2,22,0,4,0,1,19,64,11
3,2,18,1,5,1,1,19,73,11
3,2,20,1,5,1,1,19,64,11
3,2,3,0,6,1,1,19,92,11
3,2,13,1,3,0,1,19,64,11
3,2,19,1,4,0,1,19,64,11
3,2,21,0,4,0,1,19,64,11
3,2,2,0,5,1,1,19,86,9
3,2,22,0,6,1,1,19,92,11
3,2,1,0,0,0,1,19,92,11
3,2,0,0,0,0,1,19,92,11
4,2,15,1,3,0,2,19,87,11
4,2,20,1,3,0,2,19,96,11
4,2,8,1,5,1,2,19,96,11
4,2,22,0,5,1,2,19,64,11
4,2,15,1,6,1,2,19,3,11
4,2,21,0,0,0,2,19,64,11
4,2,21,0,1,0,2,19,64,11
4,2,0,0,1,0,2,19,64,11
4,2,17,1,2,0,2,19,3,11
4,2,23,0,6,1,2,19,87,11
4,2,10,1,6,1,2,19,87,11
4,2,0,0,6,1,2,19,92,11
4,2,14,1,0,0,2,19,92,11
4,2,10,1,2,0,2,19,64,11
4,2,19,1,3,0,2,19,3,11
4,2,1,0,5,1,2,19,87,11
4,2,20,1,6,1,2,19,63,11
4,2,22,0,0,0,2,19,86,11
4,2,20,1,2,0,2,19,7,11
4,2,19,1,3,0,2,19,87,11
4,2,2,0,3,0,2,19,64,11
4,2,15,1,5,1,2,19,56,11
4,2,11,1,6,1,2,19,64,11
4,2,10,1,0,0,2,19,71,11
4,2,2,0,2,0,2,19,87,11
5,2,0,0,6,1,2,19,64,11
5,2,3,0,6,1,2,19,64,11
5,2,3,0,6,1,2,19,92,11
5,2,15,1,0,0,2,19,92,11
5,2,18,1,2,0,2,19,64,11
5,2,20,1,2,0,2,19,3,11
5,2,18,1,3,0,2,19,64,11
5,2,22,0,3,0,2,19,119,11
5,2,3,0,4,0,2,19,74,11
5,2,14,1,4,0,2,19,87,11
5,2,0,0,6,1,2,19,77,11
5,2,11,1,2,0,2,19,48,11
5,2,16,1,3,0,2,19,71,11
5,2,13,1,4,0,2,19,96,11
5,2,19,1,4,0,2,19,47,11
5,2,11,1,5,1,2,19,47,11
5,2,5,0,6,1,2,19,87,11
5,2,5,0,0,0,2,19,63,11
5,2,9,1,0,0,2,19,64,11
5,2,14,1,1,0,2,19,64,11
5,2,19,1,1,0,2,19,64,11
5,2,20,1,1,0,2,19,96,11
5,2,19,1,2,0,2,19,19,11
5,2,22,0,3,0,2,19,64,11
5,2,16,1,4,0,2,19,92,11
5,2,23,0,5,1,2,19,64,11
5,2,12,1,6,1,2,19,94,11
5,2,21,0,0,0,2,19,22,11
5,2,18,1,4,0,2,19,87,11
5,2,1,0,4,0,2,19,104,11
5,2,21,0,5,1,2,19,63,11
5,2,18,1,5,1,2,19,96,11
5,2,14,1,5,1,2,19,87,11
5,2,12,1,5,1,2,19,64,11
5,2,8,1,5,1,2,19,71,11
6,3,21,0,2,0,2,19,87,11
6,3,14,1,2,0,2,19,47,11
6,3,22,0,3,0,2,19,64,11
6,3,7,1,6,1,2,19,71,11
6,3,11,1,0,0,2,19,96,11
6,3,16,1,2,0,2,19,87,9
6,3,14,1,5,1,2,19,43,11
6,3,14,1,1,0,2,19,92,11
6,3,8,1,1,0,2,19,87,11
6,3,15,1,3,0,2,19,115,11
6,3,16,1,5,1,2,19,64,9
6,3,18,1,0,0,2,19,87,11
6,3,14,1,1,0,2,19,71,11
6,3,23,0,1,0,2,19,92,11
6,3,11,1,3,0,2,19,64,11
6,3,3,0,5,1,2,19,87,9
6,3,15,1,6,1,2,19,2,11
6,3,3,0,0,0,2,19,92,11
6,3,3,0,0,0,2,19,76,11
6,3,10,1,2,0,2,19,87,11
6,3,8,1,2,0,2,19,96,11
7,3,15,1,3,0,3,19,87,11
7,3,20,1,4,0,3,19,71,11
7,3,13,1,4,0,3,19,71,11
7,3,11,1,4,0,3,19,64,11
7,3,16,1,4,0,3,19,46,11
7,3,20,1,5,1,3,19,92,11
7,3,20,1,6,1,3,19,3,11
7,3,1,0,6,1,3,19,92,11
7,3,19,1,0,0,3,19,3,11
7,3,17,1,1,0,3,19,92,11
7,3,2,0,2,0,3,19,64,11
7,3,17,1,4,0,3,19,87,11
7,3,16,1,4,0,3,19,64,11
7,3,15,1,4,0,3,19,87,11
7,3,7,1,1,0,3,19,96,11
7,3,22,0,2,0,3,19,63,11
7,3,12,1,3,0,3,19,64,11
7,3,11,1,4,0,3,19,64,9
7,3,14,1,4,0,3,19,64,11
7,3,5,0,4,0,3,19,1,11
7,3,19,1,0,0,3,19,71,11
7,3,19,1,0,0,3,19,96,11
7,3,16,1,3,0,3,19,56,11
7,3,9,1,5,1,3,19,86,11
7,3,20,1,1,0,3,19,47,11
7,3,20,1,5,1,3,19,64,11
8,3,21,0,0,0,3,19,92,11
8,3,21,0,0,0,3,19,64,11
8,3,10,1,3,0,3,19,71,11
8,3,13,1,4,0,3,19,64,11
8,3,14,1,4,0,3,19,87,11
8,3,20,1,0,0,3,19,64,11
8,3,17,1,3,0,3,19,87,11
8,3,2,0,3,0,3,19,64,11
8,3,22,0,5,1,3,19,92,11
8,3,14,1,6,1,3,19,73,11
8,3,0,0,6,1,3,19,64,11
8,3,15,1,1,0,3,19,87,11
8,3,8,1,2,0,3,19,64,11
8,3,17,1,5,1,3,19,96,11
8,3,22,0,1,0,3,19,71,11
8,3,22,0,3,0,3,19,64,11
8,3,18,1,4,0,3,19,87,11
8,3,23,0,0,0,3,19,64,11
8,3,12,1,1,0,3,19,64,11
8,3,21,0,1,0,3,19,64,11
9,4,9,1,3,0,3,19,64,11
9,4,15,1,3,0,3,19,87,11
9,4,4,0,5,1,3,19,64,11
9,4,16,1,5,1,3,19,94,11
9,4,8,1,6,1,3,19,64,11
9,4,13,1,1,0,3,19,87,9
9,4,14,1,2,0,3,19,64,11
9,4,10,1,3,0,3,19,64,11
9,4,16,1,5,1,3,19,71,11
9,4,17,1,6,1,3,19,3,11
9,4,22,0,6,1,3,19,64,11
9,4,11,1,1,0,3,19,64,11
9,4,21,0,2,0,3,19,77,11
9,4,15,1,2,0,3,19,87,9
9,4,4,0,3,0,3,19,87,11
9,4,13,1,4,0,3,19,71,11
9,4,15,1,0,0,3,19,92,11
9,4,18,1,0,0,3,19,71,11
9,4,22,0,0,0,3,19,71,11
9,4,15,1,1,0,3,19,8,11
9,4,13,1,5,1,3,19,64,11
9,4,23,0,6,1,3,19,63,11
9,4,9,1,3,0,3,19,87,11
9,4,13,1,3,0,3,19,63,11
10,4,0,0,4,0,4,19,92,11
10,4,6,0,5,1,4,19,92,11
10,4,19,1,5,1,4,19,64,11
10,4,14,1,6,1,4,19,71,11
10,4,10,1,3,0,4,19,87,11
10,4,6,0,0,0,4,19,13,11
10,4,22,0,2,0,4,19,64,11
10,4,23,0,2,0,4,19,64,11
10,4,19,1,2,0,4,19,64,11
10,4,18,1,3,0,4,19,64,11
10,4,13,1,3,0,4,19,64,11
10,4,18,1,4,0,4,19,64,11
10,4,18,1,5,1,4,19,64,11
10,4,10,1,5,1,4,19,87,11
10,4,15,1,6,1,4,19,92,11
10,4,3,0,0,0,4,19,92,11
10,4,22,0,0,0,4,19,64,11
10,4,17,1,2,0,4,19,64,11
10,4,7,1,3,0,4,19,92,11
10,4,5,0,3,0,4,19,64,9
10,4,21,0,6,1,4,19,64,11
10,4,11,1,6,1,4,19,47,11
10,4,13,1,6,1,4,19,64,11
10,4,10,1,6,1,4,19,64,11
10,4,12,1,3,0,4,19,92,11
10,4,14,1,3,0,4,19,87,11
10,4,18,1,3,0,4,19,64,11
10,4,12,1,5,1,4,19,92,11
10,4,21,0,5,1,4,19,64,11
10,4,9,1,6,1,4,19,64,11
11,4,22,0,1,0,4,19,64,11
11,4,19,1,1,0,4,19,64,11
11,4,17,1,2,0,4,19,64,11
11,4,14,1,0,0,4,19,3,11
11,4,21,0,3,0,4,19,64,11
11,4,15,1,5,1,4,19,64,11
11,4,21,0,6,1,4,19,92,11
11,4,12,1,1,0,4,19,64,11
11,4,17,1,4,0,4,19,92,11
11,4,8,1,1,0,4,19,64,11
12,1,10,1,2,0,4,19,71,11
12,1,22,0,3,0,4,19,92,11
12,1,18,1,4,0,4,19,92,11
12,1,1,0,0,0,4,19,86,11
12,1,17,1,0,0,4,19,92,11
12,1,14,1,3,0,4,19,64,11
12,1,2,0,4,0,4,19,92,11
12,1,13,1,0,0,4,19,64,11
12,1,9,1,0,0,4,19,71,11
12,1,7,1,2,0,4,19,64,11
12,1,5,0,2,0,4,19,64,11
12,1,12,1,3,0,4,19,64,11
12,1,19,1,4,0,4,19,119,11
12,1,13,1,5,1,4,19,19,11
12,1,16,1,6,1,4,19,92,11
12,1,0,0,6,1,4,19,92,11
12,1,13,1,0,0,4,19,64,11
12,1,9,1,0,0,4,19,87,11
12,1,15,1,1,0,4,19,64,11
12,1,10,1,2,0,4,19,87,11
12,1,4,0,3,0,4,19,56,11
12,1,14,1,4,0,4,19,76,11
12,1,14,1,4,0,4,19,64,11
12,1,12,1,5,1,4,19,64,11
12,1,11,1,0,0,4,19,64,11
12,1,15,1,0,0,4,19,71,11
12,1,16,1,0,0,4,19,64,11
12,1,19,1,3,0,4,19,64,11
12,1,21,0,3,0,4,19,64,11
8,3,7,1,3,0,3,19,102,11
9,4,17,1,1,0,3,19,4,11
1,1,16,1,0,0,1,19,73,11
1,1,18,1,4,0,1,19,96,11
1,1,2,0,1,0,1,19,104,11
1,1,22,0,4,0,1,19,12,11
1,1,1,0,0,0,1,19,120,11
1,1,14,1,2,0,1,19,87,9
1,1,15,1,5,1,1,19,84,11
1,1,22,0,0,0,1,19,120,11
1,1,0,0,1,0,1,19,22,9
1,1,8,1,1,0,1,19,63,11
1,1,16,1,3,0,1,19,96,11
1,1,1,0,3,0,1,19,73,11
1,1,18,1,4,0,1,19,71,11
2,1,20,1,1,0,1,19,96,11
2,1,19,1,3,0,1,19,87,11
2,1,0,0,2,0,1,19,87,9
2,1,16,1,4,0,1,19,87,11
2,1,12,1,4,0,1,19,96,11
2,1,11,1,5,1,1,19,96,11
2,1,19,1,2,0,1,19,87,11
2,1,2,0,2,0,1,19,87,11
2,1,18,1,3,0,1,19,96,11
2,1,0,0,4,0,1,19,96,9
2,1,17,1,4,0,1,19,87,9
2,1,12,1,4,0,1,19,87,9
2,1,10,1,4,0,1,19,87,11
2,1,19,1,4,0,1,19,87,11
2,1,13,1,0,0,1,19,120,11
2,1,14,1,0,0,1,19,96,11
2,1,11,1,0,0,1,19,89,11
2,1,16,1,1,0,1,19,87,11
2,1,1,0,1,0,1,19,96,11
2,1,14,1,3,0,1,19,106,9
2,1,10,1,3,0,1,19,71,11
2,1,10,1,3,0,1,19,87,11
2,1,10,1,4,0,1,19,85,11
2,1,18,1,4,0,1,19,96,11
2,1,21,0,5,1,1,19,3,11
2,1,18,1,5,1,1,19,74,11
2,1,16,1,6,1,1,19,96,11
2,1,17,1,6,1,1,19,87,11
2,1,19,1,6,1,1,19,73,11
3,2,11,1,0,0,1,19,96,11
3,2,22,0,0,0,1,19,87,11
3,2,20,1,1,0,1,19,87,11
3,2,14,1,2,0,1,19,96,11
3,2,19,1,2,0,1,19,96,11
3,2,20,1,5,1,1,19,87,11
3,2,15,1,5,1,1,19,87,9
3,2,11,1,5,1,1,19,96,11
3,2,15,1,5,1,1,19,96,11
3,2,15,1,0,0,1,19,87,11
3,2,14,1,0,0,1,19,55,11
3,2,22,0,1,0,1,19,71,11
3,2,14,1,1,0,1,19,87,11
3,2,18,1,2,0,1,19,96,11
3,2,15,1,2,0,1,19,96,11
3,2,22,0,4,0,1,19,120,11
3,2,22,0,4,0,1,19,22,11
3,2,1,0,4,0,1,19,120,9
3,2,21,0,4,0,1,19,96,11
3,2,3,0,1,0,1,19,51,11
3,2,15,1,3,0,1,19,96,11
3,2,17,1,5,1,1,19,87,11
3,2,19,1,0,0,1,19,88,11
3,2,14,1,0,0,1,19,87,11
3,2,16,1,0,0,1,19,120,11
3,2,19,1,0,0,1,19,87,11
3,2,8,1,1,0,1,19,87,11
3,2,14,1,2,0,1,19,96,11
3,2,13,1,2,0,1,19,96,11
4,2,16,1,3,0,2,19,73,9
4,2,18,1,4,0,2,19,96,11
4,2,23,0,1,0,2,19,39,11
4,2,16,1,3,0,2,19,96,11
4,2,14,1,3,0,2,19,85,11
4,2,16,1,3,0,2,19,96,11
4,2,11,1,5,1,2,19,87,11
4,2,19,1,5,1,2,19,19,9
4,2,4,0,5,1,2,19,71,9
4,2,18,1,6,1,2,19,96,11
4,2,12,1,0,0,2,19,96,9
4,2,10,1,2,0,2,19,13,11
4,2,15,1,3,0,2,19,120,11
4,2,15,1,4,0,2,19,62,8
4,2,10,1,6,1,2,19,3,11
4,2,11,1,6,1,2,19,96,11
4,2,17,1,5,1,2,19,73,11
4,2,23,0,5,1,2,19,19,11
4,2,21,0,6,1,2,19,120,11
4,2,14,1,0,0,2,19,87,11
4,2,21,0,1,0,2,19,3,11
4,2,13,1,3,0,2,19,71,11
4,2,13,1,3,0,2,19,96,11
5,2,7,1,5,1,2,19,96,11
5,2,9,1,6,1,2,19,96,11
5,2,11,1,0,0,2,19,71,11
5,2,12,1,0,0,2,19,96,11
5,2,4,0,0,0,2,19,87,11
5,2,1,0,2,0,2,19,120,11
5,2,20,1,3,0,2,19,92,11
5,2,12,1,3,0,2,19,96,11
5,2,19,1,3,0,2,19,96,9
5,2,8,1,5,1,2,19,96,11
5,2,22,0,5,1,2,19,120,11
5,2,11,1,5,1,2,19,96,11
5,2,16,1,6,1,2,19,96,11
5,2,22,0,1,0,2,19,3,11
5,2,18,1,2,0,2,19,87,11
5,2,15,1,2,0,2,19,96,11
5,2,15,1,4,0,2,19,96,11
5,2,13,1,5,1,2,19,87,11
5,2,19,1,5,1,2,19,96,11
5,2,16,1,0,0,2,19,96,11
5,2,18,1,1,0,2,19,87,11
5,2,21,0,2,0,2,19,120,11
5,2,21,0,4,0,2,19,96,9
5,2,14,1,5,1,2,19,87,11
5,2,17,1,6,1,2,19,3,11
5,2,19,1,6,1,2,19,96,11
5,2,3,0,0,0,2,19,87,11
5,2,17,1,0,0,2,19,87,11
5,2,19,1,0,0,2,19,96,11
5,2,15,1,1,0,2,19,87,11
5,2,13,1,3,0,2,19,96,11
5,2,20,1,4,0,2,19,87,11
5,2,16,1,4,0,2,19,87,9
5,2,14,1,5,1,2,19,96,11
5,2,12,1,5,1,2,19,96,11
5,2,17,1,5,1,2,19,87,11
5,2,19,1,6,1,2,19,96,11
5,2,12,1,6,1,2,19,96,11
6,3,12,1,1,0,2,19,120,11
6,3,23,0,1,0,2,19,96,11
6,3,14,1,2,0,2,19,96,11
6,3,14,1,3,0,2,19,96,11
6,3,21,0,4,0,2,19,96,11
6,3,21,0,4,0,2,19,19,11
6,3,13,1,5,1,2,19,96,11
6,3,12,1,0,0,2,19,96,11
6,3,14,1,2,0,2,19,96,11
6,3,21,0,2,0,2,19,120,9
6,3,17,1,3,0,2,19,120,11
6,3,12,1,3,0,2,19,96,11
6,3,13,1,4,0,2,19,96,11
6,3,13,1,5,1,2,19,45,9
6,3,17,1,5,1,2,19,104,11
6,3,22,0,0,0,2,19,22,11
6,3,13,1,2,0,2,19,3,11
6,3,17,1,3,0,2,19,120,11
6,3,13,1,6,1,2,19,39,9
6,3,23,0,2,0,2,19,96,11
6,3,16,1,2,0,2,19,85,11
6,3,16,1,3,0,2,19,87,8
6,3,17,1,3,0,2,19,96,11
6,3,5,0,3,0,2,19,19,9
6,3,13,1,4,0,2,19,64,11
6,3,12,1,4,0,2,19,87,11
6,3,22,0,4,0,2,19,87,11
6,3,12,1,5,1,2,19,19,11
6,3,16,1,6,1,2,19,96,11
6,3,1,0,0,0,2,19,19,11
6,3,14,1,0,0,2,19,96,11
6,3,18,1,0,0,2,19,96,11
6,3,10,1,0,0,2,19,104,11
7,3,11,1,5,1,3,19,87,9
7,3,3,0,5,1,3,19,19,11
7,3,17,1,6,1,3,19,87,11
7,3,12,1,0,0,3,19,87,11
7,3,21,0,1,0,3,19,87,9
7,3,19,1,2,0,3,19,120,11
7,3,21,0,2,0,3,19,120,11
7,3,9,1,2,0,3,19,87,11
7,3,17,1,2,0,3,19,87,11
7,3,14,1,2,0,3,19,87,9
7,3,2,0,3,0,3,19,96,11
7,3,4,0,4,0,3,19,120,11
7,3,23,0,4,0,3,19,87,11
7,3,18,1,4,0,3,19,96,9
7,3,13,1,5,1,3,19,87,11
7,3,18,1,5,1,3,19,73,9
7,3,15,1,6,1,3,19,120,11
7,3,12,1,0,0,3,19,96,11
7,3,14,1,1,0,3,19,96,11
7,3,22,0,1,0,3,19,120,11
7,3,12,1,2,0,3,19,71,11
7,3,18,1,3,0,3,19,120,11
7,3,3,0,5,1,3,19,87,11
7,3,10,1,0,0,3,19,71,11
7,3,19,1,2,0,3,19,87,11
7,3,19,1,2,0,3,19,87,9
7,3,11,1,3,0,3,19,71,9
7,3,10,1,3,0,3,19,87,11
7,3,13,1,5,1,3,19,96,9
7,3,2,0,5,1,3,19,71,9
7,3,2,0,6,1,3,19,19,11
7,3,22,0,0,0,3,19,29,11
7,3,14,1,1,0,3,19,96,11
7,3,12,1,1,0,3,19,120,11
7,3,16,1,3,0,3,19,96,11
7,3,10,1,3,0,3,19,96,11
7,3,10,1,3,0,3,19,120,9
7,3,16,1,4,0,3,19,96,11
7,3,16,1,5,1,3,19,87,9
7,3,18,1,5,1,3,19,8,8
7,3,14,1,5,1,3,19,120,11
8,3,13,1,6,1,3,19,96,11
8,3,20,1,0,0,3,19,96,11
8,3,22,0,1,0,3,19,104,11
8,3,14,1,1,0,3,19,120,11
8,3,20,1,4,0,3,19,87,11
8,3,8,1,4,0,3,19,87,11
8,3,13,1,4,0,3,19,120,11
8,3,22,0,5,1,3,19,96,9
8,3,12,1,5,1,3,19,11,11
8,3,11,1,6,1,3,19,120,11
8,3,13,1,6,1,3,19,120,11
8,3,20,1,0,0,3,19,96,11
8,3,7,1,3,0,3,19,96,11
8,3,12,1,4,0,3,19,96,11
8,3,12,1,1,0,3,19,13,11
8,3,17,1,2,0,3,19,96,11
8,3,23,0,2,0,3,19,85,11
8,3,2,0,3,0,3,19,104,11
8,3,20,1,6,1,3,19,120,9
8,3,16,1,0,0,3,19,96,11
8,3,14,1,0,0,3,19,120,9
8,3,4,0,1,0,3,19,120,11
8,3,16,1,1,0,3,19,120,11
8,3,22,0,1,0,3,19,120,11
8,3,17,1,1,0,3,19,45,9
8,3,1,0,2,0,3,19,120,11
8,3,2,0,4,0,3,19,96,9
8,3,17,1,5,1,3,19,85,11
8,3,21,0,0,0,3,19,96,11
8,3,13,1,0,0,3,19,120,11
8,3,8,1,1,0,3,19,96,11
9,4,11,1,2,0,3,19,96,11
9,4,10,1,3,0,3,19,96,9
9,4,16,1,3,0,3,19,96,11
9,4,19,1,3,0,3,19,96,9
9,4,19,1,0,0,3,19,96,11
9,4,19,1,0,0,3,19,87,11
9,4,1,0,1,0,3,19,19,11
9,4,7,1,2,0,3,19,87,11
9,4,17,1,6,1,3,19,96,11
9,4,15,1,2,0,3,19,25,11
9,4,20,1,3,0,3,19,96,9
9,4,20,1,4,0,3,19,87,9
9,4,22,0,4,0,3,19,87,11
9,4,4,0,5,1,3,19,87,11
9,4,15,1,5,1,3,19,12,9
9,4,12,1,6,1,3,19,87,11
9,4,23,0,1,0,3,19,96,11
9,4,8,1,1,0,3,19,96,11
9,4,14,1,2,0,3,19,3,11
9,4,15,1,3,0,3,19,96,11
9,4,20,1,3,0,3,19,120,11
9,4,6,0,4,0,3,19,120,11
9,4,11,1,6,1,3,19,117,11
9,4,1,0,6,1,3,19,96,11
9,4,17,1,6,1,3,19,120,11
9,4,13,1,6,1,3,19,120,11
9,4,0,0,0,0,3,19,96,11
9,4,2,0,2,0,3,19,96,11
9,4,21,0,2,0,3,19,120,11
10,4,13,1,5,1,4,19,120,11
10,4,8,1,1,0,4,19,96,11
10,4,16,1,1,0,4,19,73,11
10,4,5,0,2,0,4,19,120,11
10,4,19,1,2,0,4,19,120,11
10,4,17,1,3,0,4,19,87,11
10,4,17,1,5,1,4,19,104,11
10,4,20,1,0,0,4,19,120,11
10,4,17,1,3,0,4,19,39,11
10,4,18,1,3,0,4,19,96,11
10,4,17,1,3,0,4,19,96,11
10,4,16,1,3,0,4,19,120,11
10,4,0,0,0,0,4,19,106,11
10,4,13,1,1,0,4,19,120,9
10,4,19,1,2,0,4,19,96,11
10,4,21,0,2,0,4,19,22,9
10,4,17,1,4,0,4,19,96,11
10,4,14,1,6,1,4,19,120,11
11,4,9,1,3,0,4,19,87,11
11,4,17,1,3,0,4,19,120,11
11,4,8,1,0,0,4,19,85,11
11,4,22,0,0,0,4,19,85,11
11,4,1,0,0,0,4,19,120,11
11,4,17,1,0,0,4,19,45,11
11,4,9,1,2,0,4,19,120,11
11,4,15,1,4,0,4,19,120,11
11,4,23,0,6,1,4,19,120,9
11,4,22,0,0,0,4,19,120,11
11,4,2,0,1,0,4,19,71,11
11,4,22,0,1,0,4,19,120,11
11,4,17,1,1,0,4,19,25,11
11,4,17,1,2,0,4,19,96,11
11,4,19,1,2,0,4,19,64,11
11,4,7,1,3,0,4,19,19,11
11,4,0,0,0,0,4,19,96,11
11,4,20,1,0,0,4,19,96,11
11,4,23,0,2,0,4,19,120,11
12,1,13,1,2,0,4,19,77,11
12,1,14,1,0,0,4,19,71,11
12,1,2,0,3,0,4,19,73,11
12,1,4,0,0,0,4,19,19,9
12,1,0,0,1,0,4,19,73,11
12,1,12,1,5,1,4,19,91,9
12,1,14,1,2,0,4,19,73,11
12,1,21,0,3,0,4,19,66,9
12,1,7,1,4,0,4,19,39,9
12,1,17,1,4,0,4,19,3,11
1,1,12,1,0,0,1,19,39,11
1,1,22,0,0,0,1,19,39,9
1,1,2,0,1,0,1,19,39,9
1,1,13,1,2,0,1,19,3,11
1,1,22,0,1,0,1,19,87,11
1,1,17,1,2,0,1,19,3,11
1,1,20,1,3,0,1,19,39,8
2,1,13,1,2,0,1,19,96,11
2,1,6,0,5,1,1,19,22,11
2,1,17,1,6,1,1,19,3,11
2,1,22,0,1,0,1,19,87,11
2,1,12,1,3,0,1,19,3,11
2,1,22,0,4,0,1,19,58,9
2,1,10,1,6,1,1,19,13,11
2,1,12,1,1,0,1,19,3,11
2,1,16,1,2,0,1,19,3,11
2,1,13,1,4,0,1,19,3,11
2,1,12,1,4,0,1,19,3,11
2,1,9,1,4,0,1,19,120,11
2,1,14,1,5,1,1,19,39,8
2,1,14,1,3,0,1,19,3,11
2,1,18,1,3,0,1,19,3,11
2,1,7,1,3,0,1,19,19,11
3,2,22,0,2,0,1,19,96,11
3,2,1,0,6,1,1,19,92,11
3,2,18,1,1,0,1,19,92,11
3,2,17,1,1,0,1,19,87,11
3,2,14,1,2,0,1,19,87,8
3,2,12,1,3,0,1,19,3,11
3,2,15,1,3,0,1,19,87,9
3,2,18,1,3,0,1,19,3,11
3,2,9,1,3,0,1,19,3,11
3,2,11,1,3,0,1,19,3,11
3,2,13,1,3,0,1,19,3,11
3,2,11,1,5,1,1,19,3,11
3,2,17,1,6,1,1,19,3,11
3,2,2,0,6,1,1,19,19,11
3,2,11,1,1,0,1,19,3,9
3,2,14,1,1,0,1,19,3,11
3,2,15,1,1,0,1,19,3,11
3,2,19,1,2,0,1,19,87,11
3,2,1,0,2,0,1,19,92,11
4,2,18,1,5,1,2,19,3,11
4,2,16,1,4,0,2,19,27,11
4,2,21,0,4,0,2,19,27,11
4,2,16,1,1,0,2,19,120,11
4,2,16,1,2,0,2,19,120,11
4,2,14,1,1,0,2,19,3,11
5,2,19,1,6,1,2,19,19,11
5,2,19,1,0,0,2,19,19,9
5,2,17,1,1,0,2,19,3,11
5,2,14,1,2,0,2,19,19,11
5,2,21,0,4,0,2,19,96,11
5,2,11,1,1,0,2,19,120,9
5,2,14,1,1,0,2,19,120,9
5,2,21,0,1,0,2,19,87,11
5,2,11,1,4,0,2,19,87,11
5,2,13,1,4,0,2,19,96,11
5,2,17,1,3,0,2,19,96,11
5,2,4,0,0,0,2,19,73,11
6,3,0,0,3,0,2,19,87,11
6,3,8,1,5,1,2,19,120,11
6,3,12,1,6,1,2,19,87,11
6,3,12,1,1,0,2,19,96,11
6,3,0,0,2,0,2,19,96,11
6,3,12,1,4,0,2,19,13,8
6,3,14,1,5,1,2,19,87,11
6,3,9,1,1,0,2,19,73,11
6,3,16,1,0,0,2,19,3,9
6,3,12,1,1,0,2,19,3,11
6,3,3,0,2,0,2,19,96,11
7,3,20,1,0,0,3,19,87,11
7,3,16,1,1,0,3,19,117,9
7,3,9,1,1,0,3,19,78,9
7,3,18,1,2,0,3,19,117,9
7,3,16,1,2,0,3,19,3,11
7,3,17,1,3,0,3,19,19,11
7,3,9,1,3,0,3,19,120,11
7,3,11,1,5,1,3,19,87,11
7,3,10,1,6,1,3,19,120,11
7,3,23,0,6,1,3,19,87,11
7,3,8,1,2,0,3,19,87,11
7,3,9,1,0,0,3,19,3,11
7,3,8,1,1,0,3,19,87,9
7,3,2,0,4,0,3,19,87,11
7,3,6,0,4,0,3,19,120,9
8,3,18,1,6,1,3,19,96,11
8,3,17,1,4,0,3,19,87,11
8,3,17,1,5,1,3,19,96,11
8,3,12,1,0,0,3,19,96,11
8,3,14,1,0,0,3,19,87,9
8,3,14,1,4,0,3,19,3,9
8,3,6,0,4,0,3,19,87,11
8,3,23,0,2,0,3,19,87,11
8,3,18,1,1,0,3,19,87,9
8,3,17,1,4,0,3,19,3,11
8,3,18,1,6,1,3,19,87,9
8,3,20,1,6,1,3,19,3,9
9,4,16,1,2,0,3,19,3,9
9,4,12,1,2,0,3,19,86,11
9,4,17,1,3,0,3,19,87,11
9,4,17,1,2,0,3,19,87,11
9,4,5,0,3,0,3,19,48,11
9,4,8,1,3,0,3,19,19,11
9,4,20,1,6,1,3,19,73,11
9,4,17,1,6,1,3,19,96,11
9,4,14,1,1,0,3,19,85,11
9,4,15,1,1,0,3,19,73,9
9,4,23,0,2,0,3,19,96,11
9,4,9,1,4,0,3,19,96,11
9,4,13,1,5,1,3,19,78,11
9,4,10,1,5,1,3,19,3,11
9,4,3,0,5,1,3,19,120,11
9,4,10,1,5,1,3,19,96,11
9,4,23,0,5,1,3,19,96,11
9,4,17,1,2,0,3,19,3,9
9,4,18,1,2,0,3,19,87,11
9,4,14,1,5,1,3,19,3,11
9,4,17,1,6,1,3,19,87,11
9,4,15,1,0,0,3,19,3,11
10,4,11,1,4,0,4,19,3,11
10,4,14,1,5,1,4,19,3,11
10,4,18,1,6,1,4,19,3,11
10,4,14,1,6,1,4,19,3,11
10,4,20,1,0,0,4,19,3,11
10,4,14,1,2,0,4,19,87,11
10,4,18,1,3,0,4,19,3,11
10,4,19,1,3,0,4,19,120,11
10,4,19,1,6,1,4,19,86,11
10,4,2,0,3,0,4,19,73,9
11,4,15,1,1,0,4,19,3,11
11,4,1,0,1,0,4,19,96,11
11,4,6,0,2,0,4,19,3,11
11,4,16,1,2,0,4,19,87,11
11,4,10,1,0,0,4,19,87,11
11,4,12,1,1,0,4,19,87,11
11,4,9,1,1,0,4,19,85,11
11,4,18,1,2,0,4,19,96,11
11,4,16,1,4,0,4,19,96,11
12,1,16,1,5,1,4,19,96,11
12,1,17,1,6,1,4,19,96,11
12,1,2,0,2,0,4,19,87,11
12,1,21,0,5,1,4,19,73,11
12,1,16,1,3,0,4,19,3,11
12,1,19,1,4,0,4,19,96,11
12,1,15,1,6,1,4,19,13,11
12,1,14,1,1,0,4,19,64,11
12,1,8,1,1,0,4,19,3,11
12,1,8,1,1,0,4,19,3,11
12,1,19,1,3,0,4,19,73,11
12,1,15,1,3,0,4,19,3,11
12,1,14,1,1,0,4,19,39,11
1,1,10,1,1,0,1,44,64,11
1,1,12,1,1,0,1,44,64,11
1,1,9,1,3,0,1,44,96,11
1,1,20,1,6,1,1,44,101,11
1,1,15,1,0,0,1,44,73,11
1,1,12,1,3,0,1,44,96,11
2,1,7,1,1,0,1,44,120,11
2,1,16,1,3,0,1,44,96,11
2,1,19,1,4,0,1,44,96,11
2,1,20,1,5,1,1,44,64,11
2,1,2,0,4,0,1,44,14,11
2,1,16,1,1,0,1,44,96,11
2,1,14,1,1,0,1,44,96,11
2,1,12,1,3,0,1,44,96,11
2,1,16,1,3,0,1,44,96,11
2,1,11,1,5,1,1,44,87,11
3,2,13,1,0,0,1,44,96,11
3,2,17,1,0,0,1,44,87,11
3,2,15,1,1,0,1,44,96,11
3,2,20,1,1,0,1,44,96,11
3,2,19,1,2,0,1,44,96,11
3,2,19,1,4,0,1,44,96,11
3,2,14,1,4,0,1,44,96,11
3,2,13,1,5,1,1,44,96,11
3,2,15,1,5,1,1,44,96,11
3,2,15,1,5,1,1,44,12,11
3,2,16,1,6,1,1,44,96,11
3,2,13,1,6,1,1,44,96,11
3,2,14,1,0,0,1,44,96,11
3,2,17,1,0,0,1,44,96,11
3,2,19,1,0,0,1,44,87,11
3,2,11,1,0,0,1,44,96,11
3,2,15,1,4,0,1,44,96,11
3,2,18,1,4,0,1,44,96,11
3,2,20,1,4,0,1,44,96,11
3,2,11,1,3,0,1,44,96,11
3,2,17,1,6,1,1,44,96,11
3,2,20,1,1,0,1,44,96,11
3,2,12,1,1,0,1,44,96,11
3,2,17,1,2,0,1,44,96,11
4,2,6,0,3,0,2,44,120,11
4,2,17,1,6,1,2,44,87,11
4,2,21,0,2,0,2,44,96,11
4,2,10,1,3,0,2,44,19,11
4,2,9,1,4,0,2,44,96,11
4,2,14,1,6,1,2,44,96,11
4,2,12,1,1,0,2,44,73,11
4,2,5,0,3,0,2,44,120,11
4,2,2,0,4,0,2,44,92,11
4,2,13,1,2,0,2,44,71,11
4,2,6,0,3,0,2,44,71,11
4,2,4,0,3,0,2,44,45,11
4,2,20,1,0,0,2,44,96,11
5,2,10,1,3,0,2,44,96,11
5,2,20,1,6,1,2,44,77,11
5,2,10,1,2,0,2,44,87,11
5,2,13,1,5,1,2,44,96,11
5,2,11,1,6,1,2,44,71,11
5,2,11,1,6,1,2,44,64,11
5,2,20,1,1,0,2,44,25,11
5,2,15,1,5,1,2,44,96,11
6,3,14,1,5,1,2,44,96,11
6,3,7,1,4,0,2,44,64,11
6,3,18,1,6,1,2,44,96,11
6,3,20,1,6,1,2,44,96,11
6,3,20,1,0,0,2,44,64,11
6,3,15,1,2,0,2,44,96,11
6,3,13,1,4,0,2,44,96,11
6,3,10,1,5,1,2,44,96,11
7,3,15,1,4,0,3,44,96,11
7,3,18,1,4,0,3,44,96,11
7,3,21,0,4,0,3,44,96,11
7,3,13,1,5,1,3,44,96,11
7,3,14,1,5,1,3,44,96,11
7,3,20,1,6,1,3,44,64,11
7,3,3,0,0,0,3,44,19,11
7,3,10,1,1,0,3,44,19,11
7,3,22,0,4,0,3,44,96,11
7,3,11,1,5,1,3,44,96,11
7,3,7,1,0,0,3,44,96,11
7,3,12,1,0,0,3,44,96,11
7,3,13,1,2,0,3,44,96,11
7,3,12,1,3,0,3,44,96,11
7,3,12,1,6,1,3,44,87,11
7,3,23,0,0,0,3,44,96,11
7,3,22,0,1,0,3,44,39,11
7,3,14,1,5,1,3,44,96,11
8,3,3,0,2,0,3,44,99,11
8,3,11,1,2,0,3,44,87,11
8,3,20,1,5,1,3,44,13,11
8,3,18,1,5,1,3,44,96,11
8,3,12,1,5,1,3,44,96,11
8,3,12,1,5,1,3,44,96,11
8,3,12,1,2,0,3,44,96,11
8,3,6,0,1,0,3,44,71,11
8,3,9,1,2,0,3,44,85,11
8,3,20,1,5,1,3,44,64,11
8,3,14,1,1,0,3,44,96,11
8,3,14,1,1,0,3,44,87,11
8,3,13,1,3,0,3,44,85,11
8,3,14,1,4,0,3,44,96,11
8,3,16,1,4,0,3,44,96,11
8,3,11,1,6,1,3,44,96,11
8,3,15,1,0,0,3,44,96,11
8,3,16,1,1,0,3,44,64,11
8,3,14,1,1,0,3,44,96,11
9,4,14,1,2,0,3,44,96,11
9,4,16,1,4,0,3,44,87,11
9,4,17,1,4,0,3,44,96,11
9,4,19,1,5,1,3,44,85,11
9,4,18,1,5,1,3,44,87,11
9,4,1,0,1,0,3,44,62,11
9,4,12,1,1,0,3,44,96,11
9,4,13,1,1,0,3,44,87,11
9,4,12,1,1,0,3,44,96,11
9,4,13,1,2,0,3,44,3,11
9,4,14,1,5,1,3,44,96,11
9,4,13,1,1,0,3,44,55,11
9,4,12,1,0,0,3,44,96,11
10,4,17,1,0,0,4,44,96,11
10,4,6,0,3,0,4,44,104,11
10,4,20,1,0,0,4,44,73,11
10,4,18,1,2,0,4,44,39,11
10,4,15,1,3,0,4,44,96,11
10,4,20,1,0,0,4,44,19,11
10,4,12,1,4,0,4,44,96,11
10,4,17,1,4,0,4,44,73,11
10,4,3,0,6,1,4,44,64,11
11,4,10,1,3,0,4,44,19,11
11,4,17,1,5,1,4,44,96,11
11,4,20,1,1,0,4,44,64,11
11,4,10,1,3,0,4,44,7,11
12,1,2,0,3,0,4,44,96,11
12,1,11,1,1,0,4,44,64,11
12,1,20,1,3,0,4,44,19,11
12,1,18,1,5,1,4,44,96,11
1,1,14,1,6,1,1,44,13,11
1,1,7,1,2,0,1,44,73,9
1,1,11,1,4,0,1,44,66,11
1,1,13,1,6,1,1,44,73,11
2,1,16,1,0,0,1,44,73,11
2,1,5,0,4,0,1,44,19,11
2,1,17,1,4,0,1,44,96,11
2,1,18,1,0,0,1,44,85,11
2,1,7,1,6,1,1,44,51,11
2,1,3,0,1,0,1,44,71,11
2,1,19,1,3,0,1,44,12,11
3,2,19,1,1,0,1,44,96,11
3,2,15,1,1,0,1,44,96,11
3,2,13,1,3,0,1,44,96,11
3,2,14,1,5,1,1,44,3,11
3,2,12,1,0,0,1,44,96,11
3,2,7,1,1,0,1,44,96,11
3,2,13,1,5,1,1,44,62,11
3,2,11,1,6,1,1,44,96,11
3,2,15,1,6,1,1,44,96,11
3,2,10,1,3,0,1,44,96,11
3,2,12,1,3,0,1,44,96,11
3,2,12,1,1,0,1,44,96,11
3,2,13,1,1,0,1,44,96,11
3,2,20,1,1,0,1,44,87,11
4,2,14,1,5,1,2,44,87,11
4,2,23,0,0,0,2,44,89,11
4,2,12,1,2,0,2,44,13,11
4,2,17,1,2,0,2,44,25,11
6,3,22,0,0,0,2,44,22,8
6,3,14,1,1,0,2,44,73,11
6,3,13,1,5,1,2,44,96,11
6,3,15,1,5,1,2,44,105,11
6,3,13,1,0,0,2,44,96,11
6,3,13,1,2,0,2,44,25,11
7,3,17,1,4,0,3,44,87,11
7,3,12,1,4,0,3,44,96,11
7,3,14,1,4,0,3,44,87,11
7,3,18,1,6,1,3,44,96,11
8,3,16,1,4,0,3,44,89,11
8,3,13,1,0,0,3,44,96,11
8,3,0,0,4,0,3,44,96,11
8,3,16,1,1,0,3,44,96,11
8,3,17,1,3,0,3,44,3,11
9,4,15,1,4,0,3,44,96,11
9,4,10,1,2,0,3,44,87,11
9,4,13,1,1,0,3,44,87,11
9,4,20,1,5,1,3,44,96,11
9,4,0,0,1,0,3,44,3,11
9,4,20,1,1,0,3,44,96,11
10,4,13,1,1,0,4,44,25,11
10,4,13,1,2,0,4,44,73,11
11,4,22,0,0,0,4,44,45,11
11,4,12,1,4,0,4,44,64,11
11,4,18,1,1,0,4,44,73,11
11,4,16,1,1,0,4,44,73,11
1,1,17,1,4,0,1,44,92,11
2,1,13,1,4,0,1,44,96,11
2,1,15,1,4,0,1,44,96,11
2,1,19,1,6,1,1,44,96,11
2,1,15,1,0,0,1,44,12,9
2,1,13,1,1,0,1,44,96,11
2,1,16,1,2,0,1,44,96,11
2,1,3,0,4,0,1,44,73,11
2,1,12,1,4,0,1,44,96,11
2,1,20,1,4,0,1,44,96,11
2,1,15,1,4,0,1,44,96,11
2,1,11,1,4,0,1,44,96,11
2,1,21,0,4,0,1,44,96,11
2,1,18,1,5,1,1,44,96,11
3,2,18,1,0,0,1,44,96,11
3,2,18,1,0,0,1,44,96,11
3,2,17,1,0,0,1,44,96,11
3,2,16,1,0,0,1,44,96,11
3,2,19,1,1,0,1,44,96,11
3,2,20,1,2,0,1,44,96,11
3,2,20,1,2,0,1,44,96,11
3,2,21,0,4,0,1,44,56,11
3,2,19,1,6,1,1,44,73,11
3,2,16,1,6,1,1,44,96,11
3,2,16,1,0,0,1,44,96,11
3,2,13,1,2,0,1,44,96,11
3,2,15,1,4,0,1,44,96,11
3,2,19,1,0,0,1,44,96,11
3,2,17,1,6,1,1,44,87,11
3,2,17,1,1,0,1,44,96,11
3,2,19,1,2,0,1,44,96,11
3,2,17,1,2,0,1,44,96,11
3,2,17,1,2,0,1,44,96,11
4,2,1,0,5,1,2,44,96,11
4,2,1,0,3,0,2,44,104,11
4,2,16,1,4,0,2,44,96,11
4,2,13,1,0,0,2,44,96,11
4,2,13,1,0,0,2,44,96,11
4,2,16,1,1,0,2,44,120,11
4,2,15,1,4,0,2,44,120,11
5,2,19,1,0,0,2,44,96,11
5,2,21,0,1,0,2,44,96,11
5,2,19,1,1,0,2,44,96,11
5,2,13,1,2,0,2,44,96,11
5,2,9,1,6,1,2,44,13,11
5,2,13,1,0,0,2,44,96,11
5,2,17,1,0,0,2,44,96,11
5,2,14,1,1,0,2,44,96,11
5,2,17,1,3,0,2,44,96,11
5,2,19,1,3,0,2,44,104,11
6,3,16,1,5,1,2,44,96,11
6,3,17,1,2,0,2,44,96,11
6,3,16,1,4,0,2,44,96,11
6,3,2,0,0,0,2,44,73,11
6,3,17,1,2,0,2,44,96,11
7,3,17,1,4,0,3,44,96,11
7,3,21,0,4,0,3,44,96,11
7,3,17,1,6,1,3,44,96,11
7,3,0,0,0,0,3,44,96,11
7,3,9,1,1,0,3,44,96,11
7,3,16,1,3,0,3,44,96,11
7,3,22,0,5,1,3,44,19,11
7,3,12,1,6,1,3,44,13,11
7,3,10,1,1,0,3,44,96,11
7,3,17,1,2,0,3,44,87,11
7,3,22,0,2,0,3,44,96,11
7,3,22,0,4,0,3,44,73,11
7,3,18,1,5,1,3,44,96,11
7,3,22,0,0,0,3,44,13,11
7,3,18,1,4,0,3,44,73,11
8,3,9,1,4,0,3,44,96,11
8,3,14,1,4,0,3,44,96,11
8,3,22,0,4,0,3,44,96,11
8,3,12,1,6,1,3,44,3,11
8,3,18,1,2,0,3,44,104,11
8,3,18,1,6,1,3,44,96,11
8,3,12,1,2,0,3,44,87,11
8,3,18,1,2,0,3,44,96,11
9,4,13,1,2,0,3,44,96,11
9,4,12,1,4,0,3,44,55,11
9,4,17,1,0,0,3,44,96,11
9,4,13,1,3,0,3,44,96,11
9,4,14,1,4,0,3,44,39,11
9,4,9,1,4,0,3,44,73,11
9,4,16,1,6,1,3,44,96,11
9,4,17,1,2,0,3,44,96,11
9,4,10,1,2,0,3,44,3,11
9,4,20,1,5,1,3,44,96,11
9,4,16,1,0,0,3,44,96,11
9,4,21,0,1,0,3,44,13,11
11,4,14,1,2,0,4,44,19,11
11,4,20,1,4,0,4,44,20,11
11,4,18,1,1,0,4,44,96,11
12,1,10,1,6,1,4,44,73,11
12,1,14,1,5,1,4,44,19,11
12,1,12,1,5,1,4,44,73,9
1,1,15,1,5,1,1,44,73,11
3,2,17,1,3,0,1,44,87,11
7,3,4,0,6,1,3,44,87,9
7,3,12,1,1,0,3,44,73,11
8,3,18,1,0,0,3,44,96,11
8,3,19,1,3,0,3,44,96,11
9,4,12,1,2,0,3,44,96,11
9,4,17,1,2,0,3,44,19,11
10,4,14,1,5,1,4,44,96,11
10,4,13,1,4,0,4,44,19,11
11,4,12,1,2,0,4,44,64,11
11,4,18,1,1,0,4,44,3,11
12,1,8,1,2,0,4,44,73,11
1,1,17,1,6,1,1,44,73,11
1,1,22,0,0,0,1,44,12,11
2,1,20,1,5,1,1,44,19,11
2,1,14,1,0,0,1,44,73,11
2,1,3,0,5,1,1,44,19,11
2,1,17,1,6,1,1,44,96,11
3,2,17,1,4,0,1,44,96,11
3,2,15,1,3,0,1,44,87,11
4,2,19,1,6,1,2,44,96,11
4,2,12,1,3,0,2,44,96,11
4,2,15,1,3,0,2,44,96,11
5,2,10,1,0,0,2,44,73,11
5,2,12,1,2,0,2,44,96,11
5,2,14,1,3,0,2,44,22,11
5,2,19,1,6,1,2,44,96,11
5,2,16,1,2,0,2,44,96,11
5,2,19,1,6,1,2,44,92,11
6,3,10,1,2,0,2,44,96,11
7,3,12,1,3,0,3,44,71,11
7,3,19,1,6,1,3,44,87,11
8,3,13,1,0,0,3,44,19,11
9,4,15,1,1,0,3,44,96,11
9,4,13,1,5,1,3,44,87,11
10,4,13,1,5,1,4,44,71,11
10,4,18,1,5,1,4,44,87,11
10,4,18,1,0,0,4,44,12,11
11,4,17,1,4,0,4,44,96,11
11,4,22,0,5,1,4,44,87,11
11,4,14,1,0,0,4,44,96,11
12,1,0,0,0,0,4,44,19,11
12,1,20,1,2,0,4,44,73,11
12,1,17,1,3,0,4,44,73,11
1,1,17,1,1,0,1,44,73,11
2,1,1,0,0,0,1,44,73,11
2,1,21,0,1,0,1,44,19,11
3,2,15,1,0,0,1,44,96,11
3,2,14,1,4,0,1,44,96,11
3,2,0,0,5,1,1,44,12,9
3,2,14,1,6,1,1,44,3,11
3,2,14,1,2,0,1,44,96,11
3,2,19,1,3,0,1,44,96,11
3,2,5,0,3,0,1,44,39,11
3,2,15,1,6,1,1,44,96,11
4,2,17,1,0,0,2,44,39,11
5,2,13,1,1,0,2,44,96,11
5,2,15,1,2,0,2,44,96,11
6,3,11,1,4,0,2,44,96,11
7,3,13,1,0,0,3,44,96,11
7,3,15,1,2,0,3,44,96,11
8,3,11,1,1,0,3,44,96,11
8,3,19,1,2,0,3,44,96,11
8,3,18,1,2,0,3,44,96,11
9,4,17,1,1,0,3,44,96,11
9,4,11,1,3,0,3,44,51,11
9,4,22,0,2,0,3,44,84,11
9,4,18,1,5,1,3,44,104,11
9,4,11,1,4,0,3,44,71,11
9,4,17,1,0,0,3,44,96,11
10,4,10,1,2,0,4,44,87,11
10,4,15,1,3,0,4,44,96,11
10,4,15,1,3,0,4,44,96,11
10,4,3,0,6,1,4,44,104,11
10,4,13,1,3,0,4,44,3,11
10,4,13,1,6,1,4,44,25,11
10,4,14,1,1,0,4,44,25,11
10,4,13,1,4,0,4,44,25,11
11,4,7,1,3,0,4,44,3,11
12,1,14,1,6,1,4,44,96,11
1,1,15,1,5,1,1,49,64,11
1,1,7,1,5,1,1,49,120,11
1,1,21,0,5,1,1,49,64,11
2,1,14,1,3,0,1,49,19,11
3,2,15,1,3,0,1,49,120,11
3,2,22,0,1,0,1,49,120,11
5,2,15,1,6,1,2,49,19,11
5,2,23,0,6,1,2,49,87,11
6,3,10,1,2,0,2,49,87,11
6,3,22,0,3,0,2,49,19,11
6,3,12,1,3,0,2,49,87,11
6,3,14,1,4,0,2,49,87,11
6,3,1,0,0,0,2,49,87,11
6,3,23,0,1,0,2,49,120,11
7,3,10,1,3,0,3,49,20,11
7,3,22,0,4,0,3,49,104,11
7,3,18,1,6,1,3,49,87,11
7,3,12,1,5,1,3,49,87,11
7,3,18,1,4,0,3,49,19,11
7,3,13,1,6,1,3,49,96,11
7,3,18,1,6,1,3,49,87,11
7,3,1,0,3,0,3,49,1,11
7,3,16,1,0,0,3,49,87,9
8,3,9,1,6,1,3,49,19,11
8,3,16,1,3,0,3,49,87,11
8,3,12,1,1,0,3,49,19,11
8,3,5,0,1,0,3,49,19,11
10,4,17,1,3,0,4,49,13,9
10,4,6,0,4,0,4,49,12,9
10,4,16,1,3,0,4,49,39,11
11,4,15,1,4,0,4,49,73,11
11,4,21,0,0,0,4,49,73,11
11,4,15,1,6,1,4,49,13,11
12,1,12,1,3,0,4,49,42,11
1,1,13,1,2,0,1,49,39,11
12,1,22,0,3,0,4,49,39,11
2,1,20,1,5,1,1,49,84,8
2,1,12,1,6,1,1,49,39,11
3,2,15,1,2,0,1,49,96,11
4,2,20,1,4,0,2,49,85,11
5,2,21,0,2,0,2,49,87,11
5,2,10,1,3,0,2,49,19,9
6,3,19,1,5,1,2,49,96,11
7,3,22,0,5,1,3,49,12,11
7,3,12,1,1,0,3,49,96,11
7,3,17,1,1,0,3,49,96,11
7,3,6,0,0,0,3,49,70,11
7,3,17,1,5,1,3,49,96,11
8,3,14,1,1,0,3,49,87,11
8,3,17,1,5,1,3,49,87,11
10,4,20,1,6,1,4,49,85,11
10,4,9,1,1,0,4,49,7,11
11,4,20,1,5,1,4,49,101,11
11,4,13,1,2,0,4,49,96,11
12,1,17,1,4,0,4,49,120,9
12,1,21,0,0,0,4,49,120,11
12,1,22,0,3,0,4,49,120,11
1,1,9,1,2,0,1,49,87,11
1,1,18,1,5,1,1,49,87,11
1,1,17,1,6,1,1,49,49,11
2,1,20,1,4,0,1,49,87,11
2,1,17,1,4,0,1,49,87,11
2,1,17,1,4,0,1,49,64,11
2,1,13,1,0,0,1,49,87,11
3,2,14,1,0,0,1,49,73,9
3,2,21,0,4,0,1,49,96,11
3,2,16,1,0,0,1,49,73,11
3,2,19,1,1,0,1,49,85,11
3,2,14,1,1,0,1,49,96,11
3,2,22,0,2,0,1,49,87,11
3,2,14,1,1,0,1,49,27,11
3,2,21,0,2,0,1,49,96,11
3,2,13,1,2,0,1,49,13,11
4,2,7,1,2,0,2,49,87,11
4,2,19,1,5,1,2,49,82,11
4,2,21,0,6,1,2,49,87,11
4,2,17,1,5,1,2,49,96,11
4,2,15,1,3,0,2,49,104,11
5,2,13,1,5,1,2,49,101,11
5,2,20,1,3,0,2,49,96,11
5,2,20,1,5,1,2,49,87,11
5,2,15,1,3,0,2,49,87,11
5,2,13,1,4,0,2,49,87,11
5,2,23,0,5,1,2,49,96,11
5,2,20,1,6,1,2,49,96,11
5,2,12,1,0,0,2,49,87,11
5,2,17,1,2,0,2,49,39,11
5,2,16,1,2,0,2,49,96,11
5,2,12,1,2,0,2,49,39,11
6,3,21,0,2,0,2,49,87,11
6,3,15,1,6,1,2,49,87,11
6,3,15,1,3,0,2,49,96,11
6,3,11,1,1,0,2,49,27,9
7,3,11,1,1,0,3,49,87,11
7,3,14,1,2,0,3,49,64,11
7,3,21,0,6,1,3,49,120,11
7,3,22,0,0,0,3,49,120,11
7,3,9,1,2,0,3,49,96,11
7,3,23,0,3,0,3,49,120,11
7,3,11,1,6,1,3,49,120,11
7,3,22,0,2,0,3,49,87,11
7,3,12,1,2,0,3,49,71,11
7,3,23,0,5,1,3,49,96,11
7,3,17,1,0,0,3,49,71,11
7,3,7,1,1,0,3,49,71,11
7,3,0,0,5,1,3,49,96,11
8,3,15,1,0,0,3,49,87,11
8,3,16,1,1,0,3,49,87,11
8,3,0,0,0,0,3,49,87,11
8,3,3,0,3,0,3,49,73,9
8,3,18,1,3,0,3,49,78,11
9,4,15,1,2,0,3,49,96,11
10,4,7,1,4,0,4,49,71,11
10,4,16,1,4,0,4,49,120,9
10,4,12,1,0,0,4,49,87,11
10,4,20,1,2,0,4,49,96,11
11,4,17,1,6,1,4,49,73,11
1,1,12,1,4,0,1,49,96,11
2,1,0,0,6,1,1,49,120,11
3,2,18,1,6,1,1,49,76,11
4,2,12,1,0,0,2,49,87,11
5,2,23,0,0,0,2,49,47,11
5,2,9,1,0,0,2,49,87,11
7,3,10,1,2,0,3,49,96,11
7,3,20,1,4,0,3,49,117,11
7,3,18,1,6,1,3,49,3,11
7,3,17,1,3,0,3,49,87,11
8,3,12,1,4,0,3,49,87,11
8,3,15,1,4,0,3,49,87,11
9,4,15,1,3,0,3,49,96,11
9,4,19,1,4,0,3,49,49,11
9,4,2,0,2,0,3,49,104,11
11,4,12,1,1,0,4,49,73,11
2,1,13,1,6,1,1,49,120,11
3,2,16,1,1,0,1,49,87,11
5,2,1,0,0,0,2,49,96,11
6,3,19,1,2,0,2,49,77,11
7,3,12,1,6,1,3,49,87,9
8,3,11,1,6,1,3,49,73,11
9,4,15,1,4,0,3,49,87,11
10,4,11,1,5,1,4,49,96,11
10,4,20,1,0,0,4,49,73,9
12,1,12,1,6,1,4,49,73,11
1,1,11,1,5,1,1,26,73,11
1,1,13,1,5,1,1,26,3,11
1,1,15,1,4,0,1,26,64,11
1,1,16,1,0,0,1,26,92,11
1,1,10,1,1,0,1,26,64,11
1,1,12,1,2,0,1,26,92,11
1,1,11,1,3,0,1,26,87,11
1,1,8,1,6,1,1,26,73,11
1,1,12,1,2,0,1,26,64,11
1,1,19,1,3,0,1,26,106,9
1,1,16,1,4,0,1,26,96,11
2,1,11,1,4,0,1,26,87,11
2,1,10,1,3,0,1,26,64,11
2,1,2,0,0,0,1,26,64,11
2,1,17,1,0,0,1,26,92,11
2,1,17,1,1,0,1,26,64,11
2,1,19,1,4,0,1,26,62,11
2,1,16,1,1,0,1,26,71,11
2,1,18,1,5,1,1,26,96,11
3,2,13,1,4,0,1,26,3,11
3,2,21,0,5,1,1,26,92,11
3,2,0,0,6,1,1,26,92,11
3,2,14,1,1,0,1,26,39,8
3,2,22,0,2,0,1,26,104,11
3,2,19,1,5,1,1,26,63,11
3,2,16,1,6,1,1,26,87,11
3,2,13,1,2,0,1,26,96,11
3,2,18,1,2,0,1,26,96,11
3,2,15,1,5,1,1,26,92,11
3,2,20,1,0,0,1,26,45,11
3,2,11,1,5,1,1,26,96,11
3,2,15,1,2,0,1,26,96,11
3,2,20,1,2,0,1,26,73,11
4,2,16,1,0,0,2,26,87,11
4,2,13,1,1,0,2,26,4,11
4,2,9,1,4,0,2,26,85,11
4,2,21,0,4,0,2,26,64,11
4,2,0,0,6,1,2,26,87,11
4,2,6,0,1,0,2,26,64,11
4,2,17,1,5,1,2,26,62,11
4,2,20,1,2,0,2,26,64,11
5,2,17,1,0,0,2,26,71,8
5,2,13,1,1,0,2,26,87,11
5,2,18,1,6,1,2,26,87,11
5,2,13,1,6,1,2,26,87,11
5,2,18,1,2,0,2,26,87,11
5,2,10,1,2,0,2,26,64,11
5,2,11,1,3,0,2,26,64,11
5,2,4,0,6,1,2,26,92,11
5,2,0,0,5,1,2,26,87,11
6,3,20,1,4,0,2,26,96,11
6,3,11,1,5,1,2,26,71,11
6,3,9,1,1,0,2,26,13,8
6,3,11,1,3,0,2,26,63,11
6,3,12,1,5,1,2,26,96,11
6,3,11,1,6,1,2,26,96,11
6,3,18,1,0,0,2,26,87,11
6,3,7,1,1,0,2,26,19,11
7,3,20,1,3,0,3,26,3,11
7,3,15,1,4,0,3,26,71,11
7,3,15,1,0,0,3,26,19,11
8,3,20,1,2,0,3,26,87,8
8,3,14,1,4,0,3,26,103,8
8,3,8,1,4,0,3,26,120,8
8,3,5,0,6,1,3,26,87,11
8,3,17,1,1,0,3,26,96,11
8,3,14,1,3,0,3,26,3,11
8,3,13,1,4,0,3,26,87,11
8,3,14,1,4,0,3,26,87,11
8,3,17,1,6,1,3,26,96,11
8,3,12,1,5,1,3,26,96,8
8,3,12,1,5,1,3,26,71,11
8,3,14,1,0,0,3,26,56,11
9,4,18,1,3,0,3,26,71,11
9,4,3,0,1,0,3,26,96,11
10,4,5,0,5,1,4,26,85,11
10,4,20,1,6,1,4,26,96,11
10,4,14,1,3,0,4,26,3,11
11,4,13,1,4,0,4,26,92,11
11,4,15,1,2,0,4,26,39,11
11,4,8,1,6,1,4,26,64,11
11,4,13,1,4,0,4,26,64,11
11,4,18,1,5,1,4,26,77,11
11,4,8,1,0,0,4,26,104,11
11,4,1,0,1,0,4,26,22,8
12,1,22,0,4,0,4,26,64,11
12,1,16,1,5,1,4,26,19,11
12,1,8,1,0,0,4,26,71,11
12,1,11,1,0,0,4,26,73,11
12,1,14,1,4,0,4,26,96,11
12,1,20,1,6,1,4,26,85,11
12,1,9,1,1,0,4,26,64,11
12,1,7,1,1,0,4,26,85,11
3,2,11,1,1,0,1,26,103,11
3,2,18,1,5,1,1,26,87,11
3,2,11,1,4,0,1,26,73,11
5,2,9,1,6,1,2,26,96,11
5,2,10,1,6,1,2,26,96,11
6,3,18,1,2,0,2,26,3,11
6,3,18,1,0,0,2,26,3,11
7,3,11,1,5,1,3,26,87,11
7,3,19,1,3,0,3,26,73,9
7,3,19,1,2,0,3,26,3,11
8,3,15,1,1,0,3,26,96,11
10,4,17,1,2,0,4,26,96,11
12,1,17,1,2,0,4,26,96,11
12,1,22,0,1,0,4,26,73,11
3,2,14,1,1,0,1,26,3,11
5,2,5,0,3,0,2,26,120,11
5,2,15,1,6,1,2,26,87,11
7,3,20,1,5,1,3,26,87,11
7,3,13,1,2,0,3,26,3,11
7,3,16,1,5,1,3,26,117,11
8,3,23,0,1,0,3,26,96,11
8,3,18,1,1,0,3,26,96,11
9,4,17,1,6,1,3,26,13,11
10,4,11,1,3,0,4,26,45,8
10,4,9,1,4,0,4,26,3,11
11,4,14,1,1,0,4,26,45,8
11,4,13,1,6,1,4,26,13,11
2,1,0,0,3,0,1,26,92,11
3,2,16,1,0,0,1,26,87,11
3,2,6,0,2,0,1,26,73,9
4,2,11,1,1,0,2,26,73,11
5,2,21,0,1,0,2,26,73,11
5,2,3,0,6,1,2,26,87,11
6,3,2,0,5,1,2,26,96,11
8,3,16,1,6,1,3,26,13,11
8,3,12,1,2,0,3,26,19,11
9,4,16,1,5,1,3,26,104,11
9,4,4,0,4,0,3,26,3,11
10,4,22,0,2,0,4,26,25,11
10,4,17,1,6,1,4,26,104,11
10,4,20,1,3,0,4,26,39,11
11,4,15,1,0,0,4,26,104,11
11,4,23,0,4,0,4,26,39,11
11,4,18,1,6,1,4,26,39,11
1,1,17,1,5,1,1,38,96,11
1,1,4,0,2,0,1,38,85,9
1,1,17,1,2,0,1,38,85,11
1,1,21,0,2,0,1,38,64,11
1,1,10,1,2,0,1,38,64,11
2,1,22,0,0,0,1,38,39,11
2,1,17,1,4,0,1,38,12,11
2,1,10,1,5,1,1,38,47,11
2,1,11,1,2,0,1,38,120,11
2,1,19,1,5,1,1,38,85,11
3,2,21,0,5,1,1,38,73,11
3,2,10,1,6,1,1,38,96,11
3,2,13,1,6,1,1,38,96,11
3,2,23,0,0,0,1,38,120,11
3,2,23,0,0,0,1,38,85,11
3,2,6,0,1,0,1,38,118,11
3,2,17,1,5,1,1,38,55,11
3,2,20,1,0,0,1,38,64,11
4,2,20,1,3,0,2,38,96,11
4,2,13,1,6,1,2,38,96,11
4,2,16,1,2,0,2,38,71,11
4,2,14,1,4,0,2,38,12,11
4,2,16,1,6,1,2,38,96,11
4,2,11,1,1,0,2,38,71,11
4,2,18,1,2,0,2,38,96,11
4,2,16,1,4,0,2,38,96,11
5,2,3,0,3,0,2,38,64,9
5,2,8,1,3,0,2,38,19,11
5,2,15,1,5,1,2,38,96,11
5,2,15,1,0,0,2,38,96,11
5,2,6,0,3,0,2,38,19,11
5,2,1,0,6,1,2,38,85,11
5,2,22,0,6,1,2,38,96,11
5,2,18,1,1,0,2,38,39,11
6,3,13,1,4,0,2,38,19,11
6,3,18,1,4,0,2,38,120,11
6,3,17,1,5,1,2,38,104,11
6,3,17,1,2,0,2,38,56,11
7,3,13,1,6,1,3,38,96,11
8,3,15,1,2,0,3,38,84,8
8,3,18,1,3,0,3,38,57,11
8,3,20,1,2,0,3,38,104,11
9,4,0,0,6,1,3,38,81,8
9,4,0,0,0,0,3,38,104,11
9,4,12,1,2,0,3,38,64,11
9,4,18,1,1,0,3,38,87,11
9,4,20,1,3,0,3,38,73,9
10,4,6,0,4,0,4,38,104,11
10,4,8,1,3,0,4,38,120,11
10,4,9,1,1,0,4,38,104,11
11,4,13,1,6,1,4,38,39,9
11,4,0,0,0,0,4,38,19,9
12,1,18,1,0,0,4,38,73,11
12,1,23,0,3,0,4,38,39,9
12,1,19,1,4,0,4,38,92,11
12,1,18,1,2,0,4,38,92,11
12,1,20,1,0,0,4,38,120,11
12,1,9,1,5,1,4,38,96,11
12,1,13,1,1,0,4,38,51,11
12,1,19,1,4,0,4,38,73,11
1,1,23,0,4,0,1,38,39,8
1,1,19,1,5,1,1,38,39,11
1,1,22,0,6,1,1,38,92,11
1,1,8,1,0,0,1,38,92,11
1,1,10,1,6,1,1,38,73,11
1,1,11,1,1,0,1,38,56,11
1,1,14,1,5,1,1,38,73,8
1,1,20,1,6,1,1,19,39,11
2,1,8,1,1,0,1,38,63,11
2,1,17,1,4,0,1,38,73,11
2,1,17,1,0,0,1,38,85,11
2,1,12,1,5,1,1,38,96,11
2,1,18,1,5,1,1,38,96,11
3,2,12,1,4,0,1,38,96,11
3,2,16,1,4,0,1,38,96,11
3,2,13,1,0,0,1,19,73,11
3,2,20,1,0,0,1,38,96,11
3,2,13,1,2,0,1,38,92,11
3,2,12,1,0,0,1,38,92,11
3,2,10,1,1,0,1,38,87,11
3,2,13,1,2,0,1,38,96,11
3,2,12,1,3,0,1,38,39,8
3,2,12,1,4,0,1,38,96,11
3,2,12,1,4,0,1,38,96,11
3,2,18,1,3,0,1,38,87,11
3,2,12,1,3,0,1,38,87,11
3,2,16,1,5,1,1,38,13,11
3,2,2,0,5,1,1,19,87,11
3,2,10,1,2,0,1,38,96,11
4,2,18,1,3,0,2,38,87,11
4,2,20,1,4,0,2,38,96,11
4,2,16,1,0,0,2,38,96,11
4,2,2,0,2,0,2,38,92,11
4,2,4,0,5,1,2,38,39,11
4,2,13,1,5,1,2,38,39,11
4,2,16,1,5,1,2,38,96,11
4,2,18,1,0,0,2,19,73,11
4,2,0,0,3,0,2,38,87,11
4,2,14,1,4,0,2,38,96,11
4,2,18,1,6,1,2,38,57,11
4,2,21,0,1,0,2,38,87,11
5,2,10,1,0,0,2,38,96,11
5,2,0,0,3,0,2,38,71,11
5,2,19,1,6,1,2,38,85,11
5,2,14,1,4,0,2,38,39,11
5,2,16,1,5,1,2,38,19,11
5,2,13,1,0,0,2,19,19,11
5,2,17,1,0,0,2,38,87,8
5,2,23,0,5,1,2,38,96,11
5,2,3,0,6,1,2,19,92,11
5,2,3,0,3,0,2,38,92,11
5,2,15,1,0,0,2,38,96,9
5,2,17,1,0,0,2,38,87,11
6,3,13,1,1,0,2,38,96,11
6,3,11,1,4,0,2,38,96,9
6,3,12,1,4,0,2,38,87,11
6,3,16,1,4,0,2,38,13,11
6,3,16,1,2,0,2,38,19,11
6,3,16,1,2,0,2,38,78,9
6,3,10,1,5,1,2,38,78,11
6,3,18,1,6,1,2,38,78,11
7,3,18,1,6,1,3,38,96,11
7,3,19,1,0,0,3,38,96,11
7,3,18,1,2,0,3,38,96,11
7,3,13,1,5,1,3,38,96,11
7,3,19,1,2,0,3,38,96,9
7,3,18,1,4,0,3,38,96,11
7,3,5,0,5,1,3,38,96,11
7,3,20,1,0,0,3,38,96,11
7,3,11,1,2,0,3,38,117,11
7,3,17,1,2,0,3,38,96,11
7,3,20,1,3,0,3,38,96,8
7,3,12,1,6,1,3,38,96,11
7,3,14,1,6,1,3,38,96,11
7,3,11,1,5,1,3,38,87,11
8,3,21,0,2,0,3,38,87,11
8,3,18,1,4,0,3,38,96,11
8,3,20,1,4,0,3,38,96,11
8,3,21,0,6,1,3,38,96,11
8,3,13,1,4,0,3,38,96,11
8,3,12,1,0,0,3,38,96,11
8,3,21,0,1,0,3,38,92,11
8,3,15,1,0,0,3,38,96,11
8,3,16,1,5,1,3,38,87,11
8,3,14,1,1,0,3,38,120,11
8,3,17,1,1,0,3,38,96,11
9,4,11,1,1,0,3,38,96,11
9,4,21,0,4,0,3,38,96,11
9,4,19,1,5,1,3,38,96,11
9,4,20,1,2,0,3,38,87,11
9,4,13,1,2,0,3,38,96,11
9,4,12,1,1,0,3,38,25,11
9,4,13,1,1,0,3,38,96,11
9,4,12,1,3,0,3,38,12,11
9,4,17,1,4,0,3,38,96,11
9,4,8,1,0,0,3,38,87,11
9,4,20,1,0,0,3,38,96,11
9,4,0,0,1,0,3,38,12,11
10,4,17,1,2,0,4,38,87,11
10,4,2,0,4,0,4,38,92,11
10,4,8,1,4,0,4,38,3,11
10,4,12,1,3,0,4,38,71,11
10,4,21,0,3,0,4,38,96,11
10,4,15,1,4,0,4,38,25,11
10,4,17,1,5,1,4,38,47,11
10,4,18,1,4,0,4,38,96,11
11,4,10,1,2,0,4,19,25,11
11,4,19,1,1,0,4,38,96,11
11,4,22,0,5,1,4,38,92,11
11,4,17,1,1,0,4,38,96,11
11,4,19,1,1,0,4,38,96,11
11,4,10,1,2,0,4,38,64,11
11,4,16,1,6,1,4,38,7,11
12,1,21,0,3,0,4,38,19,11
12,1,14,1,0,0,4,38,73,9
12,1,16,1,3,0,4,38,96,11
12,1,10,1,0,0,4,38,92,11
12,1,15,1,0,0,4,38,96,11
12,1,23,0,3,0,4,19,92,11
12,1,20,1,5,1,4,38,39,11
12,1,12,1,6,1,4,38,96,11
12,1,10,1,2,0,4,38,92,11
2,1,19,1,5,1,1,19,96,11
3,2,14,1,0,0,1,19,96,11
3,2,21,0,5,1,1,19,19,9
3,2,17,1,1,0,1,19,96,11
4,2,19,1,6,1,2,19,96,11
4,2,18,1,6,1,2,19,73,11
4,2,17,1,3,0,2,19,96,11
4,2,21,0,4,0,2,19,73,11
5,2,13,1,4,0,2,38,96,11
6,3,18,1,6,1,2,19,96,11
6,3,14,1,0,0,2,19,96,11
6,3,14,1,1,0,2,19,13,11
6,3,15,1,2,0,2,19,87,11
7,3,13,1,3,0,3,19,96,11
7,3,21,0,3,0,3,19,96,11
7,3,15,1,6,1,3,19,96,11
7,3,17,1,5,1,3,19,96,11
8,3,18,1,0,0,3,19,96,9
8,3,17,1,3,0,3,19,87,11
9,4,17,1,5,1,3,19,87,11
9,4,11,1,6,1,3,19,3,11
9,4,18,1,0,0,3,19,96,11
11,4,11,1,4,0,4,19,96,11
1,1,15,1,2,0,1,38,85,11
1,1,21,0,2,0,1,38,39,11
1,1,18,1,0,0,1,38,92,11
1,1,22,0,3,0,1,38,66,11
1,1,12,1,5,1,1,38,64,11
1,1,13,1,1,0,1,38,64,11
1,1,16,1,4,0,1,38,73,11
2,1,21,0,4,0,1,38,64,11
2,1,14,1,5,1,1,38,85,11
2,1,20,1,6,1,1,38,73,11
2,1,20,1,0,0,1,38,85,11
2,1,11,1,1,0,1,38,85,11
2,1,15,1,3,0,1,38,73,11
2,1,0,0,4,0,1,38,73,11
2,1,15,1,1,0,1,38,85,11
2,1,19,1,2,0,1,38,85,11
2,1,15,1,4,0,1,38,94,11
3,2,17,1,5,1,1,38,85,11
3,2,21,0,1,0,1,38,85,11
3,2,9,1,4,0,1,38,64,11
3,2,4,0,1,0,1,38,85,11
4,2,16,1,1,0,2,38,85,11
4,2,17,1,6,1,2,38,85,11
4,2,3,0,4,0,2,38,96,11
4,2,10,1,5,1,2,38,73,9
5,2,18,1,4,0,2,38,96,11
6,3,17,1,4,0,2,38,96,11
6,3,12,1,4,0,2,38,96,11
6,3,22,0,3,0,2,38,56,11
6,3,13,1,5,1,2,38,87,11
6,3,18,1,0,0,2,38,85,11
7,3,9,1,6,1,3,38,96,11
7,3,15,1,1,0,3,38,96,11
7,3,22,0,2,0,3,38,19,11
7,3,17,1,6,1,3,38,104,11
7,3,18,1,3,0,3,38,87,9
7,3,21,0,4,0,3,38,73,9
7,3,0,0,5,1,3,38,96,11
8,3,17,1,0,0,3,38,96,11
8,3,11,1,3,0,3,38,39,11
8,3,0,0,6,1,3,38,25,11
8,3,13,1,5,1,3,38,12,11
9,4,10,1,2,0,3,38,39,9
9,4,11,1,0,0,3,38,39,9
10,4,14,1,3,0,4,38,85,11
11,4,20,1,5,1,4,38,66,11
11,4,22,0,5,1,4,38,66,11
11,4,13,1,5,1,4,38,64,11
11,4,16,1,5,1,4,38,64,11
11,4,0,0,0,0,4,38,85,11
12,1,17,1,2,0,4,38,85,11
12,1,17,1,2,0,4,38,85,11
12,1,11,1,3,0,4,38,85,11
12,1,20,1,5,1,4,38,87,11
12,1,10,1,2,0,4,38,85,11
1,1,9,1,6,1,1,16,64,11
1,1,12,1,1,0,1,16,120,11
1,1,16,1,1,0,1,16,64,11
1,1,15,1,2,0,1,16,87,11
1,1,19,1,4,0,1,16,85,11
2,1,15,1,0,0,1,16,73,11
2,1,23,0,3,0,1,16,74,11
2,1,20,1,0,0,1,16,85,9
2,1,23,0,0,0,1,16,85,11
2,1,18,1,0,0,1,16,51,11
2,1,23,0,1,0,1,16,73,11
2,1,20,1,0,0,1,16,64,11
2,1,20,1,1,0,1,16,73,11
2,1,17,1,2,0,1,16,64,11
2,1,19,1,2,0,1,16,85,11
3,2,17,1,4,0,1,16,64,11
3,2,21,0,5,1,1,16,64,11
3,2,20,1,1,0,1,16,12,11
3,2,15,1,4,0,1,16,85,11
3,2,16,1,0,0,1,16,64,11
3,2,19,1,3,0,1,16,96,11
3,2,21,0,4,0,1,16,85,11
3,2,18,1,6,1,1,16,64,11
3,2,21,0,4,0,1,16,12,9
4,2,6,0,4,0,2,16,71,11
4,2,20,1,3,0,2,16,64,11
4,2,22,0,5,1,2,16,64,11
4,2,15,1,6,1,2,16,96,11
4,2,16,1,6,1,2,16,117,11
4,2,9,1,4,0,2,16,64,11
4,2,16,1,4,0,2,16,96,11
4,2,5,0,2,0,2,16,39,8
5,2,17,1,6,1,2,16,87,11
5,2,19,1,4,0,2,16,71,11
5,2,7,1,1,0,2,16,64,11
5,2,13,1,4,0,2,16,73,11
5,2,11,1,4,0,2,16,25,11
6,3,21,0,1,0,2,16,96,11
6,3,0,0,3,0,2,16,96,11
6,3,0,0,3,0,2,16,87,11
6,3,9,1,6,1,2,16,19,11
6,3,22,0,2,0,2,16,64,11
6,3,14,1,3,0,2,16,71,9
6,3,0,0,5,1,2,16,19,11
7,3,20,1,5,1,3,16,3,11
7,3,1,0,3,0,3,16,85,11
7,3,14,1,3,0,3,16,87,11
7,3,18,1,5,1,3,16,3,11
8,3,0,0,5,1,3,16,87,9
8,3,8,1,4,0,3,16,8,11
8,3,14,1,0,0,3,16,85,11
8,3,13,1,2,0,3,16,64,11
8,3,13,1,5,1,3,16,19,11
9,4,17,1,5,1,3,16,73,11
9,4,20,1,5,1,3,16,89,11
9,4,9,1,3,0,3,16,19,11
9,4,13,1,3,0,3,16,64,11
10,4,17,1,5,1,4,16,64,11
10,4,12,1,1,0,4,16,96,11
10,4,13,1,1,0,4,16,96,11
10,4,12,1,0,0,4,16,19,11
10,4,23,0,1,0,4,16,66,11
10,4,21,0,2,0,4,16,12,9
10,4,9,1,0,0,4,16,25,11
10,4,19,1,2,0,4,16,73,11
10,4,21,0,4,0,4,16,85,11
11,4,12,1,4,0,4,16,13,11
11,4,19,1,2,0,4,16,73,11
11,4,22,0,3,0,4,16,13,9
12,1,11,1,6,1,4,16,87,11
12,1,17,1,0,0,4,16,85,11
12,1,20,1,0,0,4,16,85,11
12,1,13,1,2,0,4,16,39,11
12,1,19,1,4,0,4,16,85,11
12,1,20,1,5,1,4,16,73,11
12,1,19,1,2,0,4,16,3,11
12,1,20,1,2,0,4,16,71,11
12,1,10,1,3,0,4,16,85,11
12,1,15,1,1,0,4,16,64,11
12,1,22,0,1,0,4,16,85,11
12,1,18,1,3,0,4,16,64,11
1,1,13,1,5,1,1,16,39,11
1,1,10,1,0,0,1,16,85,11
1,1,9,1,2,0,1,16,73,11
1,1,22,0,1,0,1,16,64,11
1,1,22,0,1,0,1,16,73,11
2,1,20,1,0,0,1,16,39,11
2,1,21,0,2,0,1,16,73,11
2,1,8,1,6,1,1,16,64,11
2,1,18,1,1,0,1,16,27,11
2,1,13,1,4,0,1,16,96,11
2,1,22,0,5,1,1,16,19,11
3,2,17,1,1,0,1,16,120,11
3,2,14,1,2,0,1,16,73,11
3,2,11,1,4,0,1,16,64,11
3,2,20,1,1,0,1,16,96,11
4,2,21,0,0,0,2,16,39,11
5,2,15,1,2,0,2,16,96,11
6,3,22,0,3,0,2,16,45,11
6,3,18,1,4,0,2,16,104,11
7,3,12,1,5,1,3,16,96,11
7,3,21,0,0,0,3,16,103,9
7,3,19,1,3,0,3,16,73,11
8,3,10,1,3,0,3,16,13,8
9,4,20,1,1,0,3,16,96,11
9,4,21,0,1,0,3,16,96,11
9,4,21,0,3,0,3,16,96,11
9,4,12,1,5,1,3,16,64,11
9,4,20,1,1,0,3,16,19,11
9,4,11,1,3,0,3,16,19,11
10,4,10,1,1,0,4,16,19,11
10,4,18,1,2,0,4,16,73,11
10,4,16,1,4,0,4,16,64,11
10,4,15,1,3,0,4,16,39,11
10,4,14,1,0,0,4,16,45,11
10,4,15,1,6,1,4,16,85,11
10,4,14,1,4,0,4,16,22,11
11,4,13,1,1,0,4,16,104,11
11,4,10,1,5,1,4,16,92,11
12,1,0,0,6,1,4,16,64,11
1,1,2,0,0,0,1,16,19,11
1,1,17,1,0,0,1,16,19,11
1,1,15,1,4,0,1,16,73,9
1,1,11,1,6,1,1,16,73,9
2,1,7,1,6,1,1,16,39,8
2,1,4,0,0,0,1,16,104,11
2,1,21,0,2,0,1,16,92,11
2,1,8,1,5,1,1,16,7,11
2,1,13,1,5,1,1,16,87,11
3,2,15,1,2,0,1,16,87,9
3,2,4,0,3,0,1,16,12,9
3,2,19,1,4,0,1,16,87,11
4,2,20,1,5,1,2,16,39,11
4,2,23,0,2,0,2,16,71,9
4,2,16,1,4,0,2,16,87,11
5,2,19,1,0,0,2,16,87,11
5,2,11,1,0,0,2,16,104,11
5,2,3,0,1,0,2,16,13,11
5,2,17,1,0,0,2,16,11,9
5,2,13,1,2,0,2,16,87,11
6,3,20,1,3,0,2,16,19,11
6,3,14,1,4,0,2,16,71,11
6,3,0,0,1,0,2,16,92,11
7,3,21,0,3,0,3,16,71,11
7,3,16,1,2,0,3,16,19,9
7,3,12,1,3,0,3,16,71,11
7,3,18,1,2,0,3,16,71,11
7,3,18,1,3,0,3,16,19,11
8,3,16,1,3,0,3,16,87,11
8,3,3,0,2,0,3,16,71,11
9,4,10,1,1,0,3,16,39,11
9,4,18,1,2,0,3,16,87,11
9,4,11,1,6,1,3,16,26,9
10,4,17,1,0,0,4,16,71,11
10,4,18,1,4,0,4,16,73,11
10,4,2,0,2,0,4,16,19,11
11,4,1,0,4,0,4,16,19,9
11,4,3,0,4,0,4,16,19,11
11,4,23,0,6,1,4,16,104,11
11,4,10,1,1,0,4,16,57,11
12,1,3,0,6,1,4,16,39,8
12,1,3,0,0,0,4,16,19,11
12,1,12,1,4,0,4,16,87,11
1,1,19,1,5,1,1,39,96,11
1,1,11,1,5,1,1,39,96,11
1,1,15,1,5,1,1,39,39,11
1,1,20,1,3,0,1,39,99,9
1,1,23,0,6,1,1,39,64,11
1,1,21,0,1,0,1,39,64,11
1,1,21,0,2,0,1,39,64,11
1,1,12,1,4,0,1,39,73,11
1,1,17,1,5,1,1,39,87,11
1,1,18,1,0,0,1,39,96,11
1,1,12,1,0,0,1,39,87,11
1,1,12,1,0,0,1,39,87,11
1,1,21,0,3,0,1,39,64,11
1,1,13,1,4,0,1,39,96,11
2,1,21,0,3,0,1,39,73,11
2,1,14,1,5,1,1,39,64,11
2,1,20,1,1,0,1,39,96,11
2,1,17,1,1,0,1,39,19,11
2,1,17,1,3,0,1,39,96,11
2,1,13,1,3,0,1,39,73,11
3,2,11,1,1,0,1,39,87,11
3,2,14,1,2,0,1,39,87,11
3,2,13,1,2,0,1,39,87,11
3,2,2,0,2,0,1,39,73,9
3,2,15,1,3,0,1,39,96,9
3,2,12,1,4,0,1,39,64,11
3,2,20,1,5,1,1,39,87,11
3,2,13,1,6,1,1,39,96,11
3,2,11,1,6,1,1,39,87,11
3,2,11,1,1,0,1,39,96,11
3,2,9,1,2,0,1,39,64,11
3,2,16,1,0,0,1,39,87,11
3,2,15,1,2,0,1,39,87,11
3,2,16,1,4,0,1,39,96,11
3,2,13,1,4,0,1,39,96,11
3,2,21,0,6,1,1,39,60,11
3,2,20,1,0,0,1,39,64,11
3,2,21,0,3,0,1,39,64,11
3,2,18,1,5,1,1,39,96,11
3,2,17,1,6,1,1,39,87,11
3,2,15,1,0,0,1,39,64,11
3,2,20,1,0,0,1,39,96,11
4,2,16,1,0,0,2,39,96,11
4,2,20,1,0,0,2,39,96,11
4,2,22,0,0,0,2,39,96,11
4,2,11,1,2,0,2,39,39,11
4,2,13,1,3,0,2,39,96,11
4,2,14,1,5,1,2,39,87,11
4,2,22,0,0,0,2,39,31,11
4,2,18,1,4,0,2,39,96,11
4,2,9,1,4,0,2,39,96,11
4,2,21,0,2,0,2,39,64,11
5,2,4,0,0,0,2,39,87,11
5,2,14,1,1,0,2,39,96,11
5,2,13,1,2,0,2,39,39,11
5,2,12,1,4,0,2,39,96,11
5,2,12,1,0,0,2,39,19,11
5,2,12,1,0,0,2,39,64,11
6,3,10,1,6,1,2,39,87,11
6,3,15,1,0,0,2,39,87,11
6,3,11,1,6,1,2,39,19,11
6,3,15,1,6,1,2,39,96,11
6,3,1,0,2,0,2,39,103,9
6,3,21,0,2,0,2,39,47,11
6,3,13,1,4,0,2,39,103,11
6,3,15,1,4,0,2,39,96,11
6,3,14,1,1,0,2,39,77,11
6,3,7,1,2,0,2,39,33,11
7,3,20,1,4,0,3,39,73,11
7,3,20,1,6,1,3,39,96,11
7,3,21,0,0,0,3,39,19,11
7,3,20,1,3,0,3,39,96,11
7,3,18,1,4,0,3,39,71,11
7,3,20,1,6,1,3,39,87,11
7,3,11,1,2,0,3,39,96,11
7,3,18,1,3,0,3,39,96,11
7,3,11,1,3,0,3,39,96,11
7,3,21,0,0,0,3,39,64,11
8,3,9,1,6,1,3,39,47,11
8,3,15,1,5,1,3,39,39,11
8,3,23,0,0,0,3,39,73,11
8,3,3,0,6,1,3,39,12,9
8,3,13,1,1,0,3,39,96,11
8,3,12,1,1,0,3,39,96,11
8,3,15,1,6,1,3,39,71,11
8,3,12,1,0,0,3,39,71,11
9,4,23,0,4,0,3,39,71,11
9,4,8,1,1,0,3,39,71,11
9,4,11,1,1,0,3,39,96,11
9,4,11,1,0,0,3,39,87,11
9,4,17,1,4,0,3,39,39,9
10,4,7,1,4,0,4,39,71,11
10,4,13,1,4,0,4,39,19,11
10,4,15,1,3,0,4,39,19,11
10,4,19,1,0,0,4,39,87,11
10,4,18,1,0,0,4,39,64,11
10,4,11,1,1,0,4,39,19,11
10,4,19,1,3,0,4,39,73,11
10,4,19,1,3,0,4,39,87,11
10,4,11,1,6,1,4,39,64,11
11,4,2,0,1,0,4,39,85,11
11,4,16,1,1,0,4,39,120,11
11,4,19,1,3,0,4,39,96,11
11,4,23,0,3,0,4,39,96,11
11,4,13,1,0,0,4,39,39,9
11,4,12,1,1,0,4,39,56,11
11,4,10,1,2,0,4,39,71,11
11,4,12,1,3,0,4,39,120,11
11,4,9,1,6,1,4,39,39,11
11,4,19,1,2,0,4,39,73,11
11,4,20,1,4,0,4,39,48,11
12,1,15,1,3,0,4,39,73,11
12,1,10,1,5,1,4,39,13,11
12,1,9,1,5,1,4,39,64,11
12,1,20,1,0,0,4,39,100,11
12,1,2,0,3,0,4,39,120,11
12,1,13,1,4,0,4,39,73,11
12,1,12,1,4,0,4,39,122,11
12,1,20,1,4,0,4,39,96,11
12,1,0,0,4,0,4,39,85,11
12,1,22,0,6,1,4,39,73,11
12,1,2,0,0,0,4,39,85,11
12,1,11,1,1,0,4,39,39,11
12,1,14,1,1,0,4,39,47,11
12,1,10,1,2,0,4,39,104,11
12,1,14,1,3,0,4,39,73,11
12,1,20,1,3,0,4,39,64,11
12,1,23,0,3,0,4,39,120,11
12,1,22,0,3,0,4,39,39,11
12,1,18,1,5,1,4,39,98,11
12,1,8,1,1,0,4,39,39,11
12,1,17,1,2,0,4,39,96,11
12,1,1,0,3,0,4,39,64,11
12,1,5,0,3,0,4,39,85,11
12,1,19,1,4,0,4,39,56,11
12,1,23,0,4,0,4,39,19,11
1,1,12,1,5,1,1,39,63,11
3,2,11,1,2,0,1,39,19,9
5,2,15,1,6,1,2,39,96,11
5,2,23,0,4,0,2,39,73,9
6,3,19,1,5,1,2,39,96,11
7,3,9,1,2,0,3,39,48,11
9,4,10,1,5,1,3,39,96,11
10,4,21,0,5,1,4,39,39,11
11,4,6,0,2,0,4,39,73,11
11,4,0,0,0,0,4,39,12,8
11,4,2,0,3,0,4,39,19,11
12,1,15,1,4,0,4,39,96,11
1,1,21,0,4,0,1,39,73,9
1,1,20,1,5,1,1,39,120,11
2,1,13,1,6,1,1,39,120,11
2,1,18,1,3,0,1,39,87,11
2,1,19,1,5,1,1,39,96,11
2,1,18,1,2,0,1,39,96,11
2,1,20,1,5,1,1,39,73,11
2,1,17,1,5,1,1,39,120,11
2,1,16,1,1,0,1,39,96,11
2,1,12,1,6,1,1,39,64,11
2,1,14,1,6,1,1,39,71,11
3,2,16,1,4,0,1,39,12,9
3,2,16,1,0,0,1,39,73,11
3,2,16,1,6,1,1,39,87,11
3,2,18,1,0,0,1,39,96,11
3,2,17,1,1,0,1,39,96,11
3,2,19,1,1,0,1,39,96,11
3,2,0,0,6,1,1,39,73,11
4,2,15,1,3,0,2,39,19,11
4,2,15,1,6,1,2,39,64,9
4,2,20,1,2,0,2,39,87,11
4,2,15,1,5,1,2,39,87,11
4,2,19,1,5,1,2,39,87,11
4,2,11,1,4,0,2,39,73,11
5,2,9,1,1,0,2,39,19,11
6,3,0,0,5,1,2,39,87,11
7,3,13,1,6,1,3,39,96,11
7,3,16,1,6,1,3,39,13,9
7,3,15,1,5,1,3,39,87,11
7,3,14,1,0,0,3,39,13,9
8,3,15,1,1,0,3,39,87,11
8,3,4,0,6,1,3,39,96,11
8,3,8,1,0,0,3,39,87,11
9,4,14,1,3,0,3,39,96,11
10,4,15,1,3,0,4,39,39,11
11,4,10,1,4,0,4,39,120,11
12,1,17,1,5,1,4,39,120,11
12,1,18,1,2,0,4,39,73,11
12,1,2,0,4,0,4,39,120,11
12,1,15,1,2,0,4,39,73,11
12,1,21,0,0,0,4,39,120,11
3,2,15,1,5,1,1,39,96,11
5,2,13,1,0,0,2,39,19,11
8,3,11,1,3,0,3,39,96,11
12,1,11,1,3,0,4,39,19,11
1,1,22,0,5,1,1,27,13,11
1,1,20,1,1,0,1,27,64,11
1,1,16,1,4,0,1,27,64,11
1,1,15,1,6,1,1,27,92,11
1,1,19,1,1,0,1,27,39,11
2,1,22,0,6,1,1,27,92,11
2,1,17,1,3,0,1,27,19,11
2,1,11,1,4,0,1,27,73,11
2,1,12,1,1,0,1,27,64,11
2,1,15,1,5,1,1,27,3,11
2,1,11,1,0,0,1,27,92,11
2,1,4,0,2,0,1,27,13,8
3,2,16,1,0,0,1,27,87,11
3,2,11,1,4,0,1,27,87,11
3,2,15,1,4,0,1,27,96,11
4,2,7,1,3,0,2,27,73,8
4,2,13,1,2,0,2,27,96,11
4,2,1,0,4,0,2,27,74,11
4,2,19,1,0,0,2,27,73,11
5,2,12,1,6,1,2,27,96,11
5,2,15,1,1,0,2,27,3,11
5,2,2,0,3,0,2,27,87,11
5,2,15,1,6,1,2,27,92,11
6,3,12,1,0,0,2,27,64,11
6,3,20,1,3,0,2,27,19,11
7,3,21,0,5,1,3,27,25,11
7,3,0,0,5,1,3,27,64,11
7,3,6,0,1,0,3,27,19,11
7,3,20,1,4,0,3,27,13,11
7,3,17,1,6,1,3,27,62,11
7,3,20,1,0,0,3,27,96,11
7,3,17,1,5,1,3,27,96,11
7,3,8,1,3,0,3,27,85,11
8,3,14,1,5,1,3,27,87,11
8,3,18,1,0,0,3,27,87,11
8,3,9,1,5,1,3,27,85,11
8,3,23,0,1,0,3,27,85,11
10,4,16,1,3,0,4,27,73,11
10,4,4,0,5,1,4,27,57,11
10,4,20,1,5,1,4,27,64,11
10,4,5,0,0,0,4,27,92,11
11,4,12,1,5,1,4,27,87,11
11,4,12,1,4,0,4,27,85,11
11,4,22,0,4,0,4,27,64,11
12,1,4,0,0,0,4,27,85,9
12,1,6,0,6,1,4,27,86,8
12,1,5,0,4,0,4,27,13,11
12,1,13,1,6,1,4,27,92,11
12,1,18,1,0,0,4,27,3,11
12,1,8,1,3,0,4,27,85,11
1,1,22,0,3,0,1,27,39,11
1,1,23,0,2,0,1,27,96,11
2,1,3,0,0,0,1,27,87,11
3,2,13,1,0,0,1,27,96,11
4,2,11,1,3,0,2,27,39,9
5,2,5,0,4,0,2,27,39,11
7,3,18,1,3,0,3,27,64,11
7,3,8,1,3,0,3,27,12,9
7,3,21,0,4,0,3,27,85,9
11,4,17,1,0,0,4,27,13,9
2,1,21,0,5,1,1,27,73,11
3,2,8,1,0,0,1,27,19,11
8,3,21,0,2,0,3,27,3,11
11,4,8,1,0,0,4,27,63,11
1,1,15,1,6,1,1,27,73,11
1,1,16,1,4,0,1,27,19,11
1,1,0,0,4,0,1,27,92,11
2,1,20,1,4,0,1,27,39,8
2,1,22,0,0,0,1,27,73,11
2,1,15,1,6,1,1,27,73,8
3,2,17,1,4,0,1,27,13,11
3,2,20,1,1,0,1,27,64,11
3,2,20,1,5,1,1,27,120,11
3,2,15,1,6,1,1,27,96,11
4,2,20,1,1,0,2,27,87,8
4,2,2,0,3,0,2,27,73,8
4,2,7,1,2,0,2,27,98,11
5,2,18,1,5,1,2,27,19,11
5,2,20,1,3,0,2,27,87,11
6,3,1,0,5,1,2,27,19,11
6,3,17,1,5,1,2,27,73,11
6,3,17,1,5,1,2,27,87,11
6,3,10,1,3,0,2,27,120,11
7,3,21,0,6,1,3,27,19,11
7,3,6,0,1,0,3,27,87,11
7,3,13,1,2,0,3,27,13,11
8,3,22,0,6,1,3,27,86,11
8,3,21,0,2,0,3,27,102,11
8,3,23,0,2,0,3,27,64,11
8,3,14,1,3,0,3,27,13,11
8,3,23,0,2,0,3,27,104,11
8,3,14,1,5,1,3,27,96,11
9,4,3,0,3,0,3,27,13,8
9,4,8,1,6,1,3,27,73,11
9,4,13,1,1,0,3,27,87,11
10,4,7,1,6,1,4,27,86,11
11,4,22,0,6,1,4,27,19,11
11,4,18,1,3,0,4,27,85,11
11,4,6,0,0,0,4,27,12,11
11,4,15,1,3,0,4,27,13,11
11,4,16,1,5,1,4,27,120,11
12,1,5,0,5,1,4,27,73,11
12,1,14,1,4,0,4,27,120,11
12,1,9,1,6,1,4,27,82,8
12,1,19,1,4,0,4,27,102,8
12,1,10,1,0,0,4,27,99,11
12,1,16,1,5,1,4,27,39,8
1,1,2,0,4,0,1,47,92,11
1,1,14,1,5,1,1,47,92,11
1,1,18,1,2,0,1,47,64,11
1,1,4,0,2,0,1,47,92,11
1,1,10,1,6,1,1,47,86,11
2,1,17,1,1,0,1,47,87,11
2,1,8,1,0,0,1,47,92,11
2,1,1,0,2,0,1,47,73,11
2,1,14,1,2,0,1,47,96,11
2,1,19,1,2,0,1,47,92,11
2,1,4,0,3,0,1,47,92,11
2,1,18,1,1,0,1,47,92,11
2,1,15,1,3,0,1,47,85,11
2,1,15,1,1,0,1,47,92,11
2,1,15,1,6,1,1,47,96,11
3,2,17,1,4,0,1,47,96,11
3,2,9,1,6,1,1,47,92,11
3,2,13,1,6,1,1,47,96,11
3,2,9,1,1,0,1,47,64,11
3,2,20,1,4,0,1,47,92,11
3,2,15,1,0,0,1,47,92,11
3,2,23,0,2,0,1,47,64,11
3,2,2,0,4,0,1,47,73,11
3,2,19,1,4,0,1,47,64,11
3,2,11,1,2,0,1,47,85,11
3,2,1,0,3,0,1,47,85,11
3,2,20,1,1,0,1,47,96,9
3,2,20,1,1,0,1,47,85,11
4,2,13,1,3,0,2,47,3,11
4,2,16,1,3,0,2,47,73,11
4,2,13,1,4,0,2,47,87,11
4,2,12,1,4,0,2,47,96,11
4,2,16,1,4,0,2,47,87,11
4,2,4,0,0,0,2,47,120,11
4,2,13,1,4,0,2,47,78,11
5,2,12,1,0,0,2,47,96,11
5,2,15,1,0,0,2,47,96,11
5,2,16,1,3,0,2,47,96,11
5,2,22,0,6,1,2,47,87,11
5,2,21,0,1,0,2,47,87,11
5,2,14,1,3,0,2,47,87,11
5,2,18,1,4,0,2,47,87,11
5,2,17,1,0,0,2,47,25,11
6,3,18,1,0,0,2,47,94,11
6,3,14,1,3,0,2,47,73,11
6,3,3,0,6,1,2,47,13,11
6,3,17,1,2,0,2,47,96,11
7,3,18,1,3,0,3,47,25,11
7,3,18,1,5,1,3,47,85,11
7,3,19,1,6,1,3,47,73,9
7,3,20,1,5,1,3,47,92,11
7,3,17,1,3,0,3,47,85,11
8,3,13,1,0,0,3,47,85,11
8,3,16,1,5,1,3,47,85,11
9,4,16,1,3,0,3,47,64,11
9,4,16,1,1,0,3,47,87,11
10,4,12,1,1,0,4,47,13,11
10,4,21,0,6,1,4,47,92,11
10,4,11,1,1,0,4,47,64,11
10,4,13,1,1,0,4,47,13,11
10,4,15,1,5,1,4,47,64,11
11,4,16,1,5,1,4,47,39,11
11,4,22,0,5,1,4,47,92,11
11,4,13,1,2,0,4,47,92,11
11,4,20,1,5,1,4,47,96,11
11,4,8,1,0,0,4,47,85,11
11,4,4,0,5,1,4,47,85,11
12,1,13,1,1,0,4,47,85,11
12,1,20,1,2,0,4,47,85,11
12,1,6,0,2,0,4,47,85,11
12,1,17,1,6,1,4,47,64,11
12,1,15,1,0,0,4,47,85,11
12,1,1,0,2,0,4,47,73,9
12,1,12,1,3,0,4,47,85,11
12,1,3,0,5,1,4,47,85,11
12,1,16,1,6,1,4,47,87,11
12,1,23,0,6,1,4,47,85,11
12,1,2,0,0,0,4,47,85,11
12,1,18,1,2,0,4,47,85,11
1,1,20,1,2,0,1,23,39,11
1,1,14,1,4,0,1,23,92,11
1,1,14,1,1,0,1,23,13,11
1,1,13,1,6,1,1,23,120,11
1,1,14,1,6,1,1,23,120,11
1,1,14,1,6,1,1,23,120,11
1,1,15,1,6,1,1,23,39,11
1,1,18,1,6,1,1,23,64,11
1,1,8,1,5,1,1,23,73,11
1,1,14,1,2,0,1,23,1,11
1,1,20,1,3,0,1,23,1,11
2,1,13,1,0,0,1,23,120,11
2,1,15,1,0,0,1,23,120,11
2,1,1,0,3,0,1,23,81,9
2,1,15,1,4,0,1,23,96,11
2,1,3,0,6,1,1,23,120,11
2,1,16,1,0,0,1,23,120,11
2,1,14,1,4,0,1,23,120,11
2,1,17,1,1,0,1,23,96,11
2,1,14,1,2,0,1,23,87,11
2,1,15,1,3,0,1,23,96,11
3,2,16,1,0,0,1,23,87,9
3,2,7,1,2,0,1,23,120,11
3,2,13,1,3,0,1,23,96,11
3,2,17,1,3,0,1,23,96,11
3,2,17,1,3,0,1,23,96,11
3,2,17,1,3,0,1,23,87,11
3,2,21,0,5,1,1,23,64,11
3,2,14,1,5,1,1,23,64,11
3,2,18,1,3,0,1,23,120,11
3,2,16,1,0,0,1,23,39,11
3,2,9,1,6,1,1,23,96,11
3,2,14,1,1,0,1,23,96,11
3,2,14,1,1,0,1,23,96,11
4,2,12,1,5,1,2,23,96,11
4,2,21,0,5,1,2,23,96,11
4,2,10,1,0,0,2,23,96,11
4,2,14,1,0,0,2,23,96,11
4,2,16,1,1,0,2,23,96,11
4,2,12,1,3,0,2,23,103,11
4,2,18,1,5,1,2,23,96,11
4,2,8,1,6,1,2,23,39,9
4,2,16,1,3,0,2,23,117,11
4,2,8,1,5,1,2,23,73,11
4,2,9,1,3,0,2,23,64,11
4,2,20,1,3,0,2,23,96,11
4,2,17,1,4,0,2,23,96,11
5,2,13,1,3,0,2,23,96,11
5,2,13,1,3,0,2,23,96,11
5,2,16,1,3,0,2,23,96,11
5,2,14,1,6,1,2,23,96,11
5,2,12,1,5,1,2,23,19,11
5,2,11,1,6,1,2,23,19,11
5,2,12,1,4,0,2,23,96,11
6,3,21,0,4,0,2,23,118,9
6,3,17,1,6,1,2,23,96,11
6,3,21,0,6,1,2,23,96,11
6,3,9,1,0,0,2,23,96,11
6,3,14,1,1,0,2,23,103,9
7,3,8,1,5,1,3,23,96,11
7,3,21,0,2,0,3,23,62,11
7,3,21,0,1,0,3,23,87,11
7,3,17,1,1,0,3,23,19,11
7,3,16,1,2,0,3,23,96,11
8,3,23,0,6,1,3,23,96,11
8,3,21,0,2,0,3,23,87,11
8,3,13,1,5,1,3,23,47,11
9,4,18,1,0,0,3,23,96,11
9,4,10,1,3,0,3,23,19,11
10,4,7,1,3,0,4,23,1,11
10,4,6,0,0,0,4,23,1,11
10,4,8,1,3,0,4,23,104,11
10,4,7,1,5,1,4,23,19,11
11,4,18,1,0,0,4,23,96,11
12,1,20,1,2,0,4,23,1,11
12,1,20,1,3,0,4,23,39,11
12,1,21,0,5,1,4,23,120,11
12,1,9,1,3,0,4,23,120,11
12,1,20,1,0,0,4,23,64,11
12,1,9,1,3,0,4,23,120,11
12,1,16,1,4,0,4,23,96,11
12,1,14,1,5,1,4,23,120,11
12,1,18,1,5,1,4,23,39,11
12,1,22,0,5,1,4,23,120,11
12,1,2,0,0,0,4,23,73,11
12,1,22,0,2,0,4,23,120,11
12,1,16,1,3,0,4,23,64,11
12,1,19,1,4,0,4,23,120,11
12,1,9,1,0,0,4,23,12,11
12,1,20,1,3,0,4,23,120,11
4,2,20,1,5,1,2,23,96,11
4,2,21,0,1,0,2,23,96,11
8,3,11,1,1,0,3,23,19,11
1,1,14,1,3,0,1,23,73,11
1,1,19,1,5,1,1,23,92,11
1,1,21,0,6,1,1,23,120,11
2,1,18,1,5,1,1,23,96,11
2,1,14,1,6,1,1,23,96,11
3,2,10,1,3,0,1,23,73,11
3,2,13,1,5,1,1,23,96,11
3,2,11,1,6,1,1,23,103,9
4,2,20,1,5,1,2,23,96,11
4,2,15,1,1,0,2,23,96,11
4,2,20,1,1,0,2,23,120,11
4,2,15,1,2,0,2,23,98,11
4,2,15,1,2,0,2,23,64,8
6,3,12,1,2,0,2,23,120,11
6,3,19,1,4,0,2,23,96,11
6,3,11,1,5,1,2,23,96,11
7,3,14,1,3,0,3,23,13,11
8,3,4,0,5,1,3,23,96,11
9,4,14,1,2,0,3,23,39,11
10,4,15,1,4,0,4,23,73,11
11,4,4,0,0,0,4,23,1,11
11,4,16,1,0,0,4,23,39,11
11,4,19,1,2,0,4,23,96,11
11,4,20,1,3,0,4,23,39,11
12,1,0,0,0,0,4,23,120,11
12,1,23,0,5,1,4,23,103,9
12,1,16,1,4,0,4,23,39,11
1,1,2,0,4,0,1,8,64,11
1,1,12,1,1,0,1,8,64,11
1,1,19,1,3,0,1,8,64,11
1,1,21,0,3,0,1,8,92,11
1,1,19,1,5,1,1,8,92,11
1,1,8,1,4,0,1,8,92,11
1,1,16,1,5,1,1,8,92,11
1,1,14,1,6,1,1,8,92,11
1,1,12,1,5,1,1,8,92,11
2,1,0,0,5,1,1,8,64,11
2,1,12,1,5,1,1,8,87,11
2,1,14,1,5,1,1,8,104,11
2,1,18,1,5,1,1,8,96,11
2,1,22,0,1,0,1,8,73,11
2,1,8,1,3,0,1,8,92,11
2,1,13,1,4,0,1,8,96,11
2,1,19,1,2,0,1,8,92,11
2,1,7,1,4,0,1,8,92,11
2,1,18,1,1,0,1,8,96,11
2,1,21,0,4,0,1,8,64,11
2,1,11,1,5,1,1,8,87,11
2,1,19,1,5,1,1,8,64,11
3,2,7,1,0,0,1,8,92,11
3,2,11,1,0,0,1,8,64,11
3,2,16,1,1,0,1,8,96,11
3,2,12,1,4,0,1,8,85,11
3,2,17,1,4,0,1,8,96,11
3,2,1,0,5,1,1,8,92,11
3,2,20,1,5,1,1,8,117,11
3,2,10,1,6,1,1,8,92,11
3,2,15,1,6,1,1,8,96,11
3,2,22,0,6,1,1,8,87,11
3,2,18,1,0,0,1,8,96,11
3,2,22,0,2,0,1,8,92,11
3,2,19,1,4,0,1,8,96,11
3,2,19,1,2,0,1,8,92,11
3,2,20,1,1,0,1,8,73,11
3,2,19,1,2,0,1,8,96,11
4,2,19,1,3,0,2,8,94,11
4,2,13,1,6,1,2,8,73,11
4,2,0,0,0,0,2,8,87,11
4,2,13,1,4,0,2,8,96,11
4,2,15,1,4,0,2,8,96,11
4,2,21,0,6,1,2,8,96,11
4,2,16,1,0,0,2,8,96,11
4,2,21,0,0,0,2,8,71,11
4,2,15,1,5,1,2,8,92,11
4,2,12,1,0,0,2,8,19,11
5,2,11,1,1,0,2,8,73,11
5,2,14,1,1,0,2,8,92,11
5,2,16,1,4,0,2,8,96,11
6,3,10,1,3,0,2,8,64,11
6,3,21,0,4,0,2,8,96,11
6,3,11,1,6,1,2,8,73,11
6,3,17,1,1,0,2,8,104,11
6,3,19,1,6,1,2,8,96,11
6,3,21,0,6,1,2,8,92,11
7,3,10,1,2,0,3,8,73,11
7,3,23,0,6,1,3,8,19,11
7,3,10,1,2,0,3,8,87,11
7,3,13,1,6,1,3,8,96,11
8,3,5,0,2,0,3,8,87,11
8,3,18,1,4,0,3,8,87,11
8,3,21,0,4,0,3,8,92,11
8,3,15,1,5,1,3,8,87,11
8,3,21,0,2,0,3,8,96,11
8,3,22,0,3,0,3,8,63,11
9,4,15,1,2,0,3,8,103,11
9,4,17,1,2,0,3,8,103,11
9,4,18,1,1,0,3,8,96,11
9,4,17,1,6,1,3,8,13,9
9,4,12,1,1,0,3,8,96,11
9,4,21,0,1,0,3,8,12,11
10,4,14,1,3,0,4,8,73,11
10,4,19,1,5,1,4,8,73,11
10,4,10,1,0,0,4,8,104,11
10,4,19,1,5,1,4,8,92,11
10,4,20,1,2,0,4,8,85,11
10,4,23,0,2,0,4,8,64,11
10,4,11,1,4,0,4,8,92,11
10,4,14,1,5,1,4,8,92,11
10,4,15,1,5,1,4,8,73,11
10,4,19,1,6,1,4,8,73,11
11,4,1,0,3,0,4,8,92,11
11,4,16,1,4,0,4,8,96,11
11,4,10,1,5,1,4,8,96,11
11,4,18,1,5,1,4,8,96,11
11,4,18,1,2,0,4,8,92,11
11,4,10,1,5,1,4,8,92,11
12,1,10,1,2,0,4,8,73,8
12,1,21,0,3,0,4,8,92,11
12,1,12,1,4,0,4,8,92,11
12,1,8,1,6,1,4,8,92,11
12,1,17,1,1,0,4,8,73,11
12,1,11,1,4,0,4,8,72,11
12,1,15,1,6,1,4,8,92,11
12,1,14,1,2,0,4,8,64,11
12,1,17,1,4,0,4,8,64,11
12,1,16,1,3,0,4,8,64,11
12,1,16,1,3,0,4,8,73,9
12,1,12,1,4,0,4,8,92,11
2,1,14,1,5,1,1,8,96,11
3,2,18,1,1,0,1,8,96,11
3,2,9,1,4,0,1,8,66,11
3,2,11,1,5,1,1,8,96,11
4,2,20,1,2,0,2,8,73,11
5,2,21,0,1,0,2,8,39,11
5,2,9,1,0,0,2,8,73,11
6,3,17,1,6,1,2,8,39,11
6,3,23,0,5,1,2,8,92,11
7,3,21,0,2,0,3,8,96,11
8,3,17,1,0,0,3,8,96,11
8,3,21,0,2,0,3,8,85,11
8,3,20,1,3,0,3,8,104,11
10,4,17,1,6,1,4,8,3,11
11,4,13,1,6,1,4,8,39,11
12,1,20,1,4,0,4,8,39,11
1,1,15,1,6,1,1,20,64,11
1,1,16,1,3,0,1,20,120,11
1,1,18,1,4,0,1,20,92,11
1,1,13,1,4,0,1,20,92,11
1,1,16,1,0,0,1,20,64,9
1,1,13,1,3,0,1,20,120,11
1,1,17,1,4,0,1,20,120,11
1,1,18,1,4,0,1,20,120,11
1,1,18,1,1,0,1,20,64,11
1,1,17,1,1,0,1,20,120,11
1,1,22,0,2,0,1,20,120,11
1,1,13,1,2,0,1,20,64,11
1,1,13,1,3,0,1,20,120,11
1,1,16,1,4,0,1,20,64,11
1,1,2,0,5,1,1,20,56,11
1,1,20,1,6,1,1,20,64,11
1,1,6,0,6,1,1,20,39,11
2,1,21,0,3,0,1,20,120,11
2,1,10,1,5,1,1,20,73,11
2,1,11,1,6,1,1,20,19,11
2,1,22,0,6,1,1,20,64,11
2,1,19,1,1,0,1,20,64,11
2,1,9,1,3,0,1,20,73,11
2,1,11,1,4,0,1,20,120,11
2,1,13,1,4,0,1,20,64,11
2,1,18,1,4,0,1,20,120,11
2,1,17,1,6,1,1,20,120,11
2,1,15,1,1,0,1,20,85,9
2,1,1,0,1,0,1,20,39,11
2,1,15,1,1,0,1,20,120,11
2,1,12,1,2,0,1,20,39,11
2,1,19,1,2,0,1,20,64,11
2,1,17,1,4,0,1,20,73,11
2,1,13,1,4,0,1,20,96,9
2,1,1,0,5,1,1,20,120,11
2,1,18,1,6,1,1,20,120,11
2,1,19,1,2,0,1,20,120,11
2,1,0,0,4,0,1,20,64,11
2,1,19,1,5,1,1,20,120,11
2,1,18,1,6,1,1,20,85,11
3,2,13,1,1,0,1,20,87,11
3,2,19,1,4,0,1,20,64,11
3,2,13,1,4,0,1,20,96,11
3,2,14,1,6,1,1,20,64,11
3,2,19,1,6,1,1,20,13,11
3,2,15,1,1,0,1,20,87,11
3,2,15,1,1,0,1,20,96,11
3,2,20,1,4,0,1,20,120,11
3,2,20,1,5,1,1,20,120,11
3,2,22,0,5,1,1,20,120,11
3,2,22,0,0,0,1,20,120,11
3,2,1,0,3,0,1,20,64,11
3,2,14,1,3,0,1,20,39,11
3,2,16,1,3,0,1,20,39,11
3,2,20,1,6,1,1,20,73,11
3,2,19,1,1,0,1,20,39,11
3,2,17,1,4,0,1,20,120,11
3,2,21,0,4,0,1,20,64,11
3,2,17,1,5,1,1,20,87,11
3,2,11,1,6,1,1,20,64,11
3,2,22,0,0,0,1,20,39,11
3,2,16,1,0,0,1,20,39,11
3,2,12,1,0,0,1,20,87,11
3,2,15,1,2,0,1,20,120,11
3,2,12,1,2,0,1,20,87,11
4,2,0,0,3,0,2,20,87,11
4,2,21,0,3,0,2,20,117,11
4,2,13,1,3,0,2,20,117,11
4,2,20,1,4,0,2,20,96,11
4,2,16,1,4,0,2,20,13,11
4,2,22,0,4,0,2,20,92,11
4,2,22,0,0,0,2,20,92,11
4,2,8,1,3,0,2,20,73,11
4,2,12,1,3,0,2,20,87,11
4,2,16,1,5,1,2,20,64,11
4,2,20,1,6,1,2,20,87,11
4,2,17,1,6,1,2,20,96,11
4,2,18,1,0,0,2,20,96,11
4,2,15,1,2,0,2,20,117,11
4,2,12,1,5,1,2,20,96,11
4,2,16,1,5,1,2,20,96,11
4,2,21,0,6,1,2,20,85,11
4,2,12,1,1,0,2,20,120,11
4,2,20,1,6,1,2,20,120,11
4,2,14,1,6,1,2,20,120,11
4,2,10,1,3,0,2,20,87,11
5,2,22,0,5,1,2,20,39,11
5,2,16,1,6,1,2,20,120,11
5,2,16,1,6,1,2,20,96,11
5,2,12,1,1,0,2,20,96,11
5,2,3,0,6,1,2,20,120,11
5,2,17,1,4,0,2,20,87,11
5,2,21,0,0,0,2,20,64,11
5,2,19,1,1,0,2,20,96,11
5,2,15,1,2,0,2,20,87,11
5,2,12,1,5,1,2,20,31,11
5,2,13,1,0,0,2,20,120,11
5,2,17,1,1,0,2,20,96,11
5,2,17,1,2,0,2,20,96,11
5,2,14,1,4,0,2,20,87,11
5,2,13,1,5,1,2,20,73,11
5,2,18,1,5,1,2,20,96,11
5,2,7,1,5,1,2,20,87,11
5,2,16,1,6,1,2,20,87,11
5,2,9,1,6,1,2,20,87,11
5,2,15,1,0,0,2,20,87,11
6,3,19,1,3,0,2,20,120,11
6,3,10,1,4,0,2,20,120,11
6,3,19,1,6,1,2,20,96,11
6,3,14,1,1,0,2,20,94,11
6,3,16,1,2,0,2,20,63,11
6,3,20,1,4,0,2,20,96,11
6,3,19,1,1,0,2,20,13,11
6,3,13,1,1,0,2,20,96,8
6,3,16,1,2,0,2,20,85,11
6,3,9,1,4,0,2,20,87,11
6,3,14,1,4,0,2,20,96,11
6,3,20,1,4,0,2,20,64,11
6,3,18,1,6,1,2,20,96,11
6,3,5,0,1,0,2,20,96,11
6,3,21,0,1,0,2,20,85,11
7,3,5,0,3,0,3,20,19,11
7,3,18,1,3,0,3,20,96,11
7,3,12,1,4,0,3,20,64,11
7,3,9,1,4,0,3,20,19,11
7,3,9,1,5,1,3,20,39,11
7,3,0,0,1,0,3,20,19,11
7,3,8,1,5,1,3,20,96,11
7,3,18,1,1,0,3,20,64,11
7,3,1,0,4,0,3,20,19,11
7,3,11,1,4,0,3,20,87,11
7,3,23,0,4,0,3,20,57,11
7,3,15,1,3,0,3,20,87,11
7,3,20,1,3,0,3,20,64,11
7,3,8,1,3,0,3,20,120,11
7,3,19,1,4,0,3,20,19,11
7,3,21,0,6,1,3,20,96,11
7,3,17,1,5,1,3,20,45,11
8,3,14,1,0,0,3,20,19,11
8,3,12,1,0,0,3,20,57,11
8,3,23,0,0,0,3,20,96,11
8,3,1,0,1,0,3,20,87,11
8,3,14,1,2,0,3,20,96,11
8,3,13,1,2,0,3,20,52,11
8,3,9,1,3,0,3,20,87,11
8,3,18,1,6,1,3,20,87,11
8,3,11,1,6,1,3,20,87,11
8,3,21,0,2,0,3,20,96,11
8,3,15,1,3,0,3,20,96,11
8,3,15,1,4,0,3,20,96,11
8,3,2,0,6,1,3,20,120,11
8,3,1,0,6,1,3,20,8,11
8,3,20,1,1,0,3,20,120,11
8,3,5,0,1,0,3,20,96,11
8,3,16,1,3,0,3,20,85,11
8,3,19,1,4,0,3,20,120,8
8,3,18,1,0,0,3,20,120,11
9,4,21,0,0,0,3,20,64,11
9,4,16,1,3,0,3,20,96,11
9,4,16,1,3,0,3,20,96,11
9,4,14,1,2,0,3,20,13,11
9,4,9,1,2,0,3,20,85,11
9,4,8,1,2,0,3,20,85,11
9,4,18,1,2,0,3,20,87,11
9,4,10,1,3,0,3,20,87,11
9,4,11,1,3,0,3,20,96,11
9,4,16,1,5,1,3,20,87,11
9,4,13,1,6,1,3,20,96,11
9,4,3,0,6,1,3,20,87,11
9,4,18,1,3,0,3,20,31,8
10,4,11,1,5,1,4,20,87,11
10,4,3,0,0,0,4,20,39,11
10,4,0,0,1,0,4,20,85,11
10,4,2,0,2,0,4,20,64,11
10,4,10,1,5,1,4,20,120,11
10,4,16,1,1,0,4,20,120,11
10,4,14,1,6,1,4,20,119,11
10,4,19,1,1,0,4,20,96,11
10,4,6,0,2,0,4,20,120,11
10,4,12,1,4,0,4,20,87,11
10,4,22,0,5,1,4,20,63,11
10,4,18,1,3,0,4,20,120,11
10,4,15,1,3,0,4,20,100,11
10,4,4,0,4,0,4,20,120,11
10,4,4,0,4,0,4,20,120,11
10,4,4,0,4,0,4,20,120,11
10,4,4,0,4,0,4,20,120,11
10,4,3,0,4,0,4,20,120,11
10,4,4,0,4,0,4,20,87,11
10,4,20,1,5,1,4,20,87,11
11,4,22,0,1,0,4,20,39,11
11,4,17,1,2,0,4,20,73,11
11,4,16,1,4,0,4,20,64,11
11,4,17,1,5,1,4,20,39,11
11,4,10,1,5,1,4,20,47,11
11,4,17,1,6,1,4,20,120,11
11,4,17,1,1,0,4,20,3,11
11,4,18,1,2,0,4,20,96,11
11,4,1,0,3,0,4,20,73,11
11,4,12,1,4,0,4,20,87,11
11,4,19,1,6,1,4,20,87,11
11,4,16,1,4,0,4,20,64,11
11,4,17,1,4,0,4,20,87,11
11,4,19,1,4,0,4,20,39,11
11,4,0,0,5,1,4,20,96,11
11,4,15,1,6,1,4,20,120,11
11,4,16,1,0,0,4,20,96,11
11,4,23,0,2,0,4,20,120,11
11,4,11,1,2,0,4,20,96,11
11,4,19,1,3,0,4,20,96,11
11,4,10,1,4,0,4,20,63,11
11,4,21,0,4,0,4,20,120,11
11,4,14,1,1,0,4,20,120,11
12,1,10,1,2,0,4,20,120,11
12,1,0,0,4,0,4,20,64,11
12,1,6,0,6,1,4,20,120,11
12,1,15,1,1,0,4,20,120,11
12,1,17,1,2,0,4,20,64,11
12,1,23,0,3,0,4,20,39,11
12,1,7,1,2,0,4,20,47,11
12,1,17,1,3,0,4,20,120,11
12,1,16,1,4,0,4,20,120,11
12,1,10,1,4,0,4,20,64,11
12,1,17,1,6,1,4,20,12,8
12,1,17,1,1,0,4,20,64,11
12,1,18,1,1,0,4,20,39,11
12,1,16,1,1,0,4,20,120,11
12,1,20,1,2,0,4,20,120,11
12,1,16,1,3,0,4,20,120,11
12,1,16,1,3,0,4,20,64,11
12,1,17,1,4,0,4,20,120,11
12,1,0,0,4,0,4,20,120,11
12,1,0,0,0,0,4,20,39,11
12,1,20,1,1,0,4,20,120,11
12,1,17,1,1,0,4,20,87,11
12,1,19,1,2,0,4,20,31,11
12,1,21,0,2,0,4,20,64,11
12,1,0,0,4,0,4,20,120,11
1,1,10,1,4,0,1,20,19,11
2,1,21,0,0,0,1,20,73,11
4,2,14,1,3,0,2,20,96,11
4,2,11,1,2,0,2,20,39,11
4,2,10,1,0,0,2,20,87,11
4,2,11,1,5,1,2,20,81,11
5,2,20,1,2,0,2,20,96,11
7,3,19,1,2,0,3,20,85,11
9,4,18,1,1,0,3,20,96,11
10,4,12,1,0,0,4,20,39,11
12,1,15,1,1,0,4,20,73,9
8,3,17,1,0,0,3,20,96,11
10,4,20,1,6,1,4,20,73,8
2,1,21,0,2,0,1,20,39,11
3,2,17,1,6,1,1,20,96,11
4,2,19,1,0,0,2,20,87,11
4,2,11,1,4,0,2,20,73,11
5,2,0,0,6,1,2,20,85,11
7,3,17,1,5,1,3,20,87,11
8,3,7,1,6,1,3,20,120,11
8,3,7,1,6,1,3,20,13,11
9,4,19,1,6,1,3,20,87,11
1,1,17,1,5,1,1,20,92,11
1,1,9,1,0,0,1,20,92,11
1,1,12,1,4,0,1,20,92,11
1,1,10,1,0,0,1,20,92,11
1,1,14,1,5,1,1,20,73,11
1,1,0,0,0,0,1,20,92,11
1,1,21,0,0,0,1,20,92,11
1,1,18,1,0,0,1,20,64,11
1,1,20,1,0,0,1,20,92,11
1,1,4,0,1,0,1,20,73,11
2,1,15,1,4,0,1,20,92,11
2,1,18,1,2,0,1,20,39,11
2,1,18,1,2,0,1,20,96,11
2,1,21,0,2,0,1,20,85,11
2,1,14,1,3,0,1,20,73,11
2,1,10,1,3,0,1,20,85,11
2,1,17,1,4,0,1,20,64,11
2,1,15,1,4,0,1,20,64,11
2,1,9,1,6,1,1,20,39,11
2,1,18,1,0,0,1,20,92,11
2,1,19,1,0,0,1,20,73,11
2,1,0,0,2,0,1,20,92,11
2,1,15,1,3,0,1,20,87,11
2,1,13,1,5,1,1,20,96,11
2,1,19,1,5,1,1,20,92,11
2,1,15,1,6,1,1,20,92,11
3,2,21,0,1,0,1,20,92,11
3,2,14,1,3,0,1,20,96,11
3,2,17,1,3,0,1,20,87,11
3,2,20,1,5,1,1,20,73,11
3,2,11,1,5,1,1,20,92,11
3,2,14,1,0,0,1,20,87,11
3,2,20,1,1,0,1,20,85,11
3,2,14,1,3,0,1,20,73,11
3,2,17,1,3,0,1,20,92,11
3,2,22,0,0,0,1,20,1,11
3,2,13,1,1,0,1,20,96,11
3,2,13,1,3,0,1,20,87,11
3,2,11,1,4,0,1,20,64,11
3,2,21,0,2,0,1,20,92,11
3,2,21,0,6,1,1,20,96,11
3,2,22,0,0,0,1,20,64,11
4,2,11,1,3,0,2,20,87,11
4,2,14,1,4,0,2,20,96,11
4,2,5,0,4,0,2,20,19,11
4,2,22,0,6,1,2,20,92,11
4,2,17,1,6,1,2,20,92,11
4,2,20,1,0,0,2,20,96,11
4,2,20,1,3,0,2,20,87,11
4,2,17,1,5,1,2,20,87,11
4,2,17,1,5,1,2,20,96,11
4,2,8,1,1,0,2,20,1,9
4,2,15,1,6,1,2,20,96,11
4,2,15,1,1,0,2,20,64,11
4,2,21,0,3,0,2,20,92,11
4,2,17,1,5,1,2,20,39,11
5,2,20,1,2,0,2,20,92,11
5,2,21,0,4,0,2,20,56,9
5,2,10,1,5,1,2,20,13,8
5,2,14,1,6,1,2,20,39,9
5,2,15,1,2,0,2,20,87,9
5,2,12,1,3,0,2,20,73,11
5,2,17,1,3,0,2,20,87,11
5,2,22,0,6,1,2,20,73,11
5,2,2,0,4,0,2,20,87,11
5,2,22,0,4,0,2,20,96,11
6,3,11,1,5,1,2,20,96,11
6,3,14,1,2,0,2,20,87,11
6,3,19,1,6,1,2,20,96,11
6,3,17,1,3,0,2,20,87,11
6,3,8,1,4,0,2,20,71,11
6,3,15,1,6,1,2,20,64,11
6,3,12,1,5,1,2,20,87,11
6,3,13,1,5,1,2,20,87,11
6,3,14,1,5,1,2,20,92,11
6,3,8,1,2,0,2,20,71,11
7,3,14,1,4,0,3,20,87,11
7,3,7,1,4,0,3,20,45,9
7,3,20,1,6,1,3,20,87,11
7,3,15,1,2,0,3,20,64,11
7,3,18,1,3,0,3,20,103,9
7,3,15,1,5,1,3,20,117,11
7,3,21,0,6,1,3,20,96,11
7,3,10,1,2,0,3,20,96,11
7,3,12,1,3,0,3,20,1,11
7,3,13,1,3,0,3,20,87,11
7,3,9,1,4,0,3,20,73,11
7,3,13,1,6,1,3,20,87,11
7,3,23,0,2,0,3,20,96,11
7,3,22,0,5,1,3,20,1,11
8,3,17,1,4,0,3,20,120,11
8,3,15,1,4,0,3,20,96,11
8,3,16,1,6,1,3,20,87,11
8,3,7,1,3,0,3,20,1,9
8,3,15,1,0,0,3,20,120,11
8,3,12,1,1,0,3,20,96,11
8,3,16,1,3,0,3,20,96,11
9,4,10,1,5,1,3,20,87,11
9,4,0,0,0,0,3,20,64,11
9,4,16,1,1,0,3,20,96,11
9,4,18,1,5,1,3,20,96,11
9,4,16,1,1,0,3,20,47,11
9,4,12,1,3,0,3,20,87,11
9,4,22,0,4,0,3,20,73,11
9,4,12,1,5,1,3,20,96,11
9,4,19,1,6,1,3,20,87,11
10,4,15,1,5,1,4,20,96,11
10,4,14,1,0,0,4,20,96,11
10,4,15,1,1,0,4,20,85,11
10,4,12,1,4,0,4,20,96,11
10,4,19,1,4,0,4,20,87,11
10,4,9,1,5,1,4,20,92,11
10,4,12,1,6,1,4,20,92,11
10,4,23,0,2,0,4,20,57,11
10,4,17,1,3,0,4,20,96,11
10,4,18,1,3,0,4,20,87,11
10,4,21,0,3,0,4,20,85,11
10,4,13,1,4,0,4,20,73,11
10,4,20,1,4,0,4,20,73,11
10,4,20,1,4,0,4,20,64,11
11,4,21,0,0,0,4,20,92,11
11,4,13,1,6,1,4,20,64,11
11,4,19,1,0,0,4,20,87,11
11,4,17,1,1,0,4,20,92,11
11,4,16,1,1,0,4,20,85,11
11,4,13,1,1,0,4,20,120,11
11,4,18,1,2,0,4,20,85,11
11,4,20,1,3,0,4,20,64,11
11,4,18,1,5,1,4,20,87,11
11,4,19,1,2,0,4,20,64,11
11,4,14,1,6,1,4,20,64,11
12,1,13,1,3,0,4,20,92,11
12,1,10,1,4,0,4,20,73,11
12,1,17,1,4,0,4,20,73,11
12,1,16,1,5,1,4,20,92,11
12,1,13,1,6,1,4,20,92,11
12,1,18,1,6,1,4,20,64,11
12,1,19,1,1,0,4,20,92,11
12,1,19,1,2,0,4,20,92,11
12,1,20,1,3,0,4,20,92,11
12,1,21,0,4,0,4,20,19,11
12,1,20,1,6,1,4,20,19,11
12,1,16,1,0,0,4,20,92,11
12,1,20,1,2,0,4,20,92,11
12,1,18,1,2,0,4,20,39,11
2,1,16,1,5,1,1,20,104,11
2,1,21,0,2,0,1,20,73,11
3,2,15,1,6,1,1,20,96,11
3,2,20,1,6,1,1,20,87,11
3,2,13,1,0,0,1,20,87,11
3,2,17,1,5,1,1,20,96,11
3,2,20,1,2,0,1,20,96,11
3,2,20,1,3,0,1,20,120,11
3,2,14,1,2,0,1,20,120,11
4,2,20,1,0,0,2,20,73,11
4,2,14,1,3,0,2,20,3,11
5,2,10,1,6,1,2,20,12,8
5,2,10,1,3,0,2,20,12,11
6,3,13,1,3,0,2,20,96,11
7,3,15,1,4,0,3,20,96,11
8,3,12,1,1,0,3,20,87,11
9,4,17,1,0,0,3,20,96,11
9,4,12,1,3,0,3,20,13,9
10,4,20,1,2,0,4,20,96,11
11,4,20,1,3,0,4,20,96,11
12,1,20,1,4,0,4,20,73,11
4,2,16,1,5,1,2,20,96,11
5,2,18,1,6,1,2,20,12,8
8,3,18,1,4,0,3,20,87,11
8,3,14,1,6,1,3,20,96,11
8,3,20,1,6,1,3,20,96,11
8,3,20,1,3,0,3,20,96,11
8,3,15,1,3,0,3,20,96,11
9,4,8,1,2,0,3,20,87,11
9,4,13,1,6,1,3,20,87,11
9,4,10,1,6,1,3,20,87,11
9,4,14,1,1,0,3,20,96,11
10,4,12,1,6,1,4,20,73,11
12,1,15,1,5,1,4,20,73,9
12,1,16,1,0,0,4,20,73,8
3,2,18,1,1,0,1,20,96,11
4,2,19,1,3,0,2,20,87,11
4,2,12,1,4,0,2,20,103,11
4,2,21,0,6,1,2,20,96,11
4,2,22,0,2,0,2,20,19,11
4,2,19,1,5,1,2,20,12,11
5,2,20,1,4,0,2,20,89,11
5,2,18,1,2,0,2,20,96,11
6,3,13,1,0,0,2,20,87,11
6,3,19,1,1,0,2,20,45,11
8,3,14,1,1,0,3,20,87,11
9,4,6,0,4,0,3,20,65,11
9,4,3,0,5,1,3,20,65,11
9,4,17,1,5,1,3,20,65,11
10,4,12,1,0,0,4,20,45,9
11,4,12,1,3,0,4,20,19,11
12,1,13,1,5,1,4,20,120,11
12,1,7,1,2,0,4,20,73,11
3,2,13,1,1,0,1,20,39,9
3,2,12,1,3,0,1,20,96,11
3,2,18,1,5,1,1,20,96,11
4,2,4,0,6,1,2,20,73,9
5,2,16,1,6,1,2,20,96,11
6,3,1,0,1,0,2,20,87,11
8,3,2,0,2,0,3,20,73,9
8,3,12,1,1,0,3,20,103,11
9,4,11,1,5,1,3,20,103,11
9,4,8,1,0,0,3,20,12,11
10,4,11,1,1,0,4,20,96,11
12,1,20,1,4,0,4,20,19,11
12,1,20,1,1,0,4,20,13,11
1,1,11,1,4,0,1,18,120,11
1,1,13,1,2,0,1,18,120,11
1,1,17,1,3,0,1,18,13,11
2,1,13,1,1,0,1,18,19,11
2,1,18,1,6,1,1,18,96,11
2,1,20,1,1,0,1,18,64,11
2,1,11,1,1,0,1,18,96,11
2,1,19,1,5,1,1,18,85,11
2,1,18,1,6,1,1,18,96,11
2,1,9,1,1,0,1,18,120,11
2,1,20,1,5,1,1,18,120,11
3,2,14,1,5,1,1,18,120,11
3,2,8,1,6,1,1,18,120,11
3,2,16,1,2,0,1,18,96,11
3,2,19,1,3,0,1,18,39,11
3,2,10,1,4,0,1,18,73,11
3,2,12,1,2,0,1,18,96,11
3,2,18,1,2,0,1,18,87,11
4,2,22,0,3,0,2,18,39,11
4,2,11,1,0,0,2,18,96,11
4,2,19,1,2,0,2,18,85,11
5,2,16,1,5,1,2,18,12,9
5,2,12,1,6,1,2,18,96,11
5,2,18,1,1,0,2,18,96,11
5,2,17,1,4,0,2,18,96,11
6,3,21,0,4,0,2,18,96,11
7,3,20,1,4,0,3,18,87,11
7,3,6,0,6,1,3,18,64,11
7,3,0,0,4,0,3,18,96,11
7,3,0,0,5,1,3,18,120,11
8,3,18,1,2,0,3,18,96,11
8,3,0,0,4,0,3,18,96,11
8,3,12,1,3,0,3,18,78,11
8,3,23,0,0,0,3,18,87,11
8,3,18,1,6,1,3,18,96,11
8,3,7,1,1,0,3,18,96,11
8,3,14,1,5,1,3,18,96,11
9,4,10,1,4,0,3,18,87,11
9,4,8,1,0,0,3,18,63,11
9,4,8,1,1,0,3,18,64,11
9,4,11,1,3,0,3,18,96,11
9,4,19,1,5,1,3,18,87,11
9,4,2,0,0,0,3,18,85,11
9,4,2,0,0,0,3,18,85,11
9,4,9,1,3,0,3,18,55,11
9,4,10,1,4,0,3,18,87,11
9,4,20,1,5,1,3,18,96,11
9,4,3,0,6,1,3,18,85,11
10,4,15,1,2,0,4,18,96,11
10,4,23,0,4,0,4,18,96,11
10,4,16,1,2,0,4,18,96,9
10,4,14,1,3,0,4,18,96,11
10,4,20,1,3,0,4,18,96,11
10,4,17,1,4,0,4,18,96,11
10,4,10,1,5,1,4,18,96,11
11,4,19,1,2,0,4,18,96,11
11,4,12,1,3,0,4,18,96,11
11,4,17,1,5,1,4,18,96,11
11,4,18,1,6,1,4,18,27,11
11,4,15,1,0,0,4,18,96,11
11,4,10,1,1,0,4,18,96,11
11,4,23,0,4,0,4,18,96,11
11,4,12,1,6,1,4,18,85,11
11,4,14,1,0,0,4,18,96,11
11,4,1,0,1,0,4,18,1,11
11,4,18,1,1,0,4,18,27,11
11,4,0,0,2,0,4,18,1,11
11,4,23,0,2,0,4,18,85,11
11,4,10,1,5,1,4,18,87,11
11,4,9,1,6,1,4,18,87,11
11,4,16,1,0,0,4,18,96,11
11,4,7,1,4,0,4,18,96,11
12,1,17,1,3,0,4,18,62,11
12,1,11,1,6,1,4,18,64,11
12,1,14,1,6,1,4,18,64,11
12,1,13,1,1,0,4,18,73,11
12,1,12,1,1,0,4,18,64,11
12,1,17,1,2,0,4,18,96,11
12,1,11,1,3,0,4,18,85,11
12,1,10,1,4,0,4,18,39,11
12,1,19,1,5,1,4,18,64,11
12,1,19,1,5,1,4,18,85,11
12,1,17,1,2,0,4,18,85,11
12,1,20,1,2,0,4,18,73,11
2,1,14,1,4,0,1,18,96,11
3,2,8,1,1,0,1,18,47,11
4,2,12,1,3,0,2,18,96,11
5,2,3,0,6,1,2,18,71,11
7,3,21,0,6,1,3,18,120,11
9,4,17,1,6,1,3,18,96,11
9,4,14,1,5,1,3,18,96,9
2,1,21,0,1,0,1,18,64,11
2,1,12,1,3,0,1,18,96,11
3,2,18,1,1,0,1,18,96,11
3,2,16,1,1,0,1,18,96,11
3,2,11,1,1,0,1,18,3,11
4,2,21,0,2,0,2,18,87,11
4,2,15,1,5,1,2,18,96,11
4,2,9,1,0,0,2,18,96,11
4,2,18,1,2,0,2,18,25,11
4,2,15,1,3,0,2,18,96,11
4,2,19,1,4,0,2,18,96,11
4,2,20,1,0,0,2,18,87,11
5,2,12,1,4,0,2,18,35,11
5,2,12,1,4,0,2,18,96,11
5,2,12,1,4,0,2,18,96,11
6,3,11,1,3,0,2,18,96,11
6,3,16,1,2,0,2,18,96,11
6,3,21,0,3,0,2,18,104,11
6,3,19,1,0,0,2,18,94,11
6,3,17,1,1,0,2,18,103,11
6,3,11,1,2,0,2,18,96,11
6,3,15,1,3,0,2,18,87,11
7,3,11,1,1,0,3,18,96,11
7,3,19,1,4,0,3,18,96,11
7,3,16,1,5,1,3,18,27,9
7,3,20,1,6,1,3,18,87,11
7,3,15,1,0,0,3,18,55,11
8,3,15,1,2,0,3,18,96,11
8,3,12,1,3,0,3,18,35,11
8,3,15,1,4,0,3,18,96,11
8,3,17,1,5,1,3,18,35,9
8,3,22,0,0,0,3,18,96,11
9,4,14,1,2,0,3,18,96,11
9,4,15,1,4,0,3,18,96,11
9,4,14,1,5,1,3,18,87,11
9,4,20,1,5,1,3,18,96,11
9,4,17,1,6,1,3,18,96,9
9,4,19,1,5,1,3,18,35,11
10,4,16,1,0,0,4,18,96,11
10,4,11,1,0,0,4,18,87,11
10,4,16,1,1,0,4,18,117,9
10,4,16,1,2,0,4,18,27,11
10,4,23,0,6,1,4,18,47,11
10,4,15,1,5,1,4,18,12,11
10,4,8,1,6,1,4,18,87,11
11,4,18,1,4,0,4,18,35,11
1,1,18,1,6,1,1,4,87,11
1,1,8,1,4,0,1,4,71,11
1,1,1,0,1,0,1,4,64,11
1,1,17,1,3,0,1,4,39,11
1,1,6,0,1,0,1,4,96,11
1,1,20,1,2,0,1,4,73,11
1,1,15,1,0,0,1,4,92,11
1,1,17,1,2,0,1,4,64,11
1,1,5,0,5,1,1,4,104,11
1,1,11,1,6,1,1,4,71,11
1,1,19,1,6,1,1,4,73,11
2,1,11,1,0,0,1,4,92,11
2,1,23,0,3,0,1,4,39,11
2,1,9,1,4,0,1,4,92,11
2,1,0,0,5,1,1,4,39,11
2,1,1,0,6,1,1,4,92,11
2,1,17,1,3,0,1,4,64,11
2,1,8,1,1,0,1,4,64,11
2,1,20,1,5,1,1,4,73,11
2,1,18,1,6,1,1,4,3,11
2,1,18,1,3,0,1,4,96,11
2,1,13,1,4,0,1,4,96,11
2,1,22,0,5,1,1,4,64,11
2,1,13,1,5,1,1,4,96,11
2,1,5,0,6,1,1,4,87,11
3,2,23,0,0,0,1,4,92,11
3,2,9,1,0,0,1,4,96,11
3,2,12,1,1,0,1,4,87,11
3,2,18,1,1,0,1,4,63,11
3,2,19,1,2,0,1,4,71,11
3,2,0,0,3,0,1,4,39,11
3,2,10,1,3,0,1,4,73,11
3,2,18,1,4,0,1,4,96,11
3,2,17,1,4,0,1,4,96,11
3,2,17,1,4,0,1,4,96,11
3,2,16,1,5,1,1,4,96,11
3,2,17,1,1,0,1,4,96,11
3,2,14,1,2,0,1,4,87,11
3,2,16,1,6,1,1,4,96,11
3,2,11,1,6,1,1,4,96,11
3,2,15,1,6,1,1,4,96,11
3,2,11,1,2,0,1,4,87,11
3,2,16,1,2,0,1,4,87,11
3,2,11,1,3,0,1,4,96,11
3,2,23,0,4,0,1,4,39,11
3,2,11,1,4,0,1,4,96,11
3,2,18,1,4,0,1,4,96,9
3,2,10,1,2,0,1,4,73,11
3,2,19,1,3,0,1,4,73,11
3,2,14,1,4,0,1,4,96,11
3,2,11,1,5,1,1,4,96,11
3,2,20,1,6,1,1,4,39,11
3,2,20,1,0,0,1,4,3,11
3,2,15,1,0,0,1,4,87,11
3,2,11,1,1,0,1,4,96,11
3,2,12,1,1,0,1,4,96,11
3,2,18,1,1,0,1,4,96,11
3,2,19,1,2,0,1,4,73,11
3,2,19,1,2,0,1,4,96,11
4,2,12,1,3,0,2,4,96,11
4,2,14,1,3,0,2,4,96,11
4,2,22,0,5,1,2,4,92,11
4,2,18,1,6,1,2,4,92,11
4,2,9,1,2,0,2,4,96,11
4,2,22,0,3,0,2,4,64,11
4,2,14,1,4,0,2,4,96,11
4,2,16,1,4,0,2,4,71,11
4,2,20,1,5,1,2,4,92,11
4,2,20,1,5,1,2,4,96,11
4,2,12,1,6,1,2,4,87,11
4,2,22,0,2,0,2,4,92,11
4,2,12,1,3,0,2,4,73,11
4,2,21,0,1,0,2,4,87,11
4,2,19,1,1,0,2,4,96,11
4,2,11,1,2,0,2,4,103,11
5,2,11,1,4,0,2,4,96,11
5,2,18,1,6,1,2,4,96,11
5,2,20,1,2,0,2,4,96,11
5,2,14,1,3,0,2,4,96,11
5,2,11,1,2,0,2,4,96,11
5,2,18,1,3,0,2,4,96,11
5,2,12,1,3,0,2,4,96,11
5,2,19,1,1,0,2,4,96,11
5,2,20,1,2,0,2,4,96,11
5,2,10,1,3,0,2,4,110,11
5,2,21,0,4,0,2,4,87,11
5,2,3,0,0,0,2,4,96,11
6,3,16,1,2,0,2,4,87,11
6,3,22,0,4,0,2,4,92,11
6,3,19,1,5,1,2,4,87,11
6,3,19,1,0,0,2,4,87,11
6,3,16,1,2,0,2,4,96,11
6,3,2,0,4,0,2,4,71,11
6,3,18,1,6,1,2,4,96,11
6,3,20,1,6,1,2,4,96,11
6,3,0,0,2,0,2,4,87,9
6,3,16,1,2,0,2,4,96,11
6,3,20,1,4,0,2,4,96,11
6,3,10,1,4,0,2,4,96,11
6,3,21,0,6,1,2,4,96,11
6,3,2,0,1,0,2,4,96,11
6,3,17,1,1,0,2,4,71,11
6,3,7,1,2,0,2,4,96,11
6,3,22,0,5,1,2,4,64,11
6,3,3,0,0,0,2,4,96,11
6,3,19,1,1,0,2,4,94,11
7,3,11,1,6,1,3,4,96,9
7,3,5,0,2,0,3,4,96,11
7,3,10,1,3,0,3,4,96,11
7,3,20,1,1,0,3,4,39,9
7,3,10,1,1,0,3,4,96,11
7,3,6,0,2,0,3,4,119,11
7,3,7,1,2,0,3,4,64,11
8,3,8,1,6,1,3,4,96,11
8,3,21,0,2,0,3,4,96,11
8,3,22,0,3,0,3,4,96,11
8,3,15,1,4,0,3,4,64,11
8,3,19,1,4,0,3,4,96,9
8,3,12,1,5,1,3,4,96,11
8,3,1,0,1,0,3,4,96,11
8,3,21,0,1,0,3,4,39,11
8,3,7,1,4,0,3,4,96,11
8,3,21,0,6,1,3,4,96,11
9,4,2,0,4,0,3,4,96,11
9,4,13,1,6,1,3,4,71,11
9,4,20,1,0,0,3,4,55,11
9,4,9,1,1,0,3,4,96,9
9,4,1,0,2,0,3,4,3,9
9,4,1,0,2,0,3,4,92,11
9,4,20,1,6,1,3,4,87,11
9,4,13,1,1,0,3,4,87,11
9,4,0,0,2,0,3,4,64,11
9,4,17,1,2,0,3,4,96,11
9,4,16,1,5,1,3,4,12,8
9,4,16,1,0,0,3,4,96,11
9,4,19,1,1,0,3,4,96,11
9,4,20,1,2,0,3,4,96,11
9,4,19,1,2,0,3,4,87,11
9,4,1,0,4,0,3,4,96,11
9,4,20,1,6,1,3,4,92,11
9,4,8,1,1,0,3,4,71,11
10,4,17,1,4,0,4,4,96,11
10,4,23,0,5,1,4,4,96,11
10,4,19,1,6,1,4,4,96,11
10,4,12,1,6,1,4,4,12,11
10,4,20,1,0,0,4,4,96,11
10,4,18,1,1,0,4,4,47,9
10,4,16,1,2,0,4,4,87,9
10,4,9,1,5,1,4,4,96,11
10,4,21,0,3,0,4,4,64,11
10,4,19,1,4,0,4,4,64,11
10,4,3,0,3,0,4,4,92,11
10,4,17,1,4,0,4,4,39,11
10,4,5,0,0,0,4,4,85,11
10,4,16,1,1,0,4,4,39,11
10,4,18,1,2,0,4,4,96,11
10,4,17,1,5,1,4,4,3,11
10,4,13,1,6,1,4,4,96,11
11,4,10,1,0,0,4,4,64,11
11,4,16,1,1,0,4,4,71,11
11,4,1,0,2,0,4,4,87,11
11,4,11,1,4,0,4,4,92,11
11,4,18,1,6,1,4,4,96,11
11,4,19,1,5,1,4,4,39,11
11,4,15,1,1,0,4,4,96,11
11,4,12,1,1,0,4,4,87,11
11,4,8,1,2,0,4,4,71,11
11,4,9,1,3,0,4,4,92,11
11,4,18,1,5,1,4,4,96,11
11,4,0,0,6,1,4,4,92,11
11,4,1,0,6,1,4,4,92,11
11,4,21,0,0,0,4,4,64,11
11,4,21,0,2,0,4,4,73,11
12,1,21,0,0,0,4,4,92,11
12,1,15,1,1,0,4,4,64,11
12,1,19,1,5,1,4,4,73,11
12,1,18,1,6,1,4,4,73,11
12,1,21,0,5,1,4,4,64,11
12,1,22,0,5,1,4,4,64,11
12,1,19,1,1,0,4,4,39,11
12,1,9,1,3,0,4,4,64,11
12,1,11,1,4,0,4,4,92,11
12,1,13,1,5,1,4,4,64,11
12,1,18,1,1,0,4,4,64,11
12,1,14,1,1,0,4,4,71,11
12,1,14,1,3,0,4,4,71,11
12,1,16,1,4,0,4,4,92,11
5,2,12,1,5,1,2,4,96,11
3,2,8,1,6,1,1,4,39,11
12,1,1,0,6,1,4,4,39,11
1,1,22,0,6,1,1,40,64,11
1,1,8,1,5,1,1,40,120,11
1,1,19,1,5,1,1,40,96,11
2,1,16,1,0,0,1,40,13,11
2,1,2,0,6,1,1,40,73,11
2,1,14,1,4,0,1,40,85,11
2,1,1,0,0,0,1,40,1,11
2,1,17,1,2,0,1,40,96,11
2,1,5,0,3,0,1,40,19,9
2,1,15,1,6,1,1,40,85,11
3,2,1,0,0,0,1,40,1,11
3,2,17,1,1,0,1,40,85,11
3,2,16,1,2,0,1,40,85,11
3,2,16,1,4,0,1,40,1,11
3,2,22,0,3,0,1,40,73,11
3,2,14,1,4,0,1,40,55,11
3,2,13,1,4,0,1,40,85,11
4,2,17,1,4,0,2,40,1,11
4,2,20,1,6,1,2,40,87,11
4,2,12,1,0,0,2,40,85,11
4,2,10,1,3,0,2,40,1,11
4,2,10,1,3,0,2,40,55,11
4,2,17,1,3,0,2,40,73,11
4,2,12,1,4,0,2,40,73,11
4,2,12,1,3,0,2,40,1,11
4,2,13,1,4,0,2,40,55,11
5,2,12,1,3,0,2,40,19,9
5,2,11,1,6,1,2,40,96,11
5,2,18,1,6,1,2,40,96,11
5,2,5,0,2,0,2,40,96,11
6,3,17,1,4,0,2,40,96,11
6,3,0,0,0,0,2,40,104,11
6,3,13,1,1,0,2,40,19,11
6,3,21,0,2,0,2,40,12,11
6,3,4,0,0,0,2,40,104,11
6,3,15,1,5,1,2,40,77,11
6,3,13,1,2,0,2,40,85,11
6,3,21,0,2,0,2,40,56,11
7,3,19,1,4,0,3,40,85,11
7,3,13,1,4,0,3,40,85,11
7,3,17,1,6,1,3,40,87,11
7,3,20,1,3,0,3,40,85,11
7,3,22,0,3,0,3,40,85,11
7,3,14,1,2,0,3,40,73,9
8,3,18,1,1,0,3,40,87,9
8,3,5,0,2,0,3,40,96,11
8,3,22,0,0,0,3,40,104,11
8,3,14,1,1,0,3,40,96,9
8,3,13,1,2,0,3,40,73,11
8,3,14,1,2,0,3,40,104,11
8,3,22,0,5,1,3,40,96,11
8,3,21,0,1,0,3,40,96,11
8,3,23,0,1,0,3,40,96,11
8,3,21,0,2,0,3,40,96,11
8,3,0,0,3,0,3,40,120,11
8,3,19,1,3,0,3,40,104,11
8,3,17,1,3,0,3,40,85,11
8,3,19,1,5,1,3,40,3,11
9,4,20,1,2,0,3,40,87,11
9,4,20,1,0,0,3,40,85,11
9,4,8,1,3,0,3,40,85,11
9,4,20,1,1,0,3,40,85,11
10,4,23,0,3,0,4,40,120,11
10,4,10,1,5,1,4,40,73,8
10,4,16,1,2,0,4,40,87,8
10,4,10,1,3,0,4,40,19,11
10,4,15,1,4,0,4,40,96,11
10,4,6,0,2,0,4,40,19,9
10,4,19,1,3,0,4,40,85,11
11,4,12,1,1,0,4,40,64,9
11,4,11,1,3,0,4,40,85,11
11,4,17,1,5,1,4,40,69,11
11,4,15,1,6,1,4,40,73,11
11,4,16,1,0,0,4,40,73,11
11,4,15,1,0,0,4,40,13,11
12,1,21,0,2,0,4,40,73,11
12,1,3,0,6,1,4,40,85,11
1,1,15,1,1,0,1,40,73,11
1,1,0,0,6,1,1,40,120,11
2,1,14,1,1,0,1,40,96,11
2,1,12,1,6,1,1,40,87,11
3,2,22,0,3,0,1,40,120,11
3,2,11,1,1,0,1,40,96,11
3,2,16,1,1,0,1,40,96,11
3,2,20,1,4,0,1,40,73,11
3,2,15,1,5,1,1,40,96,11
3,2,15,1,1,0,1,40,96,11
3,2,13,1,5,1,1,40,120,11
3,2,12,1,1,0,1,40,120,11
4,2,11,1,3,0,2,40,73,11
4,2,14,1,5,1,2,40,103,9
4,2,19,1,6,1,2,40,96,11
4,2,0,0,1,0,2,40,96,11
5,2,18,1,2,0,2,40,96,11
5,2,20,1,4,0,2,40,96,11
5,2,17,1,4,0,2,40,96,11
5,2,7,1,0,0,2,40,96,11
5,2,13,1,3,0,2,40,96,11
6,3,20,1,0,0,2,40,96,11
6,3,13,1,1,0,2,40,96,11
6,3,16,1,4,0,2,40,96,11
6,3,20,1,0,0,2,40,96,11
7,3,11,1,5,1,3,40,96,11
7,3,19,1,0,0,3,40,96,11
7,3,19,1,1,0,3,40,96,11
7,3,18,1,2,0,3,40,27,11
7,3,15,1,6,1,3,40,96,9
7,3,5,0,3,0,3,40,96,11
7,3,6,0,4,0,3,40,85,11
7,3,19,1,5,1,3,40,85,11
8,3,11,1,0,0,3,40,85,9
8,3,19,1,4,0,3,40,96,11
8,3,12,1,0,0,3,40,85,11
8,3,7,1,3,0,3,40,96,11
8,3,10,1,0,0,3,40,85,9
8,3,16,1,1,0,3,40,96,11
9,4,20,1,5,1,3,40,96,11
9,4,19,1,5,1,3,40,55,11
9,4,15,1,5,1,3,40,96,11
9,4,9,1,0,0,3,40,96,11
9,4,16,1,3,0,3,40,96,11
10,4,15,1,4,0,4,40,96,11
10,4,14,1,5,1,4,40,96,11
10,4,18,1,2,0,4,40,96,11
10,4,1,0,3,0,4,40,96,11
10,4,12,1,2,0,4,40,96,11
10,4,17,1,4,0,4,40,96,11
11,4,12,1,3,0,4,40,96,11
11,4,18,1,3,0,4,40,96,11
11,4,20,1,1,0,4,40,96,11
11,4,11,1,1,0,4,40,96,11
11,4,4,0,4,0,4,40,104,11
11,4,14,1,1,0,4,40,73,11
12,1,1,0,4,0,4,40,120,11
12,1,16,1,4,0,4,40,85,11
1,1,14,1,0,0,1,40,73,8
2,1,12,1,4,0,1,40,3,11
2,1,18,1,4,0,1,40,19,8
3,2,18,1,4,0,1,40,96,11
4,2,17,1,2,0,2,40,96,11
4,2,16,1,3,0,2,40,96,11
4,2,13,1,0,0,2,40,96,11
5,2,21,0,6,1,2,40,96,11
5,2,19,1,3,0,2,40,96,11
6,3,10,1,2,0,2,40,39,11
6,3,11,1,3,0,2,40,78,11
8,3,12,1,6,1,3,40,85,11
8,3,12,1,3,0,3,40,96,11
8,3,18,1,3,0,3,40,104,11
9,4,21,0,1,0,3,40,96,11
11,4,11,1,4,0,4,40,73,9
1,1,7,1,1,0,1,40,66,11
2,1,18,1,0,0,1,40,96,11
3,2,11,1,1,0,1,40,96,11
3,2,10,1,2,0,1,40,96,11
3,2,15,1,0,0,1,40,12,11
3,2,22,0,2,0,1,40,120,11
3,2,20,1,5,1,1,40,87,11
3,2,12,1,5,1,1,40,87,11
4,2,20,1,3,0,2,40,87,11
4,2,17,1,4,0,2,40,87,11
4,2,20,1,2,0,2,40,120,11
4,2,16,1,4,0,2,40,87,11
4,2,20,1,6,1,2,40,96,11
5,2,0,0,6,1,2,40,19,9
5,2,16,1,5,1,2,40,81,8
5,2,3,0,5,1,2,40,96,11
5,2,21,0,3,0,2,40,96,11
5,2,20,1,6,1,2,40,96,11
5,2,20,1,6,1,2,40,96,11
5,2,14,1,4,0,2,40,96,11
9,4,14,1,0,0,3,40,96,11
10,4,19,1,1,0,4,40,96,11
10,4,20,1,1,0,4,40,96,11
10,4,19,1,5,1,4,40,96,11
11,4,17,1,3,0,4,40,87,11
11,4,17,1,5,1,4,40,96,11
11,4,18,1,6,1,4,40,96,11
12,1,16,1,4,0,4,40,73,11
12,1,11,1,6,1,4,40,1,8
1,1,13,1,5,1,1,31,11,11
1,1,16,1,3,0,1,31,96,11
2,1,8,1,2,0,1,31,73,9
3,2,12,1,2,0,1,31,87,11
3,2,12,1,5,1,1,31,25,9
5,2,6,0,3,0,2,31,103,9
6,3,13,1,3,0,2,31,96,11
6,3,11,1,3,0,2,31,96,11
7,3,21,0,3,0,3,31,96,11
7,3,23,0,1,0,3,31,104,11
11,4,12,1,2,0,4,31,96,11
11,4,10,1,4,0,4,31,73,11
12,1,22,0,4,0,4,31,73,11
12,1,23,0,1,0,4,31,120,11
1,1,20,1,5,1,1,31,85,11
1,1,20,1,1,0,1,31,85,11
1,1,16,1,3,0,1,31,8,11
1,1,21,0,2,0,1,31,87,11
1,1,10,1,6,1,1,31,3,11
2,1,9,1,3,0,1,31,92,11
2,1,12,1,2,0,1,31,87,11
2,1,19,1,2,0,1,31,73,11
2,1,11,1,0,0,1,31,73,11
2,1,18,1,3,0,1,31,120,11
2,1,19,1,0,0,1,31,64,11
2,1,8,1,0,0,1,31,85,11
2,1,18,1,2,0,1,31,3,11
2,1,17,1,5,1,1,31,87,11
3,2,11,1,0,0,1,31,73,9
3,2,21,0,1,0,1,31,64,11
3,2,17,1,4,0,1,31,87,11
3,2,13,1,5,1,1,31,73,11
3,2,23,0,6,1,1,31,85,11
3,2,17,1,1,0,1,31,85,11
3,2,15,1,1,0,1,31,85,11
3,2,6,0,4,0,1,31,85,11
4,2,22,0,3,0,2,31,73,11
4,2,14,1,3,0,2,31,96,11
4,2,19,1,0,0,2,31,73,11
4,2,1,0,3,0,2,31,73,11
4,2,1,0,1,0,2,31,119,11
5,2,16,1,6,1,2,31,87,11
5,2,11,1,0,0,2,31,120,11
5,2,21,0,1,0,2,31,85,11
5,2,21,0,3,0,2,31,87,11
5,2,15,1,4,0,2,31,96,11
5,2,23,0,4,0,2,31,87,11
5,2,17,1,6,1,2,31,87,11
5,2,22,0,0,0,2,31,92,11
6,3,4,0,2,0,2,31,73,11
6,3,15,1,3,0,2,31,3,11
6,3,14,1,5,1,2,31,65,11
6,3,1,0,1,0,2,31,104,11
6,3,23,0,1,0,2,31,87,11
6,3,1,0,2,0,2,31,87,11
6,3,10,1,6,1,2,31,87,11
7,3,18,1,4,0,3,31,27,9
7,3,2,0,0,0,3,31,13,9
7,3,16,1,0,0,3,31,96,11
8,3,18,1,1,0,3,31,7,9
8,3,23,0,4,0,3,31,96,11
8,3,22,0,1,0,3,31,96,11
8,3,10,1,5,1,3,31,96,11
8,3,0,0,2,0,3,31,96,11
8,3,7,1,5,1,3,31,96,11
8,3,20,1,6,1,3,31,96,11
8,3,12,1,1,0,3,31,87,11
9,4,8,1,5,1,3,31,96,11
9,4,0,0,0,0,3,31,87,11
9,4,21,0,1,0,3,31,96,11
9,4,19,1,4,0,3,31,96,11
9,4,19,1,6,1,3,31,85,11
9,4,12,1,3,0,3,31,87,9
9,4,18,1,6,1,3,31,73,11
9,4,21,0,0,0,3,31,85,11
9,4,22,0,5,1,3,31,96,11
9,4,16,1,5,1,3,31,87,11
9,4,19,1,6,1,3,31,71,11
10,4,12,1,4,0,4,31,71,11
10,4,17,1,1,0,4,31,96,11
10,4,20,1,3,0,4,31,87,11
10,4,6,0,3,0,4,31,87,11
10,4,17,1,6,1,4,31,64,11
10,4,22,0,4,0,4,31,25,11
10,4,0,0,1,0,4,31,85,11
10,4,0,0,1,0,4,31,85,11
10,4,8,1,6,1,4,31,64,11
11,4,23,0,2,0,4,31,85,11
11,4,23,0,2,0,4,31,85,11
11,4,10,1,4,0,4,31,3,11
11,4,15,1,5,1,4,31,85,11
11,4,23,0,4,0,4,31,73,9
11,4,11,1,1,0,4,31,85,11
11,4,13,1,3,0,4,31,85,11
12,1,18,1,4,0,4,31,85,11
12,1,13,1,2,0,4,31,87,9
12,1,21,0,4,0,4,31,85,11
12,1,16,1,3,0,4,31,85,11
3,2,16,1,2,0,1,31,96,11
3,2,10,1,3,0,1,31,96,11
5,2,18,1,1,0,2,31,85,9
5,2,15,1,4,0,2,31,45,11
6,3,21,0,4,0,2,31,87,11
6,3,3,0,0,0,2,31,20,11
7,3,23,0,6,1,3,31,19,9
8,3,22,0,0,0,3,31,19,11
9,4,9,1,3,0,3,31,19,11
10,4,19,1,1,0,4,31,87,11
12,1,12,1,1,0,4,31,85,11
12,1,1,0,3,0,4,31,19,11
1,1,18,1,5,1,1,31,64,11
1,1,22,0,6,1,1,31,85,11
1,1,1,0,4,0,1,31,64,11
1,1,1,0,6,1,1,31,85,11
1,1,11,1,6,1,1,31,64,11
1,1,15,1,2,0,1,31,64,11
1,1,21,0,0,0,1,31,85,11
1,1,14,1,2,0,1,31,92,11
1,1,17,1,3,0,1,31,14,9
1,1,23,0,3,0,1,31,85,11
1,1,10,1,5,1,1,31,64,11
1,1,8,1,0,0,1,31,19,11
1,1,15,1,2,0,1,31,39,11
1,1,13,1,5,1,1,31,87,8
1,1,10,1,6,1,1,31,85,11
2,1,21,0,0,0,1,31,73,11
2,1,17,1,5,1,1,31,64,11
2,1,14,1,2,0,1,31,92,11
2,1,16,1,4,0,1,31,96,11
2,1,5,0,5,1,1,31,96,11
2,1,18,1,6,1,1,31,64,11
2,1,5,0,1,0,1,31,64,8
2,1,10,1,4,0,1,31,19,9
2,1,19,1,5,1,1,31,85,11
2,1,16,1,1,0,1,31,85,11
2,1,18,1,2,0,1,31,87,11
2,1,15,1,3,0,1,31,120,11
2,1,18,1,4,0,1,31,3,9
3,2,22,0,0,0,1,31,87,11
3,2,19,1,1,0,1,31,85,11
3,2,11,1,3,0,1,31,99,11
3,2,17,1,5,1,1,31,64,11
3,2,22,0,5,1,1,31,73,11
3,2,0,0,6,1,1,31,94,11
3,2,22,0,6,1,1,31,94,11
3,2,18,1,0,0,1,31,96,11
3,2,20,1,0,0,1,31,87,11
3,2,19,1,1,0,1,31,73,11
3,2,11,1,4,0,1,31,30,11
3,2,9,1,5,1,1,31,87,11
3,2,12,1,5,1,1,31,85,11
3,2,22,0,6,1,1,31,92,11
3,2,22,0,6,1,1,31,92,11
3,2,21,0,6,1,1,31,92,11
3,2,23,0,0,0,1,31,94,11
3,2,1,0,0,0,1,31,94,11
3,2,0,0,0,0,1,31,94,11
3,2,2,0,0,0,1,31,93,11
3,2,17,1,0,0,1,31,92,11
3,2,19,1,0,0,1,31,94,11
3,2,21,0,0,0,1,31,94,11
3,2,21,0,0,0,1,31,92,11
3,2,21,0,0,0,1,31,73,11
3,2,10,1,2,0,1,31,87,11
3,2,20,1,3,0,1,31,63,11
3,2,9,1,5,1,1,31,64,11
3,2,7,1,6,1,1,31,118,9
3,2,10,1,6,1,1,31,85,11
3,2,21,0,6,1,1,31,85,11
3,2,10,1,2,0,1,31,85,11
4,2,0,0,5,1,2,31,120,11
4,2,19,1,5,1,2,31,55,11
4,2,20,1,6,1,2,31,120,11
4,2,13,1,6,1,2,31,64,11
4,2,17,1,0,0,2,31,64,11
4,2,16,1,4,0,2,31,13,11
4,2,18,1,5,1,2,31,64,11
4,2,13,1,5,1,2,31,96,11
4,2,10,1,5,1,2,31,3,11
4,2,13,1,0,0,2,31,87,11
4,2,12,1,2,0,2,31,64,11
4,2,14,1,0,0,2,31,110,11
4,2,17,1,2,0,2,31,55,11
4,2,20,1,2,0,2,31,87,11
4,2,19,1,6,1,2,31,77,11
4,2,18,1,3,0,2,31,64,11
4,2,21,0,4,0,2,31,85,11
5,2,14,1,5,1,2,31,87,11
5,2,5,0,6,1,2,31,62,11
5,2,9,1,0,0,2,31,85,11
5,2,17,1,0,0,2,31,85,11
5,2,10,1,1,0,2,31,85,11
5,2,13,1,1,0,2,31,87,11
5,2,23,0,1,0,2,31,85,11
5,2,11,1,2,0,2,31,19,11
5,2,11,1,2,0,2,31,20,11
5,2,4,0,2,0,2,31,64,11
5,2,12,1,3,0,2,31,3,11
5,2,17,1,3,0,2,31,87,11
5,2,0,0,4,0,2,31,96,11
5,2,19,1,6,1,2,31,74,11
5,2,9,1,1,0,2,31,85,11
5,2,21,0,2,0,2,31,27,9
5,2,15,1,3,0,2,31,25,11
5,2,12,1,1,0,2,31,84,11
5,2,16,1,2,0,2,31,3,11
5,2,20,1,2,0,2,31,3,11
5,2,20,1,3,0,2,31,38,11
5,2,16,1,5,1,2,31,3,11
5,2,20,1,5,1,2,31,96,11
5,2,10,1,5,1,2,31,12,11
5,2,16,1,1,0,2,31,96,11
5,2,7,1,2,0,2,31,48,11
5,2,11,1,2,0,2,31,3,11
5,2,15,1,2,0,2,31,19,11
5,2,16,1,2,0,2,31,12,11
5,2,16,1,3,0,2,31,45,9
5,2,0,0,4,0,2,31,96,11
5,2,9,1,4,0,2,31,45,11
5,2,2,0,4,0,2,31,3,11
6,3,6,0,3,0,2,31,48,11
6,3,4,0,4,0,2,31,77,11
6,3,6,0,4,0,2,31,77,11
6,3,11,1,5,1,2,31,82,11
6,3,18,1,6,1,2,31,22,9
6,3,10,1,0,0,2,31,92,11
6,3,20,1,0,0,2,31,103,11
6,3,14,1,2,0,2,31,3,11
6,3,15,1,2,0,2,31,71,9
6,3,22,0,2,0,2,31,71,11
6,3,14,1,3,0,2,31,8,11
6,3,15,1,3,0,2,31,104,11
6,3,17,1,3,0,2,31,85,11
6,3,13,1,6,1,2,31,22,11
6,3,16,1,2,0,2,31,73,11
6,3,17,1,2,0,2,31,55,11
6,3,20,1,2,0,2,31,85,11
6,3,5,0,3,0,2,31,87,11
6,3,13,1,4,0,2,31,71,11
6,3,16,1,4,0,2,31,117,9
6,3,23,0,4,0,2,31,96,11
6,3,0,0,5,1,2,31,96,11
6,3,13,1,6,1,2,31,73,11
6,3,0,0,0,0,2,31,87,11
6,3,22,0,2,0,2,31,85,11
6,3,16,1,2,0,2,31,96,11
6,3,14,1,2,0,2,31,96,11
6,3,21,0,2,0,2,31,3,11
7,3,6,0,4,0,3,31,39,9
7,3,17,1,0,0,3,31,64,11
7,3,23,0,0,0,3,31,85,11
7,3,2,0,1,0,3,31,85,11
7,3,0,0,2,0,3,31,64,9
7,3,18,1,3,0,3,31,103,9
7,3,21,0,4,0,3,31,87,11
7,3,18,1,6,1,3,31,19,11
7,3,1,0,6,1,3,31,87,11
7,3,15,1,0,0,3,31,96,11
7,3,18,1,2,0,3,31,117,11
7,3,19,1,3,0,3,31,117,11
7,3,19,1,3,0,3,31,87,11
7,3,5,0,4,0,3,31,99,11
7,3,2,0,4,0,3,31,27,11
7,3,17,1,5,1,3,31,85,11
7,3,4,0,6,1,3,31,12,8
7,3,14,1,6,1,3,31,87,8
7,3,7,1,1,0,3,31,39,11
7,3,17,1,2,0,3,31,87,11
7,3,12,1,2,0,3,31,27,11
7,3,13,1,3,0,3,31,87,9
7,3,16,1,5,1,3,31,27,11
7,3,16,1,0,0,3,31,86,11
7,3,21,0,0,0,3,31,64,11
7,3,15,1,2,0,3,31,22,11
7,3,16,1,3,0,3,31,19,11
7,3,15,1,4,0,3,31,87,11
7,3,12,1,5,1,3,31,73,11
8,3,19,1,6,1,3,31,120,11
8,3,22,0,0,0,3,31,87,11
8,3,22,0,1,0,3,31,16,11
8,3,21,0,3,0,3,31,85,11
8,3,15,1,4,0,3,31,87,9
8,3,20,1,6,1,3,31,87,11
8,3,18,1,2,0,3,31,3,11
8,3,8,1,3,0,3,31,96,11
8,3,16,1,0,0,3,31,96,11
8,3,2,0,6,1,3,31,87,9
8,3,0,0,6,1,3,31,87,11
8,3,17,1,3,0,3,31,87,11
8,3,19,1,6,1,3,31,22,8
8,3,11,1,1,0,3,31,96,11
9,4,12,1,3,0,3,31,39,11
9,4,16,1,6,1,3,31,87,11
9,4,17,1,1,0,3,31,25,11
9,4,14,1,4,0,3,31,117,11
9,4,10,1,4,0,3,31,73,11
9,4,21,0,5,1,3,31,64,11
9,4,0,0,6,1,3,31,71,11
9,4,9,1,3,0,3,31,96,11
9,4,18,1,6,1,3,31,13,11
9,4,17,1,0,0,3,31,96,11
9,4,23,0,2,0,3,31,94,11
9,4,23,0,5,1,3,31,3,11
9,4,1,0,6,1,3,31,12,9
9,4,19,1,6,1,3,31,73,11
9,4,21,0,0,0,3,31,85,11
9,4,6,0,0,0,3,31,104,11
9,4,15,1,1,0,3,31,87,9
9,4,2,0,1,0,3,31,87,11
9,4,12,1,1,0,3,31,73,9
10,4,13,1,5,1,4,31,87,11
10,4,18,1,6,1,4,31,87,11
10,4,16,1,0,0,4,31,96,11
10,4,10,1,1,0,4,31,64,11
10,4,10,1,2,0,4,31,64,11
10,4,14,1,3,0,4,31,64,11
10,4,11,1,3,0,4,31,64,11
10,4,20,1,3,0,4,31,39,11
10,4,22,0,5,1,4,31,41,11
10,4,20,1,6,1,4,31,92,11
10,4,16,1,6,1,4,31,87,11
10,4,21,0,6,1,4,31,92,11
10,4,21,0,2,0,4,31,39,11
10,4,23,0,2,0,4,31,64,11
10,4,13,1,4,0,4,31,19,11
10,4,17,1,4,0,4,31,104,11
10,4,17,1,5,1,4,31,87,11
10,4,13,1,6,1,4,31,12,11
11,4,20,1,0,0,4,31,85,11
11,4,12,1,1,0,4,31,3,11
11,4,18,1,1,0,4,31,103,11
11,4,14,1,2,0,4,31,85,11
11,4,18,1,5,1,4,31,73,11
11,4,4,0,6,1,4,31,92,11
11,4,4,0,1,0,4,31,120,11
11,4,0,0,1,0,4,31,19,9
11,4,19,1,1,0,4,31,39,11
11,4,20,1,3,0,4,31,73,11
11,4,0,0,5,1,4,31,94,11
11,4,0,0,5,1,4,31,25,11
11,4,10,1,5,1,4,31,86,9
11,4,10,1,6,1,4,31,39,9
11,4,20,1,1,0,4,31,64,11
11,4,11,1,2,0,4,31,101,11
11,4,22,0,4,0,4,31,96,11
11,4,18,1,1,0,4,31,92,11
11,4,21,0,3,0,4,31,39,11
11,4,0,0,4,0,4,31,120,11
11,4,0,0,6,1,4,31,64,9
12,1,15,1,2,0,4,31,103,8
12,1,8,1,3,0,4,31,19,11
12,1,18,1,3,0,4,31,19,11
12,1,18,1,4,0,4,31,64,11
12,1,14,1,6,1,4,31,39,11
12,1,0,0,0,0,4,31,85,11
12,1,14,1,0,0,4,31,87,11
12,1,12,1,2,0,4,31,96,11
12,1,20,1,2,0,4,31,96,11
12,1,21,0,4,0,4,31,64,11
12,1,6,0,6,1,4,31,73,11
12,1,18,1,6,1,4,31,64,11
12,1,21,0,6,1,4,31,92,11
12,1,15,1,1,0,4,31,96,11
12,1,19,1,1,0,4,31,39,11
12,1,19,1,1,0,4,31,73,11
12,1,0,0,3,0,4,31,120,11
12,1,22,0,4,0,4,31,85,11
12,1,23,0,5,1,4,31,64,11
12,1,9,1,5,1,4,31,85,11
12,1,19,1,5,1,4,31,85,11
12,1,21,0,6,1,4,31,85,11
12,1,10,1,0,0,4,31,87,11
12,1,16,1,0,0,4,31,85,11
12,1,12,1,2,0,4,31,12,11
12,1,14,1,3,0,4,31,85,11
12,1,2,0,4,0,4,31,19,11
12,1,22,0,4,0,4,31,63,11
5,2,13,1,4,0,2,31,19,11
1,1,22,0,4,0,1,31,87,11
1,1,20,1,6,1,1,31,73,11
1,1,19,1,4,0,1,31,55,11
2,1,19,1,0,0,1,31,55,11
2,1,19,1,1,0,1,31,27,11
2,1,16,1,1,0,1,31,55,11
2,1,12,1,3,0,1,31,117,11
2,1,11,1,3,0,1,31,73,11
2,1,18,1,4,0,1,31,120,11
2,1,9,1,6,1,1,31,117,11
2,1,18,1,6,1,1,31,117,11
3,2,16,1,0,0,1,31,117,11
3,2,21,0,0,0,1,31,96,11
3,2,18,1,1,0,1,31,117,11
3,2,2,0,3,0,1,31,73,11
3,2,14,1,3,0,1,31,27,11
3,2,13,1,0,0,1,31,27,11
3,2,15,1,1,0,1,31,27,11
3,2,12,1,5,1,1,31,27,11
3,2,12,1,0,0,1,31,117,11
3,2,15,1,0,0,1,31,117,11
3,2,17,1,1,0,1,31,35,11
3,2,17,1,1,0,1,31,35,11
3,2,9,1,1,0,1,31,87,11
3,2,19,1,1,0,1,31,96,11
4,2,18,1,4,0,2,31,55,11
4,2,13,1,5,1,2,31,35,9
4,2,20,1,5,1,2,31,55,11
4,2,15,1,5,1,2,31,117,11
4,2,17,1,6,1,2,31,117,11
4,2,15,1,6,1,2,31,120,11
4,2,12,1,0,0,2,31,117,11
4,2,13,1,5,1,2,31,55,11
4,2,14,1,6,1,2,31,27,11
4,2,20,1,0,0,2,31,55,11
4,2,11,1,2,0,2,31,87,11
5,2,12,1,2,0,2,31,96,11
5,2,9,1,2,0,2,31,120,9
5,2,19,1,4,0,2,31,120,11
6,3,5,0,4,0,2,31,104,11
6,3,21,0,3,0,2,31,96,11
6,3,16,1,5,1,2,31,87,11
6,3,16,1,3,0,2,31,35,11
6,3,13,1,6,1,2,31,87,11
6,3,16,1,5,1,2,31,87,11
7,3,0,0,5,1,3,31,120,11
7,3,13,1,0,0,3,31,96,11
7,3,17,1,4,0,3,31,87,11
7,3,23,0,5,1,3,31,87,11
7,3,7,1,3,0,3,31,45,9
8,3,15,1,6,1,3,31,87,11
8,3,3,0,0,0,3,31,22,11
8,3,14,1,0,0,3,31,19,11
9,4,14,1,1,0,3,31,117,11
10,4,14,1,3,0,4,31,19,9
10,4,21,0,0,0,4,31,56,11
11,4,14,1,6,1,4,31,96,11
11,4,15,1,6,1,4,31,27,11
11,4,1,0,6,1,4,31,87,11
1,1,6,0,0,0,1,31,73,11
1,1,22,0,6,1,1,31,71,11
2,1,17,1,0,0,1,31,73,11
2,1,15,1,1,0,1,31,12,9
2,1,16,1,0,0,1,31,73,11
2,1,20,1,1,0,1,31,96,11
3,2,11,1,1,0,1,31,12,11
3,2,23,0,3,0,1,31,64,11
3,2,18,1,3,0,1,31,73,11
3,2,1,0,3,0,1,31,39,11
4,2,15,1,0,0,2,31,120,11
4,2,18,1,1,0,2,31,96,11
4,2,21,0,5,1,2,31,73,9
5,2,20,1,6,1,2,31,12,11
5,2,11,1,1,0,2,31,87,11
6,3,20,1,0,0,2,31,63,11
6,3,19,1,5,1,2,31,104,11
6,3,22,0,6,1,2,31,104,11
7,3,0,0,0,0,3,31,104,11
7,3,2,0,5,1,3,31,85,11
8,3,14,1,1,0,3,31,71,11
8,3,21,0,2,0,3,31,87,11
8,3,12,1,6,1,3,31,19,9
8,3,11,1,3,0,3,31,19,11
9,4,14,1,5,1,3,31,12,11
9,4,11,1,4,0,3,31,87,11
9,4,14,1,4,0,3,31,20,11
10,4,12,1,5,1,4,31,92,11
10,4,3,0,3,0,4,31,19,11
11,4,17,1,5,1,4,31,39,8
11,4,14,1,2,0,4,31,96,11
11,4,3,0,4,0,4,31,120,11
11,4,14,1,6,1,4,31,111,11
11,4,21,0,1,0,4,31,103,9
12,1,11,1,5,1,4,31,78,11
12,1,8,1,3,0,4,31,73,11
1,1,20,1,4,0,1,35,63,11
1,1,16,1,5,1,1,35,92,11
1,1,19,1,5,1,1,35,64,11
1,1,17,1,6,1,1,35,85,11
1,1,5,0,0,0,1,35,64,11
1,1,8,1,2,0,1,35,85,11
1,1,0,0,3,0,1,35,85,11
1,1,16,1,3,0,1,35,92,11
1,1,22,0,3,0,1,35,92,11
1,1,3,0,4,0,1,35,92,11
1,1,21,0,4,0,1,35,92,11
1,1,22,0,4,0,1,35,87,11
1,1,19,1,5,1,1,35,94,11
1,1,8,1,6,1,1,35,92,11
1,1,12,1,6,1,1,35,92,11
1,1,17,1,6,1,1,35,73,11
1,1,9,1,0,0,1,35,87,11
1,1,13,1,0,0,1,35,92,11
1,1,18,1,1,0,1,35,13,9
1,1,19,1,1,0,1,35,50,11
1,1,23,0,6,1,1,35,92,11
1,1,19,1,1,0,1,35,92,11
1,1,14,1,2,0,1,35,73,11
1,1,21,0,2,0,1,35,64,11
1,1,9,1,3,0,1,35,96,11
1,1,12,1,4,0,1,35,87,11
1,1,20,1,4,0,1,35,7,11
1,1,22,0,4,0,1,35,96,11
1,1,9,1,5,1,1,35,56,11
1,1,21,0,5,1,1,35,94,11
2,1,15,1,0,0,1,35,85,11
2,1,23,0,2,0,1,35,87,9
2,1,6,0,5,1,1,35,73,8
2,1,13,1,6,1,1,35,96,11
2,1,20,1,2,0,1,35,64,11
2,1,20,1,2,0,1,35,64,11
2,1,21,0,2,0,1,35,94,11
2,1,16,1,4,0,1,35,92,11
2,1,11,1,0,0,1,35,92,11
2,1,11,1,0,0,1,35,71,11
2,1,19,1,0,0,1,35,73,11
2,1,19,1,2,0,1,35,92,11
2,1,22,0,2,0,1,35,92,11
2,1,20,1,6,1,1,35,92,11
2,1,0,0,0,0,1,35,99,11
2,1,5,0,1,0,1,35,92,11
2,1,12,1,1,0,1,35,87,11
3,2,11,1,2,0,1,35,87,11
3,2,12,1,2,0,1,35,96,11
3,2,14,1,2,0,1,35,64,11
3,2,16,1,3,0,1,35,92,11
3,2,18,1,3,0,1,35,64,11
3,2,20,1,4,0,1,35,92,11
3,2,5,0,5,1,1,35,98,11
3,2,17,1,5,1,1,35,96,11
3,2,13,1,0,0,1,35,87,9
3,2,21,0,0,0,1,35,96,11
3,2,16,1,2,0,1,35,96,11
3,2,13,1,4,0,1,35,87,11
3,2,12,1,0,0,1,35,12,11
3,2,15,1,0,0,1,35,92,11
3,2,19,1,0,0,1,35,92,11
3,2,22,0,0,0,1,35,73,11
3,2,15,1,3,0,1,35,73,11
3,2,17,1,3,0,1,35,96,11
3,2,20,1,3,0,1,35,64,11
3,2,21,0,3,0,1,35,87,11
3,2,15,1,4,0,1,35,87,11
3,2,20,1,5,1,1,35,94,11
3,2,12,1,6,1,1,35,73,11
3,2,18,1,1,0,1,35,96,11
3,2,21,0,1,0,1,35,56,11
3,2,16,1,5,1,1,35,92,11
3,2,16,1,2,0,1,35,85,11
4,2,15,1,3,0,2,35,56,11
4,2,13,1,4,0,2,35,96,11
4,2,12,1,5,1,2,35,96,11
4,2,19,1,6,1,2,35,92,11
4,2,12,1,0,0,2,35,87,11
4,2,19,1,0,0,2,35,96,11
4,2,16,1,3,0,2,35,87,11
4,2,21,0,3,0,2,35,87,11
4,2,14,1,5,1,2,35,87,11
4,2,16,1,5,1,2,35,92,11
4,2,20,1,5,1,2,35,39,11
4,2,15,1,6,1,2,35,96,11
4,2,17,1,6,1,2,35,87,9
4,2,22,0,6,1,2,35,73,11
4,2,23,0,1,0,2,35,64,11
4,2,21,0,2,0,2,35,64,11
4,2,15,1,3,0,2,35,87,11
4,2,8,1,3,0,2,35,96,11
4,2,14,1,3,0,2,35,13,11
5,2,21,0,6,1,2,35,96,11
5,2,14,1,0,0,2,35,96,11
5,2,23,0,0,0,2,35,92,11
5,2,12,1,2,0,2,35,96,11
5,2,15,1,2,0,2,35,73,11
5,2,0,0,4,0,2,35,92,11
5,2,11,1,6,1,2,35,87,11
5,2,14,1,6,1,2,35,87,11
5,2,22,0,6,1,2,35,92,11
5,2,17,1,1,0,2,35,92,11
5,2,10,1,2,0,2,35,96,11
5,2,5,0,1,0,2,35,92,11
5,2,12,1,5,1,2,35,87,9
5,2,20,1,0,0,2,35,96,11
5,2,4,0,2,0,2,35,92,11
5,2,13,1,4,0,2,35,92,11
5,2,17,1,4,0,2,35,87,11
5,2,17,1,6,1,2,35,39,11
5,2,22,0,0,0,2,35,85,11
6,3,14,1,4,0,2,35,96,11
6,3,16,1,4,0,2,35,87,11
6,3,16,1,6,1,2,35,87,11
6,3,12,1,3,0,2,35,8,11
6,3,11,1,6,1,2,35,96,11
6,3,0,0,2,0,2,35,87,11
6,3,20,1,2,0,2,35,92,11
6,3,4,0,6,1,2,35,17,11
6,3,15,1,6,1,2,35,96,11
6,3,13,1,1,0,2,35,71,11
6,3,5,0,5,1,2,35,92,11
6,3,3,0,5,1,2,35,92,11
6,3,21,0,5,1,2,35,96,11
6,3,4,0,6,1,2,35,96,11
6,3,12,1,0,0,2,35,87,11
6,3,18,1,2,0,2,35,87,11
6,3,19,1,2,0,2,35,87,11
6,3,20,1,2,0,2,35,19,11
7,3,15,1,3,0,3,35,64,11
7,3,22,0,3,0,3,35,96,11
7,3,8,1,4,0,3,35,87,11
7,3,9,1,5,1,3,35,91,11
7,3,10,1,5,1,3,35,96,11
7,3,11,1,6,1,3,35,87,11
7,3,20,1,6,1,3,35,7,11
7,3,21,0,6,1,3,35,92,11
7,3,22,0,6,1,3,35,96,11
7,3,2,0,1,0,3,35,73,8
7,3,8,1,1,0,3,35,87,11
7,3,21,0,1,0,3,35,16,11
7,3,20,1,3,0,3,35,87,11
7,3,2,0,5,1,3,35,85,11
7,3,12,1,5,1,3,35,87,8
7,3,1,0,6,1,3,35,92,11
7,3,18,1,1,0,3,35,87,11
7,3,12,1,3,0,3,35,96,11
7,3,9,1,4,0,3,35,13,11
7,3,16,1,4,0,3,35,87,11
7,3,7,1,5,1,3,35,96,11
7,3,21,0,2,0,3,35,96,11
7,3,19,1,3,0,3,35,87,11
7,3,1,0,4,0,3,35,19,11
7,3,3,0,5,1,3,35,42,8
7,3,12,1,6,1,3,35,87,11
7,3,18,1,6,1,3,35,92,11
7,3,22,0,6,1,3,35,92,11
7,3,18,1,2,0,3,35,92,11
7,3,3,0,3,0,3,35,87,11
8,3,7,1,6,1,3,35,73,11
8,3,18,1,6,1,3,35,116,11
8,3,7,1,1,0,3,35,73,11
8,3,14,1,3,0,3,35,96,11
8,3,3,0,6,1,3,35,73,11
8,3,23,0,2,0,3,35,87,11
8,3,13,1,5,1,3,35,96,11
8,3,22,0,6,1,3,35,94,11
8,3,2,0,6,1,3,35,87,11
8,3,22,0,6,1,3,35,87,11
8,3,0,0,1,0,3,35,96,11
8,3,17,1,3,0,3,35,92,11
8,3,20,1,3,0,3,35,22,11
8,3,12,1,0,0,3,35,7,11
8,3,13,1,0,0,3,35,71,11
8,3,5,0,1,0,3,35,120,11
9,4,12,1,3,0,3,35,92,11
9,4,12,1,4,0,3,35,96,11
9,4,16,1,2,0,3,35,87,11
9,4,18,1,1,0,3,35,87,11
9,4,21,0,1,0,3,35,96,11
9,4,17,1,2,0,3,35,47,11
9,4,21,0,2,0,3,35,19,11
9,4,22,0,5,1,3,35,92,11
9,4,21,0,2,0,3,35,107,11
9,4,13,1,3,0,3,35,87,11
9,4,14,1,3,0,3,35,64,11
9,4,12,1,4,0,3,35,71,8
9,4,6,0,5,1,3,35,85,11
9,4,12,1,1,0,3,35,64,8
10,4,19,1,6,1,4,35,19,11
10,4,15,1,0,0,4,35,19,11
10,4,16,1,4,0,4,35,92,11
10,4,13,1,5,1,4,35,64,11
10,4,23,0,3,0,4,35,64,11
10,4,16,1,4,0,4,35,73,11
10,4,10,1,6,1,4,35,87,11
10,4,13,1,1,0,4,35,64,11
10,4,16,1,2,0,4,35,73,11
10,4,14,1,4,0,4,35,71,11
10,4,15,1,5,1,4,35,96,11
10,4,20,1,5,1,4,35,87,11
10,4,21,0,4,0,4,35,71,11
10,4,9,1,5,1,4,35,96,11
10,4,18,1,6,1,4,35,92,11
11,4,14,1,1,0,4,35,96,11
11,4,17,1,3,0,4,35,87,11
11,4,17,1,0,0,4,35,92,11
11,4,19,1,0,0,4,35,71,11
11,4,19,1,2,0,4,35,96,11
11,4,10,1,5,1,4,35,92,11
11,4,14,1,3,0,4,35,85,11
11,4,0,0,4,0,4,35,73,11
11,4,3,0,0,0,4,35,73,8
11,4,12,1,3,0,4,35,87,11
11,4,17,1,3,0,4,35,64,11
11,4,14,1,3,0,4,35,92,11
11,4,19,1,0,0,4,35,85,11
12,1,1,0,6,1,4,35,92,11
12,1,14,1,4,0,4,35,96,11
12,1,11,1,6,1,4,35,92,11
12,1,22,0,3,0,4,35,92,11
12,1,12,1,5,1,4,35,92,11
12,1,20,1,6,1,4,35,92,11
12,1,9,1,0,0,4,35,73,8
12,1,18,1,1,0,4,35,96,11
12,1,23,0,3,0,4,35,39,11
12,1,19,1,3,0,4,35,21,11
12,1,7,1,5,1,4,35,39,11
12,1,16,1,5,1,4,35,96,11
12,1,19,1,6,1,4,35,96,11
12,1,19,1,0,0,4,35,92,11
1,1,8,1,2,0,1,35,85,11
1,1,11,1,0,0,1,35,116,11
2,1,19,1,2,0,1,35,87,11
2,1,23,0,0,0,1,35,92,11
3,2,16,1,2,0,1,35,96,11
3,2,8,1,2,0,1,35,73,11
3,2,16,1,3,0,1,35,92,11
4,2,6,0,1,0,2,35,96,11
4,2,11,1,0,0,2,35,96,11
4,2,12,1,4,0,2,35,71,8
4,2,6,0,5,1,2,35,3,11
4,2,3,0,2,0,2,35,42,9
5,2,10,1,1,0,2,35,96,11
5,2,23,0,0,0,2,35,92,11
6,3,11,1,5,1,2,35,96,11
6,3,16,1,5,1,2,35,96,11
6,3,10,1,5,1,2,35,19,11
7,3,12,1,5,1,3,35,71,8
7,3,0,0,6,1,3,35,96,11
7,3,2,0,6,1,3,35,96,11
7,3,1,0,0,0,3,35,45,11
7,3,15,1,3,0,3,35,39,11
8,3,19,1,1,0,3,35,96,11
8,3,23,0,2,0,3,35,92,11
8,3,6,0,3,0,3,35,104,11
8,3,17,1,4,0,3,35,111,11
8,3,15,1,3,0,3,35,73,9
9,4,15,1,3,0,3,35,96,11
9,4,20,1,3,0,3,35,96,11
10,4,9,1,2,0,4,35,96,11
10,4,17,1,1,0,4,35,3,11
11,4,19,1,2,0,4,35,96,11
12,1,19,1,4,0,4,35,19,11
12,1,19,1,3,0,4,35,87,11
12,1,14,1,3,0,4,35,13,11
1,1,17,1,0,0,1,35,92,11
3,2,12,1,3,0,1,35,73,11
4,2,12,1,2,0,2,35,87,11
6,3,19,1,2,0,2,35,13,11
8,3,18,1,6,1,3,35,76,11
8,3,13,1,2,0,3,35,73,11
8,3,21,0,3,0,3,35,104,11
9,4,17,1,2,0,3,35,104,11
9,4,8,1,4,0,3,35,42,11
10,4,11,1,5,1,4,35,104,11
12,1,9,1,1,0,4,35,104,11
12,1,19,1,0,0,4,35,73,11
1,1,18,1,4,0,1,35,73,11
2,1,19,1,0,0,1,35,87,11
3,2,15,1,4,0,1,35,86,11
5,2,16,1,3,0,2,35,19,11
7,3,11,1,2,0,3,35,19,11
8,3,4,0,4,0,3,35,64,11
2,1,12,1,3,0,1,35,87,11
3,2,16,1,1,0,1,35,87,11
5,2,19,1,1,0,2,35,87,11
9,4,0,0,3,0,3,35,104,11
1,1,18,1,6,1,1,35,39,11
2,1,11,1,0,0,1,35,87,11
4,2,16,1,5,1,2,35,96,11
6,3,16,1,4,0,2,35,71,11
7,3,15,1,4,0,3,35,39,11
12,1,12,1,2,0,4,35,73,11
1,1,17,1,6,1,1,35,96,11
2,1,19,1,1,0,1,35,73,11
2,1,18,1,3,0,1,35,73,11
2,1,14,1,0,0,1,35,73,11
2,1,20,1,4,0,1,35,73,11
2,1,12,1,6,1,1,35,73,11
3,2,20,1,3,0,1,35,45,11
3,2,13,1,1,0,1,35,96,11
3,2,18,1,6,1,1,35,73,11
4,2,16,1,2,0,2,35,96,11
5,2,14,1,2,0,2,35,96,11
5,2,19,1,6,1,2,35,87,11
5,2,20,1,6,1,2,35,87,11
5,2,18,1,6,1,2,35,96,11
6,3,11,1,1,0,2,35,19,11
6,3,7,1,4,0,2,35,19,11
6,3,8,1,4,0,2,35,104,11
6,3,0,0,3,0,2,35,96,11
6,3,17,1,2,0,2,35,3,9
6,3,16,1,5,1,2,35,96,11
7,3,9,1,3,0,3,35,71,11
7,3,5,0,4,0,3,35,96,11
7,3,14,1,6,1,3,35,96,11
7,3,21,0,0,0,3,35,87,11
7,3,9,1,3,0,3,35,96,11
7,3,18,1,1,0,3,35,96,11
7,3,14,1,6,1,3,35,45,9
7,3,5,0,2,0,3,35,19,11
7,3,10,1,3,0,3,35,96,11
7,3,16,1,4,0,3,35,96,11
8,3,13,1,1,0,3,35,96,11
8,3,14,1,5,1,3,35,40,11
8,3,15,1,4,0,3,35,40,11
9,4,19,1,0,0,3,35,87,11
10,4,3,0,6,1,4,35,19,11
10,4,16,1,2,0,4,35,87,11
10,4,15,1,1,0,4,35,20,9
12,1,5,0,5,1,4,35,62,9
1,1,16,1,5,1,1,45,64,11
1,1,13,1,4,0,1,45,64,11
1,1,22,0,4,0,1,45,106,11
1,1,16,1,6,1,1,45,12,11
1,1,20,1,2,0,1,45,85,11
1,1,0,0,3,0,1,45,85,11
2,1,18,1,5,1,1,45,96,11
2,1,6,0,5,1,1,45,73,8
2,1,20,1,6,1,1,45,85,11
2,1,20,1,4,0,1,45,120,11
2,1,19,1,5,1,1,45,87,11
2,1,18,1,0,0,1,45,86,11
2,1,14,1,5,1,1,45,13,11
2,1,22,0,4,0,1,45,73,11
2,1,15,1,5,1,1,45,19,11
2,1,14,1,6,1,1,45,39,11
3,2,14,1,2,0,1,45,110,11
3,2,18,1,1,0,1,45,73,11
3,2,22,0,0,0,1,45,64,11
3,2,21,0,2,0,1,45,73,11
3,2,20,1,0,0,1,45,64,11
3,2,18,1,6,1,1,45,87,11
4,2,6,0,3,0,2,45,12,11
4,2,19,1,4,0,2,45,73,8
4,2,18,1,6,1,2,45,87,11
4,2,11,1,6,1,2,45,85,11
4,2,19,1,0,0,2,45,19,11
4,2,19,1,1,0,2,45,73,8
4,2,16,1,5,1,2,45,73,11
5,2,16,1,0,0,2,45,85,11
5,2,1,0,1,0,2,45,87,11
5,2,16,1,2,0,2,45,103,8
5,2,15,1,2,0,2,45,87,11
6,3,21,0,4,0,2,45,96,11
6,3,22,0,5,1,2,45,87,11
6,3,16,1,3,0,2,45,96,11
6,3,17,1,4,0,2,45,108,11
6,3,1,0,6,1,2,45,73,11
7,3,21,0,3,0,3,45,120,11
7,3,12,1,3,0,3,45,12,8
7,3,18,1,1,0,3,45,19,11
7,3,0,0,5,1,3,45,85,11
8,3,8,1,0,0,3,45,66,11
8,3,9,1,0,0,3,45,85,11
8,3,1,0,1,0,3,45,56,11
8,3,14,1,0,0,3,45,19,11
8,3,3,0,1,0,3,45,84,9
8,3,16,1,3,0,3,45,103,11
8,3,22,0,5,1,3,45,39,11
8,3,17,1,0,0,3,45,103,9
9,4,12,1,4,0,3,45,71,11
9,4,6,0,2,0,3,45,104,11
9,4,18,1,2,0,3,45,25,11
9,4,21,0,4,0,3,45,1,11
9,4,4,0,5,1,3,45,92,11
9,4,4,0,5,1,3,45,92,11
9,4,2,0,0,0,3,45,85,11
10,4,13,1,0,0,4,45,19,9
11,4,19,1,0,0,4,45,25,11
11,4,17,1,6,1,4,45,87,11
11,4,21,0,0,0,4,45,85,11
11,4,14,1,4,0,4,45,64,11
11,4,21,0,1,0,4,45,64,11
12,1,21,0,2,0,4,45,39,11
12,1,0,0,3,0,4,45,85,11
12,1,22,0,3,0,4,45,39,11
12,1,17,1,6,1,4,45,39,11
12,1,21,0,1,0,4,45,73,8
12,1,22,0,2,0,4,45,64,11
12,1,10,1,3,0,4,45,103,11
12,1,12,1,5,1,4,45,85,11
12,1,13,1,5,1,4,45,39,11
12,1,17,1,5,1,4,45,85,11
12,1,18,1,5,1,4,45,64,11
12,1,17,1,4,0,4,45,73,11
1,1,16,1,2,0,1,45,22,8
2,1,11,1,2,0,1,45,73,11
3,2,1,0,3,0,1,45,73,11
7,3,12,1,1,0,3,45,19,11
7,3,18,1,2,0,3,45,71,11
9,4,9,1,4,0,3,45,12,11
9,4,8,1,3,0,3,45,73,11
10,4,15,1,6,1,4,45,25,11
5,2,11,1,2,0,2,45,73,8
11,4,23,0,0,0,4,45,13,11
12,1,9,1,5,1,4,45,103,11
1,1,9,1,0,0,1,45,73,11
1,1,13,1,4,0,1,45,64,11
1,1,12,1,4,0,1,45,120,11
1,1,20,1,5,1,1,45,64,11
2,1,10,1,3,0,1,45,120,11
2,1,20,1,6,1,1,45,120,11
2,1,17,1,3,0,1,45,96,11
2,1,11,1,4,0,1,45,96,11
2,1,18,1,4,0,1,45,96,11
2,1,14,1,5,1,1,45,96,11
3,2,13,1,1,0,1,45,27,11
3,2,15,1,2,0,1,45,96,11
3,2,16,1,2,0,1,45,96,11
3,2,16,1,3,0,1,45,87,11
3,2,19,1,3,0,1,45,73,11
3,2,15,1,4,0,1,45,96,11
3,2,1,0,4,0,1,45,96,11
3,2,19,1,4,0,1,45,87,11
3,2,20,1,4,0,1,45,96,11
3,2,11,1,5,1,1,45,39,11
3,2,12,1,0,0,1,45,96,11
3,2,11,1,2,0,1,45,96,11
3,2,21,0,6,1,1,45,73,11
3,2,11,1,2,0,1,45,96,11
3,2,16,1,4,0,1,45,96,11
3,2,22,0,4,0,1,45,64,11
3,2,16,1,6,1,1,45,96,11
4,2,14,1,4,0,2,45,96,11
4,2,15,1,5,1,2,45,73,11
4,2,20,1,5,1,2,45,96,11
4,2,17,1,6,1,2,45,96,11
4,2,18,1,0,0,2,45,96,11
4,2,20,1,2,0,2,45,96,11
4,2,16,1,4,0,2,45,96,11
4,2,20,1,4,0,2,45,103,11
4,2,21,0,6,1,2,45,96,11
4,2,11,1,1,0,2,45,73,11
4,2,21,0,1,0,2,45,96,11
4,2,1,0,1,0,2,45,92,11
5,2,15,1,3,0,2,45,96,11
5,2,13,1,6,1,2,45,87,11
5,2,19,1,2,0,2,45,58,11
5,2,18,1,3,0,2,45,96,11
5,2,16,1,4,0,2,45,87,11
5,2,20,1,4,0,2,45,96,11
5,2,14,1,2,0,2,45,96,11
5,2,13,1,6,1,2,45,47,11
6,3,15,1,5,1,2,45,87,11
7,3,16,1,3,0,3,45,96,11
8,3,16,1,2,0,3,45,96,11
8,3,17,1,4,0,3,45,12,11
9,4,18,1,3,0,3,45,103,11
9,4,18,1,5,1,3,45,96,11
9,4,11,1,1,0,3,45,3,11
9,4,17,1,0,0,3,45,96,11
9,4,11,1,1,0,3,45,96,11
10,4,19,1,0,0,4,45,96,11
10,4,10,1,2,0,4,45,96,11
10,4,21,0,6,1,4,45,96,11
10,4,15,1,4,0,4,45,96,11
11,4,13,1,3,0,4,45,96,11
11,4,2,0,2,0,4,45,22,11
12,1,22,0,6,1,4,45,94,11
12,1,16,1,2,0,4,45,73,11
12,1,9,1,3,0,4,45,73,11
12,1,21,0,3,0,4,45,39,11
12,1,12,1,4,0,4,45,96,11
1,1,11,1,5,1,1,22,19,11
1,1,17,1,0,0,1,22,73,11
1,1,16,1,6,1,1,22,85,11
1,1,22,0,6,1,1,22,85,11
1,1,16,1,1,0,1,22,64,11
1,1,22,0,2,0,1,22,64,11
1,1,18,1,3,0,1,22,120,11
1,1,18,1,2,0,1,22,73,11
1,1,20,1,2,0,1,22,73,11
1,1,15,1,5,1,1,22,73,8
2,1,12,1,0,0,1,22,64,11
2,1,8,1,4,0,1,22,19,11
2,1,9,1,5,1,1,22,82,9
2,1,9,1,5,1,1,22,19,11
2,1,18,1,5,1,1,22,64,11
2,1,7,1,2,0,1,22,39,11
2,1,15,1,6,1,1,22,39,11
2,1,11,1,1,0,1,22,12,9
3,2,17,1,2,0,1,22,56,11
3,2,13,1,4,0,1,22,85,11
3,2,15,1,1,0,1,22,64,11
3,2,12,1,5,1,1,22,73,11
3,2,22,0,1,0,1,22,85,11
3,2,2,0,5,1,1,22,120,11
4,2,14,1,3,0,2,22,12,11
4,2,11,1,4,0,2,22,104,11
4,2,21,0,4,0,2,22,85,11
4,2,19,1,1,0,2,22,96,11
5,2,17,1,2,0,2,22,19,11
5,2,23,0,4,0,2,22,96,11
5,2,16,1,6,1,2,22,96,11
5,2,23,0,3,0,2,22,96,11
5,2,13,1,4,0,2,22,87,11
5,2,12,1,3,0,2,22,87,11
5,2,0,0,5,1,2,22,42,11
5,2,18,1,6,1,2,22,56,11
5,2,6,0,5,1,2,22,57,11
6,3,1,0,5,1,2,22,87,11
6,3,12,1,6,1,2,22,87,11
6,3,2,0,1,0,2,22,85,11
6,3,23,0,3,0,2,22,87,11
6,3,13,1,5,1,2,22,87,11
7,3,17,1,5,1,3,22,85,11
7,3,19,1,4,0,3,22,96,11
7,3,16,1,5,1,3,22,64,11
7,3,4,0,2,0,3,22,73,8
7,3,18,1,5,1,3,22,85,11
7,3,1,0,6,1,3,22,13,11
7,3,2,0,1,0,3,22,12,11
7,3,6,0,2,0,3,22,73,11
7,3,18,1,4,0,3,22,85,11
8,3,11,1,0,0,3,22,87,11
8,3,14,1,2,0,3,22,64,11
8,3,12,1,3,0,3,22,87,11
8,3,19,1,1,0,3,22,19,11
8,3,12,1,2,0,3,22,87,11
8,3,12,1,2,0,3,22,64,11
8,3,19,1,6,1,3,22,120,11
8,3,11,1,2,0,3,22,87,11
8,3,11,1,3,0,3,22,64,11
8,3,13,1,6,1,3,22,19,11
9,4,5,0,3,0,3,22,106,8
9,4,15,1,5,1,3,22,87,11
9,4,22,0,0,0,3,22,85,11
9,4,15,1,5,1,3,22,103,11
9,4,22,0,5,1,3,22,85,11
9,4,13,1,6,1,3,22,85,11
9,4,18,1,1,0,3,22,85,11
9,4,12,1,0,0,3,22,87,9
9,4,9,1,0,0,3,22,52,11
9,4,20,1,1,0,3,22,63,11
10,4,16,1,1,0,4,22,103,11
10,4,21,0,6,1,4,22,85,11
11,4,22,0,6,1,4,22,92,11
11,4,13,1,6,1,4,22,85,11
11,4,12,1,6,1,4,22,25,11
11,4,19,1,0,0,4,22,80,11
12,1,2,0,3,0,4,22,13,9
12,1,18,1,3,0,4,22,104,11
12,1,3,0,4,0,4,22,73,9
12,1,17,1,6,1,4,22,73,11
12,1,7,1,4,0,4,22,87,11
12,1,9,1,2,0,4,22,64,11
12,1,19,1,4,0,4,22,85,11
1,1,13,1,6,1,1,22,64,11
1,1,14,1,0,0,1,22,7,11
1,1,15,1,1,0,1,22,77,11
1,1,13,1,4,0,1,22,104,11
1,1,21,0,5,1,1,22,73,11
1,1,17,1,1,0,1,22,39,8
1,1,12,1,4,0,1,22,85,11
1,1,15,1,0,0,1,22,74,11
2,1,15,1,3,0,1,22,85,11
2,1,16,1,3,0,1,22,85,11
2,1,9,1,4,0,1,22,87,11
2,1,18,1,5,1,1,22,73,11
2,1,19,1,5,1,1,22,96,11
2,1,17,1,1,0,1,22,13,11
3,2,10,1,1,0,1,22,13,9
3,2,12,1,3,0,1,22,73,11
3,2,21,0,1,0,1,22,63,11
3,2,14,1,2,0,1,22,96,11
3,2,6,0,0,0,1,22,104,11
4,2,21,0,4,0,2,22,13,9
4,2,11,1,5,1,2,22,96,11
4,2,12,1,1,0,2,22,96,11
4,2,20,1,1,0,2,22,120,11
5,2,17,1,1,0,2,22,87,11
5,2,9,1,3,0,2,22,104,11
5,2,19,1,4,0,2,22,87,11
5,2,16,1,0,0,2,22,19,9
5,2,1,0,3,0,2,22,96,11
5,2,13,1,4,0,2,22,96,11
5,2,20,1,6,1,2,22,96,11
5,2,17,1,0,0,2,22,3,11
6,3,18,1,1,0,2,22,104,11
6,3,11,1,4,0,2,22,87,11
6,3,17,1,2,0,2,22,25,11
7,3,21,0,3,0,3,22,87,11
7,3,18,1,1,0,3,22,96,11
7,3,13,1,2,0,3,22,87,11
7,3,17,1,3,0,3,22,19,9
8,3,23,0,3,0,3,22,96,11
8,3,10,1,1,0,3,22,96,11
8,3,17,1,2,0,3,22,19,11
8,3,10,1,6,1,3,22,87,11
8,3,12,1,1,0,3,22,87,11
9,4,21,0,4,0,3,22,96,11
9,4,22,0,5,1,3,22,96,11
9,4,18,1,6,1,3,22,87,11
9,4,17,1,5,1,3,22,19,9
9,4,15,1,6,1,3,22,96,11
10,4,19,1,1,0,4,22,96,11
10,4,2,0,3,0,4,22,85,11
10,4,13,1,0,0,4,22,96,11
10,4,22,0,0,0,4,22,85,9
10,4,19,1,3,0,4,22,96,11
11,4,16,1,0,0,4,22,71,11
12,1,16,1,5,1,4,22,73,9
12,1,18,1,5,1,4,22,13,11
12,1,11,1,0,0,4,22,96,11
3,2,18,1,3,0,1,22,117,11
3,2,12,1,1,0,1,22,73,11
3,2,21,0,0,0,1,22,96,11
4,2,20,1,0,0,2,22,39,11
4,2,18,1,1,0,2,22,96,11
4,2,7,1,6,1,2,22,13,11
5,2,13,1,4,0,2,22,87,11
6,3,4,0,1,0,2,22,87,11
6,3,17,1,1,0,2,22,96,11
7,3,23,0,5,1,3,22,96,11
8,3,16,1,0,0,3,22,92,11
8,3,18,1,5,1,3,22,96,11
9,4,11,1,1,0,3,22,87,11
10,4,20,1,5,1,4,22,73,11
12,1,18,1,1,0,4,22,92,11
1,1,22,0,1,0,1,22,13,11
1,1,8,1,4,0,1,22,19,11
1,1,10,1,5,1,1,22,73,9
1,1,16,1,2,0,1,22,85,11
2,1,17,1,0,0,1,22,73,11
2,1,14,1,2,0,1,22,73,11
2,1,11,1,4,0,1,22,73,11
3,2,18,1,6,1,1,22,77,11
4,2,10,1,5,1,2,22,3,11
4,2,20,1,4,0,2,22,73,11
5,2,18,1,3,0,2,22,12,11
5,2,13,1,0,0,2,22,85,11
5,2,0,0,4,0,2,22,96,11
5,2,17,1,2,0,2,22,96,11
5,2,14,1,6,1,2,22,96,11
5,2,18,1,4,0,2,22,87,11
6,3,17,1,6,1,2,22,87,11
6,3,11,1,2,0,2,22,96,11
6,3,11,1,1,0,2,22,85,11
6,3,0,0,2,0,2,22,96,11
7,3,14,1,3,0,3,22,87,11
7,3,23,0,1,0,3,22,96,11
7,3,14,1,0,0,3,22,96,11
7,3,1,0,1,0,3,22,96,11
7,3,11,1,3,0,3,22,96,11
8,3,3,0,2,0,3,22,87,11
8,3,23,0,1,0,3,22,96,11
8,3,22,0,0,0,3,22,96,11
9,4,6,0,4,0,3,22,96,11
9,4,2,0,0,0,3,22,96,11
9,4,19,1,5,1,3,22,96,11
9,4,16,1,2,0,3,22,96,11
9,4,23,0,2,0,3,22,96,11
9,4,12,1,3,0,3,22,96,11
9,4,15,1,4,0,3,22,96,11
9,4,11,1,6,1,3,22,85,11
9,4,16,1,0,0,3,22,96,11
9,4,16,1,1,0,3,22,96,11
9,4,14,1,2,0,3,22,96,11
10,4,11,1,1,0,4,22,85,11
10,4,12,1,2,0,4,22,87,11
10,4,20,1,2,0,4,22,96,11
10,4,13,1,6,1,4,22,73,11
11,4,16,1,3,0,4,22,96,11
12,1,17,1,5,1,4,22,19,11
12,1,22,0,0,0,4,22,57,11
1,1,14,1,5,1,1,6,87,11
2,1,11,1,3,0,1,6,1,11
2,1,14,1,5,1,1,6,96,11
2,1,15,1,6,1,1,6,92,11
2,1,18,1,2,0,1,6,96,11
2,1,18,1,5,1,1,6,96,11
3,2,18,1,2,0,1,6,104,11
3,2,2,0,0,0,1,6,120,11
3,2,12,1,2,0,1,6,96,11
3,2,19,1,1,0,1,6,96,11
4,2,19,1,6,1,2,6,96,11
4,2,10,1,2,0,2,6,92,11
4,2,9,1,3,0,2,6,96,11
5,2,19,1,3,0,2,6,3,11
5,2,20,1,4,0,2,6,87,11
6,3,18,1,5,1,2,6,19,11
6,3,1,0,0,0,2,6,3,11
8,3,23,0,0,0,3,6,22,11
8,3,20,1,1,0,3,6,94,9
9,4,17,1,3,0,3,6,85,11
9,4,13,1,5,1,3,6,96,11
10,4,12,1,4,0,4,6,104,11
10,4,18,1,0,0,4,6,104,11
10,4,5,0,6,1,4,6,85,11
11,4,2,0,6,1,4,6,73,11
11,4,14,1,0,0,4,6,85,11
11,4,3,0,1,0,4,6,73,11
11,4,12,1,1,0,4,6,85,11
11,4,10,1,1,0,4,6,73,11
11,4,14,1,1,0,4,6,73,11
1,1,7,1,3,0,1,6,19,11
3,2,15,1,2,0,1,6,19,11
5,2,12,1,5,1,2,6,71,11
6,3,18,1,5,1,2,6,85,11
6,3,15,1,3,0,2,6,71,11
7,3,12,1,3,0,3,6,19,11
7,3,9,1,3,0,3,6,71,11
11,4,8,1,5,1,4,6,85,11
1,1,16,1,4,0,1,6,92,11
1,1,15,1,5,1,1,6,85,11
1,1,13,1,5,1,1,6,85,11
1,1,18,1,1,0,1,6,85,11
1,1,21,0,1,0,1,6,85,11
1,1,15,1,1,0,1,6,64,9
1,1,14,1,1,0,1,6,85,11
1,1,21,0,2,0,1,6,39,11
1,1,1,0,3,0,1,6,85,11
1,1,20,1,3,0,1,6,92,11
1,1,23,0,3,0,1,6,92,11
1,1,9,1,4,0,1,6,73,11
1,1,12,1,4,0,1,6,92,11
1,1,21,0,5,1,1,6,85,11
1,1,21,0,5,1,1,6,39,11
1,1,13,1,0,0,1,6,87,11
1,1,13,1,0,0,1,6,85,11
1,1,20,1,1,0,1,6,96,11
1,1,18,1,1,0,1,6,85,11
1,1,20,1,2,0,1,6,73,11
1,1,13,1,2,0,1,6,64,11
1,1,20,1,4,0,1,6,39,11
1,1,19,1,5,1,1,6,73,11
1,1,16,1,5,1,1,6,64,11
1,1,23,0,5,1,1,6,92,11
1,1,16,1,6,1,1,6,64,11
1,1,20,1,6,1,1,6,64,11
1,1,12,1,0,0,1,6,85,11
1,1,0,0,1,0,1,6,92,11
1,1,9,1,2,0,1,6,64,11
1,1,15,1,2,0,1,6,87,11
1,1,21,0,2,0,1,6,85,11
1,1,17,1,2,0,1,6,85,11
1,1,12,1,3,0,1,6,85,11
1,1,15,1,3,0,1,6,85,11
1,1,17,1,3,0,1,6,85,11
1,1,15,1,3,0,1,6,85,11
1,1,20,1,5,1,1,6,64,11
1,1,22,0,6,1,1,6,64,11
1,1,22,0,1,0,1,6,85,11
1,1,13,1,2,0,1,6,85,11
1,1,19,1,2,0,1,6,85,11
1,1,18,1,3,0,1,6,92,11
1,1,18,1,3,0,1,6,92,11
1,1,23,0,4,0,1,6,92,11
1,1,20,1,4,0,1,6,39,11
1,1,1,0,5,1,1,6,92,11
1,1,14,1,5,1,1,6,92,11
1,1,17,1,5,1,1,6,85,11
1,1,19,1,6,1,1,6,92,11
1,1,15,1,6,1,1,6,92,11
2,1,4,0,0,0,1,6,92,11
2,1,2,0,2,0,1,6,87,11
2,1,16,1,3,0,1,6,57,11
2,1,9,1,6,1,1,6,92,11
2,1,5,0,6,1,1,6,87,11
2,1,13,1,6,1,1,6,87,11
2,1,18,1,2,0,1,6,92,11
2,1,16,1,4,0,1,6,87,11
2,1,16,1,5,1,1,6,19,11
2,1,19,1,6,1,1,6,39,11
2,1,17,1,0,0,1,6,92,11
2,1,0,0,0,0,1,6,85,11
2,1,0,0,0,0,1,6,85,11
2,1,0,0,1,0,1,6,92,11
2,1,22,0,2,0,1,6,87,11
2,1,23,0,2,0,1,6,85,11
2,1,9,1,2,0,1,6,73,11
2,1,18,1,2,0,1,6,64,11
2,1,11,1,2,0,1,6,85,11
2,1,12,1,2,0,1,6,85,11
2,1,17,1,3,0,1,6,92,11
2,1,0,0,3,0,1,6,85,11
2,1,1,0,3,0,1,6,85,11
2,1,18,1,4,0,1,6,87,11
2,1,18,1,4,0,1,6,92,11
2,1,21,0,6,1,1,6,92,11
2,1,0,0,6,1,1,6,85,11
2,1,1,0,6,1,1,6,85,11
2,1,0,0,6,1,1,6,85,11
2,1,12,1,1,0,1,6,85,11
2,1,8,1,2,0,1,6,92,11
2,1,18,1,2,0,1,6,87,11
2,1,18,1,2,0,1,6,39,11
2,1,10,1,2,0,1,6,98,11
2,1,19,1,3,0,1,6,92,11
2,1,14,1,4,0,1,6,85,11
2,1,17,1,5,1,1,6,19,11
2,1,11,1,6,1,1,6,85,11
2,1,22,0,6,1,1,6,92,11
3,2,17,1,0,0,1,6,7,11
3,2,8,1,0,0,1,6,27,11
3,2,15,1,2,0,1,6,85,11
3,2,19,1,3,0,1,6,19,11
3,2,19,1,3,0,1,6,87,11
3,2,21,0,4,0,1,6,92,11
3,2,17,1,5,1,1,6,85,11
3,2,12,1,5,1,1,6,92,11
3,2,16,1,2,0,1,6,85,11
3,2,4,0,2,0,1,6,101,9
3,2,14,1,3,0,1,6,64,11
3,2,10,1,4,0,1,6,64,11
3,2,18,1,4,0,1,6,85,11
3,2,21,0,5,1,1,6,39,11
3,2,16,1,5,1,1,6,92,11
3,2,18,1,6,1,1,6,7,11
3,2,21,0,6,1,1,6,85,11
3,2,3,0,0,0,1,6,85,11
3,2,21,0,0,0,1,6,92,11
3,2,9,1,1,0,1,6,39,11
3,2,13,1,5,1,1,6,92,11
3,2,9,1,6,1,1,6,87,11
3,2,0,0,0,0,1,6,92,11
3,2,3,0,0,0,1,6,56,11
3,2,17,1,2,0,1,6,85,11
3,2,19,1,4,0,1,6,87,11
3,2,18,1,5,1,1,6,96,11
3,2,16,1,0,0,1,6,64,11
3,2,19,1,1,0,1,6,77,11
3,2,19,1,2,0,1,6,64,11
3,2,22,0,2,0,1,6,85,11
3,2,4,0,2,0,1,6,19,11
3,2,23,0,2,0,1,6,87,11
3,2,16,1,2,0,1,6,87,11
4,2,1,0,3,0,2,6,63,11
4,2,9,1,3,0,2,6,92,11
4,2,17,1,3,0,2,6,87,11
4,2,20,1,4,0,2,6,64,11
4,2,22,0,4,0,2,6,56,11
4,2,16,1,4,0,2,6,87,11
4,2,20,1,6,1,2,6,19,11
4,2,19,1,6,1,2,6,92,11
4,2,2,0,6,1,2,6,85,11
4,2,1,0,6,1,2,6,85,11
4,2,2,0,6,1,2,6,85,11
4,2,15,1,0,0,2,6,87,11
4,2,23,0,0,0,2,6,92,11
4,2,5,0,0,0,2,6,64,11
4,2,17,1,1,0,2,6,92,11
4,2,18,1,2,0,2,6,92,11
4,2,12,1,3,0,2,6,87,11
4,2,14,1,3,0,2,6,92,11
4,2,21,0,4,0,2,6,85,11
4,2,23,0,4,0,2,6,85,11
4,2,20,1,5,1,2,6,85,11
4,2,20,1,5,1,2,6,92,11
4,2,20,1,5,1,2,6,92,11
4,2,19,1,5,1,2,6,92,11
4,2,19,1,5,1,2,6,87,11
4,2,1,0,6,1,2,6,92,11
4,2,1,0,6,1,2,6,92,11
4,2,12,1,6,1,2,6,96,11
4,2,3,0,0,0,2,6,92,11
4,2,16,1,1,0,2,6,96,11
4,2,2,0,2,0,2,6,87,11
4,2,3,0,3,0,2,6,19,11
4,2,21,0,3,0,2,6,85,11
4,2,23,0,3,0,2,6,85,11
4,2,16,1,3,0,2,6,39,11
4,2,14,1,4,0,2,6,64,11
4,2,17,1,4,0,2,6,64,11
4,2,18,1,4,0,2,6,96,11
4,2,13,1,5,1,2,6,73,11
4,2,20,1,5,1,2,6,87,11
4,2,2,0,5,1,2,6,92,11
4,2,19,1,6,1,2,6,87,11
4,2,19,1,6,1,2,6,85,9
4,2,8,1,6,1,2,6,85,11
4,2,3,0,2,0,2,6,92,11
4,2,20,1,2,0,2,6,87,11
4,2,22,0,5,1,2,6,87,11
4,2,18,1,5,1,2,6,57,9
4,2,19,1,0,0,2,6,19,11
4,2,22,0,1,0,2,6,96,11
4,2,14,1,2,0,2,6,111,11
4,2,16,1,2,0,2,6,92,11
5,2,21,0,5,1,2,6,92,11
5,2,21,0,5,1,2,6,92,11
5,2,3,0,5,1,2,6,19,11
5,2,22,0,5,1,2,6,64,8
5,2,1,0,6,1,2,6,85,11
5,2,7,1,6,1,2,6,85,11
5,2,3,0,0,0,2,6,85,11
5,2,3,0,0,0,2,6,85,11
5,2,12,1,0,0,2,6,85,11
5,2,2,0,0,0,2,6,118,11
5,2,3,0,0,0,2,6,92,11
5,2,2,0,1,0,2,6,85,11
5,2,3,0,1,0,2,6,85,11
5,2,18,1,1,0,2,6,92,11
5,2,3,0,1,0,2,6,85,11
5,2,20,1,2,0,2,6,87,11
5,2,10,1,3,0,2,6,96,11
5,2,2,0,3,0,2,6,87,11
5,2,21,0,1,0,2,6,87,11
5,2,21,0,1,0,2,6,92,11
5,2,11,1,1,0,2,6,39,11
5,2,10,1,2,0,2,6,71,11
5,2,19,1,3,0,2,6,96,11
5,2,9,1,4,0,2,6,64,11
5,2,10,1,6,1,2,6,87,11
5,2,19,1,6,1,2,6,92,11
5,2,22,0,2,0,2,6,92,11
5,2,4,0,3,0,2,6,85,11
5,2,3,0,3,0,2,6,92,11
5,2,16,1,5,1,2,6,96,11
5,2,22,0,5,1,2,6,87,9
5,2,10,1,6,1,2,6,87,11
5,2,5,0,6,1,2,6,42,11
5,2,22,0,6,1,2,6,92,11
5,2,2,0,0,0,2,6,87,11
5,2,17,1,5,1,2,6,87,11
5,2,0,0,6,1,2,6,92,11
6,3,23,0,2,0,2,6,85,11
6,3,12,1,3,0,2,6,87,11
6,3,19,1,3,0,2,6,73,11
6,3,23,0,3,0,2,6,87,11
6,3,2,0,4,0,2,6,96,11
6,3,20,1,5,1,2,6,13,11
6,3,11,1,5,1,2,6,73,11
6,3,22,0,5,1,2,6,85,11
6,3,18,1,6,1,2,6,92,11
6,3,3,0,0,0,2,6,92,11
6,3,4,0,0,0,2,6,92,11
6,3,16,1,0,0,2,6,96,11
6,3,21,0,0,0,2,6,63,11
6,3,12,1,1,0,2,6,87,11
6,3,18,1,1,0,2,6,87,11
6,3,9,1,5,1,2,6,92,11
6,3,19,1,5,1,2,6,85,11
6,3,16,1,1,0,2,6,87,11
6,3,12,1,1,0,2,6,85,11
6,3,22,0,2,0,2,6,92,11
6,3,23,0,2,0,2,6,19,11
6,3,10,1,3,0,2,6,87,11
6,3,17,1,3,0,2,6,87,11
6,3,12,1,5,1,2,6,87,9
6,3,0,0,6,1,2,6,92,11
6,3,12,1,6,1,2,6,96,11
6,3,18,1,6,1,2,6,87,9
6,3,4,0,0,0,2,6,74,11
6,3,1,0,0,0,2,6,87,11
6,3,12,1,4,0,2,6,64,11
6,3,21,0,4,0,2,6,87,11
6,3,1,0,5,1,2,6,87,11
6,3,18,1,5,1,2,6,85,11
6,3,6,0,5,1,2,6,87,11
6,3,2,0,5,1,2,6,87,11
6,3,1,0,5,1,2,6,85,11
6,3,12,1,6,1,2,6,96,11
6,3,22,0,0,0,2,6,64,11
6,3,15,1,2,0,2,6,104,11
6,3,18,1,2,0,2,6,92,11
7,3,14,1,3,0,3,6,87,11
7,3,21,0,3,0,3,6,87,11
7,3,16,1,3,0,3,6,87,9
7,3,12,1,5,1,3,6,71,11
7,3,1,0,0,0,3,6,85,11
7,3,12,1,2,0,3,6,64,11
7,3,17,1,2,0,3,6,87,11
7,3,5,0,3,0,3,6,85,11
7,3,23,0,3,0,3,6,87,11
7,3,10,1,5,1,3,6,87,11
7,3,0,0,0,0,3,6,85,11
7,3,13,1,1,0,3,6,87,11
7,3,0,0,1,0,3,6,87,11
7,3,19,1,2,0,3,6,64,11
7,3,5,0,2,0,3,6,76,11
7,3,16,1,2,0,3,6,85,11
7,3,0,0,4,0,3,6,87,11
7,3,14,1,5,1,3,6,87,9
7,3,15,1,6,1,3,6,87,11
7,3,20,1,6,1,3,6,87,11
7,3,21,0,0,0,3,6,87,11
7,3,14,1,1,0,3,6,87,11
7,3,12,1,2,0,3,6,64,11
7,3,13,1,2,0,3,6,73,11
7,3,22,0,2,0,3,6,64,11
7,3,19,1,2,0,3,6,87,9
7,3,8,1,2,0,3,6,87,11
7,3,4,0,3,0,3,6,96,11
7,3,10,1,3,0,3,6,87,11
7,3,19,1,3,0,3,6,87,11
7,3,17,1,4,0,3,6,85,11
7,3,0,0,4,0,3,6,87,11
7,3,16,1,5,1,3,6,96,11
7,3,3,0,0,0,3,6,87,11
7,3,5,0,1,0,3,6,76,11
7,3,20,1,1,0,3,6,87,11
7,3,21,0,3,0,3,6,63,11
7,3,22,0,4,0,3,6,47,11
8,3,10,1,6,1,3,6,85,11
8,3,8,1,0,0,3,6,71,11
8,3,19,1,0,0,3,6,87,11
8,3,9,1,0,0,3,6,64,11
8,3,9,1,1,0,3,6,73,11
8,3,5,0,2,0,3,6,19,11
8,3,9,1,3,0,3,6,71,11
8,3,3,0,6,1,3,6,87,11
8,3,1,0,2,0,3,6,96,11
8,3,4,0,3,0,3,6,64,11
8,3,16,1,6,1,3,6,78,11
8,3,0,0,0,0,3,6,85,11
8,3,22,0,1,0,3,6,96,11
8,3,20,1,2,0,3,6,87,11
8,3,8,1,4,0,3,6,87,11
8,3,6,0,0,0,3,6,87,11
9,4,5,0,2,0,3,6,19,9
9,4,5,0,4,0,3,6,64,11
9,4,12,1,4,0,3,6,87,11
9,4,15,1,0,0,3,6,19,11
9,4,9,1,1,0,3,6,73,11
9,4,10,1,2,0,3,6,87,11
9,4,20,1,3,0,3,6,85,11
9,4,19,1,3,0,3,6,87,11
9,4,14,1,4,0,3,6,87,11
9,4,9,1,4,0,3,6,64,11
9,4,20,1,4,0,3,6,87,11
9,4,20,1,1,0,3,6,87,11
9,4,23,0,4,0,3,6,87,11
9,4,18,1,4,0,3,6,87,11
9,4,22,0,6,1,3,6,64,11
9,4,11,1,1,0,3,6,19,11
9,4,16,1,4,0,3,6,80,11
9,4,21,0,4,0,3,6,85,11
9,4,19,1,4,0,3,6,87,11
9,4,19,1,5,1,3,6,87,11
9,4,11,1,5,1,3,6,96,11
9,4,16,1,6,1,3,6,63,11
9,4,23,0,1,0,3,6,87,11
9,4,18,1,1,0,3,6,87,11
9,4,15,1,1,0,3,6,64,11
9,4,6,0,2,0,3,6,92,11
9,4,4,0,3,0,3,6,19,11
10,4,13,1,4,0,4,6,85,11
10,4,13,1,5,1,4,6,96,11
10,4,17,1,5,1,4,6,87,11
10,4,7,1,5,1,4,6,87,11
10,4,20,1,6,1,4,6,87,11
10,4,1,0,6,1,4,6,96,11
10,4,21,0,0,0,4,6,87,11
10,4,20,1,0,0,4,6,63,11
10,4,4,0,0,0,4,6,92,11
10,4,21,0,0,0,4,6,96,11
10,4,15,1,0,0,4,6,96,11
10,4,17,1,1,0,4,6,87,11
10,4,17,1,1,0,4,6,85,11
10,4,3,0,3,0,4,6,87,11
10,4,18,1,5,1,4,6,87,11
10,4,9,1,6,1,4,6,87,11
10,4,19,1,6,1,4,6,64,11
10,4,19,1,0,0,4,6,85,11
10,4,23,0,3,0,4,6,92,11
10,4,23,0,6,1,4,6,85,11
10,4,22,0,6,1,4,6,85,11
10,4,1,0,3,0,4,6,85,11
10,4,21,0,4,0,4,6,39,11
10,4,17,1,4,0,4,6,85,11
10,4,7,1,4,0,4,6,63,11
10,4,20,1,5,1,4,6,64,11
10,4,2,0,6,1,4,6,14,9
10,4,10,1,6,1,4,6,92,11
10,4,20,1,1,0,4,6,96,11
10,4,0,0,1,0,4,6,92,11
10,4,20,1,1,0,4,6,96,11
10,4,18,1,2,0,4,6,64,11
10,4,0,0,3,0,4,6,87,11
10,4,22,0,3,0,4,6,85,11
10,4,20,1,3,0,4,6,85,11
10,4,14,1,3,0,4,6,70,8
10,4,22,0,4,0,4,6,85,11
10,4,7,1,4,0,4,6,19,11
10,4,9,1,4,0,4,6,39,11
10,4,18,1,6,1,4,6,87,11
11,4,8,1,0,0,4,6,73,11
11,4,17,1,1,0,4,6,7,11
11,4,23,0,2,0,4,6,92,11
11,4,21,0,3,0,4,6,87,11
11,4,21,0,3,0,4,6,64,11
11,4,22,0,4,0,4,6,73,11
11,4,2,0,4,0,4,6,92,11
11,4,22,0,6,1,4,6,92,11
11,4,5,0,6,1,4,6,92,11
11,4,4,0,6,1,4,6,92,11
11,4,0,0,6,1,4,6,96,11
11,4,19,1,6,1,4,6,63,11
11,4,3,0,1,0,4,6,85,11
11,4,4,0,1,0,4,6,85,11
11,4,13,1,1,0,4,6,77,11
11,4,0,0,1,0,4,6,19,9
11,4,3,0,1,0,4,6,57,11
11,4,23,0,1,0,4,6,92,11
11,4,2,0,2,0,4,6,92,11
11,4,14,1,3,0,4,6,87,11
11,4,13,1,3,0,4,6,87,11
11,4,18,1,4,0,4,6,92,11
11,4,10,1,4,0,4,6,87,11
11,4,10,1,4,0,4,6,96,11
11,4,0,0,5,1,4,6,92,11
11,4,11,1,5,1,4,6,39,9
11,4,19,1,6,1,4,6,92,11
11,4,2,0,0,0,4,6,85,11
11,4,19,1,2,0,4,6,87,11
11,4,17,1,3,0,4,6,87,11
11,4,0,0,4,0,4,6,85,11
11,4,21,0,5,1,4,6,63,11
11,4,4,0,5,1,4,6,85,11
11,4,14,1,3,0,4,6,85,11
11,4,12,1,3,0,4,6,85,11
11,4,21,0,3,0,4,6,85,11
11,4,11,1,5,1,4,6,92,11
11,4,10,1,5,1,4,6,85,11
11,4,15,1,5,1,4,6,85,11
11,4,16,1,6,1,4,6,92,11
11,4,11,1,6,1,4,6,85,11
11,4,22,0,6,1,4,6,19,11
11,4,13,1,0,0,4,6,73,11
11,4,2,0,0,0,4,6,19,11
11,4,19,1,1,0,4,6,64,11
12,1,22,0,2,0,4,6,87,11
12,1,7,1,3,0,4,6,85,11
12,1,13,1,3,0,4,6,92,11
12,1,19,1,3,0,4,6,92,11
12,1,8,1,3,0,4,6,64,11
12,1,9,1,3,0,4,6,19,11
12,1,2,0,3,0,4,6,71,9
12,1,22,0,5,1,4,6,85,11
12,1,23,0,6,1,4,6,85,11
12,1,19,1,6,1,4,6,85,11
12,1,6,0,0,0,4,6,64,11
12,1,19,1,3,0,4,6,66,11
12,1,0,0,3,0,4,6,85,11
12,1,22,0,4,0,4,6,85,11
12,1,20,1,4,0,4,6,85,11
12,1,20,1,6,1,4,6,92,11
12,1,20,1,6,1,4,6,73,11
12,1,22,0,6,1,4,6,92,11
12,1,4,0,6,1,4,6,73,9
12,1,19,1,0,0,4,6,85,11
12,1,15,1,1,0,4,6,64,11
12,1,12,1,1,0,4,6,92,11
12,1,19,1,2,0,4,6,92,11
12,1,18,1,2,0,4,6,92,11
12,1,18,1,3,0,4,6,85,11
12,1,11,1,3,0,4,6,64,11
12,1,12,1,4,0,4,6,85,11
12,1,1,0,6,1,4,6,29,11
12,1,5,0,6,1,4,6,92,11
12,1,8,1,6,1,4,6,92,11
12,1,11,1,6,1,4,6,85,11
12,1,17,1,6,1,4,6,85,11
12,1,18,1,6,1,4,6,85,11
12,1,3,0,0,0,4,6,85,11
12,1,19,1,0,0,4,6,87,9
12,1,17,1,1,0,4,6,7,11
12,1,19,1,1,0,4,6,39,11
12,1,22,0,1,0,4,6,64,11
12,1,0,0,2,0,4,6,92,11
12,1,14,1,3,0,4,6,92,11
12,1,0,0,3,0,4,6,92,11
12,1,0,0,4,0,4,6,73,11
12,1,21,0,4,0,4,6,73,11
12,1,1,0,5,1,4,6,92,11
12,1,10,1,5,1,4,6,85,11
12,1,13,1,5,1,4,6,39,11
12,1,7,1,5,1,4,6,85,11
12,1,22,0,5,1,4,6,85,11
12,1,12,1,5,1,4,6,85,11
12,1,10,1,5,1,4,6,85,11
12,1,2,0,6,1,4,6,85,11
12,1,9,1,6,1,4,6,85,11
12,1,12,1,6,1,4,6,85,11
12,1,13,1,6,1,4,6,85,11
12,1,10,1,6,1,4,6,92,11
12,1,13,1,6,1,4,6,39,11
12,1,10,1,6,1,4,6,85,11
12,1,22,0,0,0,4,6,87,11
12,1,1,0,0,0,4,6,85,11
12,1,21,0,4,0,4,6,73,9
1,1,2,0,4,0,1,6,85,11
1,1,4,0,0,0,1,6,85,11
1,1,1,0,4,0,1,6,73,11
1,1,22,0,4,0,1,6,85,11
1,1,19,1,6,1,1,6,71,11
1,1,10,1,2,0,1,6,73,11
1,1,1,0,6,1,1,6,45,11
2,1,13,1,5,1,1,6,39,11
2,1,14,1,2,0,1,6,104,11
2,1,19,1,3,0,1,6,45,11
2,1,18,1,6,1,1,6,39,11
2,1,17,1,0,0,1,6,29,11
2,1,15,1,2,0,1,6,96,11
2,1,21,0,6,1,1,6,96,11
2,1,15,1,3,0,1,6,85,11
3,2,17,1,5,1,1,6,87,11
3,2,16,1,0,0,1,6,85,11
3,2,13,1,3,0,1,6,39,11
3,2,14,1,1,0,1,6,85,11
3,2,13,1,3,0,1,6,85,11
4,2,10,1,4,0,2,6,87,11
4,2,16,1,4,0,2,6,87,11
4,2,21,0,2,0,2,6,87,11
4,2,19,1,3,0,2,6,85,11
4,2,12,1,4,0,2,6,39,11
5,2,12,1,0,0,2,6,85,11
5,2,20,1,2,0,2,6,39,11
5,2,23,0,2,0,2,6,85,11
5,2,21,0,5,1,2,6,104,11
5,2,16,1,0,0,2,6,41,11
5,2,12,1,2,0,2,6,73,11
5,2,23,0,3,0,2,6,120,11
5,2,11,1,0,0,2,6,12,8
5,2,22,0,2,0,2,6,120,11
5,2,19,1,3,0,2,6,120,11
5,2,17,1,3,0,2,6,71,11
6,3,20,1,0,0,2,6,87,11
6,3,17,1,5,1,2,6,19,11
6,3,20,1,3,0,2,6,45,11
6,3,23,0,4,0,2,6,3,11
7,3,7,1,6,1,3,6,120,11
7,3,13,1,1,0,3,6,87,11
7,3,21,0,5,1,3,6,87,11
7,3,22,0,2,0,3,6,85,11
7,3,14,1,4,0,3,6,96,11
8,3,9,1,5,1,3,6,71,11
8,3,18,1,1,0,3,6,87,11
8,3,18,1,6,1,3,6,42,11
8,3,0,0,0,0,3,6,85,11
8,3,3,0,4,0,3,6,73,11
8,3,12,1,0,0,3,6,87,11
8,3,20,1,0,0,3,6,85,11
9,4,7,1,3,0,3,6,39,11
9,4,20,1,4,0,3,6,87,11
9,4,19,1,5,1,3,6,85,11
9,4,10,1,6,1,3,6,87,11
9,4,1,0,2,0,3,6,87,11
9,4,11,1,5,1,3,6,87,11
9,4,22,0,3,0,3,6,87,11
9,4,15,1,0,0,3,6,87,11
10,4,11,1,1,0,4,6,85,11
10,4,21,0,5,1,4,6,85,11
10,4,11,1,4,0,4,6,96,11
10,4,9,1,0,0,4,6,85,11
10,4,18,1,3,0,4,6,85,11
11,4,10,1,0,0,4,6,76,11
11,4,1,0,2,0,4,6,12,11
11,4,14,1,1,0,4,6,85,11
11,4,13,1,1,0,4,6,67,11
12,1,16,1,2,0,4,6,85,11
12,1,15,1,5,1,4,6,13,11
12,1,19,1,5,1,4,6,39,11
12,1,13,1,0,0,4,6,85,11
1,1,18,1,1,0,1,6,104,11
1,1,16,1,2,0,1,6,120,11
1,1,21,0,0,0,1,6,64,11
1,1,17,1,3,0,1,6,87,11
1,1,11,1,4,0,1,6,73,11
2,1,12,1,2,0,1,6,85,11
2,1,6,0,5,1,1,6,39,11
2,1,21,0,5,1,1,6,85,11
2,1,1,0,1,0,1,6,39,11
2,1,7,1,2,0,1,6,3,11
2,1,15,1,3,0,1,6,85,11
2,1,16,1,3,0,1,6,96,11
2,1,9,1,6,1,1,6,73,11
2,1,10,1,6,1,1,6,73,11
2,1,17,1,2,0,1,6,96,11
2,1,17,1,3,0,1,6,96,11
2,1,21,0,5,1,1,6,64,11
2,1,15,1,6,1,1,6,92,11
3,2,19,1,1,0,1,6,85,11
3,2,22,0,2,0,1,6,85,11
3,2,7,1,3,0,1,6,85,11
3,2,15,1,4,0,1,6,85,11
3,2,11,1,2,0,1,6,87,11
3,2,17,1,4,0,1,6,87,11
3,2,5,0,0,0,1,6,87,11
3,2,10,1,4,0,1,6,87,11
3,2,6,0,4,0,1,6,85,11
4,2,21,0,1,0,2,6,96,11
4,2,20,1,2,0,2,6,87,11
4,2,18,1,3,0,2,6,87,11
4,2,14,1,3,0,2,6,13,11
4,2,14,1,5,1,2,6,87,11
4,2,11,1,0,0,2,6,87,11
4,2,19,1,1,0,2,6,87,11
4,2,18,1,2,0,2,6,87,11
4,2,18,1,1,0,2,6,87,11
4,2,15,1,2,0,2,6,87,11
4,2,10,1,3,0,2,6,19,11
5,2,18,1,6,1,2,6,85,11
5,2,4,0,2,0,2,6,85,11
5,2,16,1,0,0,2,6,85,11
5,2,12,1,1,0,2,6,87,11
5,2,15,1,4,0,2,6,96,11
5,2,4,0,6,1,2,6,77,11
5,2,5,0,0,0,2,6,104,11
5,2,0,0,4,0,2,6,87,11
5,2,11,1,5,1,2,6,73,11
5,2,14,1,5,1,2,6,87,11
5,2,17,1,0,0,2,6,120,11
6,3,14,1,1,0,2,6,96,11
6,3,13,1,1,0,2,6,19,11
6,3,23,0,3,0,2,6,96,11
6,3,11,1,6,1,2,6,87,11
6,3,8,1,0,0,2,6,96,11
6,3,19,1,1,0,2,6,87,11
6,3,14,1,3,0,2,6,80,11
6,3,16,1,3,0,2,6,120,11
6,3,20,1,5,1,2,6,87,8
6,3,15,1,6,1,2,6,117,9
6,3,12,1,1,0,2,6,87,11
7,3,16,1,4,0,3,6,87,9
7,3,16,1,4,0,3,6,27,8
7,3,21,0,6,1,3,6,117,9
7,3,16,1,6,1,3,6,27,9
7,3,1,0,0,0,3,6,87,11
7,3,23,0,5,1,3,6,64,11
7,3,21,0,5,1,3,6,87,8
7,3,23,0,5,1,3,6,35,8
7,3,23,0,6,1,3,6,96,11
7,3,8,1,6,1,3,6,87,11
7,3,15,1,0,0,3,6,96,11
7,3,19,1,0,0,3,6,117,11
7,3,0,0,1,0,3,6,120,11
7,3,23,0,3,0,3,6,87,11
7,3,10,1,1,0,3,6,27,11
7,3,0,0,4,0,3,6,16,11
8,3,7,1,1,0,3,6,87,11
8,3,20,1,2,0,3,6,55,11
8,3,21,0,0,0,3,6,87,11
8,3,19,1,2,0,3,6,87,11
8,3,9,1,0,0,3,6,87,11
8,3,15,1,4,0,3,6,87,11
8,3,8,1,1,0,3,6,64,11
9,4,20,1,4,0,3,6,87,11
9,4,19,1,6,1,3,6,87,11
9,4,16,1,0,0,3,6,96,11
9,4,18,1,2,0,3,6,85,11
9,4,0,0,6,1,3,6,87,11
9,4,0,0,5,1,3,6,85,11
9,4,19,1,6,1,3,6,64,11
9,4,10,1,6,1,3,6,87,11
9,4,13,1,6,1,3,6,87,11
9,4,4,0,2,0,3,6,39,11
9,4,9,1,4,0,3,6,96,11
9,4,18,1,5,1,3,6,87,11
9,4,19,1,6,1,3,6,87,11
9,4,17,1,6,1,3,6,96,11
9,4,19,1,0,0,3,6,96,11
9,4,9,1,1,0,3,6,87,11
10,4,19,1,5,1,4,6,96,11
10,4,15,1,5,1,4,6,87,11
10,4,11,1,3,0,4,6,87,11
10,4,22,0,5,1,4,6,96,11
10,4,20,1,0,0,4,6,85,11
10,4,18,1,0,0,4,6,87,11
10,4,2,0,3,0,4,6,55,11
10,4,22,0,3,0,4,6,85,11
10,4,19,1,4,0,4,6,87,11
10,4,9,1,5,1,4,6,87,11
11,4,20,1,4,0,4,6,87,11
11,4,17,1,0,0,4,6,87,11
11,4,17,1,0,0,4,6,87,11
11,4,7,1,3,0,4,6,96,11
11,4,12,1,4,0,4,6,55,11
11,4,14,1,0,0,4,6,73,11
11,4,10,1,0,0,4,6,104,11
11,4,16,1,6,1,4,6,87,11
12,1,19,1,5,1,4,6,64,11
12,1,18,1,2,0,4,6,64,11
12,1,21,0,6,1,4,6,73,11
12,1,17,1,1,0,4,6,71,11
12,1,16,1,2,0,4,6,71,11
12,1,19,1,4,0,4,6,19,11
12,1,3,0,5,1,4,6,96,11
12,1,5,0,2,0,4,6,85,11
12,1,6,0,2,0,4,6,85,11
12,1,19,1,2,0,4,6,73,11
12,1,15,1,3,0,4,6,87,11
12,1,13,1,3,0,4,6,73,11
12,1,17,1,4,0,4,6,73,11
12,1,17,1,6,1,4,6,73,11
12,1,18,1,1,0,4,6,96,11
12,1,23,0,2,0,4,6,96,11
12,1,6,0,2,0,4,6,39,11
1,1,22,0,4,0,1,6,96,11
2,1,15,1,3,0,1,6,85,11
3,2,6,0,2,0,1,6,39,9
3,2,13,1,6,1,1,6,85,11
4,2,17,1,6,1,2,6,96,11
4,2,15,1,2,0,2,6,96,11
6,3,17,1,1,0,2,6,85,11
6,3,17,1,5,1,2,6,78,11
7,3,2,0,5,1,3,6,13,11
8,3,17,1,3,0,3,6,87,11
8,3,17,1,3,0,3,6,104,11
8,3,8,1,6,1,3,6,19,11
9,4,19,1,6,1,3,6,104,11
12,1,17,1,1,0,4,6,71,11
12,1,4,0,3,0,4,6,73,11
1,1,22,0,4,0,1,6,73,8
1,1,5,0,2,0,1,6,73,9
1,1,7,1,0,0,1,6,103,11
1,1,23,0,5,1,1,6,104,11
2,1,12,1,1,0,1,6,103,11
2,1,9,1,6,1,1,6,82,11
3,2,12,1,6,1,1,6,85,11
3,2,10,1,6,1,1,6,85,11
3,2,15,1,2,0,1,6,73,8
4,2,14,1,6,1,2,6,73,11
4,2,17,1,2,0,2,6,73,9
4,2,4,0,3,0,2,6,73,9
4,2,19,1,2,0,2,6,39,11
5,2,12,1,6,1,2,6,96,11
5,2,15,1,1,0,2,6,13,11
7,3,12,1,1,0,3,6,85,11
7,3,13,1,1,0,3,6,96,11
7,3,21,0,1,0,3,6,85,11
8,3,12,1,5,1,3,6,12,11
9,4,13,1,5,1,3,6,85,11
10,4,20,1,5,1,4,6,73,11
10,4,20,1,6,1,4,6,85,11
11,4,14,1,4,0,4,6,96,11
11,4,19,1,5,1,4,6,87,11
11,4,17,1,1,0,4,6,85,11
11,4,23,0,6,1,4,6,87,9
12,1,14,1,0,0,4,6,85,11
12,1,8,1,5,1,4,6,85,11
12,1,12,1,6,1,4,6,85,11
12,1,15,1,6,1,4,6,85,11
12,1,16,1,0,0,4,6,85,11
1,1,20,1,5,1,1,1,19,11
1,1,10,1,1,0,1,1,120,11
1,1,16,1,2,0,1,1,96,11
1,1,15,1,3,0,1,1,73,11
1,1,9,1,0,0,1,1,73,11
1,1,21,0,0,0,1,1,120,11
1,1,13,1,1,0,1,1,96,11
1,1,18,1,2,0,1,1,73,11
2,1,21,0,0,0,1,1,120,11
2,1,10,1,4,0,1,1,120,11
2,1,10,1,0,0,1,1,120,11
2,1,13,1,1,0,1,1,64,11
2,1,14,1,2,0,1,1,96,11
2,1,17,1,6,1,1,1,96,11
2,1,19,1,3,0,1,1,19,11
2,1,14,1,4,0,1,1,96,11
2,1,16,1,5,1,1,1,96,11
3,2,0,0,2,0,1,1,120,11
3,2,9,1,1,0,1,1,87,11
3,2,19,1,4,0,1,1,120,11
3,2,18,1,0,0,1,1,73,11
3,2,17,1,2,0,1,1,120,11
3,2,13,1,0,0,1,1,96,11
4,2,23,0,0,0,2,1,73,11
4,2,22,0,2,0,2,1,64,11
4,2,22,0,4,0,2,1,87,11
4,2,2,0,2,0,2,1,56,11
5,2,18,1,6,1,2,1,19,11
5,2,21,0,4,0,2,1,39,8
5,2,22,0,1,0,2,1,96,11
5,2,12,1,5,1,2,1,104,11
5,2,1,0,3,0,2,1,120,11
5,2,13,1,4,0,2,1,120,11
5,2,21,0,5,1,2,1,87,11
5,2,12,1,0,0,2,1,96,11
6,3,21,0,1,0,2,1,96,11
6,3,0,0,3,0,2,1,120,11
6,3,21,0,4,0,2,1,87,11
6,3,23,0,5,1,2,1,87,11
6,3,21,0,3,0,2,1,104,11
6,3,1,0,3,0,2,1,120,11
6,3,17,1,5,1,2,1,39,11
6,3,17,1,6,1,2,1,96,11
6,3,23,0,6,1,2,1,87,11
6,3,13,1,1,0,2,1,96,11
6,3,15,1,3,0,2,1,87,11
6,3,14,1,3,0,2,1,87,11
6,3,17,1,3,0,2,1,96,11
6,3,12,1,4,0,2,1,120,11
6,3,15,1,6,1,2,1,87,11
6,3,8,1,1,0,2,1,39,11
6,3,0,0,2,0,2,1,19,11
6,3,11,1,2,0,2,1,87,11
6,3,21,0,2,0,2,1,96,11
6,3,17,1,6,1,2,1,120,11
6,3,12,1,0,0,2,1,39,11
6,3,23,0,0,0,2,1,87,11
7,3,3,0,3,0,3,1,87,11
7,3,21,0,3,0,3,1,96,11
7,3,21,0,4,0,3,1,120,11
7,3,12,1,5,1,3,1,19,11
7,3,13,1,5,1,3,1,120,11
7,3,13,1,4,0,3,1,96,11
7,3,19,1,0,0,3,1,96,11
7,3,4,0,2,0,3,1,96,11
7,3,0,0,3,0,3,1,120,11
7,3,18,1,3,0,3,1,13,9
8,3,21,0,1,0,3,1,87,11
8,3,20,1,2,0,3,1,120,11
8,3,19,1,3,0,3,1,12,9
8,3,10,1,4,0,3,1,120,11
8,3,15,1,4,0,3,1,87,11
8,3,5,0,6,1,3,1,76,11
8,3,16,1,6,1,3,1,96,11
8,3,1,0,4,0,3,1,96,11
8,3,13,1,4,0,3,1,87,11
8,3,1,0,0,0,3,1,19,11
8,3,18,1,0,0,3,1,39,11
8,3,20,1,0,0,3,1,96,11
8,3,19,1,2,0,3,1,96,11
8,3,17,1,6,1,3,1,120,11
8,3,16,1,1,0,3,1,87,11
8,3,19,1,2,0,3,1,96,11
9,4,11,1,3,0,3,1,73,11
9,4,14,1,4,0,3,1,96,11
9,4,19,1,5,1,3,1,96,11
9,4,13,1,6,1,3,1,87,11
9,4,9,1,1,0,3,1,63,11
9,4,19,1,1,0,3,1,87,11
9,4,22,0,4,0,3,1,87,11
9,4,15,1,5,1,3,1,87,11
9,4,22,0,2,0,3,1,20,11
9,4,18,1,4,0,3,1,85,11
9,4,10,1,0,0,3,1,13,9
9,4,22,0,2,0,3,1,120,11
10,4,6,0,5,1,4,1,87,11
10,4,19,1,5,1,4,1,87,11
10,4,13,1,1,0,4,1,87,11
10,4,18,1,1,0,4,1,87,11
10,4,15,1,2,0,4,1,96,11
10,4,8,1,3,0,4,1,104,11
10,4,3,0,5,1,4,1,104,11
10,4,22,0,0,0,4,1,96,11
10,4,15,1,2,0,4,1,87,11
10,4,19,1,0,0,4,1,120,11
10,4,22,0,0,0,4,1,120,11
10,4,23,0,0,0,4,1,120,11
10,4,11,1,1,0,4,1,87,11
10,4,20,1,1,0,4,1,63,11
10,4,23,0,3,0,4,1,120,11
10,4,23,0,3,0,4,1,120,11
10,4,15,1,6,1,4,1,19,11
11,4,16,1,0,0,4,1,104,11
11,4,18,1,0,0,4,1,96,11
11,4,21,0,3,0,4,1,120,11
11,4,19,1,5,1,4,1,19,11
11,4,20,1,6,1,4,1,120,11
11,4,19,1,0,0,4,1,73,11
11,4,18,1,6,1,4,1,120,11
11,4,22,0,0,0,4,1,85,11
12,1,19,1,1,0,4,1,73,11
12,1,13,1,3,0,4,1,120,11
12,1,14,1,2,0,4,1,12,9
12,1,7,1,5,1,4,1,73,11
12,1,18,1,2,0,4,1,13,11
12,1,12,1,4,0,4,1,85,11
1,1,17,1,6,1,1,1,73,11
1,1,19,1,6,1,1,1,85,11
1,1,17,1,0,0,1,1,73,11
1,1,22,0,1,0,1,1,63,11
1,1,22,0,1,0,1,1,64,11
1,1,16,1,2,0,1,1,19,9
1,1,11,1,4,0,1,1,64,11
1,1,21,0,4,0,1,1,85,11
1,1,10,1,5,1,1,1,85,11
1,1,11,1,5,1,1,1,85,11
1,1,1,0,6,1,1,1,85,11
1,1,20,1,1,0,1,1,85,11
1,1,18,1,2,0,1,1,85,11
1,1,10,1,6,1,1,1,85,11
1,1,17,1,6,1,1,1,96,11
1,1,18,1,6,1,1,1,85,11
1,1,0,0,0,0,1,1,64,11
1,1,11,1,0,0,1,1,85,11
1,1,19,1,0,0,1,1,64,11
1,1,22,0,0,0,1,1,85,11
1,1,13,1,2,0,1,1,96,11
1,1,16,1,5,1,1,1,104,11
1,1,2,0,6,1,1,1,85,11
1,1,20,1,6,1,1,1,85,11
1,1,12,1,0,0,1,1,85,11
1,1,14,1,3,0,1,1,64,11
1,1,17,1,4,0,1,1,64,11
1,1,3,0,5,1,1,1,85,11
1,1,12,1,5,1,1,1,85,11
1,1,18,1,5,1,1,1,85,11
1,1,20,1,5,1,1,1,73,11
1,1,22,0,5,1,1,1,64,11
1,1,10,1,6,1,1,1,104,11
1,1,12,1,6,1,1,1,19,11
2,1,19,1,2,0,1,1,96,11
2,1,23,0,2,0,1,1,85,11
2,1,16,1,3,0,1,1,73,11
2,1,21,0,4,0,1,1,64,11
2,1,20,1,5,1,1,1,64,11
2,1,22,0,5,1,1,1,85,11
2,1,2,0,6,1,1,1,85,11
2,1,21,0,6,1,1,1,85,11
2,1,14,1,0,0,1,1,85,11
2,1,19,1,0,0,1,1,73,11
2,1,16,1,1,0,1,1,86,11
2,1,14,1,2,0,1,1,85,11
2,1,23,0,3,0,1,1,85,11
2,1,6,0,3,0,1,1,85,11
2,1,15,1,4,0,1,1,87,11
2,1,19,1,4,0,1,1,96,11
2,1,17,1,5,1,1,1,85,11
2,1,20,1,5,1,1,1,39,11
2,1,9,1,6,1,1,1,64,11
2,1,23,0,6,1,1,1,64,11
2,1,2,0,0,0,1,1,85,11
2,1,12,1,0,0,1,1,96,11
2,1,13,1,0,0,1,1,85,11
2,1,23,0,0,0,1,1,85,11
2,1,11,1,1,0,1,1,64,11
2,1,17,1,1,0,1,1,64,11
2,1,17,1,1,0,1,1,96,11
2,1,20,1,1,0,1,1,85,11
2,1,13,1,2,0,1,1,96,11
2,1,13,1,2,0,1,1,85,11
2,1,20,1,2,0,1,1,85,11
2,1,17,1,3,0,1,1,85,11
2,1,20,1,3,0,1,1,64,11
2,1,3,0,4,0,1,1,96,11
2,1,13,1,4,0,1,1,96,11
2,1,14,1,6,1,1,1,96,11
2,1,16,1,6,1,1,1,85,11
2,1,19,1,6,1,1,1,96,11
2,1,21,0,6,1,1,1,85,11
2,1,11,1,0,0,1,1,96,11
2,1,15,1,0,0,1,1,96,11
2,1,0,0,1,0,1,1,85,11
2,1,0,0,1,0,1,1,85,11
2,1,0,0,1,0,1,1,87,11
2,1,1,0,1,0,1,1,85,11
2,1,11,1,1,0,1,1,96,11
2,1,16,1,2,0,1,1,73,11
2,1,18,1,2,0,1,1,85,11
2,1,22,0,2,0,1,1,96,11
2,1,9,1,3,0,1,1,85,11
2,1,18,1,3,0,1,1,96,11
2,1,21,0,3,0,1,1,85,11
2,1,15,1,4,0,1,1,96,11
2,1,16,1,4,0,1,1,96,11
2,1,19,1,4,0,1,1,96,11
2,1,18,1,5,1,1,1,73,11
2,1,20,1,5,1,1,1,85,11
2,1,1,0,6,1,1,1,85,11
2,1,1,0,6,1,1,1,19,11
2,1,2,0,6,1,1,1,85,11
3,2,2,0,0,0,1,1,85,11
3,2,13,1,0,0,1,1,96,11
3,2,17,1,0,0,1,1,96,11
3,2,8,1,2,0,1,1,85,11
3,2,12,1,2,0,1,1,85,11
3,2,19,1,2,0,1,1,73,11
3,2,19,1,2,0,1,1,73,11
3,2,2,0,3,0,1,1,85,11
3,2,11,1,3,0,1,1,64,11
3,2,21,0,3,0,1,1,73,11
3,2,9,1,4,0,1,1,73,11
3,2,12,1,4,0,1,1,96,11
3,2,12,1,4,0,1,1,87,11
3,2,12,1,4,0,1,1,85,11
3,2,13,1,5,1,1,1,64,11
3,2,15,1,5,1,1,1,39,11
3,2,16,1,5,1,1,1,87,11
3,2,17,1,5,1,1,1,85,11
3,2,17,1,5,1,1,1,87,11
3,2,0,0,6,1,1,1,85,11
3,2,18,1,6,1,1,1,73,11
3,2,22,0,6,1,1,1,64,11
3,2,1,0,0,0,1,1,85,11
3,2,13,1,1,0,1,1,85,11
3,2,17,1,1,0,1,1,87,11
3,2,19,1,1,0,1,1,96,11
3,2,21,0,1,0,1,1,85,11
3,2,3,0,3,0,1,1,85,11
3,2,4,0,3,0,1,1,85,11
3,2,11,1,4,0,1,1,87,11
3,2,19,1,4,0,1,1,85,11
3,2,20,1,4,0,1,1,85,11
3,2,11,1,5,1,1,1,85,11
3,2,16,1,5,1,1,1,85,11
3,2,16,1,5,1,1,1,96,11
3,2,16,1,5,1,1,1,96,11
3,2,19,1,5,1,1,1,64,11
3,2,1,0,6,1,1,1,85,11
3,2,2,0,6,1,1,1,85,11
3,2,18,1,6,1,1,1,87,11
3,2,19,1,6,1,1,1,64,11
3,2,21,0,6,1,1,1,64,11
3,2,22,0,6,1,1,1,96,11
3,2,12,1,0,0,1,1,85,11
3,2,18,1,1,0,1,1,85,11
3,2,20,1,1,0,1,1,64,11
3,2,14,1,2,0,1,1,39,11
3,2,13,1,3,0,1,1,96,11
3,2,13,1,3,0,1,1,96,11
3,2,18,1,3,0,1,1,58,11
3,2,21,0,3,0,1,1,63,11
3,2,23,0,4,0,1,1,85,11
3,2,11,1,6,1,1,1,85,11
3,2,13,1,6,1,1,1,73,11
3,2,14,1,6,1,1,1,64,11
3,2,17,1,6,1,1,1,64,11
3,2,19,1,0,0,1,1,64,11
3,2,13,1,1,0,1,1,64,11
3,2,14,1,3,0,1,1,73,11
3,2,16,1,3,0,1,1,85,11
3,2,19,1,3,0,1,1,64,11
3,2,14,1,4,0,1,1,96,11
3,2,15,1,6,1,1,1,85,11
3,2,23,0,6,1,1,1,73,11
3,2,13,1,0,0,1,1,96,11
3,2,17,1,0,0,1,1,27,11
3,2,17,1,0,0,1,1,96,11
3,2,21,0,0,0,1,1,96,11
3,2,15,1,1,0,1,1,96,11
3,2,19,1,1,0,1,1,85,11
3,2,15,1,2,0,1,1,96,11
4,2,2,0,3,0,2,1,85,11
4,2,12,1,3,0,2,1,96,11
4,2,12,1,4,0,2,1,27,11
4,2,18,1,4,0,2,1,96,11
4,2,18,1,4,0,2,1,96,11
4,2,18,1,5,1,2,1,96,11
4,2,20,1,5,1,2,1,7,11
4,2,18,1,0,0,2,1,96,11
4,2,11,1,1,0,2,1,96,11
4,2,22,0,1,0,2,1,96,11
4,2,1,0,2,0,2,1,85,11
4,2,21,0,2,0,2,1,104,11
4,2,3,0,3,0,2,1,64,11
4,2,17,1,3,0,2,1,96,11
4,2,18,1,3,0,2,1,12,11
4,2,18,1,3,0,2,1,73,11
4,2,12,1,4,0,2,1,96,11
4,2,14,1,4,0,2,1,96,11
4,2,21,0,5,1,2,1,64,11
4,2,14,1,6,1,2,1,85,11
4,2,16,1,0,0,2,1,96,11
4,2,18,1,0,0,2,1,4,11
4,2,21,0,0,0,2,1,96,11
4,2,22,0,0,0,2,1,96,11
4,2,16,1,3,0,2,1,87,11
4,2,13,1,4,0,2,1,96,11
4,2,20,1,4,0,2,1,96,11
4,2,0,0,6,1,2,1,85,11
4,2,22,0,6,1,2,1,85,11
4,2,9,1,3,0,2,1,85,11
4,2,13,1,3,0,2,1,85,11
4,2,16,1,3,0,2,1,96,11
4,2,18,1,3,0,2,1,96,11
4,2,22,0,3,0,2,1,96,11
4,2,3,0,5,1,2,1,85,11
4,2,21,0,5,1,2,1,85,11
4,2,22,0,6,1,2,1,96,11
4,2,4,0,0,0,2,1,85,11
4,2,21,0,0,0,2,1,85,11
4,2,22,0,0,0,2,1,96,11
4,2,0,0,1,0,2,1,85,11
4,2,14,1,1,0,2,1,87,11
4,2,21,0,1,0,2,1,87,11
4,2,22,0,1,0,2,1,85,11
4,2,16,1,3,0,2,1,85,11
4,2,22,0,3,0,2,1,85,11
4,2,12,1,4,0,2,1,96,11
5,2,14,1,5,1,2,1,64,11
5,2,15,1,5,1,2,1,64,11
5,2,18,1,5,1,2,1,87,11
5,2,21,0,5,1,2,1,87,11
5,2,22,0,5,1,2,1,96,11
5,2,2,0,6,1,2,1,64,11
5,2,22,0,6,1,2,1,87,11
5,2,4,0,0,0,2,1,85,11
5,2,21,0,4,0,2,1,96,11
5,2,21,0,5,1,2,1,85,11
5,2,12,1,6,1,2,1,96,11
5,2,12,1,6,1,2,1,71,11
5,2,18,1,6,1,2,1,85,11
5,2,16,1,0,0,2,1,96,11
5,2,11,1,2,0,2,1,96,11
5,2,12,1,2,0,2,1,96,11
5,2,10,1,5,1,2,1,85,11
5,2,21,0,5,1,2,1,12,9
5,2,12,1,6,1,2,1,87,11
5,2,13,1,2,0,2,1,96,11
5,2,17,1,2,0,2,1,96,11
5,2,22,0,2,0,2,1,63,11
5,2,21,0,3,0,2,1,25,9
5,2,21,0,3,0,2,1,85,11
5,2,9,1,4,0,2,1,96,11
5,2,12,1,4,0,2,1,96,11
5,2,19,1,4,0,2,1,57,11
5,2,22,0,5,1,2,1,63,11
5,2,15,1,6,1,2,1,19,11
5,2,20,1,0,0,2,1,96,11
5,2,21,0,0,0,2,1,63,11
5,2,14,1,1,0,2,1,96,11
5,2,15,1,1,0,2,1,96,11
5,2,21,0,1,0,2,1,87,11
5,2,21,0,2,0,2,1,96,11
5,2,9,1,4,0,2,1,39,11
5,2,19,1,4,0,2,1,87,11
5,2,22,0,4,0,2,1,96,11
5,2,13,1,5,1,2,1,96,11
5,2,19,1,5,1,2,1,4,11
5,2,0,0,6,1,2,1,85,11
5,2,0,0,6,1,2,1,96,11
5,2,13,1,6,1,2,1,96,11
5,2,21,0,6,1,2,1,96,11
5,2,23,0,6,1,2,1,96,11
5,2,11,1,0,0,2,1,96,11
5,2,15,1,0,0,2,1,96,11
5,2,16,1,0,0,2,1,87,11
5,2,19,1,0,0,2,1,85,11
5,2,20,1,0,0,2,1,87,11
6,3,1,0,1,0,2,1,96,11
6,3,13,1,1,0,2,1,96,11
6,3,14,1,1,0,2,1,96,11
6,3,21,0,1,0,2,1,96,11
6,3,23,0,1,0,2,1,85,11
6,3,2,0,2,0,2,1,85,11
6,3,13,1,2,0,2,1,85,11
6,3,2,0,3,0,2,1,96,11
6,3,21,0,3,0,2,1,87,11
6,3,23,0,3,0,2,1,85,11
6,3,9,1,4,0,2,1,96,11
6,3,13,1,4,0,2,1,85,11
6,3,1,0,5,1,2,1,85,11
6,3,5,0,5,1,2,1,14,11
6,3,16,1,5,1,2,1,96,11
6,3,21,0,5,1,2,1,96,11
6,3,22,0,5,1,2,1,96,11
6,3,11,1,6,1,2,1,3,11
6,3,21,0,6,1,2,1,96,11
6,3,20,1,0,0,2,1,96,11
6,3,14,1,0,0,2,1,85,11
6,3,14,1,1,0,2,1,96,11
6,3,18,1,1,0,2,1,96,11
6,3,16,1,2,0,2,1,96,11
6,3,13,1,3,0,2,1,96,11
6,3,11,1,4,0,2,1,96,11
6,3,12,1,4,0,2,1,96,11
6,3,11,1,6,1,2,1,64,11
6,3,21,0,0,0,2,1,96,11
6,3,11,1,3,0,2,1,96,11
6,3,16,1,3,0,2,1,96,11
6,3,14,1,4,0,2,1,96,11
6,3,22,0,4,0,2,1,96,11
6,3,10,1,5,1,2,1,96,11
6,3,13,1,5,1,2,1,96,11
6,3,17,1,5,1,2,1,96,11
6,3,19,1,6,1,2,1,87,11
6,3,1,0,0,0,2,1,90,11
6,3,17,1,0,0,2,1,87,11
6,3,19,1,0,0,2,1,87,11
6,3,12,1,1,0,2,1,87,11
6,3,21,0,1,0,2,1,96,11
6,3,22,0,1,0,2,1,85,11
6,3,17,1,2,0,2,1,96,11
6,3,20,1,2,0,2,1,96,11
6,3,9,1,3,0,2,1,96,11
6,3,10,1,3,0,2,1,96,11
6,3,20,1,3,0,2,1,96,11
6,3,20,1,3,0,2,1,87,11
6,3,22,0,3,0,2,1,85,11
6,3,22,0,3,0,2,1,87,11
6,3,13,1,4,0,2,1,96,11
6,3,12,1,5,1,2,1,96,11
6,3,13,1,5,1,2,1,19,11
6,3,22,0,5,1,2,1,96,11
6,3,12,1,1,0,2,1,96,11
6,3,23,0,1,0,2,1,96,11
6,3,17,1,2,0,2,1,87,11
6,3,21,0,2,0,2,1,96,11
7,3,21,0,4,0,3,1,96,11
7,3,16,1,5,1,3,1,85,11
7,3,20,1,5,1,3,1,87,11
7,3,23,0,5,1,3,1,96,11
7,3,1,0,6,1,3,1,19,11
7,3,19,1,0,0,3,1,96,11
7,3,5,0,1,0,3,1,118,11
7,3,11,1,3,0,3,1,85,11
7,3,21,0,4,0,3,1,4,11
7,3,22,0,4,0,3,1,96,11
7,3,17,1,6,1,3,1,73,11
7,3,21,0,6,1,3,1,96,11
7,3,10,1,0,0,3,1,85,11
7,3,22,0,2,0,3,1,87,11
7,3,12,1,3,0,3,1,96,11
7,3,12,1,3,0,3,1,87,11
7,3,9,1,5,1,3,1,96,11
7,3,12,1,5,1,3,1,85,11
7,3,20,1,6,1,3,1,96,11
7,3,17,1,1,0,3,1,96,11
7,3,20,1,1,0,3,1,96,11
7,3,5,0,2,0,3,1,73,11
7,3,14,1,2,0,3,1,96,11
7,3,20,1,3,0,3,1,4,11
7,3,21,0,3,0,3,1,64,11
7,3,16,1,4,0,3,1,96,11
7,3,20,1,4,0,3,1,96,11
7,3,11,1,5,1,3,1,73,11
7,3,12,1,5,1,3,1,96,11
7,3,1,0,6,1,3,1,96,11
7,3,13,1,6,1,3,1,96,11
7,3,12,1,0,0,3,1,96,11
7,3,12,1,2,0,3,1,96,11
7,3,21,0,2,0,3,1,96,11
7,3,8,1,3,0,3,1,87,11
7,3,13,1,3,0,3,1,96,11
7,3,14,1,3,0,3,1,96,11
7,3,21,0,3,0,3,1,96,11
7,3,12,1,4,0,3,1,47,11
7,3,14,1,4,0,3,1,96,11
7,3,3,0,4,0,3,1,85,11
7,3,10,1,4,0,3,1,78,11
7,3,8,1,5,1,3,1,96,11
7,3,23,0,5,1,3,1,96,11
8,3,19,1,1,0,3,1,96,11
8,3,21,0,1,0,3,1,96,11
8,3,14,1,2,0,3,1,87,11
8,3,18,1,2,0,3,1,39,11
8,3,22,0,2,0,3,1,96,11
8,3,17,1,3,0,3,1,85,11
8,3,21,0,3,0,3,1,96,11
8,3,17,1,0,0,3,1,96,11
8,3,17,1,2,0,3,1,85,11
8,3,11,1,3,0,3,1,96,11
8,3,13,1,3,0,3,1,106,11
8,3,22,0,3,0,3,1,96,11
8,3,22,0,4,0,3,1,96,11
8,3,20,1,6,1,3,1,96,11
8,3,22,0,6,1,3,1,96,11
8,3,20,1,1,0,3,1,96,11
8,3,3,0,3,0,3,1,96,11
8,3,20,1,4,0,3,1,96,11
8,3,0,0,5,1,3,1,96,11
8,3,22,0,5,1,3,1,63,11
8,3,14,1,6,1,3,1,73,11
8,3,14,1,6,1,3,1,87,11
8,3,12,1,0,0,3,1,96,11
8,3,18,1,3,0,3,1,87,11
8,3,22,0,3,0,3,1,87,11
8,3,17,1,5,1,3,1,104,11
8,3,17,1,6,1,3,1,96,11
8,3,23,0,6,1,3,1,96,11
8,3,0,0,1,0,3,1,64,11
8,3,14,1,1,0,3,1,96,11
9,4,7,1,4,0,3,1,96,11
9,4,13,1,4,0,3,1,55,11
9,4,14,1,4,0,3,1,96,11
9,4,12,1,0,0,3,1,96,11
9,4,16,1,0,0,3,1,96,11
9,4,19,1,1,0,3,1,118,11
9,4,2,0,2,0,3,1,85,11
9,4,13,1,5,1,3,1,96,11
9,4,14,1,0,0,3,1,96,11
9,4,13,1,1,0,3,1,96,11
9,4,18,1,1,0,3,1,96,11
9,4,21,0,2,0,3,1,96,11
9,4,22,0,2,0,3,1,85,11
9,4,12,1,3,0,3,1,96,11
9,4,19,1,3,0,3,1,96,11
9,4,13,1,4,0,3,1,78,11
9,4,15,1,4,0,3,1,96,11
9,4,14,1,5,1,3,1,96,11
9,4,18,1,6,1,3,1,96,11
9,4,20,1,6,1,3,1,96,11
9,4,20,1,6,1,3,1,96,11
9,4,18,1,0,0,3,1,63,11
9,4,18,1,1,0,3,1,96,11
9,4,15,1,2,0,3,1,25,11
9,4,15,1,2,0,3,1,87,11
9,4,16,1,6,1,3,1,96,11
9,4,12,1,0,0,3,1,96,11
9,4,14,1,0,0,3,1,96,11
9,4,14,1,0,0,3,1,96,11
9,4,15,1,0,0,3,1,96,11
9,4,15,1,0,0,3,1,96,11
9,4,17,1,0,0,3,1,96,11
9,4,19,1,0,0,3,1,96,11
9,4,22,0,0,0,3,1,85,11
9,4,17,1,1,0,3,1,87,11
9,4,12,1,2,0,3,1,96,11
9,4,18,1,3,0,3,1,96,11
10,4,11,1,4,0,4,1,63,11
10,4,7,1,5,1,4,1,13,11
10,4,3,0,6,1,4,1,85,11
10,4,12,1,6,1,4,1,96,11
10,4,13,1,6,1,4,1,96,11
10,4,23,0,6,1,4,1,85,11
10,4,13,1,0,0,4,1,119,11
10,4,11,1,1,0,4,1,56,11
10,4,12,1,1,0,4,1,63,11
10,4,13,1,1,0,4,1,87,11
10,4,18,1,1,0,4,1,96,11
10,4,20,1,1,0,4,1,87,11
10,4,5,0,2,0,4,1,87,11
10,4,11,1,2,0,4,1,96,11
10,4,15,1,2,0,4,1,96,11
10,4,19,1,2,0,4,1,87,11
10,4,21,0,2,0,4,1,96,11
10,4,9,1,3,0,4,1,104,11
10,4,17,1,4,0,4,1,64,11
10,4,21,0,4,0,4,1,64,11
10,4,13,1,6,1,4,1,64,11
10,4,4,0,3,0,4,1,85,11
10,4,8,1,3,0,4,1,64,11
10,4,17,1,3,0,4,1,96,11
10,4,3,0,3,0,4,1,85,11
10,4,3,0,3,0,4,1,85,11
10,4,23,0,4,0,4,1,118,11
10,4,23,0,6,1,4,1,85,11
10,4,18,1,1,0,4,1,64,11
10,4,20,1,1,0,4,1,96,11
10,4,21,0,1,0,4,1,85,11
10,4,22,0,1,0,4,1,96,11
10,4,6,0,2,0,4,1,96,11
10,4,7,1,2,0,4,1,96,11
10,4,20,1,2,0,4,1,85,11
10,4,13,1,3,0,4,1,64,11
10,4,18,1,3,0,4,1,96,11
10,4,9,1,4,0,4,1,85,11
10,4,14,1,5,1,4,1,96,11
10,4,15,1,5,1,4,1,96,11
10,4,11,1,6,1,4,1,96,11
10,4,13,1,6,1,4,1,85,11
10,4,14,1,6,1,4,1,96,11
10,4,14,1,6,1,4,1,96,11
11,4,18,1,0,0,4,1,73,11
11,4,18,1,0,0,4,1,87,11
11,4,13,1,3,0,4,1,64,11
11,4,9,1,4,0,4,1,22,11
11,4,11,1,4,0,4,1,85,11
11,4,17,1,6,1,4,1,96,11
11,4,14,1,0,0,4,1,87,11
11,4,16,1,0,0,4,1,96,11
11,4,16,1,4,0,4,1,87,11
11,4,18,1,6,1,4,1,64,11
11,4,18,1,1,0,4,1,73,11
11,4,19,1,1,0,4,1,73,11
11,4,13,1,2,0,4,1,64,11
11,4,19,1,4,0,4,1,85,11
11,4,0,0,6,1,4,1,19,9
11,4,18,1,6,1,4,1,96,11
11,4,18,1,0,0,4,1,64,11
11,4,10,1,2,0,4,1,39,11
11,4,17,1,2,0,4,1,39,11
11,4,19,1,3,0,4,1,85,11
11,4,10,1,4,0,4,1,64,11
11,4,15,1,4,0,4,1,22,11
11,4,12,1,5,1,4,1,96,11
11,4,22,0,5,1,4,1,85,11
11,4,10,1,6,1,4,1,85,11
11,4,20,1,1,0,4,1,96,11
11,4,22,0,1,0,4,1,73,11
12,1,16,1,2,0,4,1,85,11
12,1,19,1,2,0,4,1,64,11
12,1,11,1,3,0,4,1,85,11
12,1,16,1,6,1,4,1,87,11
12,1,18,1,6,1,4,1,73,11
12,1,19,1,2,0,4,1,92,11
12,1,17,1,3,0,4,1,73,11
12,1,17,1,3,0,4,1,64,11
12,1,22,0,4,0,4,1,85,11
12,1,9,1,5,1,4,1,60,11
12,1,11,1,6,1,4,1,64,11
12,1,13,1,1,0,4,1,64,11
12,1,21,0,2,0,4,1,39,11
12,1,20,1,3,0,4,1,73,11
12,1,20,1,3,0,4,1,85,11
12,1,20,1,3,0,4,1,73,11
12,1,21,0,3,0,4,1,64,11
12,1,21,0,3,0,4,1,85,11
12,1,21,0,3,0,4,1,85,11
12,1,15,1,4,0,4,1,73,11
12,1,16,1,4,0,4,1,85,11
12,1,13,1,5,1,4,1,85,11
12,1,8,1,6,1,4,1,85,11
12,1,12,1,6,1,4,1,85,11
12,1,18,1,6,1,4,1,85,11
12,1,20,1,6,1,4,1,64,11
12,1,21,0,6,1,4,1,64,11
12,1,23,0,6,1,4,1,85,11
12,1,12,1,0,0,4,1,39,11
12,1,20,1,0,0,4,1,113,11
12,1,21,0,0,0,4,1,64,11
12,1,21,0,0,0,4,1,85,11
12,1,17,1,1,0,4,1,85,11
12,1,11,1,2,0,4,1,85,11
12,1,20,1,2,0,4,1,73,11
12,1,20,1,2,0,4,1,64,11
12,1,21,0,2,0,4,1,85,11
12,1,14,1,3,0,4,1,85,11
12,1,20,1,3,0,4,1,39,11
12,1,12,1,4,0,4,1,85,11
12,1,12,1,4,0,4,1,104,11
12,1,20,1,4,0,4,1,85,11
12,1,20,1,4,0,4,1,73,11
12,1,22,0,4,0,4,1,73,11
12,1,4,0,5,1,4,1,85,11
12,1,11,1,5,1,4,1,64,11
12,1,15,1,5,1,4,1,85,11
12,1,20,1,6,1,4,1,64,11
12,1,1,0,2,0,4,1,85,11
12,1,13,1,2,0,4,1,85,11
12,1,13,1,3,0,4,1,64,11
12,1,15,1,3,0,4,1,64,11
12,1,18,1,3,0,4,1,64,11
12,1,21,0,3,0,4,1,64,11
12,1,19,1,4,0,4,1,64,11
12,1,21,0,4,0,4,1,85,11
2,1,20,1,2,0,1,1,81,11
2,1,12,1,6,1,1,1,12,11
3,2,13,1,0,0,1,1,73,11
4,2,23,0,3,0,2,1,73,11
4,2,13,1,6,1,2,1,96,11
4,2,16,1,6,1,2,1,96,11
4,2,16,1,5,1,2,1,1,11
5,2,11,1,2,0,2,1,87,9
5,2,13,1,3,0,2,1,96,11
6,3,13,1,4,0,2,1,19,11
8,3,7,1,0,0,3,1,19,11
9,4,14,1,5,1,3,1,87,11
9,4,9,1,6,1,3,1,96,11
9,4,10,1,1,0,3,1,96,11
10,4,20,1,2,0,4,1,96,11
10,4,18,1,3,0,4,1,96,11
11,4,15,1,0,0,4,1,96,11
1,1,19,1,0,0,1,1,73,11
2,1,12,1,5,1,1,1,73,11
2,1,11,1,6,1,1,1,73,11
2,1,19,1,1,0,1,1,96,11
3,2,18,1,4,0,1,1,85,11
3,2,15,1,6,1,1,1,96,11
3,2,21,0,2,0,1,1,73,11
4,2,12,1,3,0,2,1,87,11
4,2,19,1,3,0,2,1,96,11
4,2,20,1,0,0,2,1,96,11
4,2,10,1,4,0,2,1,96,11
4,2,12,1,4,0,2,1,96,11
4,2,21,0,0,0,2,1,73,11
4,2,18,1,5,1,2,1,96,11
6,3,4,0,0,0,2,1,85,11
7,3,14,1,5,1,3,1,47,11
7,3,9,1,0,0,3,1,96,11
8,3,23,0,2,0,3,1,96,11
8,3,2,0,5,1,3,1,96,11
9,4,1,0,6,1,3,1,13,11
9,4,18,1,6,1,3,1,96,11
10,4,11,1,4,0,4,1,55,11
10,4,16,1,5,1,4,1,104,11
11,4,15,1,0,0,4,1,73,11
1,1,18,1,1,0,1,1,73,11
2,1,19,1,2,0,1,1,96,11
2,1,10,1,3,0,1,1,96,11
2,1,18,1,6,1,1,1,96,11
4,2,14,1,3,0,2,1,77,11
5,2,13,1,6,1,2,1,96,11
6,3,13,1,5,1,2,1,87,11
7,3,14,1,0,0,3,1,96,11
7,3,23,0,3,0,3,1,73,11
8,3,10,1,0,0,3,1,96,11
1,1,22,0,1,0,1,1,19,11
1,1,15,1,5,1,1,1,73,8
2,1,9,1,0,0,1,1,39,11
2,1,19,1,0,0,1,1,73,11
2,1,13,1,0,0,1,1,96,11
2,1,16,1,0,0,1,1,96,11
3,2,10,1,0,0,1,1,96,11
3,2,17,1,2,0,1,1,96,11
3,2,17,1,2,0,1,1,87,11
3,2,11,1,4,0,1,1,111,9
3,2,16,1,2,0,1,1,39,11
4,2,7,1,3,0,2,1,120,11
4,2,18,1,6,1,2,1,96,11
4,2,11,1,0,0,2,1,120,11
4,2,13,1,2,0,2,1,96,11
5,2,0,0,3,0,2,1,120,11
5,2,15,1,0,0,2,1,87,11
5,2,11,1,6,1,2,1,96,11
7,3,19,1,0,0,3,1,87,11
7,3,16,1,1,0,3,1,87,11
7,3,10,1,4,0,3,1,87,11
8,3,17,1,0,0,3,1,96,11
8,3,23,0,2,0,3,1,96,11
8,3,12,1,3,0,3,1,87,11
8,3,15,1,3,0,3,1,96,11
8,3,20,1,1,0,3,1,96,9
8,3,17,1,0,0,3,1,96,11
9,4,12,1,2,0,3,1,56,11
9,4,13,1,1,0,3,1,103,11
9,4,20,1,3,0,3,1,87,11
9,4,15,1,6,1,3,1,87,11
9,4,3,0,4,0,3,1,96,11
10,4,17,1,1,0,4,1,96,11
10,4,17,1,1,0,4,1,96,11
10,4,0,0,3,0,4,1,120,11
10,4,14,1,5,1,4,1,87,11
11,4,14,1,0,0,4,1,96,11
11,4,18,1,0,0,4,1,39,9
11,4,6,0,5,1,4,1,19,11
11,4,12,1,2,0,4,1,96,11
11,4,7,1,3,0,4,1,39,11
11,4,16,1,4,0,4,1,73,9
11,4,5,0,6,1,4,1,104,11
11,4,18,1,6,1,4,1,120,11
11,4,18,1,0,0,4,1,96,11
11,4,12,1,1,0,4,1,104,11
12,1,15,1,3,0,4,1,120,11
12,1,3,0,4,0,4,1,73,11
12,1,22,0,1,0,4,1,120,11
12,1,1,0,3,0,4,1,120,11
12,1,14,1,3,0,4,1,120,11
1,1,20,1,4,0,1,1,85,11
2,1,19,1,0,0,1,1,120,11
2,1,9,1,3,0,1,1,96,11
3,2,12,1,0,0,1,1,96,11
3,2,20,1,5,1,1,1,19,11
3,2,10,1,6,1,1,1,85,11
3,2,18,1,4,0,1,1,96,11
4,2,21,0,3,0,2,1,96,11
4,2,2,0,4,0,2,1,12,11
4,2,8,1,5,1,2,1,96,11
4,2,8,1,6,1,2,1,73,11
4,2,16,1,1,0,2,1,13,9
4,2,13,1,4,0,2,1,96,11
4,2,9,1,0,0,2,1,96,11
5,2,12,1,5,1,2,1,96,11
5,2,14,1,1,0,2,1,96,11
5,2,14,1,4,0,2,1,13,11
5,2,15,1,5,1,2,1,96,11
5,2,16,1,5,1,2,1,96,11
5,2,19,1,5,1,2,1,96,11
5,2,22,0,1,0,2,1,96,11
5,2,21,0,6,1,2,1,96,11
5,2,11,1,3,0,2,1,96,11
5,2,13,1,4,0,2,1,96,11
5,2,5,0,6,1,2,1,96,11
6,3,12,1,2,0,2,1,96,11
6,3,16,1,2,0,2,1,104,11
6,3,17,1,5,1,2,1,96,11
6,3,13,1,0,0,2,1,96,11
6,3,20,1,6,1,2,1,96,11
6,3,14,1,6,1,2,1,96,11
8,3,18,1,6,1,3,1,19,11
8,3,23,0,5,1,3,1,96,11
8,3,23,0,6,1,3,1,96,11
8,3,14,1,5,1,3,1,96,11
9,4,23,0,4,0,3,1,96,11
9,4,21,0,5,1,3,1,96,11
9,4,19,1,1,0,3,1,92,11
9,4,14,1,2,0,3,1,96,11
9,4,17,1,2,0,3,1,19,11
9,4,21,0,4,0,3,1,96,11
9,4,18,1,6,1,3,1,96,11
9,4,23,0,2,0,3,1,96,11
9,4,18,1,5,1,3,1,96,11
10,4,15,1,2,0,4,1,96,11
10,4,19,1,2,0,4,1,19,11
11,4,22,0,2,0,4,1,85,11
11,4,7,1,1,0,4,1,103,11
11,4,17,1,4,0,4,1,96,11
11,4,17,1,2,0,4,1,19,11
1,1,21,0,4,0,1,15,120,11
1,1,2,0,6,1,1,15,13,11
1,1,20,1,6,1,1,15,19,11
1,1,19,1,2,0,1,15,120,11
1,1,19,1,3,0,1,15,73,11
1,1,1,0,3,0,1,15,120,11
1,1,20,1,5,1,1,15,120,11
2,1,14,1,5,1,1,15,39,11
2,1,20,1,2,0,1,15,120,11
3,2,20,1,3,0,1,15,87,11
3,2,15,1,6,1,1,15,96,11
3,2,15,1,3,0,1,15,120,11
3,2,17,1,3,0,1,15,96,11
3,2,0,0,6,1,1,15,120,11
3,2,21,0,2,0,1,15,73,11
4,2,19,1,4,0,2,15,66,11
4,2,20,1,0,0,2,15,120,11
4,2,13,1,1,0,2,15,87,11
4,2,12,1,5,1,2,15,104,11
4,2,16,1,2,0,2,15,96,11
4,2,14,1,4,0,2,15,87,11
5,2,11,1,5,1,2,15,87,9
5,2,1,0,6,1,2,15,92,11
5,2,11,1,6,1,2,15,19,11
5,2,13,1,6,1,2,15,74,11
5,2,12,1,0,0,2,15,87,11
5,2,13,1,3,0,2,15,64,11
5,2,14,1,1,0,2,15,73,9
6,3,21,0,1,0,2,15,3,11
6,3,8,1,4,0,2,15,87,11
6,3,0,0,5,1,2,15,101,11
6,3,18,1,5,1,2,15,87,11
7,3,22,0,0,0,3,15,19,11
7,3,11,1,3,0,3,15,120,11
7,3,3,0,5,1,3,15,13,11
7,3,18,1,5,1,3,15,14,11
7,3,4,0,6,1,3,15,87,11
7,3,9,1,1,0,3,15,120,11
7,3,10,1,2,0,3,15,64,11
8,3,12,1,3,0,3,15,87,11
9,4,17,1,4,0,3,15,19,11
10,4,22,0,6,1,4,15,96,11
10,4,7,1,6,1,4,15,96,11
10,4,7,1,3,0,4,15,104,11
10,4,1,0,5,1,4,15,12,11
10,4,15,1,0,0,4,15,73,11
10,4,9,1,4,0,4,15,96,11
10,4,10,1,2,0,4,15,120,11
10,4,18,1,5,1,4,15,120,11
10,4,22,0,5,1,4,15,120,11
11,4,10,1,4,0,4,15,120,11
11,4,15,1,4,0,4,15,120,11
11,4,0,0,5,1,4,15,87,11
11,4,12,1,6,1,4,15,120,11
11,4,20,1,3,0,4,15,94,11
11,4,18,1,3,0,4,15,87,11
11,4,17,1,3,0,4,15,63,11
11,4,12,1,4,0,4,15,96,11
11,4,11,1,6,1,4,15,73,11
12,1,12,1,0,0,4,15,73,11
12,1,18,1,3,0,4,15,104,11
12,1,22,0,4,0,4,15,120,11
12,1,13,1,0,0,4,15,39,11
12,1,19,1,0,0,4,15,39,11
12,1,19,1,1,0,4,15,120,11
12,1,18,1,4,0,4,15,120,11
12,1,11,1,0,0,4,15,120,11
12,1,21,0,2,0,4,15,73,11
12,1,21,0,2,0,4,15,73,11
1,1,12,1,0,0,1,15,104,11
1,1,17,1,2,0,1,15,104,11
2,1,13,1,0,0,1,15,19,11
2,1,13,1,0,0,1,15,71,11
3,2,17,1,5,1,1,15,120,11
4,2,1,0,0,0,2,15,104,11
4,2,14,1,0,0,2,15,96,11
5,2,14,1,0,0,2,15,73,8
6,3,20,1,5,1,2,15,87,11
7,3,13,1,6,1,3,15,87,11
8,3,18,1,5,1,3,15,12,11
8,3,22,0,4,0,3,15,73,11
8,3,23,0,3,0,3,15,19,11
8,3,12,1,4,0,3,15,19,11
9,4,23,0,2,0,3,15,96,11
9,4,17,1,5,1,3,15,77,11
11,4,13,1,2,0,4,15,35,11
1,1,6,0,5,1,1,15,120,11
1,1,17,1,0,0,1,15,120,11
2,1,22,0,5,1,1,15,120,11
2,1,19,1,2,0,1,15,96,11
2,1,15,1,2,0,1,15,96,11
3,2,16,1,5,1,1,15,120,11
3,2,11,1,1,0,1,15,73,9
4,2,10,1,5,1,2,15,87,11
4,2,18,1,5,1,2,15,39,11
5,2,21,0,5,1,2,15,19,11
5,2,20,1,2,0,2,15,73,9
5,2,22,0,6,1,2,15,87,11
7,3,21,0,2,0,3,15,96,11
8,3,20,1,0,0,3,15,39,11
8,3,4,0,4,0,3,15,73,11
10,4,23,0,4,0,4,15,19,11
11,4,19,1,2,0,4,15,120,11
12,1,8,1,3,0,4,15,73,11
12,1,10,1,1,0,4,15,73,11
12,1,11,1,3,0,4,15,120,11
12,1,19,1,1,0,4,15,19,11
1,1,0,0,0,0,1,15,120,11
1,1,4,0,0,0,1,15,39,8
1,1,12,1,1,0,1,15,64,11
1,1,19,1,5,1,1,15,39,8
2,1,12,1,1,0,1,15,39,11
2,1,21,0,2,0,1,15,73,11
2,1,15,1,5,1,1,15,73,11
3,2,19,1,4,0,1,15,73,11
4,2,12,1,6,1,2,15,87,11
4,2,23,0,6,1,2,15,73,11
4,2,8,1,1,0,2,15,19,11
4,2,21,0,3,0,2,15,73,11
4,2,11,1,4,0,2,15,39,11
5,2,10,1,6,1,2,15,19,11
5,2,18,1,4,0,2,15,87,11
5,2,3,0,0,0,2,15,56,11
5,2,4,0,6,1,2,15,19,8
6,3,4,0,1,0,2,15,120,11
6,3,17,1,1,0,2,15,85,11
6,3,15,1,6,1,2,15,64,11
6,3,16,1,5,1,2,15,87,11
6,3,6,0,3,0,2,15,85,11
6,3,19,1,5,1,2,15,22,11
6,3,17,1,1,0,2,15,13,11
7,3,12,1,3,0,3,15,87,11
7,3,17,1,3,0,3,15,87,11
7,3,18,1,2,0,3,15,87,11
7,3,8,1,3,0,3,15,71,8
8,3,16,1,0,0,3,15,87,11
8,3,14,1,2,0,3,15,73,11
8,3,16,1,3,0,3,15,87,11
9,4,1,0,6,1,3,15,87,11
9,4,10,1,3,0,3,15,96,11
10,4,10,1,4,0,4,15,87,11
10,4,11,1,5,1,4,15,47,11
10,4,16,1,4,0,4,15,64,11
10,4,18,1,5,1,4,15,73,11
10,4,12,1,5,1,4,15,73,11
11,4,7,1,0,0,4,15,71,11
11,4,16,1,4,0,4,15,22,8
11,4,20,1,1,0,4,15,64,11
12,1,15,1,4,0,4,15,104,11
12,1,23,0,0,0,4,15,73,8
12,1,16,1,3,0,4,15,73,11
12,1,17,1,4,0,4,15,19,11
1,1,14,1,2,0,1,6,73,11
1,1,17,1,5,1,1,15,39,11
1,1,20,1,4,0,1,15,111,8
2,1,6,0,1,0,1,15,3,11
2,1,12,1,4,0,1,15,73,11
2,1,15,1,3,0,1,15,87,11
2,1,19,1,3,0,1,15,73,9
2,1,8,1,6,1,1,6,19,8
3,2,2,0,1,0,1,15,120,11
3,2,16,1,3,0,1,15,63,11
3,2,0,0,5,1,1,15,120,11
3,2,17,1,1,0,1,15,13,11
3,2,20,1,1,0,1,15,71,11
4,2,20,1,6,1,2,15,73,11
4,2,22,0,3,0,2,15,13,11
5,2,10,1,4,0,2,15,13,11
5,2,17,1,1,0,2,15,51,11
5,2,19,1,0,0,2,15,73,11
6,3,10,1,0,0,2,15,73,11
6,3,18,1,0,0,2,6,39,11
6,3,4,0,0,0,2,15,12,8
6,3,20,1,3,0,2,15,98,11
6,3,20,1,1,0,2,6,120,11
7,3,16,1,3,0,3,15,96,11
7,3,14,1,5,1,3,15,39,11
8,3,9,1,2,0,3,15,73,11
8,3,12,1,5,1,3,15,71,11
8,3,16,1,2,0,3,15,12,8
8,3,9,1,1,0,3,15,39,11
8,3,10,1,3,0,3,15,19,11
8,3,14,1,5,1,3,15,102,11
8,3,13,1,6,1,3,15,104,11
9,4,2,0,5,1,3,15,19,11
9,4,14,1,3,0,3,15,14,11
9,4,21,0,0,0,3,15,68,11
10,4,0,0,3,0,4,15,104,11
10,4,0,0,3,0,4,15,104,11
11,4,11,1,2,0,4,15,98,11
12,1,1,0,3,0,4,15,111,9
1,1,17,1,5,1,1,3,64,11
1,1,21,0,4,0,1,3,73,11
1,1,19,1,5,1,1,3,64,11
1,1,11,1,1,0,1,3,96,11
1,1,15,1,2,0,1,3,92,11
2,1,10,1,1,0,1,3,96,11
2,1,21,0,3,0,1,3,96,11
2,1,18,1,0,0,1,3,73,11
2,1,19,1,1,0,1,3,73,11
2,1,15,1,3,0,1,3,73,11
2,1,11,1,5,1,1,3,73,11
2,1,17,1,6,1,1,3,73,11
2,1,17,1,0,0,1,3,87,11
2,1,18,1,5,1,1,3,87,11
3,2,15,1,5,1,1,3,96,11
3,2,21,0,6,1,1,3,73,11
3,2,15,1,6,1,1,3,13,8
3,2,12,1,3,0,1,3,114,11
3,2,19,1,4,0,1,3,64,11
3,2,16,1,4,0,1,3,96,11
3,2,22,0,2,0,1,3,73,11
3,2,19,1,3,0,1,3,64,11
3,2,21,0,2,0,1,3,64,11
4,2,18,1,5,1,2,3,96,11
4,2,15,1,1,0,2,3,96,11
4,2,20,1,3,0,2,3,87,11
4,2,15,1,4,0,2,3,87,11
4,2,17,1,4,0,2,3,45,11
4,2,14,1,0,0,2,3,87,11
4,2,11,1,4,0,2,3,87,11
4,2,22,0,6,1,2,3,27,11
5,2,14,1,5,1,2,3,87,11
5,2,3,0,0,0,2,3,93,11
5,2,13,1,4,0,2,3,73,11
5,2,22,0,5,1,2,3,87,11
5,2,15,1,6,1,2,3,87,11
5,2,17,1,6,1,2,3,96,11
5,2,13,1,5,1,2,3,87,11
5,2,19,1,1,0,2,3,96,11
5,2,14,1,4,0,2,3,87,11
5,2,10,1,3,0,2,3,96,11
6,3,13,1,2,0,2,3,87,11
6,3,14,1,2,0,2,3,19,8
6,3,16,1,3,0,2,3,87,11
6,3,11,1,4,0,2,3,19,11
6,3,16,1,5,1,2,3,85,11
6,3,10,1,6,1,2,3,73,11
6,3,18,1,6,1,2,3,85,11
6,3,17,1,1,0,2,3,96,11
7,3,14,1,4,0,3,3,19,11
7,3,11,1,0,0,3,3,64,11
7,3,13,1,1,0,3,3,87,11
7,3,21,0,2,0,3,3,96,11
7,3,21,0,4,0,3,3,19,11
7,3,10,1,5,1,3,3,85,11
7,3,5,0,2,0,3,3,96,11
7,3,5,0,2,0,3,3,85,11
8,3,14,1,1,0,3,3,87,11
8,3,14,1,1,0,3,3,96,11
8,3,10,1,2,0,3,3,19,11
8,3,10,1,2,0,3,3,94,11
8,3,5,0,2,0,3,3,73,11
8,3,19,1,5,1,3,3,87,11
8,3,21,0,0,0,3,3,96,11
8,3,23,0,2,0,3,3,87,11
8,3,13,1,2,0,3,3,87,11
8,3,20,1,5,1,3,3,87,11
8,3,18,1,2,0,3,3,87,11
8,3,13,1,3,0,3,3,87,11
8,3,17,1,5,1,3,3,87,11
8,3,12,1,0,0,3,3,39,11
8,3,18,1,0,0,3,3,12,11
9,4,16,1,5,1,3,3,19,11
9,4,13,1,6,1,3,3,64,11
9,4,10,1,6,1,3,3,73,11
9,4,9,1,3,0,3,3,85,11
9,4,17,1,4,0,3,3,87,11
9,4,22,0,0,0,3,3,96,11
9,4,20,1,6,1,3,3,92,11
10,4,19,1,3,0,4,3,96,11
10,4,15,1,5,1,4,3,64,11
10,4,8,1,2,0,4,3,12,8
10,4,19,1,5,1,4,3,3,11
10,4,18,1,6,1,4,3,96,11
10,4,19,1,6,1,4,3,85,11
10,4,22,0,4,0,4,3,96,11
11,4,13,1,1,0,4,3,89,11
11,4,16,1,1,0,4,3,87,11
11,4,10,1,4,0,4,3,39,11
11,4,18,1,0,0,4,3,76,11
11,4,17,1,1,0,4,3,96,11
11,4,15,1,5,1,4,3,96,11
11,4,18,1,5,1,4,3,73,11
11,4,14,1,0,0,4,3,56,11
11,4,8,1,0,0,4,3,56,11
11,4,20,1,0,0,4,3,80,11
11,4,19,1,2,0,4,3,96,11
11,4,14,1,3,0,4,3,87,11
11,4,18,1,0,0,4,3,87,11
11,4,8,1,4,0,4,3,87,11
11,4,19,1,6,1,4,3,64,11
12,1,23,0,2,0,4,3,96,11
12,1,21,0,3,0,4,3,96,11
12,1,13,1,6,1,4,3,87,11
12,1,18,1,2,0,4,3,64,11
12,1,11,1,1,0,4,3,96,11
12,1,8,1,4,0,4,3,19,11
12,1,11,1,5,1,4,3,39,11
12,1,11,1,5,1,4,3,96,11
12,1,12,1,0,0,4,3,104,11
1,1,15,1,0,0,1,3,94,11
3,2,22,0,2,0,1,3,96,11
3,2,11,1,4,0,1,3,87,8
3,2,19,1,0,0,1,3,66,11
3,2,2,0,4,0,1,3,104,11
3,2,19,1,1,0,1,3,87,11
4,2,0,0,6,1,2,3,12,11
6,3,10,1,1,0,2,3,19,11
7,3,1,0,4,0,3,3,19,11
9,4,9,1,5,1,3,3,25,11
9,4,20,1,6,1,3,3,104,11
12,1,2,0,2,0,4,3,120,9
1,1,18,1,4,0,1,3,73,11
2,1,11,1,5,1,1,3,96,11
3,2,16,1,4,0,1,3,73,11
6,3,16,1,3,0,2,3,96,11
10,4,13,1,6,1,4,3,96,11
10,4,20,1,5,1,4,3,73,11
10,4,9,1,3,0,4,3,104,11
10,4,11,1,1,0,4,3,27,11
10,4,17,1,5,1,4,3,13,11
10,4,21,0,3,0,4,3,96,11
10,4,18,1,5,1,4,3,19,11
1,1,15,1,5,1,1,3,73,11
1,1,16,1,6,1,1,3,64,11
2,1,14,1,4,0,1,3,1,11
2,1,17,1,1,0,1,3,73,11
2,1,21,0,2,0,1,3,39,11
3,2,20,1,1,0,1,3,73,11
3,2,16,1,3,0,1,3,73,11
4,2,19,1,6,1,2,3,96,11
4,2,14,1,0,0,2,3,64,11
5,2,15,1,0,0,2,3,87,11
6,3,10,1,3,0,2,3,19,11
7,3,16,1,4,0,3,3,87,11
7,3,14,1,5,1,3,3,87,11
8,3,15,1,5,1,3,3,19,11
9,4,15,1,5,1,3,3,87,11
9,4,13,1,4,0,3,3,87,11
9,4,12,1,6,1,3,3,117,11
10,4,15,1,3,0,4,3,19,11
10,4,20,1,6,1,4,3,96,11
1,1,7,1,6,1,1,36,13,11
1,1,21,0,2,0,1,36,64,11
1,1,11,1,4,0,1,36,73,11
1,1,14,1,5,1,1,36,64,11
1,1,17,1,4,0,1,36,120,11
1,1,16,1,6,1,1,36,120,11
1,1,22,0,1,0,1,36,120,11
1,1,13,1,2,0,1,36,19,11
1,1,13,1,2,0,1,36,71,11
1,1,21,0,0,0,1,36,96,11
1,1,14,1,1,0,1,36,96,11
1,1,21,0,2,0,1,36,85,11
1,1,21,0,4,0,1,36,96,11
1,1,14,1,4,0,1,36,110,11
2,1,12,1,0,0,1,36,19,11
2,1,22,0,0,0,1,36,71,11
2,1,11,1,1,0,1,36,19,11
2,1,20,1,5,1,1,36,118,11
2,1,1,0,5,1,1,36,85,11
2,1,13,1,6,1,1,36,73,11
2,1,11,1,6,1,1,36,85,11
2,1,20,1,6,1,1,36,85,11
2,1,14,1,4,0,1,36,120,11
2,1,23,0,4,0,1,36,87,11
2,1,11,1,5,1,1,36,73,11
2,1,11,1,1,0,1,36,85,11
2,1,12,1,1,0,1,36,64,11
2,1,19,1,1,0,1,36,92,11
2,1,20,1,1,0,1,36,92,11
2,1,21,0,3,0,1,36,12,11
2,1,15,1,4,0,1,36,85,11
2,1,22,0,3,0,1,36,39,11
2,1,16,1,6,1,1,36,85,11
3,2,12,1,0,0,1,36,39,11
3,2,19,1,4,0,1,36,73,11
3,2,18,1,5,1,1,36,39,11
3,2,12,1,1,0,1,36,64,11
3,2,10,1,2,0,1,36,64,11
3,2,20,1,2,0,1,36,64,11
3,2,19,1,2,0,1,36,64,11
3,2,11,1,3,0,1,36,120,11
3,2,16,1,4,0,1,36,64,11
3,2,8,1,5,1,1,36,100,11
3,2,5,0,6,1,1,36,120,11
3,2,15,1,0,0,1,36,39,8
3,2,6,0,3,0,1,36,120,11
3,2,9,1,4,0,1,36,96,11
3,2,17,1,5,1,1,36,120,11
3,2,21,0,1,0,1,36,120,11
3,2,15,1,1,0,1,36,64,11
3,2,18,1,2,0,1,36,120,11
3,2,12,1,2,0,1,36,19,11
3,2,19,1,3,0,1,36,13,11
3,2,15,1,3,0,1,36,109,11
3,2,17,1,6,1,1,36,120,11
3,2,18,1,0,0,1,36,87,11
3,2,19,1,2,0,1,36,39,11
4,2,15,1,4,0,2,36,96,11
4,2,10,1,0,0,2,36,19,11
4,2,20,1,4,0,2,36,39,11
4,2,3,0,4,0,2,36,64,11
4,2,22,0,1,0,2,36,92,11
4,2,11,1,1,0,2,36,92,11
4,2,17,1,2,0,2,36,73,11
4,2,18,1,2,0,2,36,19,11
4,2,11,1,4,0,2,36,87,11
4,2,12,1,5,1,2,36,19,11
4,2,12,1,3,0,2,36,87,11
4,2,22,0,3,0,2,36,87,11
4,2,9,1,2,0,2,36,104,11
5,2,23,0,6,1,2,36,92,11
5,2,9,1,6,1,2,36,71,11
5,2,10,1,3,0,2,36,96,11
5,2,5,0,5,1,2,36,71,11
5,2,9,1,1,0,2,36,87,11
5,2,11,1,3,0,2,36,64,11
5,2,17,1,4,0,2,36,85,11
5,2,11,1,6,1,2,36,73,11
5,2,19,1,6,1,2,36,85,11
5,2,2,0,0,0,2,36,92,11
5,2,2,0,4,0,2,36,7,11
5,2,23,0,6,1,2,36,92,11
5,2,4,0,0,0,2,36,92,11
5,2,0,0,0,0,2,36,92,11
5,2,0,0,0,0,2,36,92,11
6,3,2,0,5,1,2,36,13,11
6,3,21,0,4,0,2,36,87,11
6,3,22,0,4,0,2,36,96,11
6,3,0,0,5,1,2,36,71,9
6,3,13,1,2,0,2,36,64,11
6,3,22,0,4,0,2,36,96,11
6,3,17,1,4,0,2,36,87,11
6,3,4,0,5,1,2,36,87,11
6,3,21,0,0,0,2,36,96,11
6,3,22,0,2,0,2,36,96,11
6,3,11,1,6,1,2,36,71,11
6,3,22,0,0,0,2,36,96,11
7,3,4,0,3,0,3,36,71,11
7,3,2,0,5,1,3,36,96,11
7,3,11,1,6,1,3,36,26,11
7,3,18,1,3,0,3,36,87,11
7,3,16,1,5,1,3,36,87,11
7,3,9,1,2,0,3,36,87,11
7,3,9,1,3,0,3,36,39,11
7,3,17,1,5,1,3,36,87,11
7,3,18,1,1,0,3,36,96,11
7,3,20,1,3,0,3,36,64,11
8,3,13,1,5,1,3,36,96,11
8,3,17,1,1,0,3,36,87,11
8,3,20,1,1,0,3,36,45,11
8,3,11,1,3,0,3,36,71,11
8,3,3,0,3,0,3,36,57,11
9,4,0,0,2,0,3,36,96,11
9,4,15,1,2,0,3,36,96,11
9,4,13,1,5,1,3,36,29,11
9,4,13,1,6,1,3,36,96,11
9,4,1,0,1,0,3,36,71,11
9,4,14,1,4,0,3,36,13,9
9,4,14,1,6,1,3,36,87,11
9,4,16,1,0,0,3,36,96,11
9,4,21,0,1,0,3,36,96,11
9,4,22,0,2,0,3,36,87,11
9,4,12,1,2,0,3,36,39,11
9,4,13,1,3,0,3,36,96,11
9,4,21,0,5,1,3,36,39,11
9,4,8,1,0,0,3,36,73,11
10,4,15,1,5,1,4,36,64,11
10,4,12,1,4,0,4,36,96,11
10,4,14,1,5,1,4,36,71,11
10,4,20,1,1,0,4,36,47,11
10,4,11,1,2,0,4,36,87,11
10,4,23,0,2,0,4,36,96,11
10,4,23,0,5,1,4,36,96,11
10,4,22,0,0,0,4,36,96,11
10,4,2,0,4,0,4,36,71,9
11,4,22,0,5,1,4,36,73,9
11,4,1,0,1,0,4,36,47,11
11,4,17,1,1,0,4,36,64,11
11,4,22,0,0,0,4,36,73,9
11,4,10,1,6,1,4,36,96,11
11,4,20,1,0,0,4,36,73,11
11,4,9,1,3,0,4,36,71,11
11,4,8,1,5,1,4,36,73,11
11,4,21,0,5,1,4,36,39,11
11,4,12,1,0,0,4,36,96,11
12,1,21,0,0,0,4,36,96,11
12,1,16,1,2,0,4,36,73,11
12,1,16,1,6,1,4,36,96,11
12,1,20,1,1,0,4,36,64,11
12,1,15,1,1,0,4,36,92,11
12,1,9,1,4,0,4,36,92,11
12,1,9,1,3,0,4,36,92,11
12,1,19,1,3,0,4,36,73,11
12,1,11,1,3,0,4,36,92,11
1,1,17,1,4,0,1,36,73,11
2,1,11,1,0,0,1,36,73,11
2,1,17,1,0,0,1,36,96,11
2,1,22,0,3,0,1,36,87,11
3,2,15,1,6,1,1,36,104,11
4,2,10,1,4,0,2,36,64,11
4,2,21,0,4,0,2,36,39,11
4,2,20,1,5,1,2,36,39,11
6,3,19,1,6,1,2,36,71,11
10,4,20,1,6,1,4,36,120,11
11,4,18,1,5,1,4,36,73,11
11,4,18,1,6,1,4,36,87,11
12,1,6,0,2,0,4,36,92,11
12,1,20,1,2,0,4,36,19,11
2,1,14,1,0,0,1,36,77,8
4,2,7,1,4,0,2,36,87,11
1,1,21,0,5,1,1,36,85,8
1,1,22,0,6,1,1,36,120,11
1,1,13,1,1,0,1,36,73,11
1,1,15,1,3,0,1,36,87,11
1,1,13,1,6,1,1,36,120,11
2,1,19,1,5,1,1,36,120,11
2,1,13,1,2,0,1,36,87,11
2,1,22,0,3,0,1,36,120,11
3,2,0,0,2,0,1,36,63,11
3,2,15,1,3,0,1,36,96,11
3,2,23,0,0,0,1,36,104,11
4,2,18,1,4,0,2,36,73,11
4,2,12,1,6,1,2,36,104,11
5,2,13,1,6,1,2,36,73,11
5,2,2,0,6,1,2,36,87,11
6,3,8,1,2,0,2,36,19,11
6,3,3,0,2,0,2,36,19,11
6,3,0,0,3,0,2,36,19,11
7,3,15,1,5,1,3,36,85,11
8,3,12,1,0,0,3,36,96,11
8,3,16,1,3,0,3,36,87,11
8,3,2,0,1,0,3,36,104,11
8,3,9,1,3,0,3,36,104,11
8,3,6,0,3,0,3,36,104,11
9,4,21,0,5,1,3,36,85,11
9,4,10,1,6,1,3,36,87,11
10,4,22,0,6,1,4,36,120,11
10,4,15,1,6,1,4,36,85,11
10,4,8,1,5,1,4,36,39,11
11,4,3,0,6,1,4,36,87,11
11,4,10,1,3,0,4,36,73,11
11,4,12,1,6,1,4,36,77,11
11,4,18,1,0,0,4,36,39,11
12,1,18,1,3,0,4,36,39,11
12,1,17,1,4,0,4,36,85,11
12,1,8,1,5,1,4,36,85,11
2,1,14,1,0,0,1,36,120,11
3,2,18,1,2,0,1,36,39,11
3,2,11,1,6,1,1,36,73,11
4,2,8,1,6,1,2,36,12,11
5,2,13,1,5,1,2,36,120,11
6,3,20,1,3,0,2,36,104,11
7,3,15,1,4,0,3,36,87,11
10,4,15,1,5,1,4,36,3,11
10,4,21,0,6,1,4,36,104,11
10,4,9,1,0,0,4,36,120,11
11,4,14,1,6,1,4,36,92,11
11,4,18,1,6,1,4,36,73,11
11,4,19,1,1,0,4,36,73,11
11,4,9,1,0,0,4,36,87,11
12,1,13,1,4,0,4,36,81,9
12,1,9,1,6,1,4,36,120,11
1,1,18,1,1,0,1,36,73,11
1,1,18,1,1,0,1,36,87,11
2,1,17,1,5,1,1,36,25,11
3,2,21,0,4,0,1,36,49,9
3,2,5,0,0,0,1,36,73,11
4,2,8,1,6,1,2,36,104,11
5,2,9,1,0,0,2,36,42,11
6,3,11,1,3,0,2,36,87,11
6,3,1,0,0,0,2,36,104,11
6,3,19,1,2,0,2,36,56,11
7,3,1,0,5,1,3,36,104,11
7,3,18,1,5,1,3,36,104,11
7,3,9,1,1,0,3,36,73,11
8,3,3,0,1,0,3,36,104,11
9,4,19,1,1,0,3,36,8,11
9,4,11,1,4,0,3,36,87,11
10,4,20,1,4,0,4,36,85,11
10,4,21,0,0,0,4,36,96,11
10,4,11,1,1,0,4,36,64,11
12,1,5,0,0,0,4,36,85,11
1,1,19,1,6,1,1,30,85,11
1,1,6,0,2,0,1,30,13,11
1,1,13,1,3,0,1,30,85,11
2,1,14,1,5,1,1,30,39,8
2,1,23,0,2,0,1,30,85,11
2,1,14,1,4,0,1,30,96,11
3,2,18,1,4,0,1,30,73,11
5,2,9,1,4,0,2,30,73,11
7,3,5,0,1,0,3,30,22,8
7,3,15,1,3,0,3,30,85,11
7,3,13,1,2,0,3,30,22,11
7,3,21,0,3,0,3,30,73,11
7,3,11,1,5,1,3,30,19,11
8,3,12,1,1,0,3,30,7,11
8,3,12,1,4,0,3,30,87,11
9,4,17,1,3,0,3,30,22,11
9,4,12,1,4,0,3,30,63,11
9,4,22,0,3,0,3,30,85,11
10,4,15,1,1,0,4,30,85,11
10,4,12,1,4,0,4,30,56,11
10,4,0,0,5,1,4,30,45,11
11,4,3,0,6,1,4,30,85,11
12,1,16,1,1,0,4,30,85,11
12,1,11,1,4,0,4,30,73,11
2,1,20,1,2,0,1,30,39,11
2,1,19,1,3,0,1,30,87,11
3,2,15,1,2,0,1,30,87,11
3,2,9,1,5,1,1,30,27,11
3,2,18,1,5,1,1,30,73,9
5,2,14,1,5,1,2,30,104,11
5,2,9,1,2,0,2,30,87,11
6,3,12,1,5,1,2,30,96,11
6,3,14,1,1,0,2,30,87,11
7,3,10,1,1,0,3,30,3,11
9,4,17,1,4,0,3,30,87,11
10,4,14,1,6,1,4,30,7,11
11,4,21,0,0,0,4,30,87,11
12,1,14,1,2,0,4,30,120,11
1,1,13,1,0,0,1,5,87,11
2,1,14,1,4,0,1,5,19,11
4,2,9,1,5,1,2,5,104,11
7,3,13,1,6,1,3,5,87,11
7,3,13,1,2,0,3,5,96,11
1,1,20,1,3,0,1,30,73,9
3,2,20,1,0,0,1,30,3,11
3,2,15,1,1,0,1,30,1,11
4,2,20,1,0,0,2,30,12,11
4,2,16,1,2,0,2,30,71,11
4,2,21,0,3,0,2,30,104,11
5,2,19,1,4,0,2,30,87,11
7,3,10,1,2,0,3,30,73,11
10,4,14,1,5,1,4,30,13,11
7,3,18,1,5,1,3,30,104,11
1,1,13,1,4,0,1,30,19,11
1,1,2,0,6,1,1,30,120,11
3,2,17,1,1,0,1,30,39,11
3,2,19,1,5,1,1,30,73,11
3,2,12,1,2,0,1,30,85,11
4,2,16,1,3,0,2,30,96,11
4,2,6,0,5,1,2,30,19,11
4,2,12,1,2,0,2,30,87,11
4,2,13,1,5,1,2,30,73,11
5,2,16,1,4,0,2,30,19,11
5,2,20,1,5,1,2,30,87,11
5,2,21,0,0,0,2,30,62,11
7,3,8,1,5,1,3,30,104,11
8,3,7,1,2,0,3,30,19,11
8,3,16,1,4,0,3,30,85,11
8,3,9,1,5,1,3,30,102,11
8,3,10,1,1,0,3,30,19,11
8,3,21,0,0,0,3,30,85,11
10,4,19,1,2,0,4,30,1,11
10,4,23,0,3,0,4,30,19,11
11,4,22,0,1,0,4,30,87,11
11,4,23,0,5,1,4,30,85,11
3,2,7,1,1,0,1,30,104,11
3,2,10,1,2,0,1,30,19,11
4,2,8,1,3,0,2,30,75,11
4,2,23,0,0,0,2,30,19,11
8,3,9,1,2,0,3,30,19,11
8,3,7,1,3,0,3,30,112,11
10,4,11,1,5,1,4,30,78,11
10,4,20,1,3,0,4,30,101,11
4,2,12,1,0,0,2,30,1,11
5,2,23,0,5,1,2,30,104,11
5,2,12,1,6,1,2,30,87,11
7,3,13,1,0,0,3,30,87,11
7,3,15,1,2,0,3,30,73,8
8,3,14,1,1,0,3,30,96,11
8,3,2,0,1,0,3,30,19,11
8,3,0,0,4,0,3,30,104,11
9,4,0,0,4,0,3,30,104,11
10,4,14,1,3,0,4,30,73,11
1,1,18,1,0,0,1,2,64,9
1,1,14,1,0,0,1,2,87,11
1,1,11,1,2,0,1,2,73,8
1,1,17,1,6,1,1,2,73,11
2,1,20,1,1,0,1,2,73,11
2,1,19,1,5,1,1,2,39,11
2,1,21,0,3,0,1,2,73,11
3,2,19,1,2,0,1,2,73,11
3,2,1,0,4,0,1,2,85,11
3,2,9,1,0,0,1,2,73,11
3,2,14,1,5,1,1,2,74,11
3,2,18,1,0,0,1,2,81,11
3,2,6,0,1,0,1,2,73,11
4,2,9,1,1,0,2,2,73,11
4,2,12,1,2,0,2,2,22,8
5,2,11,1,6,1,2,2,85,11
5,2,13,1,4,0,2,2,39,11
5,2,11,1,3,0,2,2,73,11
6,3,17,1,2,0,2,2,96,11
6,3,0,0,4,0,2,2,104,11
6,3,17,1,0,0,2,2,21,11
6,3,12,1,4,0,2,2,47,11
7,3,18,1,0,0,3,2,19,11
7,3,16,1,1,0,3,2,96,11
7,3,16,1,3,0,3,2,96,11
7,3,8,1,2,0,3,2,71,11
7,3,6,0,4,0,3,2,87,11
9,4,19,1,6,1,3,2,104,11
9,4,14,1,6,1,3,2,96,11
9,4,13,1,1,0,3,2,19,11
9,4,23,0,3,0,3,2,104,11
9,4,5,0,4,0,3,2,51,8
10,4,11,1,6,1,4,2,96,11
10,4,2,0,3,0,4,2,96,11
10,4,12,1,3,0,4,2,19,11
10,4,17,1,4,0,4,2,104,11
10,4,14,1,4,0,4,2,104,11
10,4,19,1,6,1,4,2,104,11
10,4,12,1,1,0,4,2,98,11
10,4,17,1,1,0,4,2,47,11
11,4,1,0,3,0,4,2,120,11
11,4,20,1,5,1,4,2,73,9
11,4,18,1,5,1,4,2,73,11
11,4,19,1,0,0,4,2,39,8
11,4,18,1,3,0,4,2,73,11
11,4,2,0,3,0,4,2,120,11
11,4,16,1,4,0,4,2,120,11
12,1,18,1,2,0,4,2,120,11
12,1,19,1,3,0,4,2,66,11
12,1,23,0,5,1,4,2,104,11
12,1,14,1,5,1,4,2,73,11
12,1,7,1,5,1,4,2,104,11
12,1,14,1,0,0,4,2,73,9
1,1,10,1,1,0,1,2,85,11
1,1,9,1,0,0,1,2,39,11
1,1,20,1,3,0,1,2,96,11
1,1,17,1,5,1,1,2,120,11
1,1,11,1,5,1,1,2,87,11
1,1,10,1,1,0,1,2,73,11
2,1,7,1,5,1,1,2,104,11
2,1,19,1,0,0,1,2,73,9
3,2,1,0,1,0,1,2,73,9
3,2,20,1,1,0,1,2,84,11
3,2,21,0,2,0,1,2,73,11
4,2,17,1,0,0,2,2,96,11
4,2,1,0,4,0,2,2,13,9
4,2,20,1,3,0,2,2,85,11
5,2,9,1,0,0,2,2,73,11
6,3,21,0,6,1,2,2,120,11
7,3,18,1,2,0,3,2,96,11
8,3,0,0,6,1,3,2,19,11
9,4,4,0,6,1,3,2,67,9
10,4,4,0,5,1,4,2,39,11
10,4,15,1,5,1,4,2,96,11
10,4,18,1,6,1,4,2,104,11
11,4,19,1,1,0,4,2,96,11
11,4,20,1,0,0,4,2,96,11
11,4,9,1,4,0,4,2,104,11
11,4,7,1,2,0,4,2,19,9
12,1,1,0,6,1,4,2,85,11
12,1,13,1,2,0,4,2,19,11
12,1,4,0,2,0,4,2,120,11
12,1,7,1,4,0,4,2,73,11
1,1,16,1,2,0,1,5,87,11
1,1,7,1,6,1,1,5,39,9
2,1,1,0,1,0,1,5,73,11
3,2,7,1,4,0,1,5,12,9
4,2,4,0,1,0,2,5,96,11
5,2,0,0,1,0,2,5,87,11
6,3,12,1,2,0,2,5,19,11
7,3,17,1,6,1,3,5,39,11
7,3,21,0,6,1,3,5,96,11
9,4,0,0,1,0,3,5,96,11
10,4,9,1,4,0,4,5,104,11
10,4,10,1,4,0,4,5,104,11
12,1,19,1,5,1,4,5,12,11
12,1,20,1,1,0,4,5,73,9
12,1,14,1,0,0,4,5,96,11
3,2,14,1,3,0,1,5,39,9
8,3,11,1,0,0,3,5,39,11
2,1,16,1,2,0,1,5,85,11
1,1,17,1,4,0,1,2,85,11
1,1,11,1,3,0,1,2,85,11
1,1,10,1,3,0,1,2,73,11
1,1,21,0,3,0,1,2,85,11
1,1,11,1,2,0,1,2,85,11
1,1,15,1,5,1,1,2,13,11
2,1,17,1,0,0,1,2,85,11
2,1,0,0,1,0,1,2,85,11
2,1,17,1,1,0,1,2,87,11
2,1,21,0,1,0,1,2,85,11
2,1,22,0,1,0,1,2,19,11
2,1,10,1,2,0,1,2,85,11
2,1,11,1,3,0,1,2,85,11
2,1,17,1,0,0,1,2,96,11
2,1,19,1,2,0,1,2,19,11
2,1,21,0,5,1,1,2,96,11
3,2,22,0,5,1,1,2,73,8
3,2,21,0,0,0,1,2,23,8
3,2,17,1,3,0,1,2,13,11
3,2,14,1,1,0,1,2,87,11
3,2,15,1,1,0,1,2,87,11
4,2,12,1,3,0,2,2,96,11
4,2,21,0,6,1,2,2,87,11
4,2,12,1,3,0,2,2,87,11
4,2,9,1,1,0,2,2,87,11
4,2,16,1,4,0,2,2,96,11
5,2,22,0,0,0,2,2,87,11
5,2,20,1,1,0,2,2,64,11
5,2,0,0,2,0,2,2,120,11
5,2,17,1,2,0,2,2,87,11
5,2,13,1,1,0,2,2,71,11
5,2,8,1,2,0,2,2,87,11
5,2,11,1,3,0,2,2,104,11
5,2,10,1,1,0,2,2,87,11
6,3,12,1,1,0,2,2,87,11
6,3,13,1,1,0,2,2,87,11
6,3,19,1,1,0,2,2,87,11
6,3,13,1,2,0,2,2,87,11
6,3,9,1,3,0,2,2,96,11
6,3,18,1,4,0,2,2,87,11
6,3,16,1,1,0,2,2,96,11
6,3,19,1,1,0,2,2,87,11
6,3,15,1,2,0,2,2,104,11
6,3,18,1,4,0,2,2,87,11
6,3,1,0,1,0,2,2,87,11
6,3,17,1,3,0,2,2,87,11
6,3,12,1,0,0,2,2,96,11
6,3,18,1,2,0,2,2,119,11
7,3,14,1,5,1,3,2,87,11
7,3,18,1,0,0,3,2,12,11
7,3,19,1,3,0,3,2,104,11
7,3,13,1,0,0,3,2,19,11
7,3,7,1,3,0,3,2,96,11
7,3,20,1,0,0,3,2,87,11
7,3,5,0,1,0,3,2,120,11
7,3,21,0,5,1,3,2,96,11
8,3,10,1,5,1,3,2,13,11
8,3,23,0,2,0,3,2,87,11
8,3,19,1,3,0,3,2,87,11
8,3,16,1,4,0,3,2,120,11
8,3,21,0,3,0,3,2,87,11
9,4,17,1,6,1,3,2,104,11
9,4,19,1,6,1,3,2,104,11
9,4,11,1,1,0,3,2,85,11
9,4,11,1,1,0,3,2,85,11
9,4,14,1,2,0,3,2,45,11
9,4,14,1,4,0,3,2,87,11
9,4,14,1,4,0,3,2,87,11
9,4,20,1,4,0,3,2,96,11
10,4,18,1,6,1,4,2,96,11
10,4,19,1,1,0,4,2,96,11
10,4,5,0,4,0,4,2,104,11
10,4,10,1,4,0,4,2,104,11
10,4,13,1,1,0,4,2,19,11
10,4,23,0,2,0,4,2,73,11
10,4,22,0,5,1,4,2,120,11
10,4,18,1,6,1,4,2,120,11
10,4,23,0,6,1,4,2,120,11
10,4,22,0,1,0,4,2,120,11
10,4,2,0,2,0,4,2,120,11
10,4,21,0,2,0,4,2,85,11
10,4,20,1,3,0,4,2,85,11
12,1,22,0,6,1,4,2,87,11
12,1,22,0,1,0,4,2,120,11
12,1,23,0,5,1,4,2,120,11
12,1,19,1,2,0,4,2,120,11
1,1,23,0,4,0,1,28,73,11
1,1,18,1,5,1,1,28,45,11
1,1,3,0,6,1,1,28,39,9
1,1,14,1,1,0,1,28,64,11
1,1,10,1,2,0,1,28,45,9
1,1,0,0,3,0,1,28,45,9
1,1,21,0,2,0,1,28,120,11
1,1,3,0,4,0,1,28,120,11
2,1,11,1,1,0,1,28,19,11
2,1,1,0,2,0,1,28,22,9
2,1,16,1,2,0,1,28,120,11
2,1,18,1,5,1,1,28,87,11
2,1,3,0,0,0,1,28,71,9
2,1,19,1,2,0,1,28,30,11
2,1,12,1,4,0,1,28,22,11
2,1,3,0,6,1,1,28,120,11
2,1,4,0,6,1,1,28,120,11
2,1,16,1,2,0,1,28,22,11
3,2,18,1,0,0,1,28,39,11
3,2,19,1,4,0,1,28,120,11
3,2,4,0,5,1,1,28,120,11
3,2,19,1,5,1,1,28,73,11
3,2,16,1,0,0,1,28,22,9
3,2,12,1,3,0,1,28,13,11
3,2,11,1,3,0,1,28,39,11
3,2,8,1,4,0,1,28,45,11
3,2,5,0,5,1,1,28,39,11
3,2,21,0,0,0,1,28,120,11
3,2,16,1,0,0,1,28,96,11
3,2,12,1,4,0,1,28,96,11
3,2,16,1,5,1,1,28,105,9
3,2,21,0,6,1,1,28,73,11
4,2,3,0,3,0,2,28,104,11
4,2,20,1,0,0,2,28,104,11
4,2,5,0,6,1,2,28,120,11
4,2,19,1,6,1,2,28,3,11
4,2,0,0,5,1,2,28,96,11
4,2,12,1,0,0,2,28,120,11
4,2,21,0,0,0,2,28,120,11
4,2,14,1,3,0,2,28,96,11
4,2,18,1,3,0,2,28,17,11
4,2,12,1,4,0,2,28,87,11
4,2,23,0,4,0,2,28,96,11
5,2,12,1,6,1,2,28,87,11
5,2,1,0,4,0,2,28,71,9
5,2,23,0,4,0,2,28,96,11
5,2,0,0,5,1,2,28,120,11
5,2,1,0,5,1,2,28,96,11
5,2,12,1,5,1,2,28,87,11
5,2,11,1,0,0,2,28,87,11
5,2,13,1,0,0,2,28,96,11
5,2,15,1,0,0,2,28,96,11
5,2,20,1,1,0,2,28,13,11
5,2,12,1,2,0,2,28,96,11
5,2,12,1,2,0,2,28,96,11
5,2,12,1,3,0,2,28,96,11
5,2,18,1,3,0,2,28,96,11
5,2,16,1,6,1,2,28,96,11
5,2,16,1,0,0,2,28,87,11
5,2,17,1,1,0,2,28,87,11
5,2,8,1,4,0,2,28,96,11
5,2,14,1,5,1,2,28,104,11
5,2,12,1,0,0,2,28,104,11
6,3,14,1,2,0,2,28,96,11
6,3,16,1,3,0,2,28,27,11
6,3,11,1,4,0,2,28,96,11
6,3,17,1,4,0,2,28,19,11
6,3,19,1,5,1,2,28,96,11
6,3,21,0,1,0,2,28,104,11
6,3,11,1,3,0,2,28,39,11
6,3,17,1,3,0,2,28,87,11
6,3,23,0,3,0,2,28,73,11
6,3,16,1,4,0,2,28,3,11
6,3,8,1,0,0,2,28,87,11
7,3,14,1,5,1,3,28,87,11
7,3,19,1,5,1,3,28,87,11
7,3,14,1,6,1,3,28,87,11
7,3,8,1,5,1,3,28,19,9
7,3,16,1,0,0,3,28,39,9
7,3,16,1,4,0,3,28,87,11
7,3,22,0,4,0,3,28,87,11
7,3,18,1,6,1,3,28,19,8
7,3,13,1,5,1,3,28,96,11
7,3,17,1,1,0,3,28,120,11
7,3,12,1,2,0,3,28,87,11
7,3,16,1,3,0,3,28,27,11
8,3,17,1,1,0,3,28,87,11
8,3,13,1,2,0,3,28,87,11
8,3,10,1,4,0,3,28,87,11
8,3,16,1,4,0,3,28,87,11
8,3,8,1,1,0,3,28,87,11
8,3,20,1,2,0,3,28,87,11
8,3,20,1,1,0,3,28,19,8
8,3,17,1,2,0,3,28,87,11
8,3,18,1,3,0,3,28,87,11
8,3,1,0,4,0,3,28,96,11
8,3,15,1,2,0,3,28,96,11
8,3,14,1,3,0,3,28,87,11
8,3,7,1,5,1,3,28,120,11
9,4,22,0,2,0,3,28,87,11
9,4,17,1,3,0,3,28,96,11
9,4,22,0,5,1,3,28,104,11
9,4,19,1,6,1,3,28,87,11
9,4,21,0,3,0,3,28,64,11
9,4,15,1,4,0,3,28,3,11
9,4,18,1,4,0,3,28,40,11
9,4,4,0,5,1,3,28,19,11
9,4,18,1,6,1,3,28,87,11
10,4,6,0,6,1,4,28,19,11
10,4,17,1,0,0,4,28,96,11
10,4,15,1,5,1,4,28,19,11
10,4,19,1,3,0,4,28,96,11
10,4,1,0,6,1,4,28,71,11
10,4,15,1,0,0,4,28,87,11
11,4,17,1,2,0,4,28,96,11
11,4,14,1,5,1,4,28,101,9
11,4,19,1,5,1,4,28,101,9
11,4,12,1,2,0,4,28,73,11
11,4,13,1,2,0,4,28,96,11
11,4,17,1,4,0,4,28,116,11
11,4,21,0,0,0,4,28,39,11
11,4,20,1,2,0,4,28,120,11
11,4,16,1,6,1,4,28,120,11
11,4,17,1,6,1,4,28,120,11
11,4,23,0,6,1,4,28,120,11
12,1,16,1,2,0,4,28,96,11
12,1,1,0,5,1,4,28,120,11
12,1,20,1,3,0,4,28,64,11
12,1,23,0,3,0,4,28,120,11
12,1,0,0,1,0,4,28,120,11
1,1,10,1,0,0,1,28,27,11
2,1,15,1,1,0,1,28,19,11
2,1,16,1,1,0,1,28,87,11
2,1,19,1,3,0,1,28,73,11
3,2,8,1,6,1,1,28,73,11
3,2,14,1,0,0,1,28,96,11
3,2,21,0,0,0,1,28,104,11
4,2,9,1,5,1,2,28,87,11
4,2,12,1,1,0,2,28,96,11
4,2,18,1,1,0,2,28,87,11
4,2,12,1,3,0,2,28,3,11
4,2,19,1,4,0,2,28,120,11
4,2,20,1,3,0,2,28,87,11
4,2,11,1,5,1,2,28,87,11
5,2,14,1,5,1,2,28,87,11
5,2,15,1,2,0,2,28,120,9
6,3,18,1,3,0,2,28,87,11
6,3,23,0,5,1,2,28,87,11
6,3,15,1,6,1,2,28,87,11
7,3,2,0,0,0,3,28,64,8
7,3,18,1,2,0,3,28,73,11
7,3,11,1,6,1,3,28,64,11
9,4,10,1,2,0,3,28,56,11
9,4,18,1,0,0,3,28,96,11
9,4,11,1,5,1,3,28,96,11
10,4,13,1,2,0,4,28,57,11
10,4,17,1,4,0,4,28,87,11
11,4,15,1,3,0,4,28,87,11
11,4,21,0,6,1,4,28,92,11
11,4,15,1,0,0,4,28,87,11
11,4,0,0,2,0,4,28,87,11
11,4,11,1,3,0,4,28,52,9
12,1,20,1,1,0,4,28,85,11
1,1,17,1,6,1,1,28,39,11
1,1,18,1,2,0,1,28,87,11
1,1,17,1,5,1,1,28,92,11
1,1,19,1,3,0,1,28,92,11
2,1,19,1,4,0,1,28,3,11
2,1,14,1,1,0,1,28,120,11
2,1,11,1,1,0,1,28,92,11
2,1,6,0,3,0,1,28,120,11
2,1,16,1,3,0,1,28,92,11
2,1,10,1,6,1,1,28,73,11
3,2,17,1,2,0,1,28,71,11
3,2,20,1,5,1,1,28,87,11
3,2,17,1,6,1,1,28,73,11
3,2,20,1,6,1,1,28,92,11
3,2,21,0,3,0,1,28,7,9
4,2,0,0,4,0,2,28,87,11
4,2,10,1,5,1,2,28,104,11
4,2,11,1,5,1,2,28,82,11
4,2,18,1,5,1,2,28,96,11
4,2,18,1,6,1,2,28,19,11
4,2,19,1,4,0,2,28,120,11
5,2,16,1,5,1,2,28,87,11
5,2,23,0,3,0,2,28,87,11
5,2,20,1,0,0,2,28,96,11
5,2,17,1,3,0,2,28,87,9
5,2,21,0,6,1,2,28,87,11
5,2,16,1,0,0,2,28,87,11
5,2,11,1,5,1,2,28,87,11
6,3,16,1,1,0,2,28,87,11
6,3,14,1,0,0,2,28,96,11
6,3,17,1,1,0,2,28,25,11
7,3,10,1,3,0,3,28,87,11
7,3,13,1,4,0,3,28,19,11
7,3,3,0,0,0,3,28,87,11
7,3,22,0,1,0,3,28,87,11
7,3,12,1,2,0,3,28,96,11
7,3,13,1,0,0,3,28,87,11
7,3,19,1,6,1,3,28,96,11
7,3,17,1,1,0,3,28,78,11
8,3,20,1,1,0,3,28,120,11
8,3,17,1,3,0,3,28,87,11
8,3,23,0,3,0,3,28,19,11
8,3,2,0,4,0,3,28,87,11
8,3,9,1,4,0,3,28,19,11
8,3,8,1,5,1,3,28,96,11
8,3,22,0,6,1,3,28,104,11
8,3,14,1,0,0,3,28,96,11
9,4,19,1,6,1,3,28,87,11
9,4,9,1,0,0,3,28,87,11
9,4,17,1,3,0,3,28,96,11
9,4,12,1,6,1,3,28,87,11
9,4,10,1,0,0,3,28,87,11
9,4,19,1,1,0,3,28,87,11
9,4,14,1,2,0,3,28,96,11
10,4,9,1,4,0,4,28,104,11
10,4,9,1,4,0,4,28,104,11
10,4,13,1,4,0,4,28,104,11
10,4,19,1,3,0,4,28,87,11
10,4,17,1,0,0,4,28,85,11
10,4,23,0,3,0,4,28,85,11
10,4,13,1,4,0,4,28,73,11
10,4,13,1,5,1,4,28,96,11
11,4,11,1,0,0,4,28,19,11
11,4,13,1,4,0,4,28,96,11
11,4,23,0,1,0,4,28,104,11
11,4,9,1,2,0,4,28,96,11
11,4,21,0,0,0,4,28,96,11
11,4,15,1,4,0,4,28,13,11
12,1,12,1,0,0,4,28,87,11
12,1,19,1,5,1,4,28,39,11
12,1,0,0,6,1,4,28,19,11
12,1,22,0,2,0,4,28,19,11
1,1,1,0,6,1,1,28,70,9
1,1,19,1,1,0,1,28,92,11
2,1,18,1,1,0,1,28,73,11
4,2,10,1,2,0,2,28,96,11
8,3,15,1,5,1,3,28,87,11
10,4,3,0,6,1,4,28,39,8
11,4,12,1,6,1,4,28,103,11
1,1,17,1,2,0,1,46,73,11
1,1,19,1,4,0,1,46,19,11
1,1,19,1,5,1,1,46,19,11
1,1,17,1,2,0,1,46,3,11
1,1,22,0,2,0,1,46,120,11
1,1,7,1,5,1,1,46,120,11
1,1,17,1,5,1,1,46,64,11
1,1,10,1,4,0,1,46,64,11
2,1,15,1,5,1,1,46,1,11
2,1,15,1,1,0,1,46,56,11
2,1,23,0,2,0,1,46,73,11
2,1,12,1,2,0,1,46,19,11
2,1,17,1,2,0,1,46,87,11
2,1,7,1,1,0,1,46,19,11
2,1,15,1,3,0,1,46,96,11
3,2,11,1,4,0,1,46,87,11
3,2,7,1,5,1,1,46,19,11
3,2,16,1,0,0,1,46,87,11
3,2,15,1,3,0,1,46,73,11
3,2,10,1,3,0,1,46,120,11
3,2,15,1,2,0,1,46,120,11
3,2,0,0,4,0,1,46,120,11
4,2,11,1,0,0,2,46,3,11
4,2,19,1,6,1,2,46,87,11
4,2,13,1,0,0,2,46,120,11
4,2,18,1,0,0,2,46,96,11
4,2,15,1,3,0,2,46,64,11
5,2,10,1,3,0,2,46,87,11
5,2,12,1,4,0,2,46,19,11
5,2,16,1,2,0,2,46,85,11
5,2,21,0,3,0,2,46,96,11
5,2,8,1,2,0,2,46,96,11
6,3,21,0,5,1,2,46,1,11
6,3,20,1,5,1,2,46,96,11
6,3,10,1,0,0,2,46,64,8
6,3,0,0,3,0,2,46,85,11
6,3,23,0,0,0,2,46,120,11
6,3,14,1,2,0,2,46,71,11
7,3,12,1,3,0,3,46,3,11
7,3,21,0,4,0,3,46,86,11
7,3,12,1,4,0,3,46,39,11
7,3,17,1,0,0,3,46,96,11
7,3,12,1,2,0,3,46,19,11
7,3,22,0,0,0,3,46,39,11
7,3,10,1,5,1,3,46,96,11
8,3,11,1,0,0,3,46,87,11
8,3,21,0,1,0,3,46,87,11
8,3,21,0,5,1,3,46,87,11
8,3,9,1,2,0,3,46,19,11
8,3,11,1,5,1,3,46,87,11
8,3,11,1,1,0,3,46,87,11
8,3,1,0,2,0,3,46,87,11
9,4,13,1,2,0,3,46,74,9
9,4,15,1,1,0,3,46,45,9
9,4,14,1,4,0,3,46,71,9
10,4,19,1,5,1,4,46,87,11
10,4,13,1,1,0,4,46,87,11
10,4,18,1,5,1,4,46,96,11
10,4,15,1,6,1,4,46,85,11
10,4,15,1,1,0,4,46,64,8
10,4,21,0,1,0,4,46,120,11
10,4,21,0,1,0,4,46,120,11
10,4,12,1,5,1,4,46,23,11
11,4,16,1,2,0,4,46,3,11
12,1,16,1,3,0,4,46,64,11
12,1,17,1,6,1,4,46,19,8
12,1,18,1,2,0,4,46,96,11
12,1,0,0,3,0,4,46,64,11
12,1,5,0,2,0,4,46,120,9
12,1,16,1,3,0,4,46,64,11
12,1,10,1,3,0,4,46,120,11
1,1,18,1,5,1,1,46,27,11
1,1,18,1,5,1,1,46,27,11
1,1,15,1,0,0,1,46,87,11
1,1,7,1,4,0,1,46,120,11
2,1,16,1,3,0,1,46,96,11
2,1,11,1,5,1,1,46,71,9
3,2,21,0,3,0,1,46,96,11
3,2,11,1,2,0,1,46,96,11
3,2,13,1,5,1,1,46,64,11
4,2,15,1,3,0,2,46,64,11
4,2,21,0,4,0,2,46,64,11
4,2,19,1,5,1,2,46,96,11
4,2,14,1,2,0,2,46,96,11
4,2,22,0,4,0,2,46,66,11
4,2,20,1,4,0,2,46,96,11
5,2,15,1,2,0,2,46,87,11
5,2,5,0,6,1,2,46,103,11
5,2,16,1,2,0,2,46,87,9
5,2,10,1,3,0,2,46,96,11
5,2,17,1,3,0,2,46,87,11
5,2,20,1,3,0,2,46,103,11
5,2,13,1,2,0,2,46,19,11
6,3,18,1,4,0,2,46,73,9
6,3,13,1,2,0,2,46,71,11
6,3,16,1,6,1,2,46,19,9
6,3,18,1,6,1,2,46,12,9
6,3,18,1,0,0,2,46,12,9
7,3,18,1,5,1,3,46,96,11
7,3,12,1,0,0,3,46,3,11
7,3,13,1,0,0,3,46,87,9
8,3,19,1,2,0,3,46,96,11
8,3,0,0,4,0,3,46,87,11
8,3,19,1,5,1,3,46,87,11
8,3,19,1,6,1,3,46,19,11
9,4,12,1,5,1,3,46,101,11
9,4,21,0,5,1,3,46,102,11
10,4,13,1,6,1,4,46,96,11
10,4,11,1,5,1,4,46,19,11
11,4,20,1,2,0,4,46,96,11
11,4,12,1,6,1,4,46,73,8
11,4,13,1,0,0,4,46,13,9
11,4,15,1,1,0,4,46,96,11
12,1,10,1,6,1,4,46,120,11
12,1,17,1,2,0,4,46,73,11
12,1,20,1,2,0,4,46,12,9
1,1,6,0,1,0,1,46,73,9
1,1,17,1,3,0,1,46,73,11
2,1,2,0,6,1,1,46,45,9
1,1,17,1,6,1,1,46,77,11
1,1,15,1,0,0,1,46,120,11
1,1,9,1,3,0,1,46,45,11
2,1,16,1,2,0,1,46,120,11
2,1,22,0,6,1,1,46,64,11
3,2,11,1,3,0,1,46,120,11
3,2,17,1,1,0,1,46,87,11
3,2,21,0,0,0,1,46,120,11
4,2,21,0,3,0,2,46,83,11
4,2,19,1,5,1,2,46,85,11
5,2,17,1,3,0,2,46,117,11
5,2,12,1,1,0,2,46,96,11
5,2,16,1,3,0,2,46,27,11
6,3,12,1,3,0,2,46,27,11
6,3,12,1,4,0,2,46,3,11
6,3,3,0,0,0,2,46,64,11
6,3,19,1,0,0,2,46,3,11
11,4,13,1,4,0,4,46,39,11
1,1,17,1,0,0,1,46,96,11
1,1,12,1,1,0,1,46,96,11
1,1,19,1,3,0,1,46,96,11
3,2,19,1,2,0,1,46,55,11
3,2,16,1,4,0,1,46,87,11
4,2,15,1,3,0,2,46,71,11
4,2,19,1,4,0,2,46,3,11
6,3,19,1,2,0,2,46,27,9
6,3,13,1,5,1,2,46,87,11
6,3,8,1,6,1,2,46,3,11
7,3,19,1,2,0,3,46,111,9
8,3,7,1,4,0,3,46,27,11
8,3,14,1,5,1,3,46,87,11
8,3,17,1,1,0,3,46,3,11
9,4,6,0,3,0,3,46,3,11
9,4,19,1,5,1,3,46,34,8
11,4,17,1,0,0,4,46,27,11
12,1,11,1,0,0,4,46,73,11
12,1,14,1,1,0,4,46,27,11
4,2,2,0,6,1,2,46,73,8
5,2,11,1,2,0,2,46,87,11
6,3,1,0,1,0,2,46,104,11
7,3,15,1,6,1,3,46,73,11
8,3,21,0,5,1,3,46,87,11
12,1,9,1,4,0,4,46,120,11
4,2,19,1,5,1,2,46,3,11
5,2,13,1,3,0,2,46,55,11
5,2,22,0,3,0,2,46,96,11
7,3,15,1,3,0,3,46,87,11
10,4,17,1,6,1,4,46,19,11
1,1,6,0,0,0,1,46,27,11
1,1,10,1,6,1,1,46,73,11
1,1,23,0,6,1,1,46,120,11
2,1,23,0,4,0,1,46,73,11
2,1,16,1,4,0,1,46,96,11
2,1,16,1,5,1,1,46,27,11
2,1,15,1,5,1,1,46,96,11
2,1,13,1,2,0,1,46,73,11
3,2,9,1,5,1,1,46,56,11
3,2,17,1,2,0,1,46,96,11
3,2,13,1,5,1,1,46,12,11
3,2,16,1,5,1,1,46,96,11
3,2,20,1,4,0,1,46,96,11
4,2,17,1,4,0,2,46,96,11
4,2,13,1,5,1,2,46,55,11
4,2,17,1,2,0,2,46,96,11
4,2,15,1,5,1,2,46,96,11
4,2,17,1,6,1,2,46,96,11
4,2,11,1,5,1,2,46,73,11
4,2,12,1,2,0,2,46,73,11
5,2,18,1,1,0,2,46,96,11
5,2,8,1,6,1,2,46,13,11
5,2,14,1,0,0,2,46,73,11
6,3,18,1,1,0,2,46,96,11
6,3,17,1,4,0,2,46,96,11
6,3,6,0,4,0,2,46,96,11
6,3,21,0,6,1,2,46,96,11
6,3,17,1,0,0,2,46,96,11
6,3,15,1,1,0,2,46,96,11
7,3,16,1,5,1,3,46,96,11
7,3,15,1,6,1,3,46,27,11
7,3,5,0,2,0,3,46,87,11
7,3,23,0,5,1,3,46,87,11
7,3,16,1,3,0,3,46,26,11
8,3,6,0,6,1,3,46,120,11
8,3,10,1,0,0,3,46,27,11
8,3,21,0,4,0,3,46,85,11
8,3,12,1,2,0,3,46,96,11
8,3,17,1,3,0,3,46,104,11
8,3,14,1,4,0,3,46,96,11
10,4,7,1,0,0,4,46,25,11
10,4,17,1,0,0,4,46,73,9
10,4,13,1,1,0,4,46,96,11
10,4,14,1,5,1,4,46,73,11
10,4,15,1,5,1,4,46,96,11
11,4,17,1,2,0,4,46,96,11
12,1,18,1,4,0,4,46,73,11
2,1,13,1,0,0,1,13,27,11
3,2,9,1,4,0,1,13,85,11
3,2,1,0,2,0,1,13,73,11
4,2,15,1,2,0,2,13,87,11
4,2,16,1,4,0,2,13,64,11
5,2,2,0,6,1,2,13,12,11
5,2,21,0,5,1,2,13,64,11
7,3,12,1,3,0,3,13,96,11
8,3,22,0,4,0,3,13,64,9
8,3,19,1,0,0,3,13,87,11
9,4,12,1,2,0,3,13,64,11
10,4,18,1,4,0,4,13,7,11
11,4,11,1,2,0,4,13,85,11
11,4,16,1,5,1,4,13,12,11
11,4,20,1,3,0,4,13,92,11
12,1,17,1,3,0,4,13,85,11
12,1,23,0,3,0,4,13,73,11
1,1,10,1,3,0,1,13,87,11
3,2,11,1,1,0,1,13,96,11
11,4,11,1,1,0,4,13,73,9
1,1,13,1,1,0,1,48,73,11
2,1,15,1,4,0,1,48,73,11
3,2,20,1,3,0,1,48,1,11
4,2,13,1,4,0,2,48,96,11
5,2,22,0,0,0,2,48,3,11
5,2,21,0,0,0,2,48,96,11
5,2,18,1,3,0,2,48,87,11
6,3,12,1,1,0,2,48,17,11
6,3,17,1,5,1,2,48,96,11
8,3,21,0,2,0,3,48,87,11
9,4,3,0,5,1,3,48,96,11
10,4,22,0,3,0,4,48,73,11
11,4,19,1,0,0,4,48,73,11
12,1,20,1,1,0,4,48,73,11
12,1,14,1,5,1,4,48,85,11
1,1,1,0,0,0,1,48,73,11
3,2,21,0,1,0,1,48,73,9
3,2,13,1,3,0,1,48,87,11
8,3,15,1,2,0,3,48,87,11
10,4,9,1,4,0,4,48,104,11
10,4,19,1,4,0,4,48,1,11
11,4,18,1,4,0,4,48,73,11
12,1,23,0,2,0,4,48,12,11
1,1,4,0,0,0,1,48,96,11
2,1,21,0,4,0,1,48,96,11
3,2,11,1,2,0,1,48,87,11
3,2,15,1,0,0,1,48,12,11
5,2,20,1,0,0,2,48,96,11
8,3,15,1,1,0,3,48,85,11
8,3,20,1,1,0,3,48,3,11
11,4,12,1,1,0,4,48,87,11
11,4,18,1,1,0,4,48,87,11
11,4,9,1,1,0,4,48,96,11
12,1,11,1,0,0,4,48,96,11
12,1,14,1,0,0,4,48,87,11
12,1,10,1,2,0,4,48,85,11
1,1,13,1,0,0,1,7,96,8
1,1,15,1,0,0,1,7,85,11
1,1,15,1,3,0,1,7,103,8
1,1,12,1,5,1,1,7,120,9
2,1,12,1,6,1,1,7,13,11
2,1,9,1,1,0,1,7,96,11
2,1,11,1,2,0,1,7,71,11
3,2,13,1,3,0,1,7,87,11
4,2,20,1,0,0,2,7,85,11
4,2,14,1,3,0,2,7,96,11
5,2,17,1,6,1,2,7,22,11
5,2,13,1,1,0,2,7,87,11
5,2,17,1,2,0,2,7,96,11
5,2,12,1,4,0,2,7,87,11
5,2,0,0,1,0,2,7,13,11
5,2,16,1,6,1,2,7,12,11
6,3,15,1,5,1,2,7,1,11
6,3,12,1,2,0,2,7,1,11
6,3,1,0,0,0,2,7,104,11
7,3,20,1,3,0,3,7,87,11
7,3,13,1,4,0,3,7,19,11
7,3,18,1,6,1,3,7,3,11
7,3,10,1,4,0,3,7,96,11
7,3,11,1,6,1,3,7,73,11
7,3,19,1,0,0,3,7,96,11
7,3,12,1,6,1,3,7,96,11
7,3,18,1,6,1,3,7,96,11
7,3,22,0,5,1,3,7,45,11
8,3,9,1,6,1,3,7,87,11
8,3,11,1,3,0,3,7,76,11
8,3,10,1,0,0,3,7,96,11
8,3,14,1,0,0,3,7,64,11
9,4,11,1,5,1,3,7,71,11
9,4,7,1,0,0,3,7,87,11
9,4,9,1,6,1,3,7,87,11
9,4,11,1,1,0,3,7,71,11
10,4,13,1,5,1,4,7,96,11
10,4,15,1,1,0,4,7,96,11
10,4,6,0,4,0,4,7,104,11
10,4,14,1,5,1,4,7,71,11
11,4,21,0,6,1,4,7,56,11
11,4,20,1,4,0,4,7,56,11
12,1,22,0,5,1,4,7,73,11
12,1,23,0,1,0,4,7,12,11
12,1,18,1,5,1,4,7,73,11
12,1,21,0,5,1,4,7,73,11
12,1,19,1,5,1,4,7,73,11
12,1,13,1,3,0,4,7,73,11
1,1,7,1,0,0,1,7,120,11
1,1,14,1,2,0,1,7,27,11
1,1,16,1,2,0,1,7,12,11
1,1,15,1,5,1,1,7,73,11
1,1,21,0,5,1,1,7,120,11
1,1,14,1,6,1,1,7,73,11
1,1,12,1,3,0,1,7,10,11
2,1,7,1,1,0,1,7,73,11
2,1,13,1,5,1,1,7,55,11
2,1,15,1,6,1,1,7,120,11
2,1,3,0,6,1,1,7,19,9
2,1,14,1,0,0,1,7,73,9
2,1,17,1,1,0,1,7,85,11
2,1,10,1,3,0,1,7,73,11
2,1,1,0,6,1,1,7,120,11
2,1,21,0,1,0,1,7,82,8
2,1,23,0,1,0,1,7,120,11
2,1,20,1,4,0,1,7,82,11
2,1,20,1,5,1,1,7,12,11
2,1,18,1,6,1,1,7,87,11
3,2,14,1,2,0,1,7,120,11
3,2,21,0,1,0,1,7,120,11
3,2,13,1,2,0,1,7,85,11
3,2,12,1,2,0,1,7,96,11
3,2,20,1,2,0,1,7,96,11
3,2,19,1,5,1,1,7,96,11
3,2,13,1,6,1,1,7,120,11
4,2,20,1,4,0,2,7,96,11
4,2,19,1,2,0,2,7,87,11
4,2,16,1,6,1,2,7,87,11
4,2,10,1,2,0,2,7,87,11
4,2,15,1,2,0,2,7,85,11
5,2,8,1,5,1,2,7,87,11
5,2,13,1,0,0,2,7,87,11
5,2,15,1,5,1,2,7,17,11
5,2,14,1,1,0,2,7,87,11
5,2,11,1,2,0,2,7,87,11
5,2,11,1,2,0,2,7,85,11
5,2,13,1,3,0,2,7,73,11
5,2,12,1,1,0,2,7,3,11
5,2,21,0,1,0,2,7,3,11
5,2,15,1,3,0,2,7,85,11
5,2,18,1,3,0,2,7,73,11
5,2,15,1,6,1,2,7,87,11
5,2,11,1,0,0,2,7,96,11
5,2,21,0,0,0,2,7,87,11
5,2,11,1,0,0,2,7,3,11
5,2,21,0,1,0,2,7,96,11
5,2,6,0,3,0,2,7,96,11
5,2,18,1,3,0,2,7,96,11
5,2,20,1,4,0,2,7,25,11
6,3,18,1,2,0,2,7,96,11
6,3,20,1,3,0,2,7,96,11
6,3,23,0,6,1,2,7,85,11
6,3,15,1,3,0,2,7,87,11
6,3,19,1,5,1,2,7,104,11
6,3,16,1,3,0,2,7,96,11
6,3,11,1,5,1,2,7,87,11
6,3,10,1,6,1,2,7,96,11
6,3,17,1,3,0,2,7,87,11
6,3,19,1,3,0,2,7,87,11
6,3,6,0,1,0,2,7,19,11
7,3,17,1,3,0,3,7,77,11
7,3,11,1,4,0,3,7,96,11
7,3,19,1,4,0,3,7,87,11
7,3,21,0,3,0,3,7,87,11
7,3,6,0,5,1,3,7,71,11
7,3,16,1,5,1,3,7,87,11
7,3,9,1,2,0,3,7,27,11
7,3,0,0,4,0,3,7,12,11
7,3,17,1,0,0,3,7,96,11
7,3,2,0,5,1,3,7,87,11
7,3,20,1,1,0,3,7,87,11
7,3,13,1,1,0,3,7,19,11
7,3,10,1,2,0,3,7,87,11
7,3,11,1,3,0,3,7,45,11
7,3,18,1,3,0,3,7,96,11
8,3,16,1,6,1,3,7,96,9
8,3,14,1,1,0,3,7,87,11
8,3,16,1,1,0,3,7,39,11
8,3,19,1,2,0,3,7,96,11
8,3,17,1,0,0,3,7,96,11
8,3,14,1,2,0,3,7,96,11
8,3,22,0,2,0,3,7,96,11
8,3,4,0,3,0,3,7,96,11
8,3,19,1,4,0,3,7,96,11
8,3,1,0,1,0,3,7,96,11
8,3,19,1,3,0,3,7,96,11
8,3,21,0,5,1,3,7,96,11
8,3,19,1,6,1,3,7,96,11
8,3,16,1,1,0,3,7,96,11
8,3,1,0,2,0,3,7,87,11
8,3,12,1,2,0,3,7,96,11
8,3,21,0,2,0,3,7,3,11
8,3,23,0,4,0,3,7,3,11
8,3,20,1,6,1,3,7,87,11
9,4,12,1,4,0,3,7,103,11
9,4,8,1,0,0,3,7,104,11
9,4,14,1,2,0,3,7,104,11
9,4,17,1,2,0,3,7,104,11
9,4,4,0,4,0,3,7,77,11
9,4,12,1,1,0,3,7,96,11
9,4,19,1,4,0,3,7,87,11
9,4,10,1,0,0,3,7,96,11
9,4,11,1,0,0,3,7,87,11
10,4,9,1,0,0,4,7,96,11
10,4,15,1,1,0,4,7,19,11
10,4,12,1,1,0,4,7,71,11
10,4,13,1,2,0,4,7,87,11
10,4,16,1,2,0,4,7,96,11
10,4,20,1,2,0,4,7,96,11
10,4,9,1,3,0,4,7,87,11
10,4,14,1,3,0,4,7,87,9
10,4,18,1,3,0,4,7,87,11
10,4,10,1,5,1,4,7,104,11
10,4,18,1,6,1,4,7,96,11
10,4,11,1,1,0,4,7,104,11
10,4,1,0,4,0,4,7,120,11
10,4,14,1,4,0,4,7,96,11
10,4,16,1,5,1,4,7,85,11
10,4,19,1,6,1,4,7,3,11
10,4,19,1,0,0,4,7,87,9
10,4,14,1,1,0,4,7,85,11
10,4,12,1,3,0,4,7,87,11
10,4,12,1,4,0,4,7,42,11
11,4,17,1,1,0,4,7,87,11
11,4,12,1,1,0,4,7,85,11
11,4,19,1,4,0,4,7,85,11
11,4,18,1,3,0,4,7,19,11
11,4,14,1,6,1,4,7,12,11
11,4,21,0,6,1,4,7,120,11
11,4,14,1,0,0,4,7,87,11
11,4,21,0,4,0,4,7,73,11
11,4,18,1,0,0,4,7,85,11
11,4,18,1,1,0,4,7,73,11
12,1,1,0,3,0,4,7,62,11
12,1,4,0,6,1,4,7,19,9
12,1,15,1,0,0,4,7,73,11
12,1,19,1,0,0,4,7,73,11
12,1,11,1,3,0,4,7,120,11
12,1,21,0,4,0,4,7,19,9
12,1,16,1,5,1,4,7,73,11
12,1,16,1,6,1,4,7,96,11
1,1,1,0,1,0,1,7,26,11
1,1,2,0,2,0,1,7,27,11
1,1,21,0,2,0,1,7,87,11
1,1,18,1,3,0,1,7,19,11
2,1,14,1,2,0,1,7,87,11
2,1,1,0,4,0,1,7,96,11
2,1,13,1,2,0,1,7,87,11
2,1,17,1,6,1,1,7,39,11
2,1,19,1,0,0,1,7,73,11
2,1,11,1,2,0,1,7,96,11
2,1,16,1,4,0,1,7,87,11
2,1,15,1,5,1,1,7,55,11
2,1,12,1,5,1,1,7,96,11
3,2,12,1,2,0,1,7,27,11
3,2,21,0,2,0,1,7,27,11
3,2,15,1,3,0,1,7,96,11
3,2,13,1,5,1,1,7,19,11
3,2,12,1,6,1,1,7,27,11
3,2,16,1,0,0,1,7,45,11
3,2,21,0,0,0,1,7,96,11
3,2,16,1,6,1,1,7,22,8
3,2,23,0,3,0,1,7,73,11
3,2,15,1,0,0,1,7,87,11
4,2,16,1,1,0,2,7,12,8
4,2,21,0,3,0,2,7,96,11
4,2,13,1,1,0,2,7,87,11
4,2,15,1,1,0,2,7,87,11
4,2,14,1,2,0,2,7,96,11
4,2,15,1,2,0,2,7,87,11
4,2,18,1,3,0,2,7,1,11
4,2,8,1,0,0,2,7,117,11
4,2,14,1,1,0,2,7,105,11
5,2,12,1,1,0,2,7,71,11
5,2,14,1,2,0,2,7,96,11
5,2,19,1,0,0,2,7,27,11
5,2,14,1,2,0,2,7,87,11
5,2,19,1,4,0,2,7,96,11
5,2,22,0,5,1,2,7,96,11
5,2,14,1,6,1,2,7,87,11
6,3,19,1,5,1,2,7,71,11
6,3,16,1,6,1,2,7,71,11
6,3,20,1,3,0,2,7,87,11
6,3,19,1,0,0,2,7,87,11
7,3,16,1,3,0,3,7,1,11
7,3,7,1,4,0,3,7,47,11
7,3,16,1,4,0,3,7,73,8
7,3,16,1,5,1,3,7,87,11
7,3,4,0,6,1,3,7,73,11
7,3,14,1,2,0,3,7,103,11
7,3,22,0,5,1,3,7,87,11
7,3,16,1,6,1,3,7,87,11
7,3,11,1,0,0,3,7,120,11
7,3,15,1,3,0,3,7,87,11
7,3,19,1,4,0,3,7,87,11
7,3,11,1,2,0,3,7,96,11
7,3,9,1,1,0,3,7,87,11
8,3,15,1,0,0,3,7,87,11
8,3,11,1,1,0,3,7,96,11
8,3,14,1,2,0,3,7,96,11
8,3,19,1,3,0,3,7,87,11
8,3,17,1,4,0,3,7,96,11
8,3,13,1,2,0,3,7,71,11
8,3,13,1,4,0,3,7,96,11
8,3,23,0,0,0,3,7,87,11
8,3,17,1,1,0,3,7,96,11
8,3,18,1,0,0,3,7,13,11
9,4,23,0,2,0,3,7,22,11
9,4,13,1,2,0,3,7,45,11
10,4,13,1,5,1,4,7,87,11
10,4,18,1,5,1,4,7,19,11
10,4,14,1,1,0,4,7,56,11
10,4,23,0,3,0,4,7,73,11
10,4,7,1,4,0,4,7,85,11
11,4,5,0,2,0,4,7,12,11
11,4,22,0,2,0,4,7,39,9
11,4,17,1,4,0,4,7,45,9
11,4,15,1,6,1,4,7,96,11
12,1,9,1,3,0,4,7,87,11
12,1,13,1,2,0,4,7,96,11
12,1,5,0,3,0,4,7,73,11
12,1,16,1,5,1,4,7,73,11
12,1,17,1,0,0,4,7,96,11
12,1,6,0,4,0,4,7,71,11
2,1,17,1,2,0,1,7,73,11
3,2,22,0,1,0,1,7,103,11
4,2,18,1,6,1,2,7,27,11
4,2,12,1,2,0,2,7,87,11
5,2,11,1,6,1,2,7,87,11
6,3,9,1,1,0,2,7,92,11
7,3,15,1,3,0,3,7,87,11
10,4,11,1,5,1,4,7,19,11
1,1,9,1,3,0,1,12,89,11
1,1,20,1,4,0,1,12,96,11
1,1,23,0,5,1,1,12,1,11
1,1,22,0,6,1,1,12,1,11
1,1,12,1,0,0,1,12,73,11
1,1,16,1,1,0,1,12,1,11
1,1,11,1,3,0,1,12,73,11
1,1,11,1,3,0,1,12,19,11
1,1,14,1,3,0,1,12,10,11
1,1,20,1,3,0,1,12,39,11
1,1,12,1,6,1,1,12,85,11
1,1,0,0,5,1,1,12,87,11
1,1,15,1,5,1,1,12,92,11
2,1,13,1,2,0,1,12,13,11
2,1,16,1,6,1,1,12,117,11
2,1,20,1,6,1,1,12,19,11
2,1,18,1,1,0,1,12,85,11
2,1,11,1,2,0,1,12,85,11
2,1,18,1,0,0,1,12,73,11
2,1,15,1,0,0,1,12,87,11
2,1,11,1,1,0,1,12,85,11
2,1,11,1,2,0,1,12,87,11
2,1,15,1,2,0,1,12,19,11
2,1,13,1,3,0,1,12,64,11
2,1,10,1,6,1,1,12,13,11
3,2,12,1,0,0,1,12,87,11
3,2,18,1,2,0,1,12,39,11
3,2,19,1,5,1,1,12,85,11
3,2,21,0,0,0,1,12,87,11
3,2,9,1,2,0,1,12,87,11
3,2,9,1,2,0,1,12,87,11
3,2,15,1,3,0,1,12,85,11
3,2,23,0,5,1,1,12,85,11
3,2,13,1,6,1,1,12,64,11
3,2,16,1,1,0,1,12,73,11
3,2,13,1,4,0,1,12,73,11
3,2,8,1,5,1,1,12,64,11
3,2,19,1,6,1,1,12,96,11
3,2,12,1,3,0,1,12,39,11
3,2,13,1,5,1,1,12,87,11
3,2,13,1,6,1,1,12,87,11
3,2,1,0,1,0,1,12,87,11
3,2,11,1,1,0,1,12,87,11
3,2,19,1,2,0,1,12,73,11
4,2,11,1,5,1,2,12,19,11
4,2,14,1,0,0,2,12,19,11
4,2,6,0,2,0,2,12,85,11
4,2,22,0,0,0,2,12,92,11
4,2,16,1,1,0,2,12,87,11
4,2,18,1,5,1,2,12,104,11
4,2,13,1,2,0,2,12,73,11
4,2,18,1,4,0,2,12,39,11
4,2,23,0,4,0,2,12,64,11
5,2,13,1,6,1,2,12,92,11
5,2,12,1,2,0,2,12,94,11
5,2,14,1,2,0,2,12,19,11
5,2,7,1,3,0,2,12,92,11
5,2,17,1,5,1,2,12,19,11
5,2,17,1,6,1,2,12,96,11
5,2,18,1,6,1,2,12,96,11
5,2,15,1,1,0,2,12,73,11
5,2,10,1,2,0,2,12,85,11
5,2,19,1,3,0,2,12,73,11
5,2,6,0,4,0,2,12,95,11
5,2,13,1,5,1,2,12,39,11
5,2,21,0,5,1,2,12,87,11
5,2,12,1,1,0,2,12,96,11
5,2,18,1,1,0,2,12,96,11
5,2,19,1,1,0,2,12,96,11
5,2,9,1,0,0,2,12,19,11
5,2,10,1,0,0,2,12,19,11
5,2,14,1,1,0,2,12,120,11
5,2,17,1,3,0,2,12,87,11
5,2,6,0,4,0,2,12,64,11
5,2,17,1,4,0,2,12,96,11
6,3,7,1,3,0,2,12,33,11
6,3,21,0,5,1,2,12,104,11
6,3,19,1,0,0,2,12,73,11
6,3,19,1,2,0,2,12,87,11
6,3,14,1,5,1,2,12,39,11
6,3,15,1,0,0,2,12,87,11
6,3,22,0,5,1,2,12,87,11
6,3,13,1,0,0,2,12,74,11
6,3,4,0,2,0,2,12,56,11
6,3,21,0,3,0,2,12,73,11
6,3,12,1,4,0,2,12,39,11
6,3,10,1,1,0,2,12,57,11
6,3,14,1,2,0,2,12,87,11
7,3,21,0,3,0,3,12,96,11
7,3,9,1,6,1,3,12,96,11
7,3,22,0,6,1,3,12,19,11
7,3,1,0,0,0,3,12,22,11
7,3,21,0,1,0,3,12,64,11
7,3,10,1,3,0,3,12,104,11
7,3,21,0,3,0,3,12,78,11
7,3,18,1,5,1,3,12,87,11
7,3,23,0,0,0,3,12,96,11
7,3,15,1,1,0,3,12,96,11
7,3,9,1,2,0,3,12,42,11
7,3,18,1,2,0,3,12,73,11
7,3,5,0,2,0,3,12,87,11
7,3,9,1,4,0,3,12,96,11
7,3,15,1,5,1,3,12,64,11
7,3,4,0,3,0,3,12,120,11
7,3,11,1,6,1,3,12,87,11
7,3,18,1,0,0,3,12,87,11
7,3,9,1,4,0,3,12,87,11
8,3,9,1,3,0,3,12,56,11
8,3,21,0,3,0,3,12,45,11
8,3,19,1,4,0,3,12,47,11
8,3,0,0,3,0,3,12,87,11
8,3,13,1,0,0,3,12,73,11
8,3,20,1,0,0,3,12,87,11
8,3,9,1,3,0,3,12,87,11
8,3,14,1,3,0,3,12,87,11
8,3,14,1,0,0,3,12,71,11
8,3,2,0,0,0,3,12,56,11
8,3,1,0,1,0,3,12,71,11
9,4,12,1,3,0,3,12,96,11
9,4,8,1,1,0,3,12,87,11
9,4,19,1,2,0,3,12,104,11
9,4,19,1,2,0,3,12,104,11
9,4,19,1,2,0,3,12,104,11
9,4,20,1,2,0,3,12,104,11
9,4,22,0,2,0,3,12,104,11
9,4,6,0,3,0,3,12,104,11
9,4,16,1,2,0,3,12,87,11
9,4,21,0,6,1,3,12,73,11
9,4,14,1,0,0,3,12,87,11
9,4,11,1,4,0,3,12,39,11
9,4,10,1,5,1,3,12,63,11
9,4,20,1,5,1,3,12,87,11
9,4,22,0,5,1,3,12,56,11
9,4,18,1,0,0,3,12,87,11
9,4,6,0,1,0,3,12,87,11
9,4,10,1,2,0,3,12,13,11
10,4,15,1,4,0,4,12,85,11
10,4,6,0,0,0,4,12,19,11
10,4,5,0,3,0,4,12,87,11
10,4,11,1,4,0,4,12,104,11
10,4,11,1,4,0,4,12,104,11
10,4,19,1,4,0,4,12,19,11
10,4,19,1,0,0,4,12,19,11
10,4,19,1,3,0,4,12,73,11
10,4,18,1,3,0,4,12,104,11
10,4,13,1,1,0,4,12,64,11
10,4,16,1,2,0,4,12,64,11
10,4,15,1,3,0,4,12,87,11
10,4,2,0,5,1,4,12,87,11
10,4,22,0,0,0,4,12,85,11
10,4,14,1,2,0,4,12,87,11
10,4,16,1,3,0,4,12,73,11
10,4,21,0,3,0,4,12,64,11
10,4,17,1,6,1,4,12,96,11
11,4,13,1,2,0,4,12,87,11
11,4,18,1,5,1,4,12,85,11
11,4,17,1,3,0,4,12,71,11
11,4,11,1,6,1,4,12,19,11
11,4,18,1,1,0,4,12,39,11
11,4,2,0,2,0,4,12,120,11
11,4,21,0,3,0,4,12,87,11
11,4,18,1,4,0,4,12,39,11
11,4,11,1,6,1,4,12,87,11
11,4,18,1,2,0,4,12,73,11
11,4,1,0,6,1,4,12,94,11
11,4,11,1,0,0,4,12,39,11
12,1,12,1,2,0,4,12,13,11
12,1,17,1,2,0,4,12,13,11
12,1,16,1,0,0,4,12,71,11
12,1,16,1,0,0,4,12,39,11
12,1,1,0,0,0,4,12,19,11
12,1,12,1,0,0,4,12,73,11
12,1,0,0,3,0,4,12,39,11
12,1,18,1,3,0,4,12,73,11
12,1,11,1,0,0,4,12,13,11
12,1,15,1,0,0,4,12,71,11
12,1,20,1,0,0,4,12,118,11
12,1,19,1,1,0,4,12,87,11
3,2,19,1,1,0,1,12,73,11
4,2,14,1,3,0,2,12,64,11
5,2,0,0,6,1,2,12,73,11
5,2,18,1,5,1,2,12,19,11
8,3,16,1,6,1,3,12,39,11
8,3,3,0,3,0,3,12,99,9
9,4,11,1,1,0,3,12,64,11
9,4,14,1,4,0,3,12,19,9
10,4,16,1,2,0,4,12,96,11
11,4,23,0,0,0,4,12,120,11
11,4,0,0,0,0,4,12,120,11
11,4,23,0,3,0,4,12,120,11
11,4,23,0,4,0,4,12,120,11
11,4,15,1,1,0,4,12,87,11
12,1,21,0,6,1,4,12,120,11
12,1,23,0,4,0,4,12,120,11
12,1,13,1,6,1,4,12,120,11
12,1,23,0,4,0,4,12,120,11
1,1,15,1,5,1,1,12,85,11
1,1,17,1,2,0,1,12,19,11
2,1,19,1,3,0,1,12,73,11
2,1,11,1,6,1,1,12,19,11
3,2,22,0,0,0,1,12,85,11
3,2,10,1,2,0,1,12,19,11
4,2,10,1,2,0,2,12,73,11
4,2,16,1,4,0,2,12,85,11
5,2,17,1,6,1,2,12,19,11
5,2,9,1,0,0,2,12,87,11
5,2,23,0,0,0,2,12,71,11
5,2,20,1,1,0,2,12,87,11
5,2,16,1,5,1,2,12,87,11
5,2,13,1,3,0,2,12,87,11
5,2,15,1,3,0,2,12,19,11
6,3,15,1,2,0,2,12,87,11
6,3,14,1,4,0,2,12,87,11
6,3,21,0,4,0,2,12,102,9
8,3,12,1,0,0,3,12,87,11
9,4,2,0,3,0,3,12,104,11
10,4,17,1,3,0,4,12,87,11
10,4,17,1,4,0,4,12,14,9
10,4,14,1,2,0,4,12,19,11
10,4,21,0,2,0,4,12,39,11
11,4,8,1,5,1,4,12,39,11
11,4,12,1,4,0,4,12,13,11
12,1,9,1,4,0,4,12,39,11
12,1,12,1,5,1,4,12,39,11
1,1,14,1,3,0,1,12,96,11
2,1,12,1,1,0,1,12,71,11
2,1,16,1,6,1,1,12,87,11
3,2,19,1,6,1,1,12,87,11
3,2,18,1,0,0,1,12,96,11
5,2,20,1,0,0,2,12,87,11
5,2,16,1,3,0,2,12,87,11
5,2,18,1,3,0,2,12,71,11
8,3,16,1,0,0,3,12,120,9
8,3,11,1,5,1,3,12,87,8
8,3,1,0,3,0,3,12,104,11
9,4,0,0,5,1,3,12,70,11
10,4,14,1,2,0,4,12,73,11
10,4,19,1,0,0,4,12,87,9
11,4,2,0,2,0,4,12,87,11
11,4,6,0,1,0,4,12,71,11
12,1,20,1,2,0,4,12,64,11
12,1,21,0,2,0,4,12,39,11
2,1,18,1,6,1,1,12,92,11
7,3,12,1,5,1,3,12,71,11
8,3,12,1,3,0,3,12,120,11
9,4,4,0,1,0,3,12,87,9
9,4,19,1,3,0,3,12,120,11
10,4,9,1,5,1,4,12,87,11
2,1,12,1,1,0,1,12,12,9
2,1,12,1,4,0,1,12,13,11
2,1,20,1,6,1,1,12,92,11
3,2,9,1,3,0,1,12,73,9
3,2,21,0,2,0,1,12,73,11
3,2,20,1,0,0,1,12,87,11
8,3,18,1,6,1,3,12,96,11
8,3,19,1,4,0,3,12,73,11
10,4,20,1,6,1,4,12,19,11
12,1,5,0,3,0,4,12,96,11
12,1,22,0,3,0,4,12,87,11
2,1,14,1,6,1,1,12,87,11
3,2,1,0,4,0,1,12,85,11
6,3,14,1,3,0,2,12,85,11
11,4,0,0,4,0,4,12,11,11
6,3,17,1,1,0,2,12,73,9
8,3,20,1,3,0,3,12,73,11
1,1,19,1,0,0,1,29,96,11
1,1,16,1,3,0,1,29,46,11
1,1,13,1,2,0,1,29,85,11
1,1,6,0,4,0,1,29,87,11
2,1,11,1,3,0,1,29,87,11
2,1,11,1,4,0,1,29,96,11
2,1,11,1,4,0,1,29,85,11
2,1,23,0,3,0,1,29,29,11
2,1,16,1,5,1,1,29,85,11
4,2,15,1,3,0,2,29,76,11
4,2,15,1,2,0,2,29,39,11
4,2,7,1,6,1,2,29,85,11
4,2,0,0,3,0,2,29,56,8
4,2,4,0,3,0,2,29,56,8
4,2,20,1,4,0,2,29,87,11
5,2,10,1,5,1,2,29,87,11
5,2,13,1,6,1,2,29,117,9
5,2,5,0,5,1,2,29,87,11
5,2,22,0,6,1,2,29,87,11
6,3,7,1,2,0,2,29,73,11
6,3,14,1,0,0,2,29,120,11
6,3,12,1,2,0,2,29,96,11
6,3,21,0,3,0,2,29,87,11
6,3,16,1,5,1,2,29,64,11
7,3,9,1,0,0,3,29,73,11
7,3,2,0,2,0,3,29,73,11
7,3,7,1,1,0,3,29,87,11
7,3,19,1,3,0,3,29,74,11
7,3,23,0,5,1,3,29,56,11
7,3,20,1,5,1,3,29,96,11
8,3,22,0,4,0,3,29,85,11
8,3,15,1,6,1,3,29,96,11
8,3,0,0,5,1,3,29,19,8
8,3,15,1,5,1,3,29,66,11
8,3,14,1,0,0,3,29,87,11
8,3,17,1,0,0,3,29,120,11
8,3,1,0,1,0,3,29,19,11
8,3,22,0,4,0,3,29,104,11
8,3,21,0,5,1,3,29,87,11
8,3,17,1,6,1,3,29,87,11
9,4,13,1,4,0,3,29,96,11
9,4,22,0,4,0,3,29,3,11
9,4,10,1,6,1,3,29,104,11
9,4,19,1,1,0,3,29,87,11
9,4,21,0,4,0,3,29,13,9
9,4,19,1,5,1,3,29,64,11
9,4,10,1,0,0,3,29,19,11
10,4,20,1,2,0,4,29,56,8
11,4,21,0,3,0,4,29,96,11
11,4,12,1,4,0,4,29,56,11
11,4,19,1,4,0,4,29,96,11
12,1,10,1,6,1,4,29,87,11
1,1,14,1,6,1,1,29,64,11
4,2,1,0,6,1,2,29,85,11
6,3,17,1,2,0,2,29,87,11
7,3,11,1,6,1,3,29,73,11
8,3,12,1,1,0,3,29,87,11
1,1,10,1,2,0,1,29,73,11
2,1,11,1,4,0,1,29,96,11
2,1,13,1,4,0,1,29,85,11
3,2,18,1,4,0,1,29,85,11
3,2,13,1,0,0,1,29,81,11
4,2,21,0,3,0,2,29,21,11
4,2,21,0,3,0,2,29,22,9
5,2,11,1,6,1,2,29,87,11
5,2,17,1,2,0,2,29,85,11
5,2,20,1,2,0,2,29,12,11
5,2,12,1,0,0,2,29,96,11
5,2,15,1,2,0,2,29,7,11
6,3,0,0,3,0,2,29,86,11
7,3,5,0,5,1,3,29,87,11
7,3,14,1,5,1,3,29,87,11
7,3,1,0,6,1,3,29,87,11
7,3,14,1,6,1,3,29,55,11
7,3,13,1,6,1,3,29,55,11
7,3,3,0,0,0,3,29,55,11
7,3,16,1,3,0,3,29,87,11
8,3,17,1,5,1,3,29,22,9
8,3,15,1,0,0,3,29,96,11
9,4,21,0,3,0,3,29,87,9
9,4,14,1,2,0,3,29,87,11
9,4,11,1,6,1,3,29,104,11
9,4,17,1,3,0,3,29,87,11
10,4,5,0,0,0,4,29,104,11
11,4,1,0,0,0,4,29,104,11
12,1,20,1,0,0,4,29,19,11
2,1,19,1,3,0,1,29,87,11
2,1,16,1,1,0,1,29,120,11
2,1,19,1,1,0,1,29,55,11
3,2,19,1,3,0,1,29,96,11
4,2,20,1,4,0,2,29,96,11
5,2,12,1,0,0,2,29,85,11
5,2,14,1,1,0,2,29,96,11
7,3,15,1,5,1,3,29,87,11
7,3,14,1,5,1,3,29,19,11
7,3,23,0,5,1,3,29,30,11
8,3,8,1,5,1,3,29,87,11
11,4,14,1,5,1,4,29,96,11
11,4,23,0,5,1,4,29,8,11
11,4,18,1,5,1,4,29,96,11
12,1,23,0,6,1,4,29,96,11
3,2,13,1,1,0,1,29,96,11
3,2,1,0,2,0,1,29,85,11
4,2,14,1,1,0,2,29,85,11
4,2,21,0,5,1,2,29,96,11
5,2,16,1,5,1,2,29,7,9
5,2,22,0,5,1,2,29,87,11
5,2,0,0,2,0,2,29,87,11
5,2,20,1,5,1,2,29,87,11
5,2,15,1,5,1,2,29,87,11
5,2,12,1,3,0,2,29,19,11
6,3,20,1,1,0,2,29,96,11
7,3,14,1,3,0,3,29,47,11
7,3,14,1,3,0,3,29,19,11
7,3,14,1,0,0,3,29,120,11
7,3,21,0,5,1,3,29,87,11
7,3,12,1,4,0,3,29,85,11
8,3,15,1,0,0,3,29,120,11
8,3,18,1,3,0,3,29,87,11
8,3,13,1,6,1,3,29,71,11
8,3,21,0,6,1,3,29,73,11
8,3,6,0,1,0,3,29,104,11
9,4,21,0,6,1,3,29,87,11
9,4,20,1,3,0,3,29,120,11
10,4,21,0,5,1,4,29,85,11
11,4,9,1,0,0,4,29,87,11
11,4,0,0,5,1,4,29,87,11
12,1,0,0,1,0,4,29,73,9
12,1,18,1,1,0,4,29,3,11
2,1,10,1,0,0,1,29,77,11
3,2,11,1,1,0,1,29,96,11
4,2,4,0,4,0,2,29,19,11
5,2,12,1,0,0,2,29,87,11
5,2,16,1,4,0,2,29,96,11
5,2,2,0,3,0,2,29,87,11
5,2,10,1,0,0,2,29,73,11
6,3,13,1,2,0,2,29,87,11
6,3,17,1,4,0,2,29,87,11
7,3,11,1,3,0,3,29,96,11
7,3,10,1,5,1,3,29,96,11
7,3,15,1,5,1,3,29,96,11
7,3,17,1,3,0,3,29,96,11
7,3,21,0,4,0,3,29,104,11
8,3,21,0,1,0,3,29,96,11
8,3,23,0,3,0,3,29,96,11
8,3,11,1,4,0,3,29,96,11
8,3,19,1,3,0,3,29,96,11
8,3,17,1,5,1,3,29,73,11
8,3,17,1,0,0,3,29,19,11
9,4,12,1,2,0,3,29,73,11
9,4,11,1,5,1,3,29,96,11
11,4,7,1,5,1,4,29,19,11
1,1,17,1,6,1,1,10,87,11
1,1,13,1,4,0,1,10,64,11
1,1,13,1,5,1,1,10,71,11
1,1,8,1,0,0,1,10,87,11
1,1,14,1,0,0,1,10,87,11
1,1,13,1,0,0,1,10,81,11
1,1,22,0,1,0,1,10,65,9
1,1,13,1,2,0,1,10,87,11
1,1,16,1,4,0,1,10,87,11
1,1,13,1,3,0,1,10,73,11
1,1,15,1,4,0,1,10,85,11
2,1,18,1,0,0,1,10,87,11
2,1,12,1,4,0,1,10,39,11
2,1,2,0,5,1,1,10,13,11
2,1,1,0,6,1,1,10,87,11
2,1,9,1,2,0,1,10,87,11
2,1,18,1,3,0,1,10,64,11
2,1,9,1,6,1,1,10,87,11
2,1,22,0,6,1,1,10,73,11
2,1,11,1,2,0,1,10,85,11
2,1,15,1,2,0,1,10,85,11
2,1,19,1,2,0,1,10,87,9
2,1,20,1,2,0,1,10,64,8
2,1,19,1,3,0,1,10,120,11
2,1,19,1,3,0,1,10,87,11
2,1,9,1,4,0,1,10,85,11
2,1,19,1,5,1,1,10,87,11
2,1,14,1,0,0,1,10,73,11
2,1,19,1,0,0,1,10,85,11
2,1,12,1,3,0,1,10,3,11
2,1,19,1,5,1,1,10,87,11
3,2,22,0,2,0,1,10,87,11
3,2,21,0,2,0,1,10,87,11
3,2,5,0,2,0,1,10,87,8
3,2,12,1,5,1,1,10,87,11
3,2,14,1,5,1,1,10,87,11
3,2,17,1,5,1,1,10,73,11
3,2,21,0,5,1,1,10,87,11
3,2,11,1,0,0,1,10,87,11
3,2,16,1,4,0,1,10,87,11
3,2,22,0,4,0,1,10,87,11
3,2,13,1,5,1,1,10,87,11
3,2,3,0,5,1,1,10,47,11
3,2,22,0,5,1,1,10,96,11
3,2,11,1,5,1,1,10,96,11
3,2,12,1,6,1,1,10,87,11
3,2,15,1,6,1,1,10,73,11
3,2,16,1,4,0,1,10,87,11
3,2,14,1,4,0,1,10,96,11
3,2,16,1,6,1,1,10,71,11
3,2,8,1,2,0,1,10,87,11
3,2,22,0,4,0,1,10,87,11
3,2,10,1,5,1,1,10,87,11
3,2,1,0,0,0,1,10,87,11
3,2,9,1,1,0,1,10,87,11
4,2,23,0,4,0,2,10,87,11
4,2,13,1,5,1,2,10,96,11
4,2,9,1,0,0,2,10,2,11
4,2,21,0,1,0,2,10,87,11
4,2,18,1,1,0,2,10,87,9
4,2,23,0,2,0,2,10,87,11
4,2,20,1,2,0,2,10,87,11
4,2,13,1,3,0,2,10,87,11
4,2,16,1,4,0,2,10,96,11
4,2,19,1,6,1,2,10,86,11
4,2,22,0,3,0,2,10,87,11
4,2,11,1,3,0,2,10,87,11
4,2,6,0,4,0,2,10,87,8
4,2,21,0,6,1,2,10,87,11
4,2,10,1,6,1,2,10,87,11
4,2,5,0,0,0,2,10,87,11
4,2,23,0,0,0,2,10,71,11
4,2,21,0,1,0,2,10,87,9
4,2,21,0,1,0,2,10,87,11
4,2,17,1,2,0,2,10,87,11
4,2,21,0,2,0,2,10,39,11
4,2,7,1,2,0,2,10,87,11
4,2,17,1,4,0,2,10,87,11
4,2,6,0,5,1,2,10,87,11
4,2,10,1,0,0,2,10,87,11
4,2,9,1,0,0,2,10,87,11
4,2,0,0,2,0,2,10,85,11
4,2,17,1,2,0,2,10,87,11
4,2,11,1,3,0,2,10,87,11
4,2,9,1,3,0,2,10,1,8
4,2,5,0,4,0,2,10,87,11
4,2,1,0,4,0,2,10,85,11
4,2,14,1,4,0,2,10,96,11
4,2,11,1,4,0,2,10,87,11
5,2,21,0,5,1,2,10,87,8
5,2,18,1,5,1,2,10,87,8
5,2,21,0,5,1,2,10,87,11
5,2,11,1,5,1,2,10,64,11
5,2,22,0,5,1,2,10,87,11
5,2,0,0,6,1,2,10,29,11
5,2,19,1,4,0,2,10,87,11
5,2,11,1,4,0,2,10,87,11
5,2,12,1,0,0,2,10,87,11
5,2,13,1,0,0,2,10,96,11
5,2,11,1,1,0,2,10,87,11
5,2,13,1,2,0,2,10,71,11
5,2,22,0,3,0,2,10,87,11
5,2,12,1,3,0,2,10,87,11
5,2,1,0,4,0,2,10,87,11
5,2,18,1,5,1,2,10,87,11
5,2,19,1,6,1,2,10,87,11
5,2,13,1,1,0,2,10,87,11
5,2,21,0,2,0,2,10,87,11
5,2,18,1,3,0,2,10,73,11
5,2,17,1,3,0,2,10,7,11
6,3,16,1,4,0,2,10,96,11
6,3,16,1,0,0,2,10,96,11
6,3,21,0,0,0,2,10,7,11
6,3,16,1,4,0,2,10,87,11
6,3,22,0,5,1,2,10,87,11
6,3,18,1,0,0,2,10,87,8
6,3,3,0,1,0,2,10,85,11
6,3,12,1,3,0,2,10,71,9
6,3,21,0,3,0,2,10,87,11
6,3,22,0,4,0,2,10,64,11
6,3,21,0,4,0,2,10,73,11
6,3,17,1,6,1,2,10,87,11
6,3,14,1,6,1,2,10,87,11
6,3,22,0,0,0,2,10,87,11
6,3,10,1,1,0,2,10,87,11
6,3,11,1,4,0,2,10,87,11
6,3,4,0,4,0,2,10,87,11
6,3,15,1,6,1,2,10,47,11
6,3,13,1,1,0,2,10,87,11
6,3,0,0,1,0,2,10,87,11
6,3,6,0,2,0,2,10,87,11
7,3,11,1,3,0,3,10,87,11
7,3,17,1,3,0,3,10,85,11
7,3,13,1,5,1,3,10,96,11
7,3,21,0,2,0,3,10,87,11
7,3,16,1,1,0,3,10,87,11
7,3,21,0,1,0,3,10,96,11
7,3,12,1,1,0,3,10,87,11
7,3,0,0,2,0,3,10,104,11
7,3,16,1,2,0,3,10,96,11
7,3,18,1,4,0,3,10,87,11
7,3,19,1,5,1,3,10,87,11
7,3,14,1,6,1,3,10,96,11
7,3,0,0,1,0,3,10,81,11
7,3,10,1,3,0,3,10,30,11
8,3,22,0,6,1,3,10,87,11
8,3,18,1,1,0,3,10,81,11
8,3,14,1,2,0,3,10,87,11
8,3,18,1,4,0,3,10,96,11
8,3,21,0,5,1,3,10,92,11
8,3,9,1,2,0,3,10,87,11
8,3,16,1,2,0,3,10,101,11
8,3,21,0,3,0,3,10,87,11
8,3,17,1,3,0,3,10,92,11
8,3,14,1,4,0,3,10,87,11
8,3,14,1,4,0,3,10,87,11
8,3,15,1,4,0,3,10,87,11
8,3,6,0,6,1,3,10,92,11
8,3,5,0,1,0,3,10,87,11
8,3,23,0,2,0,3,10,71,11
8,3,20,1,3,0,3,10,104,11
8,3,16,1,5,1,3,10,120,8
8,3,11,1,5,1,3,10,87,11
8,3,21,0,1,0,3,10,96,11
8,3,21,0,1,0,3,10,87,9
8,3,8,1,3,0,3,10,87,11
8,3,22,0,0,0,3,10,87,9
8,3,4,0,0,0,3,10,96,11
8,3,3,0,0,0,3,10,96,11
8,3,16,1,1,0,3,10,87,11
8,3,14,1,1,0,3,10,96,11
8,3,11,1,1,0,3,10,96,11
8,3,7,1,1,0,3,10,87,11
8,3,2,0,1,0,3,10,87,11
9,4,4,0,2,0,3,10,87,11
9,4,13,1,2,0,3,10,87,11
9,4,10,1,2,0,3,10,87,11
9,4,13,1,3,0,3,10,87,11
9,4,9,1,3,0,3,10,87,11
9,4,17,1,3,0,3,10,96,11
9,4,20,1,3,0,3,10,87,11
9,4,20,1,4,0,3,10,87,11
9,4,8,1,4,0,3,10,87,11
9,4,14,1,4,0,3,10,87,11
9,4,22,0,5,1,3,10,87,11
9,4,19,1,6,1,3,10,87,11
9,4,22,0,0,0,3,10,87,11
9,4,10,1,3,0,3,10,87,11
9,4,10,1,5,1,3,10,87,11
9,4,1,0,0,0,3,10,87,11
9,4,19,1,0,0,3,10,87,11
9,4,17,1,1,0,3,10,87,11
9,4,10,1,3,0,3,10,87,11
9,4,22,0,3,0,3,10,87,11
9,4,17,1,4,0,3,10,80,11
9,4,8,1,4,0,3,10,87,11
9,4,20,1,5,1,3,10,92,11
9,4,20,1,5,1,3,10,87,11
9,4,19,1,6,1,3,10,87,11
9,4,16,1,0,0,3,10,87,11
9,4,22,0,0,0,3,10,87,11
9,4,23,0,3,0,3,10,87,11
9,4,3,0,3,0,3,10,87,11
9,4,2,0,5,1,3,10,94,11
9,4,18,1,0,0,3,10,87,11
9,4,2,0,3,0,3,10,87,11
9,4,7,1,3,0,3,10,87,11
9,4,16,1,3,0,3,10,87,11
10,4,11,1,4,0,4,10,87,11
10,4,2,0,4,0,4,10,87,11
10,4,2,0,5,1,4,10,64,11
10,4,14,1,5,1,4,10,87,11
10,4,17,1,5,1,4,10,87,11
10,4,8,1,1,0,4,10,70,11
10,4,9,1,2,0,4,10,87,11
10,4,19,1,2,0,4,10,87,11
10,4,19,1,0,0,4,10,3,11
10,4,21,0,3,0,4,10,87,11
10,4,10,1,3,0,4,10,87,11
10,4,19,1,3,0,4,10,87,11
10,4,19,1,1,0,4,10,64,11
10,4,14,1,2,0,4,10,87,11
10,4,10,1,2,0,4,10,64,11
10,4,20,1,0,0,4,10,73,11
10,4,21,0,0,0,4,10,87,9
10,4,5,0,3,0,4,10,96,11
10,4,17,1,4,0,4,10,87,11
10,4,20,1,5,1,4,10,87,11
10,4,14,1,5,1,4,10,68,11
11,4,14,1,5,1,4,10,96,11
11,4,17,1,5,1,4,10,87,11
11,4,14,1,1,0,4,10,9,11
11,4,19,1,5,1,4,10,96,11
11,4,15,1,2,0,4,10,39,11
11,4,20,1,3,0,4,10,87,11
11,4,21,0,3,0,4,10,96,11
11,4,13,1,0,0,4,10,87,11
12,1,13,1,3,0,4,10,39,11
12,1,4,0,3,0,4,10,39,11
12,1,8,1,4,0,4,10,71,11
12,1,19,1,3,0,4,10,87,11
12,1,13,1,5,1,4,10,87,11
12,1,16,1,5,1,4,10,73,11
12,1,18,1,5,1,4,10,64,11
12,1,18,1,3,0,4,10,64,11
12,1,12,1,3,0,4,10,87,11
12,1,13,1,4,0,4,10,73,11
12,1,14,1,4,0,4,10,64,11
2,1,14,1,1,0,1,10,117,11
2,1,20,1,1,0,1,10,73,11
2,1,18,1,3,0,1,10,117,11
2,1,14,1,0,0,1,10,96,11
2,1,13,1,1,0,1,10,117,11
3,2,18,1,1,0,1,10,81,11
3,2,17,1,6,1,1,10,96,11
3,2,14,1,4,0,1,10,3,11
4,2,11,1,0,0,2,10,87,11
4,2,9,1,4,0,2,10,87,11
5,2,22,0,5,1,2,10,104,11
5,2,23,0,6,1,2,10,87,11
5,2,12,1,4,0,2,10,73,11
5,2,9,1,4,0,2,10,120,11
6,3,0,0,1,0,2,10,103,11
7,3,3,0,0,0,3,10,96,11
8,3,8,1,0,0,3,10,104,11
8,3,13,1,2,0,3,10,71,11
11,4,13,1,5,1,4,10,87,11
11,4,14,1,0,0,4,10,96,11
12,1,17,1,0,0,4,10,87,11
1,1,10,1,6,1,1,10,87,11
3,2,5,0,0,0,1,10,87,11
3,2,11,1,4,0,1,10,117,11
4,2,13,1,2,0,2,10,118,11
4,2,8,1,4,0,2,10,13,11
4,2,23,0,6,1,2,10,87,11
5,2,19,1,0,0,2,10,87,11
6,3,22,0,6,1,2,10,35,11
6,3,11,1,4,0,2,10,73,8
7,3,20,1,4,0,3,10,87,11
7,3,22,0,5,1,3,10,96,11
8,3,21,0,4,0,3,10,19,11
9,4,4,0,1,0,3,10,87,11
10,4,16,1,0,0,4,10,96,11
10,4,3,0,0,0,4,10,19,11
10,4,3,0,0,0,4,10,71,9
11,4,12,1,4,0,4,10,87,11
11,4,14,1,4,0,4,10,87,11
11,4,18,1,5,1,4,10,87,11
11,4,16,1,0,0,4,10,87,11
11,4,18,1,1,0,4,10,96,11
12,1,8,1,6,1,4,10,3,11
12,1,17,1,3,0,4,10,87,11
1,1,22,0,2,0,1,10,96,11
2,1,18,1,5,1,1,10,87,11
2,1,11,1,1,0,1,10,87,11
3,2,15,1,5,1,1,10,87,11
3,2,6,0,4,0,1,10,108,11
3,2,6,0,4,0,1,10,108,11
3,2,7,1,4,0,1,10,108,11
3,2,13,1,5,1,1,10,87,11
4,2,20,1,3,0,2,10,87,11
4,2,12,1,6,1,2,10,96,11
4,2,21,0,6,1,2,10,87,11
4,2,6,0,6,1,2,10,84,11
4,2,11,1,2,0,2,10,87,11
4,2,11,1,5,1,2,10,87,11
4,2,11,1,5,1,2,10,87,11
4,2,13,1,4,0,2,10,87,11
6,3,8,1,5,1,2,10,87,11
6,3,21,0,5,1,2,10,97,11
9,4,21,0,1,0,3,10,55,11
9,4,20,1,5,1,3,10,104,11
9,4,14,1,6,1,3,10,87,11
10,4,14,1,5,1,4,10,87,11
10,4,9,1,4,0,4,10,87,11
11,4,8,1,2,0,4,10,39,9
12,1,9,1,3,0,4,10,39,11
1,1,17,1,2,0,1,10,87,11
2,1,10,1,0,0,1,10,77,11
2,1,11,1,5,1,1,10,87,11
2,1,10,1,4,0,1,10,77,11
2,1,17,1,0,0,1,10,73,11
2,1,14,1,2,0,1,10,87,11
3,2,15,1,3,0,1,10,47,11
3,2,18,1,3,0,1,10,96,11
3,2,12,1,3,0,1,10,13,11
3,2,0,0,2,0,1,10,19,11
3,2,19,1,4,0,1,10,87,11
3,2,22,0,6,1,1,10,87,11
3,2,19,1,1,0,1,10,87,11
3,2,22,0,5,1,1,10,39,11
4,2,17,1,6,1,2,10,85,11
4,2,13,1,0,0,2,10,19,11
4,2,16,1,1,0,2,10,87,11
4,2,14,1,1,0,2,10,7,11
4,2,11,1,2,0,2,10,87,11
4,2,11,1,2,0,2,10,87,11
4,2,16,1,5,1,2,10,96,11
4,2,17,1,4,0,2,10,26,11
5,2,17,1,4,0,2,10,64,11
5,2,7,1,5,1,2,10,71,11
5,2,13,1,6,1,2,10,3,11
5,2,15,1,0,0,2,10,82,11
5,2,16,1,6,1,2,10,87,11
5,2,12,1,1,0,2,10,87,11
5,2,0,0,4,0,2,10,87,11
5,2,3,0,5,1,2,10,87,11
6,3,20,1,4,0,2,10,85,11
6,3,16,1,5,1,2,10,73,11
6,3,11,1,1,0,2,10,19,11
6,3,17,1,1,0,2,10,96,11
7,3,15,1,5,1,3,10,71,11
7,3,17,1,2,0,3,10,71,11
8,3,11,1,4,0,3,10,87,11
8,3,15,1,0,0,3,10,73,11
8,3,11,1,5,1,3,10,64,11
8,3,23,0,3,0,3,10,87,11
8,3,11,1,4,0,3,10,101,11
8,3,15,1,4,0,3,10,81,11
8,3,3,0,4,0,3,10,87,11
8,3,21,0,4,0,3,10,88,11
8,3,9,1,6,1,3,10,87,11
8,3,9,1,1,0,3,10,64,11
9,4,14,1,4,0,3,10,3,11
9,4,11,1,5,1,3,10,96,11
9,4,17,1,3,0,3,10,120,11
10,4,17,1,5,1,4,10,87,11
10,4,1,0,4,0,4,10,85,11
10,4,20,1,6,1,4,10,73,11
10,4,16,1,0,0,4,10,15,11
10,4,19,1,2,0,4,10,87,11
10,4,7,1,4,0,4,10,85,11
10,4,13,1,6,1,4,10,87,11
10,4,17,1,6,1,4,10,87,11
10,4,13,1,1,0,4,10,87,11
11,4,11,1,1,0,4,10,87,11
11,4,0,0,0,0,4,10,87,11
11,4,16,1,3,0,4,10,106,11
11,4,4,0,4,0,4,10,74,11
11,4,20,1,6,1,4,10,3,11
11,4,21,0,5,1,4,10,3,11
11,4,6,0,5,1,4,10,87,11
12,1,21,0,2,0,4,10,85,11
12,1,12,1,6,1,4,10,85,11
12,1,15,1,2,0,4,10,71,11
1,1,11,1,3,0,1,10,105,11
1,1,17,1,3,0,1,10,120,8
4,2,16,1,3,0,2,10,73,11
5,2,17,1,1,0,2,10,87,11
5,2,14,1,3,0,2,10,71,11
6,3,12,1,3,0,2,10,71,11
6,3,23,0,0,0,2,10,14,11
6,3,13,1,2,0,2,10,87,11
7,3,18,1,0,0,3,10,96,11
7,3,15,1,5,1,3,10,87,11
7,3,21,0,3,0,3,10,120,11
8,3,10,1,1,0,3,10,71,11
8,3,6,0,5,1,3,10,87,11
9,4,6,0,1,0,3,10,70,11
11,4,6,0,5,1,4,10,57,11
11,4,3,0,5,1,4,10,19,11
11,4,3,0,5,1,4,10,85,11
12,1,8,1,2,0,4,10,120,11
1,1,23,0,0,0,1,33,73,11
1,1,0,0,5,1,1,33,64,11
1,1,13,1,1,0,1,33,98,9
1,1,15,1,1,0,1,33,85,11
1,1,12,1,6,1,1,33,19,11
1,1,18,1,6,1,1,33,85,9
1,1,5,0,0,0,1,33,96,11
2,1,8,1,1,0,1,33,120,11
2,1,18,1,1,0,1,33,73,11
2,1,16,1,1,0,1,33,73,11
2,1,16,1,1,0,1,33,96,11
2,1,4,0,2,0,1,33,73,11
2,1,14,1,2,0,1,33,64,9
2,1,21,0,2,0,1,33,64,11
2,1,18,1,3,0,1,33,73,11
2,1,13,1,4,0,1,33,98,11
2,1,2,0,5,1,1,33,13,8
2,1,9,1,6,1,1,33,64,11
2,1,12,1,6,1,1,33,98,11
3,2,9,1,3,0,1,33,19,11
3,2,14,1,4,0,1,33,96,11
3,2,10,1,4,0,1,33,96,11
3,2,22,0,5,1,1,33,19,11
3,2,20,1,6,1,1,33,87,11
3,2,8,1,1,0,1,33,98,8
3,2,3,0,3,0,1,33,98,11
3,2,22,0,6,1,1,33,96,11
3,2,9,1,3,0,1,33,87,11
3,2,15,1,3,0,1,33,64,11
3,2,19,1,4,0,1,33,46,11
3,2,21,0,5,1,1,33,73,11
3,2,13,1,6,1,1,33,73,11
3,2,18,1,0,0,1,33,3,11
3,2,9,1,1,0,1,33,96,11
3,2,16,1,2,0,1,33,96,11
4,2,12,1,5,1,2,33,87,11
4,2,22,0,6,1,2,33,45,11
4,2,21,0,2,0,2,33,120,11
4,2,21,0,4,0,2,33,73,9
4,2,16,1,6,1,2,33,96,11
4,2,14,1,6,1,2,33,39,11
4,2,20,1,4,0,2,33,98,11
4,2,23,0,2,0,2,33,120,11
4,2,21,0,5,1,2,33,104,11
4,2,19,1,1,0,2,33,87,11
5,2,10,1,1,0,2,33,39,11
5,2,12,1,2,0,2,33,96,11
5,2,10,1,3,0,2,33,73,11
5,2,9,1,4,0,2,33,64,11
5,2,22,0,4,0,2,33,3,11
6,3,7,1,1,0,2,33,13,11
6,3,18,1,1,0,2,33,120,11
6,3,22,0,4,0,2,33,71,9
6,3,20,1,4,0,2,33,96,11
6,3,21,0,5,1,2,33,27,11
6,3,21,0,6,1,2,33,96,11
6,3,20,1,5,1,2,33,96,11
6,3,7,1,2,0,2,33,96,11
6,3,23,0,3,0,2,33,73,11
6,3,13,1,5,1,2,33,120,11
6,3,13,1,6,1,2,33,98,11
6,3,13,1,2,0,2,33,17,11
6,3,23,0,2,0,2,33,87,11
6,3,17,1,2,0,2,33,120,11
7,3,6,0,4,0,3,33,1,11
7,3,8,1,4,0,3,33,105,11
7,3,22,0,4,0,3,33,96,11
7,3,14,1,5,1,3,33,73,11
7,3,13,1,0,0,3,33,104,11
7,3,1,0,6,1,3,33,87,11
7,3,16,1,2,0,3,33,87,11
7,3,13,1,2,0,3,33,87,11
7,3,20,1,6,1,3,33,87,11
7,3,12,1,0,0,3,33,73,9
7,3,19,1,1,0,3,33,87,11
7,3,0,0,4,0,3,33,13,8
7,3,9,1,4,0,3,33,87,11
8,3,20,1,1,0,3,33,87,11
8,3,21,0,5,1,3,33,49,11
8,3,17,1,1,0,3,33,73,11
8,3,19,1,2,0,3,33,8,11
8,3,1,0,0,0,3,33,87,11
8,3,20,1,1,0,3,33,87,11
8,3,16,1,3,0,3,33,47,11
9,4,10,1,5,1,3,33,22,11
9,4,23,0,1,0,3,33,87,11
9,4,19,1,4,0,3,33,87,11
9,4,22,0,2,0,3,33,87,11
9,4,5,0,3,0,3,33,104,11
9,4,1,0,3,0,3,33,87,11
9,4,12,1,4,0,3,33,87,11
10,4,12,1,0,0,4,33,98,11
10,4,14,1,0,0,4,33,87,11
10,4,10,1,1,0,4,33,87,11
10,4,21,0,3,0,4,33,87,11
10,4,12,1,4,0,4,33,96,11
10,4,3,0,4,0,4,33,96,11
11,4,12,1,3,0,4,33,3,11
11,4,1,0,5,1,4,33,56,11
11,4,14,1,0,0,4,33,13,9
11,4,12,1,1,0,4,33,47,11
11,4,11,1,1,0,4,33,87,11
11,4,13,1,6,1,4,33,120,11
11,4,14,1,0,0,4,33,98,8
11,4,9,1,3,0,4,33,98,11
11,4,22,0,4,0,4,33,98,9
11,4,16,1,4,0,4,33,98,11
11,4,10,1,5,1,4,33,120,11
12,1,18,1,2,0,4,33,73,11
12,1,15,1,3,0,4,33,98,11
12,1,19,1,3,0,4,33,104,11
12,1,22,0,5,1,4,33,96,11
12,1,6,0,4,0,4,33,33,11
12,1,7,1,5,1,4,33,73,11
12,1,9,1,0,0,4,33,120,11
12,1,19,1,1,0,4,33,87,11
12,1,12,1,2,0,4,33,120,11
12,1,0,0,3,0,4,33,120,11
12,1,10,1,4,0,4,33,96,11
12,1,5,0,5,1,4,33,64,11
12,1,21,0,0,0,4,33,3,11
12,1,17,1,1,0,4,33,87,11
12,1,7,1,2,0,4,33,73,11
1,1,6,0,1,0,1,33,73,11
1,1,12,1,3,0,1,33,73,11
1,1,9,1,4,0,1,33,73,11
2,1,9,1,5,1,1,33,87,11
2,1,18,1,6,1,1,33,73,11
3,2,18,1,0,0,1,33,73,8
3,2,19,1,2,0,1,33,96,11
4,2,10,1,0,0,2,33,85,11
5,2,10,1,1,0,2,33,77,9
5,2,17,1,4,0,2,33,73,11
5,2,20,1,1,0,2,33,87,11
5,2,15,1,6,1,2,33,96,11
6,3,12,1,1,0,2,33,57,8
6,3,14,1,6,1,2,33,103,11
6,3,17,1,6,1,2,33,87,11
7,3,9,1,4,0,3,33,13,11
8,3,15,1,2,0,3,33,87,11
8,3,19,1,0,0,3,33,96,11
8,3,18,1,3,0,3,33,13,11
8,3,10,1,5,1,3,33,87,11
8,3,22,0,5,1,3,33,73,11
9,4,18,1,3,0,3,33,120,11
10,4,12,1,2,0,4,33,73,11
11,4,7,1,4,0,4,33,42,11
11,4,14,1,2,0,4,33,73,9
11,4,17,1,6,1,4,33,87,11
11,4,10,1,0,0,4,33,85,11
12,1,13,1,2,0,4,33,73,11
12,1,15,1,2,0,4,33,12,8
12,1,14,1,2,0,4,33,73,11
12,1,22,0,4,0,4,33,73,11
12,1,15,1,4,0,4,33,73,11
1,1,10,1,0,0,1,33,73,11
2,1,3,0,0,0,1,33,19,8
3,2,2,0,3,0,1,33,12,8
4,2,1,0,0,0,2,33,19,9
4,2,16,1,3,0,2,33,73,11
6,3,18,1,2,0,2,33,73,11
8,3,17,1,6,1,3,33,47,11
8,3,15,1,1,0,3,33,87,11
9,4,16,1,4,0,3,33,96,11
9,4,3,0,2,0,3,33,96,11
10,4,20,1,4,0,4,33,87,11
11,4,6,0,4,0,4,33,13,11
1,1,19,1,1,0,1,33,73,11
1,1,13,1,4,0,1,33,73,11
2,1,22,0,0,0,1,33,85,11
2,1,15,1,1,0,1,33,103,11
2,1,19,1,5,1,1,33,73,11
3,2,11,1,0,0,1,33,87,11
3,2,12,1,3,0,1,33,73,11
3,2,10,1,3,0,1,33,96,11
4,2,3,0,0,0,2,33,73,8
4,2,21,0,2,0,2,33,73,11
5,2,8,1,0,0,2,33,71,11
5,2,7,1,5,1,2,33,71,11
6,3,13,1,1,0,2,33,13,9
6,3,16,1,6,1,2,33,1,11
6,3,20,1,1,0,2,33,120,11
7,3,22,0,6,1,3,33,73,11
7,3,0,0,0,0,3,33,114,11
7,3,23,0,2,0,3,33,73,8
7,3,11,1,2,0,3,33,73,11
9,4,13,1,6,1,3,33,73,11
10,4,8,1,4,0,4,33,19,11
11,4,0,0,5,1,4,33,19,11
11,4,9,1,2,0,4,33,19,11
11,4,12,1,5,1,4,33,73,8
11,4,16,1,6,1,4,33,3,11
11,4,20,1,6,1,4,33,87,11
11,4,9,1,3,0,4,33,120,11
12,1,12,1,2,0,4,33,19,11
12,1,19,1,3,0,4,33,87,11
1,1,19,1,3,0,1,33,120,11
2,1,11,1,6,1,1,33,39,11
2,1,6,0,0,0,1,33,85,11
3,2,2,0,5,1,1,33,92,11
4,2,13,1,3,0,2,33,104,11
4,2,16,1,4,0,2,33,87,11
5,2,17,1,6,1,2,33,77,11
5,2,11,1,0,0,2,33,105,11
7,3,6,0,5,1,3,33,19,11
7,3,5,0,5,1,3,33,13,8
7,3,23,0,6,1,3,33,87,11
8,3,14,1,3,0,3,33,87,11
8,3,1,0,4,0,3,33,87,11
9,4,17,1,2,0,3,33,73,11
9,4,17,1,4,0,3,33,87,11
9,4,19,1,4,0,3,33,87,11
9,4,23,0,3,0,3,33,96,11
9,4,16,1,6,1,3,33,87,11
9,4,0,0,0,0,3,33,96,11
9,4,23,0,1,0,3,33,92,11
9,4,22,0,2,0,3,33,96,11
9,4,19,1,4,0,3,33,19,11
9,4,13,1,6,1,3,33,85,11
9,4,1,0,3,0,3,33,19,11
11,4,19,1,0,0,4,33,39,11
11,4,16,1,0,0,4,33,87,11
12,1,12,1,6,1,4,33,120,11
12,1,18,1,5,1,4,33,73,11
12,1,9,1,6,1,4,33,85,11
12,1,13,1,4,0,4,33,120,11
1,1,12,1,1,0,1,51,92,11
1,1,12,1,2,0,1,51,96,11
1,1,14,1,2,0,1,51,96,11
1,1,14,1,5,1,1,51,104,11
1,1,15,1,1,0,1,51,73,11
1,1,23,0,4,0,1,51,73,11
2,1,14,1,1,0,1,51,120,11
2,1,21,0,6,1,1,51,19,11
2,1,11,1,2,0,1,51,85,11
2,1,16,1,5,1,1,51,85,11
2,1,23,0,2,0,1,51,85,11
3,2,16,1,5,1,1,51,73,11
3,2,16,1,5,1,1,51,73,11
3,2,14,1,6,1,1,51,13,11
3,2,18,1,0,0,1,51,73,11
3,2,17,1,4,0,1,51,98,11
3,2,11,1,6,1,1,51,73,11
3,2,21,0,3,0,1,51,39,11
3,2,11,1,0,0,1,51,27,11
4,2,15,1,3,0,2,51,81,11
4,2,20,1,6,1,2,51,73,11
4,2,12,1,0,0,2,51,96,8
4,2,20,1,4,0,2,51,39,11
4,2,10,1,3,0,2,51,104,11
4,2,9,1,4,0,2,51,19,11
4,2,18,1,0,0,2,51,120,11
4,2,17,1,4,0,2,51,87,11
5,2,18,1,6,1,2,51,87,11
5,2,21,0,6,1,2,51,87,11
5,2,13,1,6,1,2,51,87,11
5,2,3,0,0,0,2,51,13,8
5,2,17,1,1,0,2,51,98,11
5,2,17,1,3,0,2,51,74,11
5,2,20,1,6,1,2,51,87,11
5,2,15,1,0,0,2,51,13,8
5,2,18,1,6,1,2,51,39,11
6,3,2,0,6,1,2,51,73,11
6,3,19,1,1,0,2,51,56,11
7,3,9,1,1,0,3,51,87,11
7,3,19,1,6,1,3,51,39,11
7,3,14,1,4,0,3,51,87,11
7,3,14,1,1,0,3,51,13,11
7,3,11,1,4,0,3,51,85,11
7,3,21,0,4,0,3,51,73,11
8,3,15,1,4,0,3,51,87,11
8,3,16,1,2,0,3,51,73,11
9,4,19,1,0,0,3,51,87,11
9,4,13,1,2,0,3,51,87,11
9,4,10,1,6,1,3,51,73,11
9,4,12,1,0,0,3,51,73,11
9,4,17,1,1,0,3,51,85,11
10,4,11,1,4,0,4,51,19,11
10,4,19,1,3,0,4,51,87,11
10,4,5,0,3,0,4,51,85,11
11,4,22,0,1,0,4,51,87,11
11,4,8,1,1,0,4,51,87,11
11,4,0,0,3,0,4,51,85,11
11,4,18,1,0,0,4,51,87,11
11,4,19,1,0,0,4,51,87,11
11,4,12,1,4,0,4,51,85,11
11,4,15,1,1,0,4,51,87,11
12,1,21,0,2,0,4,51,64,11
12,1,22,0,0,0,4,51,85,11
12,1,21,0,0,0,4,51,103,11
12,1,23,0,5,1,4,51,85,11
12,1,16,1,0,0,4,51,87,11
12,1,15,1,4,0,4,51,85,11
12,1,11,1,6,1,4,51,87,11
12,1,12,1,4,0,4,51,85,11
1,1,11,1,2,0,1,51,87,11
3,2,18,1,1,0,1,51,87,11
3,2,20,1,1,0,1,51,120,11
5,2,16,1,6,1,2,51,73,11
7,3,12,1,4,0,3,51,40,11
1,1,12,1,5,1,1,51,85,11
2,1,12,1,1,0,1,51,96,11
3,2,14,1,6,1,1,51,73,11
3,2,21,0,0,0,1,51,73,11
5,2,12,1,6,1,2,51,3,11
5,2,8,1,6,1,2,51,87,11
10,4,10,1,3,0,4,51,73,11
1,1,21,0,5,1,1,43,85,11
1,1,15,1,0,0,1,43,29,11
1,1,8,1,5,1,1,43,66,11
2,1,12,1,4,0,1,43,120,11
3,2,11,1,5,1,1,43,87,11
3,2,21,0,3,0,1,43,120,11
3,2,11,1,6,1,1,43,64,11
4,2,2,0,6,1,2,43,3,11
4,2,17,1,1,0,2,43,27,11
4,2,23,0,2,0,2,43,3,11
4,2,17,1,5,1,2,43,120,11
4,2,15,1,0,0,2,43,1,11
4,2,12,1,1,0,2,43,96,11
5,2,4,0,4,0,2,43,104,11
5,2,20,1,4,0,2,43,12,11
6,3,23,0,6,1,2,43,98,11
7,3,7,1,4,0,3,43,1,11
7,3,7,1,4,0,3,43,1,11
8,3,13,1,4,0,3,43,76,11
8,3,20,1,5,1,3,43,87,11
10,4,15,1,0,0,4,43,35,11
11,4,5,0,1,0,4,43,66,11
12,1,17,1,0,0,4,43,73,11
12,1,3,0,6,1,4,43,110,11
12,1,21,0,5,1,4,43,66,11
12,1,16,1,3,0,4,43,120,11
12,1,17,1,5,1,4,43,39,11
1,1,23,0,6,1,1,43,73,11
2,1,10,1,6,1,1,43,39,11
6,3,9,1,4,0,2,43,19,11
8,3,14,1,5,1,3,43,96,11
9,4,13,1,3,0,3,43,120,11
2,1,22,0,1,0,1,43,27,11
2,1,7,1,3,0,1,43,120,11
4,2,16,1,1,0,2,43,3,11
7,3,18,1,2,0,3,43,73,11
8,3,21,0,6,1,3,43,3,11
11,4,13,1,2,0,4,43,64,11
12,1,2,0,5,1,4,43,96,11
3,2,17,1,5,1,1,43,19,11
10,4,20,1,5,1,4,43,120,11
1,1,11,1,4,0,1,17,120,11
1,1,10,1,5,1,1,17,64,11
1,1,17,1,1,0,1,17,87,11
2,1,16,1,0,0,1,17,73,11
2,1,18,1,0,0,1,17,87,11
2,1,21,0,3,0,1,17,87,11
2,1,10,1,2,0,1,17,13,11
3,2,6,0,0,0,1,17,87,11
3,2,13,1,2,0,1,17,87,11
3,2,11,1,0,0,1,17,104,11
3,2,13,1,6,1,1,17,71,11
3,2,21,0,0,0,1,17,120,11
3,2,23,0,1,0,1,17,87,11
4,2,13,1,3,0,2,17,73,11
4,2,16,1,6,1,2,17,39,11
4,2,17,1,6,1,2,17,96,11
4,2,14,1,6,1,2,17,96,11
4,2,16,1,2,0,2,17,96,11
4,2,10,1,3,0,2,17,96,11
4,2,15,1,6,1,2,17,96,11
4,2,17,1,6,1,2,17,96,11
4,2,14,1,0,0,2,17,13,11
5,2,17,1,5,1,2,17,87,11
6,3,14,1,1,0,2,17,73,11
6,3,0,0,2,0,2,17,104,11
6,3,17,1,3,0,2,17,71,11
6,3,15,1,4,0,2,17,87,11
6,3,1,0,5,1,2,17,120,11
6,3,12,1,5,1,2,17,19,11
7,3,12,1,1,0,3,17,73,11
7,3,15,1,2,0,3,17,96,11
7,3,12,1,2,0,3,17,96,11
7,3,14,1,4,0,3,17,96,11
8,3,14,1,5,1,3,17,96,11
8,3,10,1,6,1,3,17,19,11
8,3,0,0,2,0,3,17,103,9
8,3,3,0,3,0,3,17,87,11
8,3,18,1,4,0,3,17,104,11
9,4,16,1,6,1,3,17,87,11
9,4,13,1,1,0,3,17,3,11
9,4,16,1,3,0,3,17,87,11
10,4,21,0,6,1,4,17,104,11
10,4,10,1,1,0,4,17,104,11
10,4,15,1,1,0,4,17,104,11
10,4,21,0,2,0,4,17,96,11
10,4,23,0,4,0,4,17,85,11
10,4,21,0,1,0,4,17,120,11
11,4,17,1,4,0,4,17,96,11
11,4,11,1,3,0,4,17,96,11
12,1,17,1,0,0,4,17,104,11
12,1,18,1,2,0,4,17,19,11
12,1,18,1,1,0,4,17,64,11
1,1,17,1,0,0,1,17,87,11
1,1,13,1,1,0,1,17,3,11
1,1,8,1,2,0,1,17,117,11
1,1,15,1,6,1,1,17,13,11
2,1,12,1,0,0,1,17,87,11
2,1,1,0,2,0,1,17,19,9
2,1,23,0,2,0,1,17,87,11
2,1,18,1,4,0,1,17,3,11
2,1,19,1,6,1,1,17,96,11
2,1,10,1,0,0,1,17,3,11
2,1,10,1,0,0,1,17,96,11
2,1,12,1,1,0,1,17,64,11
3,2,14,1,6,1,1,17,87,11
3,2,18,1,1,0,1,17,12,11
3,2,19,1,4,0,1,17,87,11
3,2,10,1,0,0,1,17,87,11
3,2,12,1,1,0,1,17,87,11
3,2,16,1,5,1,1,17,3,11
3,2,17,1,1,0,1,17,87,11
4,2,11,1,1,0,2,17,3,11
4,2,9,1,3,0,2,17,70,11
4,2,17,1,6,1,2,17,96,11
4,2,14,1,0,0,2,17,87,11
4,2,12,1,2,0,2,17,87,11
4,2,13,1,5,1,2,17,64,11
4,2,10,1,5,1,2,17,87,11
4,2,14,1,0,0,2,17,87,11
4,2,23,0,1,0,2,17,87,11
4,2,21,0,3,0,2,17,87,11
4,2,11,1,5,1,2,17,87,11
4,2,17,1,0,0,2,17,87,11
4,2,22,0,1,0,2,17,87,11
4,2,2,0,2,0,2,17,87,9
4,2,17,1,4,0,2,17,96,11
5,2,12,1,6,1,2,17,96,11
5,2,3,0,0,0,2,17,87,9
5,2,2,0,1,0,2,17,87,9
5,2,5,0,0,0,2,17,87,11
5,2,12,1,2,0,2,17,87,11
6,3,7,1,1,0,2,17,13,11
6,3,18,1,2,0,2,17,13,11
6,3,14,1,2,0,2,17,87,11
6,3,20,1,6,1,2,17,19,11
6,3,10,1,2,0,2,17,96,11
7,3,22,0,3,0,3,17,85,11
7,3,18,1,5,1,3,17,87,11
7,3,11,1,6,1,3,17,73,11
8,3,23,0,4,0,3,17,104,11
8,3,21,0,5,1,3,17,87,11
8,3,18,1,5,1,3,17,96,11
8,3,21,0,0,0,3,17,104,11
9,4,13,1,4,0,3,17,19,11
9,4,14,1,5,1,3,17,87,11
9,4,18,1,5,1,3,17,73,11
9,4,10,1,1,0,3,17,71,11
10,4,15,1,4,0,4,17,96,11
10,4,11,1,3,0,4,17,87,11
10,4,8,1,3,0,4,17,87,11
10,4,17,1,3,0,4,17,94,11
10,4,5,0,4,0,4,17,73,11
10,4,7,1,3,0,4,17,96,11
10,4,11,1,5,1,4,17,3,11
11,4,17,1,3,0,4,17,13,11
11,4,18,1,6,1,4,17,87,11
11,4,15,1,4,0,4,17,3,11
11,4,13,1,5,1,4,17,87,11
11,4,23,0,6,1,4,17,87,11
11,4,6,0,0,0,4,17,12,8
11,4,21,0,0,0,4,17,87,11
11,4,21,0,1,0,4,17,104,11
12,1,14,1,4,0,4,17,3,11
12,1,17,1,5,1,4,17,87,11
12,1,13,1,6,1,4,17,3,11
12,1,17,1,4,0,4,17,85,11
12,1,2,0,6,1,4,17,19,9
12,1,17,1,1,0,4,17,87,11
1,1,10,1,6,1,1,17,73,11
1,1,3,0,6,1,1,17,19,11
2,1,11,1,5,1,1,17,12,8
2,1,13,1,3,0,1,17,13,11
3,2,19,1,6,1,1,17,96,11
4,2,14,1,2,0,2,17,96,11
4,2,18,1,2,0,2,17,96,11
4,2,15,1,2,0,2,17,87,11
4,2,15,1,3,0,2,17,120,11
4,2,13,1,4,0,2,17,87,11
4,2,13,1,6,1,2,17,85,11
4,2,13,1,4,0,2,17,96,11
5,2,13,1,1,0,2,17,87,11
5,2,14,1,2,0,2,17,85,11
6,3,0,0,6,1,2,17,87,11
7,3,10,1,2,0,3,17,96,11
7,3,19,1,4,0,3,17,13,11
7,3,11,1,1,0,3,17,87,11
7,3,14,1,3,0,3,17,64,8
7,3,16,1,3,0,3,17,64,8
7,3,18,1,3,0,3,17,13,8
7,3,0,0,6,1,3,17,96,11
8,3,14,1,0,0,3,17,96,11
8,3,15,1,1,0,3,17,87,8
9,4,21,0,6,1,3,17,96,11
9,4,3,0,4,0,3,17,3,9
9,4,3,0,6,1,3,17,87,8
9,4,22,0,5,1,3,17,73,8
9,4,14,1,3,0,3,17,104,9
10,4,12,1,0,0,4,17,120,11
10,4,0,0,1,0,4,17,12,8
10,4,9,1,6,1,4,17,39,11
10,4,17,1,4,0,4,17,96,11
11,4,13,1,0,0,4,17,73,11
11,4,16,1,0,0,4,17,96,11
11,4,13,1,3,0,4,17,96,11
11,4,12,1,0,0,4,17,96,11
11,4,18,1,4,0,4,17,96,11
11,4,5,0,2,0,4,17,87,11
12,1,2,0,6,1,4,17,19,8
2,1,17,1,4,0,1,17,96,11
3,2,11,1,0,0,1,17,96,11
3,2,15,1,3,0,1,17,3,11
4,2,17,1,3,0,2,17,96,11
4,2,12,1,4,0,2,17,3,11
4,2,15,1,6,1,2,17,96,11
4,2,12,1,2,0,2,17,96,11
4,2,17,1,3,0,2,17,3,11
5,2,13,1,6,1,2,17,87,11
6,3,17,1,4,0,2,17,87,11
8,3,17,1,1,0,3,17,87,11
11,4,18,1,4,0,4,17,96,11
11,4,9,1,5,1,4,17,96,11
11,4,14,1,2,0,4,17,3,11
11,4,12,1,5,1,4,17,96,11
11,4,15,1,0,0,4,17,96,11
11,4,17,1,1,0,4,17,96,11
12,1,13,1,3,0,4,17,87,11
6,3,4,0,2,0,2,17,19,11
8,3,8,1,6,1,3,17,96,11
1,1,17,1,4,0,1,17,85,11
1,1,9,1,0,0,1,17,85,11
1,1,16,1,2,0,1,17,85,11
1,1,8,1,3,0,1,17,85,11
1,1,23,0,6,1,1,17,96,11
1,1,19,1,2,0,1,17,64,11
1,1,17,1,2,0,1,17,87,11
1,1,14,1,5,1,1,17,85,11
1,1,0,0,0,0,1,17,85,11
1,1,14,1,1,0,1,17,39,11
1,1,11,1,2,0,1,17,85,11
1,1,2,0,2,0,1,17,85,11
1,1,11,1,4,0,1,17,13,8
1,1,17,1,3,0,1,17,85,11
1,1,23,0,3,0,1,17,85,11
1,1,14,1,4,0,1,17,73,11
1,1,19,1,6,1,1,17,39,11
1,1,14,1,6,1,1,17,3,11
2,1,11,1,1,0,1,17,13,8
2,1,10,1,1,0,1,17,41,9
2,1,19,1,1,0,1,17,85,11
2,1,7,1,5,1,1,17,96,11
2,1,13,1,5,1,1,17,39,11
2,1,16,1,1,0,1,17,64,11
2,1,8,1,1,0,1,17,87,11
2,1,19,1,4,0,1,17,85,11
2,1,13,1,2,0,1,17,64,11
2,1,18,1,3,0,1,17,64,11
2,1,18,1,6,1,1,17,64,11
2,1,13,1,6,1,1,17,13,11
2,1,19,1,2,0,1,17,85,11
2,1,13,1,5,1,1,17,31,11
2,1,1,0,6,1,1,17,120,11
3,2,10,1,1,0,1,17,120,11
3,2,1,0,2,0,1,17,96,11
3,2,8,1,2,0,1,17,85,11
3,2,17,1,2,0,1,17,64,11
3,2,12,1,3,0,1,17,39,11
3,2,12,1,3,0,1,17,47,11
3,2,1,0,3,0,1,17,13,8
3,2,5,0,4,0,1,17,64,11
3,2,1,0,6,1,1,17,73,11
3,2,10,1,0,0,1,17,85,11
3,2,11,1,0,0,1,17,87,11
3,2,11,1,2,0,1,17,3,11
3,2,19,1,3,0,1,17,87,11
3,2,2,0,4,0,1,17,85,11
3,2,15,1,6,1,1,17,94,11
3,2,20,1,1,0,1,17,64,11
3,2,19,1,1,0,1,17,64,11
3,2,16,1,1,0,1,17,64,11
3,2,19,1,1,0,1,17,13,8
3,2,23,0,5,1,1,17,64,11
4,2,1,0,4,0,2,17,85,11
4,2,14,1,5,1,2,17,85,11
4,2,12,1,6,1,2,17,3,11
4,2,17,1,6,1,2,17,64,11
4,2,13,1,0,0,2,17,39,11
4,2,21,0,3,0,2,17,94,11
4,2,13,1,3,0,2,17,39,11
4,2,17,1,3,0,2,17,14,8
4,2,1,0,3,0,2,17,118,11
4,2,17,1,4,0,2,17,64,8
4,2,21,0,5,1,2,17,64,11
4,2,9,1,5,1,2,17,3,11
4,2,21,0,6,1,2,17,73,11
4,2,15,1,2,0,2,17,96,11
4,2,15,1,6,1,2,17,64,11
4,2,12,1,4,0,2,17,85,11
4,2,11,1,1,0,2,17,29,11
4,2,12,1,2,0,2,17,64,11
4,2,10,1,3,0,2,17,87,11
4,2,11,1,3,0,2,17,96,11
4,2,18,1,4,0,2,17,96,11
4,2,5,0,4,0,2,17,87,11
4,2,1,0,4,0,2,17,87,11
4,2,19,1,4,0,2,17,27,11
5,2,9,1,5,1,2,17,85,11
5,2,20,1,5,1,2,17,87,11
5,2,20,1,5,1,2,17,85,8
5,2,17,1,5,1,2,17,85,11
5,2,18,1,5,1,2,17,96,11
5,2,2,0,6,1,2,17,73,11
5,2,17,1,6,1,2,17,39,11
5,2,20,1,6,1,2,17,87,11
5,2,20,1,2,0,2,17,96,11
5,2,10,1,4,0,2,17,85,11
5,2,19,1,4,0,2,17,87,11
5,2,3,0,0,0,2,17,85,11
5,2,10,1,3,0,2,17,85,11
5,2,22,0,4,0,2,17,73,11
5,2,22,0,4,0,2,17,73,11
5,2,20,1,4,0,2,17,87,11
5,2,23,0,6,1,2,17,64,11
5,2,14,1,1,0,2,17,39,8
5,2,11,1,5,1,2,17,22,8
5,2,19,1,6,1,2,17,87,11
5,2,18,1,6,1,2,17,73,11
5,2,12,1,3,0,2,17,39,11
5,2,21,0,5,1,2,17,87,11
5,2,6,0,5,1,2,17,57,11
5,2,21,0,6,1,2,17,85,11
5,2,10,1,6,1,2,17,64,11
6,3,6,0,4,0,2,17,13,11
6,3,17,1,5,1,2,17,87,11
6,3,4,0,6,1,2,17,85,8
6,3,5,0,0,0,2,17,64,11
6,3,4,0,1,0,2,17,85,11
6,3,20,1,6,1,2,17,87,11
6,3,12,1,1,0,2,17,85,11
6,3,15,1,4,0,2,17,87,11
6,3,17,1,2,0,2,17,64,11
6,3,13,1,4,0,2,17,73,11
6,3,21,0,6,1,2,17,87,11
6,3,20,1,1,0,2,17,87,11
6,3,15,1,2,0,2,17,87,11
7,3,20,1,3,0,3,17,56,11
7,3,11,1,0,0,3,17,85,11
7,3,13,1,2,0,3,17,87,11
7,3,19,1,2,0,3,17,73,11
7,3,12,1,2,0,3,17,64,11
7,3,18,1,4,0,3,17,87,11
7,3,1,0,6,1,3,17,64,11
7,3,12,1,0,0,3,17,85,11
7,3,9,1,0,0,3,17,85,11
7,3,17,1,3,0,3,17,87,11
7,3,3,0,4,0,3,17,85,11
7,3,8,1,5,1,3,17,73,11
7,3,6,0,0,0,3,17,85,11
7,3,19,1,0,0,3,17,64,11
7,3,23,0,2,0,3,17,87,11
7,3,2,0,3,0,3,17,96,11
7,3,13,1,3,0,3,17,85,11
8,3,4,0,6,1,3,17,64,11
8,3,9,1,2,0,3,17,3,11
8,3,17,1,3,0,3,17,85,11
8,3,11,1,4,0,3,17,87,8
8,3,22,0,4,0,3,17,87,11
8,3,17,1,4,0,3,17,64,9
8,3,20,1,0,0,3,17,85,11
8,3,14,1,6,1,3,17,39,11
8,3,18,1,2,0,3,17,87,11
8,3,18,1,4,0,3,17,64,11
8,3,9,1,5,1,3,17,85,11
8,3,22,0,5,1,3,17,12,8
8,3,13,1,5,1,3,17,64,9
8,3,13,1,6,1,3,17,85,11
8,3,2,0,2,0,3,17,85,11
8,3,10,1,3,0,3,17,64,9
9,4,16,1,5,1,3,17,96,11
9,4,21,0,2,0,3,17,87,11
9,4,23,0,4,0,3,17,85,11
9,4,20,1,0,0,3,17,64,11
9,4,3,0,2,0,3,17,85,11
9,4,13,1,3,0,3,17,96,11
9,4,13,1,4,0,3,17,73,11
9,4,19,1,5,1,3,17,87,11
9,4,2,0,2,0,3,17,85,11
9,4,13,1,3,0,3,17,64,11
9,4,11,1,3,0,3,17,87,11
9,4,7,1,1,0,3,17,85,11
10,4,22,0,0,0,4,17,73,11
10,4,21,0,1,0,4,17,116,11
10,4,16,1,4,0,4,17,49,11
10,4,5,0,6,1,4,17,85,11
10,4,22,0,0,0,4,17,85,11
10,4,1,0,1,0,4,17,120,11
10,4,9,1,4,0,4,17,96,11
10,4,16,1,2,0,4,17,87,11
10,4,2,0,3,0,4,17,19,11
10,4,19,1,4,0,4,17,87,11
10,4,17,1,6,1,4,17,64,11
10,4,12,1,6,1,4,17,27,11
10,4,5,0,6,1,4,17,74,11
11,4,13,1,0,0,4,17,39,11
11,4,1,0,0,0,4,17,71,11
11,4,16,1,1,0,4,17,64,11
11,4,1,0,1,0,4,17,85,11
11,4,12,1,1,0,4,17,85,11
11,4,17,1,2,0,4,17,73,11
11,4,11,1,5,1,4,17,39,11
11,4,11,1,6,1,4,17,119,11
11,4,15,1,3,0,4,17,55,11
11,4,4,0,3,0,4,17,64,11
11,4,6,0,3,0,4,17,120,11
11,4,23,0,3,0,4,17,120,11
11,4,16,1,3,0,4,17,85,11
11,4,21,0,3,0,4,17,73,11
11,4,13,1,6,1,4,17,120,11
11,4,13,1,0,0,4,17,87,11
11,4,14,1,1,0,4,17,87,11
11,4,11,1,2,0,4,17,87,11
11,4,3,0,3,0,4,17,19,11
11,4,12,1,4,0,4,17,87,11
11,4,13,1,0,0,4,17,3,11
12,1,16,1,2,0,4,17,87,11
12,1,19,1,0,0,4,17,85,11
12,1,15,1,1,0,4,17,73,11
12,1,23,0,3,0,4,17,64,11
12,1,19,1,3,0,4,17,64,11
12,1,12,1,4,0,4,17,87,11
12,1,19,1,5,1,4,17,64,11
12,1,23,0,0,0,4,17,85,11
12,1,19,1,0,0,4,17,101,11
12,1,20,1,0,0,4,17,56,11
12,1,21,0,2,0,4,17,64,11
12,1,7,1,4,0,4,17,81,11
12,1,4,0,0,0,4,17,85,11
12,1,18,1,0,0,4,17,85,11
12,1,5,0,1,0,4,17,39,11
12,1,23,0,3,0,4,17,39,11
12,1,12,1,4,0,4,17,64,11
12,1,13,1,1,0,4,17,85,11
12,1,16,1,1,0,4,17,19,11
12,1,18,1,4,0,4,17,87,11
12,1,20,1,4,0,4,17,85,11
1,1,16,1,5,1,1,17,22,11
1,1,19,1,5,1,1,17,120,11
1,1,18,1,6,1,1,17,87,11
1,1,21,0,4,0,1,17,64,11
2,1,6,0,4,0,1,17,87,8
2,1,12,1,5,1,1,17,87,11
3,2,18,1,2,0,1,17,73,9
3,2,18,1,5,1,1,17,120,11
3,2,18,1,0,0,1,17,96,11
4,2,20,1,3,0,2,17,96,11
4,2,6,0,5,1,2,17,22,11
4,2,19,1,1,0,2,17,71,11
4,2,23,0,6,1,2,17,87,11
4,2,20,1,5,1,2,17,87,11
4,2,9,1,3,0,2,17,87,11
5,2,20,1,5,1,2,17,85,11
5,2,21,0,0,0,2,17,96,11
5,2,12,1,1,0,2,17,87,11
5,2,20,1,2,0,2,17,87,11
5,2,2,0,4,0,2,17,120,11
5,2,0,0,6,1,2,17,19,9
5,2,14,1,0,0,2,17,120,11
5,2,20,1,0,0,2,17,120,11
6,3,15,1,2,0,2,17,120,9
6,3,9,1,6,1,2,17,120,11
6,3,13,1,0,0,2,17,96,11
6,3,20,1,5,1,2,17,87,11
6,3,20,1,6,1,2,17,71,11
7,3,13,1,5,1,3,17,87,11
8,3,19,1,2,0,3,17,96,11
8,3,13,1,3,0,3,17,96,11
8,3,6,0,1,0,3,17,87,11
8,3,15,1,2,0,3,17,87,11
8,3,6,0,3,0,3,17,87,11
8,3,7,1,1,0,3,17,87,11
8,3,6,0,4,0,3,17,87,11
8,3,22,0,1,0,3,17,87,11
9,4,6,0,0,0,3,17,87,11
9,4,15,1,0,0,3,17,87,11
9,4,19,1,1,0,3,17,87,11
9,4,1,0,6,1,3,17,87,11
9,4,18,1,3,0,3,17,96,11
10,4,13,1,6,1,4,17,96,11
10,4,15,1,0,0,4,17,96,11
10,4,16,1,2,0,4,17,103,11
10,4,20,1,1,0,4,17,13,9
10,4,23,0,5,1,4,17,87,11
10,4,15,1,6,1,4,17,87,11
11,4,16,1,6,1,4,17,87,11
11,4,16,1,3,0,4,17,87,11
11,4,17,1,3,0,4,17,96,11
11,4,14,1,6,1,4,17,87,11
12,1,18,1,1,0,4,17,66,11
12,1,10,1,6,1,4,17,57,11
6,3,11,1,4,0,2,17,4,11
1,1,19,1,5,1,1,50,120,11
1,1,14,1,0,0,1,50,87,11
1,1,15,1,0,0,1,50,27,11
1,1,10,1,1,0,1,50,96,11
1,1,14,1,1,0,1,50,55,11
1,1,16,1,1,0,1,50,96,11
1,1,18,1,1,0,1,50,3,11
2,1,6,0,3,0,1,50,120,11
2,1,16,1,6,1,1,50,104,11
2,1,15,1,4,0,1,50,73,11
3,2,22,0,0,0,1,50,104,11
3,2,15,1,6,1,1,50,27,11
4,2,20,1,5,1,2,50,104,11
4,2,11,1,1,0,2,50,120,11
4,2,23,0,1,0,2,50,96,11
5,2,14,1,6,1,2,50,87,11
5,2,20,1,0,0,2,50,96,11
5,2,6,0,2,0,2,50,120,11
5,2,13,1,5,1,2,50,117,11
7,3,22,0,6,1,3,50,120,11
7,3,12,1,2,0,3,50,19,11
7,3,15,1,3,0,3,50,120,11
8,3,19,1,0,0,3,50,19,11
8,3,17,1,1,0,3,50,96,11
8,3,16,1,4,0,3,50,19,11
8,3,20,1,1,0,3,50,120,11
9,4,15,1,4,0,3,50,64,11
9,4,23,0,1,0,3,50,117,11
12,1,18,1,5,1,4,50,13,11
12,1,6,0,6,1,4,50,66,11
1,1,8,1,5,1,1,50,92,11
1,1,14,1,3,0,1,50,13,9
1,1,1,0,0,0,1,50,19,11
1,1,16,1,1,0,1,50,64,11
1,1,22,0,1,0,1,50,39,9
1,1,3,0,6,1,1,50,19,11
1,1,15,1,0,0,1,50,18,9
1,1,17,1,1,0,1,50,96,11
1,1,20,1,3,0,1,50,39,11
2,1,20,1,5,1,1,50,87,11
2,1,20,1,6,1,1,50,87,11
2,1,8,1,6,1,1,50,87,11
2,1,16,1,1,0,1,50,19,11
2,1,20,1,5,1,1,50,92,11
2,1,4,0,6,1,1,50,19,9
2,1,22,0,2,0,1,50,39,11
2,1,21,0,5,1,1,50,96,11
2,1,2,0,6,1,1,50,74,11
2,1,14,1,2,0,1,50,14,8
2,1,20,1,3,0,1,50,87,11
2,1,15,1,6,1,1,50,73,11
3,2,19,1,1,0,1,50,64,11
3,2,13,1,6,1,1,50,87,11
3,2,21,0,2,0,1,50,87,11
3,2,22,0,2,0,1,50,96,11
3,2,19,1,6,1,1,50,73,11
3,2,0,0,1,0,1,50,39,8
3,2,20,1,5,1,1,50,73,11
3,2,21,0,6,1,1,50,73,11
3,2,21,0,6,1,1,50,22,8
3,2,15,1,1,0,1,50,64,11
4,2,1,0,5,1,2,50,19,9
4,2,8,1,5,1,2,50,87,11
4,2,13,1,6,1,2,50,19,9
4,2,15,1,6,1,2,50,65,11
4,2,16,1,6,1,2,50,96,11
4,2,13,1,2,0,2,50,87,11
4,2,19,1,2,0,2,50,87,11
4,2,19,1,3,0,2,50,39,11
4,2,17,1,1,0,2,50,87,11
4,2,19,1,4,0,2,50,87,11
4,2,12,1,6,1,2,50,87,11
4,2,15,1,6,1,2,50,96,11
4,2,22,0,6,1,2,50,9,11
4,2,9,1,0,0,2,50,31,11
4,2,12,1,6,1,2,50,96,11
4,2,23,0,1,0,2,50,87,11
4,2,19,1,2,0,2,50,87,11
4,2,9,1,3,0,2,50,19,11
4,2,16,1,3,0,2,50,87,11
4,2,21,0,4,0,2,50,87,11
5,2,2,0,5,1,2,50,94,11
5,2,7,1,0,0,2,50,2,8
5,2,8,1,3,0,2,50,78,11
5,2,17,1,4,0,2,50,96,11
5,2,21,0,2,0,2,50,87,11
5,2,19,1,3,0,2,50,19,11
5,2,1,0,4,0,2,50,19,8
5,2,2,0,0,0,2,50,19,11
6,3,23,0,2,0,2,50,92,11
6,3,16,1,4,0,2,50,96,11
6,3,13,1,1,0,2,50,19,11
6,3,21,0,1,0,2,50,19,11
6,3,8,1,2,0,2,50,39,11
6,3,13,1,5,1,2,50,96,11
6,3,3,0,5,1,2,50,45,9
6,3,0,0,1,0,2,50,2,11
6,3,14,1,1,0,2,50,19,11
7,3,21,0,3,0,3,50,102,11
7,3,19,1,3,0,3,50,19,11
7,3,18,1,6,1,3,50,92,11
7,3,22,0,0,0,3,50,78,11
7,3,13,1,3,0,3,50,87,11
7,3,23,0,3,0,3,50,102,11
7,3,11,1,4,0,3,50,71,11
7,3,15,1,4,0,3,50,19,11
8,3,23,0,1,0,3,50,56,11
8,3,8,1,6,1,3,50,19,11
8,3,16,1,1,0,3,50,92,11
8,3,19,1,2,0,3,50,87,11
8,3,15,1,1,0,3,50,64,11
8,3,12,1,0,0,3,50,13,11
9,4,9,1,2,0,3,50,104,11
9,4,11,1,0,0,3,50,87,11
9,4,12,1,1,0,3,50,64,11
9,4,2,0,2,0,3,50,19,11
9,4,17,1,2,0,3,50,87,11
10,4,12,1,5,1,4,50,39,9
10,4,7,1,6,1,4,50,87,11
10,4,1,0,0,0,4,50,96,11
10,4,23,0,2,0,4,50,87,11
10,4,13,1,0,0,4,50,104,11
10,4,22,0,0,0,4,50,64,11
10,4,23,0,3,0,4,50,87,11
10,4,10,1,6,1,4,50,87,11
10,4,22,0,3,0,4,50,64,11
10,4,11,1,4,0,4,50,120,8
10,4,19,1,0,0,4,50,73,11
10,4,13,1,0,0,4,50,64,11
10,4,13,1,4,0,4,50,73,9
10,4,8,1,6,1,4,50,19,11
11,4,13,1,3,0,4,50,19,9
11,4,1,0,4,0,4,50,73,11
11,4,14,1,5,1,4,50,87,11
11,4,3,0,5,1,4,50,71,11
11,4,4,0,6,1,4,50,96,11
11,4,11,1,6,1,4,50,87,11
11,4,13,1,4,0,4,50,87,11
11,4,17,1,4,0,4,50,19,11
11,4,20,1,6,1,4,50,19,11
11,4,14,1,4,0,4,50,96,11
11,4,11,1,5,1,4,50,96,11
11,4,12,1,5,1,4,50,7,8
11,4,10,1,6,1,4,50,7,11
11,4,17,1,6,1,4,50,87,11
11,4,7,1,0,0,4,50,87,11
11,4,16,1,0,0,4,50,20,11
12,1,7,1,3,0,4,50,96,11
12,1,23,0,4,0,4,50,87,11
12,1,5,0,1,0,4,50,104,11
12,1,5,0,6,1,4,50,73,11
12,1,22,0,2,0,4,50,19,11
12,1,11,1,4,0,4,50,73,11
12,1,3,0,5,1,4,50,94,11
12,1,10,1,1,0,4,50,104,11
12,1,19,1,3,0,4,50,92,11
12,1,4,0,6,1,4,50,81,11
12,1,14,1,6,1,4,50,87,11
1,1,16,1,4,0,1,50,64,11
1,1,16,1,5,1,1,50,73,11
1,1,15,1,5,1,1,50,85,11
2,1,12,1,6,1,1,50,13,11
2,1,17,1,6,1,1,50,87,11
2,1,10,1,0,0,1,50,87,11
2,1,14,1,0,0,1,50,20,11
2,1,15,1,3,0,1,50,87,11
2,1,16,1,4,0,1,50,96,11
2,1,21,0,6,1,1,50,96,11
4,2,11,1,4,0,2,50,96,11
4,2,12,1,5,1,2,50,64,11
4,2,17,1,0,0,2,50,87,11
4,2,21,0,2,0,2,50,96,11
4,2,21,0,5,1,2,50,13,11
4,2,19,1,6,1,2,50,87,11
4,2,16,1,2,0,2,50,87,11
5,2,20,1,3,0,2,50,96,11
5,2,3,0,4,0,2,50,104,11
5,2,17,1,6,1,2,50,87,11
5,2,15,1,4,0,2,50,104,11
6,3,14,1,0,0,2,50,73,11
6,3,16,1,2,0,2,50,64,11
6,3,12,1,6,1,2,50,87,11
7,3,10,1,4,0,3,50,19,11
8,3,13,1,0,0,3,50,73,11
8,3,13,1,1,0,3,50,96,11
8,3,3,0,5,1,3,50,13,9
8,3,9,1,0,0,3,50,87,11
8,3,13,1,0,0,3,50,73,8
8,3,11,1,2,0,3,50,85,11
8,3,20,1,0,0,3,50,96,11
9,4,21,0,4,0,3,50,85,11
10,4,18,1,3,0,4,50,87,11
10,4,15,1,4,0,4,50,85,11
10,4,10,1,5,1,4,50,73,11
11,4,18,1,1,0,4,50,96,11
11,4,10,1,2,0,4,50,87,11
11,4,19,1,6,1,4,50,73,11
12,1,20,1,3,0,4,50,96,11
12,1,2,0,5,1,4,50,87,11
3,2,11,1,4,0,1,50,87,11
3,2,14,1,0,0,1,50,87,11
5,2,18,1,2,0,2,50,87,11
8,3,19,1,4,0,3,50,87,11
9,4,12,1,0,0,3,50,104,11
9,4,19,1,0,0,3,50,87,11
1,1,12,1,0,0,1,41,106,11
1,1,12,1,1,0,1,41,64,11
1,1,17,1,4,0,1,41,73,11
1,1,16,1,0,0,1,41,37,11
1,1,19,1,6,1,1,41,73,11
1,1,17,1,3,0,1,41,85,11
2,1,3,0,1,0,1,41,73,11
2,1,18,1,0,0,1,41,39,11
2,1,9,1,1,0,1,41,64,11
2,1,21,0,3,0,1,41,56,11
2,1,10,1,4,0,1,41,19,11
2,1,22,0,4,0,1,41,120,11
2,1,19,1,5,1,1,41,73,11
2,1,22,0,5,1,1,41,73,11
2,1,17,1,0,0,1,41,39,11
2,1,17,1,4,0,1,41,117,11
2,1,13,1,3,0,1,41,39,11
2,1,6,0,4,0,1,41,120,11
2,1,20,1,4,0,1,41,39,11
2,1,17,1,6,1,1,41,31,11
3,2,15,1,4,0,1,41,96,11
3,2,11,1,3,0,1,41,96,11
3,2,4,0,4,0,1,41,87,11
3,2,8,1,6,1,1,41,64,11
3,2,5,0,0,0,1,41,73,11
3,2,12,1,1,0,1,41,64,11
3,2,20,1,1,0,1,41,74,11
3,2,5,0,5,1,1,41,120,11
4,2,12,1,2,0,2,41,87,11
4,2,15,1,4,0,2,41,64,11
4,2,10,1,1,0,2,41,87,11
4,2,11,1,1,0,2,41,120,11
4,2,14,1,1,0,2,41,87,11
4,2,19,1,3,0,2,41,87,11
4,2,17,1,2,0,2,41,19,11
5,2,17,1,5,1,2,41,87,11
5,2,21,0,5,1,2,41,87,11
5,2,11,1,0,0,2,41,19,11
5,2,17,1,2,0,2,41,120,11
5,2,15,1,2,0,2,41,120,11
5,2,19,1,2,0,2,41,74,11
6,3,13,1,2,0,2,41,19,11
6,3,8,1,6,1,2,41,87,11
6,3,18,1,6,1,2,41,85,11
7,3,9,1,1,0,3,41,84,11
7,3,12,1,2,0,3,41,64,11
7,3,12,1,6,1,3,41,73,11
7,3,8,1,4,0,3,41,87,11
8,3,10,1,3,0,3,41,87,11
9,4,6,0,6,1,3,41,19,11
9,4,20,1,4,0,3,41,22,11
9,4,13,1,0,0,3,41,96,11
9,4,19,1,5,1,3,41,39,11
9,4,7,1,1,0,3,41,96,11
10,4,16,1,0,0,4,41,64,11
10,4,17,1,4,0,4,41,96,11
10,4,5,0,0,0,4,41,39,11
10,4,13,1,3,0,4,41,22,11
10,4,12,1,1,0,4,41,87,11
11,4,14,1,3,0,4,41,85,11
11,4,12,1,5,1,4,41,87,11
11,4,3,0,3,0,4,41,87,11
11,4,19,1,3,0,4,41,46,11
11,4,18,1,5,1,4,41,87,11
11,4,9,1,5,1,4,41,87,11
11,4,12,1,6,1,4,41,87,11
11,4,14,1,1,0,4,41,39,11
11,4,14,1,3,0,4,41,85,11
11,4,18,1,4,0,4,41,64,11
11,4,19,1,0,0,4,41,63,11
12,1,21,0,4,0,4,41,39,11
12,1,10,1,1,0,4,41,41,11
12,1,20,1,1,0,4,41,19,11
12,1,19,1,4,0,4,41,19,11
12,1,19,1,5,1,4,41,73,11
12,1,20,1,4,0,4,41,39,11
12,1,11,1,1,0,4,41,87,11
1,1,14,1,5,1,1,41,73,11
1,1,0,0,6,1,1,41,120,11
10,4,0,0,1,0,4,41,104,11
11,4,12,1,0,0,4,41,62,11
6,3,19,1,3,0,2,41,85,11
1,1,12,1,4,0,1,41,73,11
2,1,9,1,3,0,1,41,85,11
4,2,16,1,3,0,2,41,120,11
5,2,23,0,4,0,2,41,46,11
5,2,19,1,2,0,2,41,96,11
6,3,17,1,6,1,2,41,19,11
7,3,21,0,3,0,3,41,96,11
8,3,23,0,2,0,3,41,27,11
8,3,10,1,2,0,3,41,27,11
8,3,17,1,3,0,3,41,27,11
8,3,12,1,4,0,3,41,73,11
8,3,1,0,5,1,3,41,96,11
9,4,11,1,0,0,3,41,96,11
12,1,16,1,1,0,4,41,87,11
12,1,22,0,6,1,4,41,85,11
2,1,12,1,3,0,1,41,120,11
7,3,21,0,4,0,3,41,87,11
9,4,9,1,2,0,3,41,19,11
11,4,20,1,2,0,4,41,104,11
1,1,16,1,0,0,1,41,27,11
2,1,19,1,6,1,1,41,120,11
2,1,19,1,6,1,1,41,85,11
2,1,10,1,0,0,1,41,3,11
2,1,22,0,5,1,1,41,73,11
2,1,16,1,6,1,1,41,96,11
4,2,20,1,6,1,2,41,96,11
4,2,13,1,5,1,2,41,35,11
4,2,13,1,6,1,2,41,39,11
4,2,16,1,3,0,2,41,87,11
4,2,3,0,1,0,2,41,96,11
7,3,12,1,2,0,3,41,120,11
8,3,14,1,5,1,3,41,27,11
8,3,13,1,3,0,3,41,27,11
8,3,10,1,6,1,3,41,87,11
9,4,14,1,4,0,3,41,87,11
9,4,17,1,2,0,3,41,120,11
3,2,20,1,1,0,1,41,73,11
7,3,22,0,0,0,3,41,12,11
9,4,19,1,0,0,3,41,120,11
11,4,11,1,4,0,4,41,87,11
1,1,21,0,6,1,1,32,85,11
2,1,16,1,0,0,1,32,104,11
2,1,17,1,2,0,1,32,39,11
3,2,20,1,3,0,1,32,64,11
3,2,19,1,3,0,1,32,73,11
4,2,19,1,4,0,2,32,19,11
4,2,15,1,5,1,2,32,64,11
4,2,12,1,4,0,2,32,87,11
5,2,11,1,6,1,2,32,103,11
5,2,13,1,6,1,2,32,87,11
5,2,16,1,3,0,2,32,47,11
5,2,18,1,6,1,2,32,87,11
7,3,19,1,5,1,3,32,19,9
7,3,14,1,0,0,3,32,64,11
7,3,8,1,5,1,3,32,96,11
7,3,0,0,0,0,3,32,85,11
7,3,20,1,2,0,3,32,19,11
8,3,16,1,0,0,3,32,71,11
8,3,19,1,0,0,3,32,120,11
8,3,3,0,1,0,3,32,13,9
9,4,14,1,4,0,3,32,96,11
10,4,11,1,4,0,4,32,19,11
10,4,17,1,0,0,4,32,120,11
11,4,21,0,5,1,4,32,97,11
11,4,9,1,5,1,4,32,19,11
12,1,17,1,6,1,4,32,104,11
12,1,13,1,5,1,4,32,87,11
1,1,16,1,4,0,1,32,120,11
3,2,21,0,6,1,1,32,73,11
6,3,10,1,1,0,2,32,96,11
8,3,6,0,6,1,3,32,19,11
9,4,13,1,6,1,3,32,96,11
2,1,12,1,3,0,1,32,85,11
3,2,7,1,0,0,1,32,12,11
6,3,14,1,3,0,2,32,87,11
6,3,21,0,3,0,2,32,64,11
7,3,18,1,2,0,3,32,13,11
7,3,5,0,4,0,3,32,56,11
8,3,16,1,4,0,3,32,70,9
9,4,14,1,6,1,3,32,1,11
9,4,13,1,6,1,3,32,87,9
9,4,19,1,1,0,3,32,56,11
9,4,2,0,6,1,3,32,85,11
9,4,14,1,4,0,3,32,64,9
9,4,13,1,1,0,3,32,87,11
10,4,20,1,3,0,4,32,73,11
10,4,12,1,0,0,4,32,87,11
11,4,10,1,5,1,4,32,96,11
1,1,12,1,4,0,1,32,3,9
1,1,23,0,6,1,1,32,64,11
2,1,19,1,3,0,1,32,103,11
2,1,14,1,0,0,1,32,39,11
3,2,12,1,0,0,1,32,47,11
4,2,9,1,5,1,2,32,73,11
5,2,8,1,2,0,2,32,73,11
6,3,4,0,2,0,2,32,96,11
6,3,17,1,3,0,2,32,87,11
6,3,13,1,4,0,2,32,87,11
8,3,18,1,6,1,3,32,71,11
9,4,12,1,1,0,3,32,87,11
11,4,9,1,0,0,4,32,12,11
11,4,1,0,2,0,4,32,96,11
11,4,1,0,6,1,4,32,87,11
12,1,1,0,2,0,4,32,45,8
12,1,2,0,0,0,4,32,85,11
1,1,22,0,6,1,1,24,104,11
1,1,21,0,0,0,1,24,120,11
3,2,17,1,6,1,1,24,73,11
3,2,21,0,5,1,1,24,73,11
4,2,15,1,4,0,2,24,73,11
5,2,18,1,4,0,2,24,39,8
5,2,19,1,6,1,2,24,96,11
6,3,22,0,2,0,2,24,120,11
7,3,8,1,4,0,3,24,56,11
7,3,9,1,1,0,3,24,104,11
7,3,3,0,4,0,3,24,64,11
7,3,10,1,1,0,3,24,19,11
8,3,11,1,3,0,3,24,87,11
8,3,13,1,1,0,3,24,87,11
11,4,1,0,2,0,4,24,73,11
12,1,20,1,3,0,4,24,73,11
2,1,11,1,2,0,1,24,81,11
2,1,12,1,2,0,1,24,73,9
4,2,21,0,0,0,2,24,73,11
4,2,17,1,4,0,2,24,73,11
4,2,23,0,5,1,2,24,85,11
4,2,13,1,2,0,2,24,87,11
5,2,11,1,4,0,2,24,13,9
5,2,15,1,1,0,2,24,73,11
5,2,0,0,2,0,2,24,68,11
6,3,12,1,5,1,2,24,120,11
8,3,11,1,5,1,3,24,120,11
8,3,3,0,6,1,3,24,43,11
11,4,17,1,3,0,4,24,73,11
11,4,23,0,0,0,4,24,95,11
11,4,10,1,2,0,4,24,120,11
11,4,17,1,2,0,4,24,120,9
11,4,1,0,3,0,4,24,120,11
12,1,15,1,2,0,4,24,92,11
6,3,15,1,5,1,2,24,96,11
8,3,1,0,5,1,3,24,104,11
8,3,22,0,3,0,3,24,39,11
1,1,13,1,4,0,1,24,19,11
1,1,5,0,2,0,1,24,56,11
1,1,12,1,1,0,1,24,73,11
1,1,18,1,3,0,1,24,73,11
2,1,10,1,2,0,1,24,120,11
2,1,14,1,6,1,1,24,64,11
2,1,20,1,0,0,1,24,64,11
2,1,15,1,6,1,1,24,19,11
2,1,14,1,0,0,1,24,120,11
2,1,11,1,4,0,1,24,96,11
2,1,21,0,5,1,1,24,13,9
3,2,19,1,2,0,1,24,64,11
3,2,7,1,3,0,1,24,73,11
3,2,20,1,4,0,1,24,96,11
3,2,22,0,5,1,1,24,39,11
3,2,15,1,4,0,1,24,70,8
3,2,18,1,5,1,1,24,73,11
3,2,21,0,5,1,1,24,87,9
3,2,19,1,6,1,1,24,64,11
3,2,17,1,1,0,1,24,64,11
3,2,16,1,4,0,1,24,78,11
3,2,8,1,6,1,1,24,104,11
3,2,16,1,3,0,1,24,64,11
3,2,19,1,0,0,1,24,64,11
3,2,1,0,0,0,1,24,96,11
3,2,6,0,2,0,1,24,73,9
4,2,21,0,6,1,2,24,85,11
4,2,22,0,5,1,2,24,64,11
4,2,1,0,1,0,2,24,96,11
4,2,12,1,4,0,2,24,85,11
4,2,21,0,2,0,2,24,73,11
5,2,3,0,6,1,2,24,64,11
5,2,23,0,6,1,2,24,120,11
5,2,1,0,3,0,2,24,95,9
6,3,12,1,5,1,2,24,87,11
6,3,14,1,1,0,2,24,73,9
7,3,12,1,3,0,3,24,96,11
7,3,13,1,4,0,3,24,47,11
7,3,0,0,2,0,3,24,87,11
7,3,21,0,3,0,3,24,73,11
7,3,5,0,4,0,3,24,85,11
8,3,14,1,4,0,3,24,64,11
8,3,12,1,4,0,3,24,120,11
8,3,22,0,4,0,3,24,96,11
8,3,11,1,2,0,3,24,73,11
8,3,20,1,6,1,3,24,96,11
8,3,20,1,6,1,3,24,73,11
8,3,21,0,2,0,3,24,87,11
8,3,23,0,2,0,3,24,64,11
8,3,18,1,4,0,3,24,120,11
9,4,21,0,6,1,3,24,87,11
9,4,14,1,3,0,3,24,96,11
9,4,4,0,5,1,3,24,19,9
9,4,12,1,0,0,3,24,96,11
9,4,8,1,2,0,3,24,96,11
10,4,14,1,4,0,4,24,96,11
10,4,0,0,5,1,4,24,87,11
10,4,7,1,1,0,4,24,96,11
10,4,16,1,3,0,4,24,96,11
10,4,18,1,1,0,4,24,87,11
10,4,22,0,5,1,4,24,64,11
11,4,8,1,0,0,4,24,19,11
11,4,21,0,3,0,4,24,120,11
11,4,13,1,0,0,4,24,64,11
11,4,21,0,1,0,4,24,87,9
11,4,16,1,5,1,4,24,73,11
11,4,8,1,2,0,4,24,73,9
11,4,9,1,6,1,4,24,120,11
12,1,15,1,2,0,4,24,73,11
12,1,19,1,2,0,4,24,87,11
12,1,7,1,5,1,4,24,19,11
12,1,10,1,1,0,4,24,87,11
12,1,1,0,2,0,4,24,96,11
12,1,13,1,3,0,4,24,19,11
12,1,17,1,4,0,4,24,73,9
1,1,17,1,4,0,1,34,85,11
1,1,13,1,0,0,1,34,104,11
1,1,7,1,4,0,1,1,13,9
1,1,16,1,3,0,1,1,13,8
1,1,19,1,3,0,1,1,39,11
1,1,23,0,4,0,1,34,92,11
2,1,12,1,3,0,1,34,39,11
2,1,13,1,6,1,1,34,96,11
2,1,19,1,5,1,1,34,87,11
2,1,16,1,1,0,1,34,92,11
2,1,21,0,3,0,1,34,39,11
2,1,19,1,5,1,1,34,39,11
3,2,0,0,4,0,1,1,39,8
3,2,19,1,2,0,1,34,87,11
3,2,19,1,1,0,1,34,39,11
3,2,12,1,1,0,1,34,120,11
3,2,18,1,1,0,1,34,96,11
4,2,12,1,3,0,2,34,96,11
4,2,21,0,3,0,2,34,39,11
4,2,18,1,1,0,2,1,96,11
4,2,13,1,2,0,2,34,87,9
4,2,12,1,3,0,2,34,120,11
4,2,20,1,4,0,2,34,63,11
4,2,20,1,5,1,2,34,87,11
4,2,20,1,6,1,2,34,87,11
4,2,21,0,5,1,2,34,87,11
4,2,14,1,0,0,2,34,96,11
4,2,12,1,2,0,2,1,87,9
4,2,15,1,2,0,2,1,96,9
5,2,23,0,5,1,2,1,96,11
5,2,18,1,6,1,2,34,96,11
5,2,13,1,0,0,2,34,39,8
5,2,12,1,0,0,2,34,64,11
5,2,17,1,0,0,2,34,87,9
6,3,18,1,1,0,2,1,87,11
6,3,2,0,5,1,2,1,12,9
6,3,3,0,2,0,2,34,87,8
6,3,13,1,3,0,2,34,87,9
6,3,12,1,2,0,2,34,94,11
7,3,21,0,5,1,3,34,64,11
7,3,16,1,5,1,3,34,73,8
7,3,19,1,2,0,3,1,87,11
7,3,9,1,1,0,3,1,71,11
7,3,14,1,2,0,3,34,70,8
7,3,23,0,3,0,3,1,92,11
8,3,14,1,6,1,3,34,87,11
8,3,14,1,1,0,3,1,13,9
8,3,21,0,4,0,3,34,104,11
8,3,21,0,6,1,3,1,12,8
8,3,9,1,5,1,3,34,92,11
8,3,13,1,4,0,3,34,71,11
8,3,15,1,0,0,3,34,87,11
9,4,0,0,1,0,3,1,96,11
9,4,13,1,5,1,3,34,70,8
9,4,2,0,0,0,3,34,71,11
9,4,19,1,5,1,3,1,96,11
9,4,17,1,3,0,3,34,87,9
10,4,9,1,3,0,4,34,13,8
10,4,1,0,4,0,4,1,104,11
10,4,19,1,4,0,4,34,64,11
11,4,13,1,6,1,4,34,71,9
11,4,19,1,0,0,4,34,87,11
11,4,18,1,0,0,4,34,87,11
11,4,2,0,2,0,4,34,87,11
11,4,21,0,2,0,4,34,87,11
11,4,15,1,5,1,4,34,96,11
11,4,17,1,5,1,4,1,96,11
11,4,11,1,6,1,4,34,29,11
11,4,18,1,0,0,4,34,92,11
11,4,20,1,3,0,4,1,96,11
12,1,18,1,3,0,4,34,87,11
12,1,20,1,4,0,4,34,96,11
12,1,8,1,6,1,4,1,12,8
12,1,19,1,6,1,4,34,92,11
12,1,23,0,6,1,4,1,92,11
4,2,17,1,2,0,2,34,73,8
4,2,13,1,4,0,2,34,87,11
6,3,5,0,2,0,2,34,20,9
11,4,18,1,3,0,4,34,27,11
1,1,12,1,3,0,1,25,96,11
1,1,17,1,6,1,1,25,64,11
1,1,15,1,1,0,1,25,39,11
2,1,15,1,2,0,1,25,19,11
2,1,18,1,4,0,1,25,120,11
2,1,18,1,2,0,1,25,96,11
3,2,12,1,1,0,1,25,87,11
3,2,9,1,2,0,1,25,73,11
3,2,19,1,4,0,1,25,73,11
3,2,8,1,0,0,1,25,120,11
3,2,14,1,0,0,1,25,85,11
3,2,17,1,1,0,1,25,120,11
4,2,12,1,0,0,2,25,87,11
4,2,17,1,6,1,2,25,87,11
5,2,22,0,5,1,2,25,87,11
5,2,13,1,3,0,2,25,73,11
5,2,12,1,6,1,2,25,19,11
5,2,13,1,1,0,2,25,71,11
5,2,10,1,6,1,2,25,73,11
5,2,1,0,1,0,2,25,19,11
6,3,20,1,3,0,2,25,87,11
6,3,7,1,2,0,2,25,71,11
6,3,15,1,6,1,2,25,39,11
6,3,22,0,2,0,2,25,1,11
7,3,11,1,6,1,3,25,104,11
7,3,6,0,6,1,3,25,104,11
7,3,9,1,0,0,3,25,87,11
7,3,15,1,2,0,3,25,87,11
7,3,19,1,2,0,3,25,73,11
8,3,20,1,0,0,3,25,73,11
8,3,17,1,3,0,3,25,120,11
9,4,14,1,2,0,3,25,96,11
10,4,21,0,6,1,4,25,64,11
11,4,12,1,2,0,4,25,87,11
11,4,23,0,4,0,4,25,87,11
11,4,13,1,5,1,4,25,96,11
11,4,13,1,0,0,4,25,73,11
12,1,1,0,5,1,4,25,87,11
12,1,12,1,2,0,4,25,96,11
12,1,12,1,3,0,4,25,19,11
12,1,13,1,4,0,4,25,85,11
1,1,0,0,1,0,1,25,73,11
1,1,10,1,6,1,1,25,85,11
2,1,21,0,2,0,1,25,73,11
2,1,18,1,4,0,1,25,39,11
2,1,14,1,1,0,1,25,19,11
4,2,14,1,6,1,2,25,47,11
5,2,17,1,3,0,2,25,87,11
6,3,12,1,0,0,2,25,19,9
7,3,18,1,3,0,3,25,87,11
7,3,23,0,3,0,3,25,104,11
7,3,10,1,1,0,3,25,104,11
7,3,23,0,6,1,3,25,73,8
8,3,21,0,6,1,3,25,85,11
8,3,14,1,1,0,3,25,85,11
9,4,8,1,2,0,3,25,70,11
9,4,16,1,3,0,3,25,87,11
11,4,7,1,1,0,4,25,25,11
11,4,8,1,1,0,4,25,104,11
1,1,8,1,6,1,1,25,85,11
3,2,4,0,6,1,1,25,71,11
5,2,16,1,6,1,2,25,77,11
8,3,16,1,0,0,3,25,20,11
8,3,6,0,4,0,3,25,3,11
9,4,13,1,1,0,3,25,73,11
9,4,20,1,2,0,3,25,101,11
1,1,7,1,2,0,1,25,104,11
3,2,18,1,4,0,1,25,85,11
3,2,13,1,5,1,1,25,13,11
4,2,9,1,6,1,2,25,67,11
5,2,6,0,5,1,2,25,104,11
6,3,18,1,5,1,2,25,39,11
7,3,12,1,4,0,3,25,120,11
7,3,13,1,6,1,3,25,87,11
8,3,19,1,3,0,3,25,87,11
9,4,22,0,5,1,3,25,120,8
12,1,18,1,2,0,4,25,39,11
1,1,3,0,5,1,1,14,73,11
1,1,17,1,5,1,1,14,87,11
1,1,4,0,6,1,1,14,104,11
1,1,12,1,2,0,1,14,39,11
1,1,11,1,5,1,1,14,87,11
2,1,22,0,2,0,1,14,73,11
2,1,21,0,0,0,1,14,39,11
2,1,18,1,2,0,1,14,3,11
2,1,8,1,5,1,1,14,73,11
2,1,11,1,1,0,1,14,73,11
2,1,17,1,4,0,1,14,85,11
2,1,14,1,6,1,1,14,73,11
3,2,21,0,0,0,1,14,39,11
3,2,16,1,4,0,1,14,87,11
3,2,20,1,2,0,1,14,70,11
3,2,11,1,6,1,1,14,87,11
3,2,12,1,0,0,1,14,87,11
3,2,18,1,3,0,1,14,96,11
3,2,20,1,6,1,1,14,73,11
3,2,13,1,6,1,1,14,87,11
3,2,1,0,0,0,1,14,73,11
3,2,20,1,0,0,1,14,73,11
3,2,23,0,1,0,1,14,87,11
3,2,13,1,2,0,1,14,47,11
3,2,15,1,2,0,1,14,87,11
4,2,14,1,5,1,2,14,87,11
4,2,15,1,5,1,2,14,87,11
4,2,19,1,0,0,2,14,87,11
4,2,10,1,4,0,2,14,85,11
4,2,13,1,4,0,2,14,87,11
4,2,21,0,2,0,2,14,96,11
4,2,8,1,6,1,2,14,87,11
4,2,14,1,0,0,2,14,87,11
4,2,6,0,4,0,2,14,87,11
4,2,0,0,0,0,2,14,85,11
4,2,22,0,4,0,2,14,87,11
4,2,11,1,4,0,2,14,71,11
5,2,21,0,5,1,2,14,87,11
5,2,11,1,4,0,2,14,3,11
5,2,14,1,6,1,2,14,87,11
5,2,17,1,4,0,2,14,96,11
5,2,0,0,5,1,2,14,120,11
5,2,11,1,2,0,2,14,96,11
5,2,16,1,5,1,2,14,87,11
5,2,21,0,5,1,2,14,96,11
5,2,3,0,6,1,2,14,73,11
5,2,20,1,0,0,2,14,87,11
5,2,21,0,0,0,2,14,87,11
5,2,21,0,2,0,2,14,87,11
5,2,17,1,3,0,2,14,87,11
5,2,13,1,5,1,2,14,96,11
5,2,23,0,5,1,2,14,85,11
5,2,11,1,6,1,2,14,96,11
6,3,17,1,1,0,2,14,96,11
6,3,16,1,2,0,2,14,87,11
6,3,16,1,4,0,2,14,73,11
6,3,18,1,0,0,2,14,96,11
6,3,16,1,5,1,2,14,87,11
6,3,14,1,4,0,2,14,96,11
6,3,13,1,1,0,2,14,96,11
6,3,1,0,2,0,2,14,96,11
7,3,0,0,0,0,3,14,81,11
7,3,21,0,0,0,3,14,87,11
7,3,16,1,4,0,3,14,12,11
7,3,17,1,2,0,3,14,56,11
7,3,17,1,3,0,3,14,81,11
8,3,16,1,0,0,3,14,39,11
8,3,13,1,3,0,3,14,87,11
8,3,1,0,5,1,3,14,87,11
8,3,11,1,5,1,3,14,73,11
8,3,14,1,1,0,3,14,96,11
8,3,17,1,2,0,3,14,87,11
8,3,6,0,3,0,3,14,81,11
8,3,16,1,4,0,3,14,96,11
8,3,4,0,5,1,3,14,96,11
8,3,11,1,6,1,3,14,87,11
8,3,4,0,0,0,3,14,87,11
8,3,3,0,3,0,3,14,120,11
8,3,21,0,3,0,3,14,96,11
8,3,21,0,3,0,3,14,96,11
8,3,20,1,5,1,3,14,73,11
8,3,15,1,5,1,3,14,19,11
9,4,16,1,3,0,3,14,87,11
9,4,3,0,4,0,3,14,87,11
9,4,1,0,4,0,3,14,96,11
9,4,12,1,4,0,3,14,87,11
9,4,15,1,4,0,3,14,96,11
9,4,0,0,5,1,3,14,87,11
9,4,13,1,1,0,3,14,87,11
9,4,18,1,2,0,3,14,47,11
9,4,13,1,2,0,3,14,85,11
9,4,13,1,3,0,3,14,87,11
9,4,12,1,3,0,3,14,87,11
9,4,14,1,4,0,3,14,3,11
9,4,15,1,3,0,3,14,87,11
10,4,14,1,0,0,4,14,12,11
10,4,13,1,1,0,4,14,87,11
10,4,13,1,1,0,4,14,87,11
10,4,18,1,1,0,4,14,87,11
10,4,17,1,3,0,4,14,104,11
10,4,9,1,4,0,4,14,87,11
11,4,15,1,4,0,4,14,87,11
11,4,10,1,5,1,4,14,87,11
11,4,9,1,2,0,4,14,104,11
11,4,17,1,5,1,4,14,73,11
12,1,11,1,2,0,4,14,19,11
12,1,22,0,2,0,4,14,13,11
12,1,13,1,5,1,4,14,73,11
12,1,16,1,6,1,4,14,87,11
12,1,17,1,4,0,4,14,96,11
12,1,16,1,3,0,4,14,13,11
12,1,14,1,2,0,4,14,19,11
7,3,18,1,3,0,3,14,49,11
7,3,13,1,5,1,3,14,73,11
