@Relation urban_new_2025_fold10_train

@ATTRIBUTE f1_minas          NUMERIC  % Μήνας (1-12)
@ATTRIBUTE f2_epochi         NUMERIC  % Εποχή (1=Χειμ 2=Άνοιξ 3=Καλοκ 4=Φθιν)
@ATTRIBUTE f3_ora            NUMERIC  % Ώρα ημέρας (0-23)
@ATTRIBUTE f4_mera_nyxta     NUMERIC  % Μέρα=1 Νύχτα=0
@ATTRIBUTE f5_imera_evdom    NUMERIC  % Ημέρα εβδομάδας (0=Δευτ 6=Κυρ)
@ATTRIBUTE f6_savvatokyriako NUMERIC  % Σαββ/κο=1 Καθημ=0
@ATTRIBUTE f7_trimino        NUMERIC  % Τρίμηνο (1-4)
@ATTRIBUTE f8_nomos          NUMERIC  % Κωδικός Νομού
@ATTRIBUTE f9_typos_xorou    NUMERIC  % Κωδικός τύπου χώρου
@ATTRIBUTE class             {8,9,11} % 8=Μεγάλη 9=Μεσαία 11=Μικρή

@DATA
9,4,2,0,0,0,3,14,128,11
8,3,11,1,4,0,3,54,77,11
1,1,19,1,2,0,1,63,128,11
11,4,14,1,5,1,4,8,91,11
11,4,19,1,5,1,4,68,128,11
7,3,17,1,1,0,3,3,91,11
4,2,1,0,1,0,2,59,96,11
4,2,15,1,1,0,2,25,101,11
12,1,14,1,0,0,4,69,128,9
6,3,11,1,6,1,2,59,89,11
7,3,16,1,1,0,3,25,96,11
10,4,15,1,2,0,4,85,101,11
1,1,21,0,2,0,1,85,67,11
5,2,12,1,3,0,2,59,101,11
3,2,20,1,5,1,1,30,77,9
2,1,1,0,5,1,1,2,128,11
5,2,21,0,3,0,2,68,98,11
2,1,17,1,6,1,1,32,91,11
2,1,14,1,6,1,1,8,128,11
1,1,20,1,3,0,1,38,91,11
3,2,14,1,5,1,1,32,101,11
6,3,14,1,6,1,2,30,101,11
7,3,16,1,1,0,3,77,91,11
1,1,23,0,3,0,1,15,128,11
5,2,15,1,3,0,2,53,128,11
2,1,13,1,6,1,1,3,128,11
11,4,21,0,5,1,4,43,128,11
2,1,16,1,6,1,1,3,91,9
12,1,18,1,0,0,4,59,128,11
6,3,0,0,0,0,2,25,89,11
7,3,17,1,2,0,3,41,91,11
4,2,20,1,2,0,2,36,128,11
4,2,14,1,2,0,2,76,77,11
3,2,19,1,6,1,1,61,77,11
5,2,2,0,4,0,2,8,89,11
3,2,18,1,6,1,1,71,110,11
7,3,15,1,2,0,3,44,128,11
4,2,14,1,2,0,2,3,25,11
7,3,8,1,2,0,3,17,77,11
3,2,21,0,6,1,1,8,128,11
5,2,13,1,4,0,2,22,91,11
6,3,7,1,0,0,2,20,128,11
7,3,14,1,2,0,3,74,101,11
7,3,12,1,2,0,3,76,128,11
7,3,13,1,2,0,3,30,77,9
4,2,19,1,2,0,2,7,77,11
5,2,8,1,4,0,2,20,128,11
6,3,16,1,0,0,2,61,101,11
7,3,18,1,2,0,3,79,101,11
12,1,13,1,1,0,4,46,68,11
8,3,23,0,5,1,3,11,89,11
8,3,11,1,5,1,3,2,128,11
10,4,22,0,3,0,4,50,101,11
10,4,6,0,3,0,4,10,77,11
10,4,15,1,3,0,4,46,20,9
8,3,20,1,5,1,3,22,128,11
11,4,22,0,6,1,4,73,40,11
12,1,18,1,1,0,4,20,128,11
9,4,18,1,1,0,3,7,101,11
9,4,16,1,1,0,3,14,91,11
10,4,18,1,3,0,4,8,67,11
8,3,17,1,5,1,3,8,101,11
8,3,21,0,5,1,3,14,67,11
10,4,16,1,3,0,4,79,101,11
9,4,18,1,1,0,3,54,101,11
12,1,18,1,1,0,4,79,101,11
12,1,20,1,1,0,4,37,89,11
8,3,9,1,5,1,3,22,77,11
12,1,22,0,1,0,4,15,67,11
12,1,22,0,1,0,4,3,128,11
12,1,9,1,1,0,4,11,67,11
8,3,17,1,5,1,3,3,128,11
1,1,12,1,4,0,1,59,130,9
1,1,12,1,4,0,1,59,101,11
3,2,19,1,0,0,1,8,101,11
1,1,15,1,4,0,1,29,128,11
3,2,15,1,0,0,1,3,89,11
1,1,14,1,4,0,1,16,128,11
8,3,17,1,6,1,3,42,101,11
7,3,14,1,3,0,3,59,101,11
11,4,17,1,0,0,4,74,101,11
6,3,19,1,1,0,2,34,101,11
7,3,20,1,3,0,3,2,101,11
4,2,21,0,3,0,2,10,20,11
6,3,21,0,1,0,2,85,40,11
7,3,13,1,3,0,3,79,101,11
1,1,3,0,4,0,1,49,128,11
10,4,22,0,4,0,4,36,7,9
11,4,14,1,0,0,4,2,101,11
7,3,11,1,3,0,3,8,91,9
5,2,22,0,5,1,2,83,101,11
8,3,16,1,6,1,3,34,101,11
8,3,22,0,6,1,3,50,128,11
9,4,0,0,2,0,3,36,128,11
6,3,12,1,1,0,2,3,91,11
8,3,18,1,6,1,3,15,68,11
7,3,15,1,3,0,3,20,89,11
8,3,18,1,6,1,3,79,101,11
4,2,22,0,3,0,2,11,128,11
4,2,11,1,3,0,2,61,91,11
8,3,14,1,6,1,3,10,101,11
10,4,15,1,4,0,4,25,40,11
10,4,12,1,4,0,4,8,128,11
10,4,14,1,4,0,4,38,91,11
10,4,18,1,4,0,4,40,101,11
6,3,19,1,1,0,2,59,101,11
10,4,12,1,4,0,4,40,101,11
7,3,21,0,2,0,3,15,67,9
12,1,18,1,2,0,4,44,101,11
12,1,7,1,2,0,4,8,128,11
12,1,13,1,2,0,4,88,91,11
12,1,20,1,2,0,4,14,91,9
2,1,16,1,5,1,1,2,91,11
6,3,15,1,2,0,2,18,91,11
1,1,13,1,5,1,1,3,91,11
6,3,16,1,2,0,2,41,40,11
12,1,18,1,3,0,4,59,101,11
6,3,19,1,2,0,2,23,101,11
6,3,9,1,2,0,2,22,101,11
11,4,16,1,1,0,4,34,101,11
11,4,17,1,1,0,4,24,101,11
9,4,7,1,3,0,3,10,67,9
11,4,17,1,1,0,4,24,101,11
12,1,16,1,3,0,4,25,101,11
9,4,11,1,3,0,3,11,128,11
5,2,23,0,6,1,2,25,101,11
6,3,15,1,2,0,2,25,101,11
12,1,22,0,3,0,4,21,77,11
10,4,2,0,5,1,4,58,89,11
9,4,10,1,3,0,3,54,91,11
10,4,0,0,5,1,4,68,128,11
10,4,9,1,5,1,4,2,26,11
2,1,6,0,1,0,1,44,89,11
6,3,0,0,2,0,2,8,91,11
2,1,16,1,1,0,1,84,20,9
1,1,11,1,5,1,1,64,20,11
5,2,15,1,4,0,2,14,123,11
3,2,18,1,5,1,1,11,91,11
2,1,4,0,2,0,1,36,98,11
1,1,8,1,6,1,1,2,101,11
4,2,3,0,5,1,2,36,128,11
5,2,20,1,0,0,2,14,91,11
4,2,18,1,5,1,2,11,91,11
2,1,22,0,2,0,1,88,128,11
3,2,18,1,2,0,1,50,101,11
2,1,12,1,2,0,1,79,101,11
3,2,11,1,2,0,1,79,101,11
4,2,21,0,5,1,2,83,77,9
5,2,13,1,0,0,2,3,123,11
9,4,19,1,4,0,3,10,110,11
8,3,14,1,1,0,3,8,91,11
11,4,11,1,2,0,4,88,128,11
8,3,14,1,1,0,3,32,101,11
9,4,5,0,4,0,3,36,57,11
11,4,13,1,2,0,4,8,101,11
7,3,16,1,5,1,3,36,67,11
8,3,20,1,1,0,3,61,89,11
10,4,0,0,6,1,4,73,110,11
8,3,21,0,1,0,3,8,101,11
11,4,19,1,2,0,4,73,101,11
10,4,16,1,6,1,4,36,67,9
9,4,13,1,4,0,3,63,123,11
9,4,20,1,4,0,3,25,101,11
9,4,11,1,4,0,3,5,25,11
7,3,3,0,5,1,3,25,40,11
12,1,19,1,4,0,4,25,101,11
10,4,4,0,6,1,4,54,91,11
9,4,15,1,3,0,3,25,128,11
4,2,16,1,1,0,2,14,91,11
7,3,22,0,3,0,3,32,101,11
1,1,3,0,0,0,1,57,91,11
1,1,20,1,0,0,1,72,91,11
1,1,18,1,0,0,1,74,91,11
4,2,11,1,6,1,2,14,91,11
4,2,2,0,6,1,2,41,91,11
5,2,16,1,1,0,2,44,20,9
5,2,18,1,1,0,2,73,101,11
5,2,21,0,1,0,2,16,101,11
6,3,9,1,4,0,2,33,24,11
5,2,22,0,1,0,2,61,128,11
4,2,5,0,6,1,2,9,57,11
5,2,23,0,1,0,2,61,96,11
8,3,15,1,2,0,3,25,101,11
6,3,22,0,4,0,2,11,91,11
10,4,11,1,0,0,4,3,91,11
10,4,11,1,0,0,4,88,91,11
10,4,16,1,0,0,4,41,91,11
3,2,23,0,3,0,1,30,20,11
3,2,16,1,3,0,1,5,101,11
6,3,19,1,4,0,2,3,89,11
7,3,8,1,6,1,3,14,91,11
7,3,21,0,6,1,3,61,91,11
4,2,10,1,6,1,2,74,20,11
1,1,0,0,0,0,1,25,20,11
7,3,17,1,6,1,3,2,91,11
9,4,14,1,2,0,3,25,25,11
4,2,21,0,6,1,2,2,101,11
8,3,19,1,2,0,3,10,25,11
8,3,3,0,2,0,3,25,20,9
7,3,10,1,6,1,3,41,91,11
1,1,17,1,0,0,1,10,20,11
9,4,15,1,5,1,3,27,78,11
7,3,18,1,6,1,3,36,8,11
8,3,15,1,2,0,3,44,101,11
6,3,11,1,4,0,2,87,91,11
12,1,22,0,5,1,4,56,91,11
11,4,11,1,3,0,4,24,91,11
8,3,19,1,1,0,3,88,128,11
12,1,12,1,5,1,4,5,99,11
10,4,16,1,0,0,4,88,91,11
11,4,20,1,3,0,4,43,25,11
11,4,4,0,3,0,4,74,20,9
11,4,1,0,3,0,4,25,101,11
12,1,16,1,5,1,4,25,91,11
9,4,13,1,6,1,3,46,47,11
9,4,10,1,6,1,3,36,20,11
5,2,6,0,2,0,2,2,20,11
6,3,18,1,5,1,2,49,91,11
9,4,14,1,6,1,3,85,101,11
2,1,14,1,4,0,1,77,91,11
9,4,15,1,6,1,3,7,91,11
10,4,1,0,1,0,4,55,128,11
9,4,1,0,5,1,3,58,128,11
11,4,13,1,4,0,4,79,91,11
12,1,10,1,6,1,4,55,67,11
10,4,8,1,1,0,4,49,89,11
5,2,13,1,2,0,2,11,128,11
4,2,3,0,0,0,2,55,128,11
7,3,12,1,0,0,3,87,101,11
1,1,20,1,1,0,1,29,101,11
3,2,16,1,4,0,1,44,91,11
4,2,6,0,0,0,2,14,91,11
2,1,5,0,4,0,1,3,101,11
4,2,20,1,0,0,2,49,23,11
1,1,12,1,1,0,1,2,101,11
7,3,1,0,0,0,3,74,101,11
5,2,14,1,2,0,2,2,128,11
12,1,20,1,5,1,4,14,91,11
4,2,22,0,0,0,2,25,20,11
12,1,11,1,6,1,4,25,25,11
5,2,15,1,2,0,2,41,20,11
8,3,14,1,3,0,3,50,23,11
4,2,10,1,0,0,2,36,83,11
4,2,17,1,0,0,2,59,101,11
7,3,9,1,0,0,3,2,35,9
9,4,14,1,6,1,3,79,106,9
6,3,6,0,5,1,2,3,128,11
8,3,23,0,3,0,3,14,91,11
1,1,12,1,1,0,1,73,91,9
1,1,16,1,1,0,1,79,101,11
12,1,20,1,6,1,4,2,101,11
2,1,10,1,4,0,1,61,77,11
2,1,0,0,4,0,1,14,91,11
7,3,17,1,0,0,3,25,55,11
8,3,15,1,3,0,3,83,91,11
1,1,16,1,1,0,1,21,101,11
2,1,11,1,4,0,1,66,73,9
1,1,10,1,2,0,1,30,77,8
1,1,22,0,2,0,1,54,91,11
3,2,18,1,2,0,1,14,91,11
5,2,2,0,3,0,2,25,128,11
11,4,14,1,4,0,4,25,55,11
4,2,0,0,1,0,2,36,128,11
4,2,21,0,1,0,2,34,101,11
3,2,22,0,5,1,1,36,90,11
9,4,0,0,0,0,3,49,25,11
9,4,4,0,0,0,3,3,125,11
1,1,11,1,2,0,1,11,89,11
10,4,3,0,2,0,4,58,91,11
4,2,8,1,1,0,2,79,91,11
11,4,9,1,5,1,4,59,101,11
10,4,6,0,2,0,4,87,125,11
3,2,4,0,5,1,1,3,128,11
3,2,19,1,5,1,1,72,101,11
2,1,17,1,5,1,1,20,77,11
8,3,20,1,4,0,3,25,91,11
12,1,6,0,0,0,4,23,91,11
3,2,15,1,5,1,1,76,101,11
4,2,6,0,1,0,2,50,101,11
4,2,20,1,1,0,2,8,91,11
5,2,0,0,3,0,2,36,128,11
12,1,20,1,0,0,4,75,101,11
5,2,20,1,3,0,2,32,98,11
2,1,3,0,5,1,1,58,1,9
5,2,13,1,3,0,2,3,3,11
5,2,12,1,3,0,2,46,91,11
5,2,2,0,3,0,2,84,123,9
10,4,7,1,2,0,4,58,128,11
7,3,15,1,1,0,3,45,91,9
7,3,12,1,1,0,3,61,101,11
2,1,13,1,5,1,1,29,128,11
7,3,17,1,1,0,3,25,25,11
9,4,9,1,0,0,3,58,98,11
10,4,15,1,2,0,4,37,89,11
6,3,15,1,6,1,2,79,101,11
5,2,13,1,3,0,2,59,40,11
12,1,22,0,4,0,4,14,91,11
4,2,11,1,1,0,2,25,20,11
11,4,10,1,6,1,4,5,128,11
7,3,1,0,3,0,3,16,96,11
9,4,5,0,1,0,3,69,67,11
12,1,16,1,1,0,4,41,128,11
2,1,0,0,6,1,1,44,101,11
8,3,15,1,5,1,3,2,110,11
10,4,18,1,3,0,4,2,128,11
1,1,21,0,3,0,1,14,91,11
6,3,0,0,6,1,2,84,101,11
11,4,10,1,0,0,4,73,91,11
10,4,21,0,4,0,4,16,101,11
12,1,7,1,1,0,4,58,20,11
7,3,12,1,2,0,3,73,91,11
7,3,18,1,3,0,3,25,7,11
5,2,20,1,4,0,2,12,101,11
11,4,17,1,5,1,4,32,101,11
12,1,9,1,0,0,4,25,91,9
8,3,12,1,2,0,3,14,91,11
8,3,16,1,6,1,3,59,24,11
11,4,5,0,0,0,4,25,91,11
11,4,13,1,0,0,4,3,91,11
3,2,19,1,6,1,1,60,67,11
12,1,21,0,1,0,4,14,101,11
11,4,14,1,6,1,4,29,101,11
11,4,10,1,6,1,4,29,101,11
6,3,20,1,0,0,2,25,90,11
1,1,16,1,4,0,1,46,91,11
5,2,2,0,5,1,2,11,128,11
1,1,16,1,3,0,1,36,7,9
4,2,15,1,1,0,2,87,101,11
3,2,19,1,0,0,1,5,91,11
7,3,4,0,2,0,3,20,25,11
10,4,14,1,4,0,4,25,67,11
5,2,15,1,5,1,2,79,101,11
9,4,12,1,1,0,3,79,101,11
12,1,16,1,1,0,4,2,91,11
1,1,0,0,3,0,1,58,23,9
5,2,4,0,4,0,2,17,128,11
2,1,12,1,0,0,1,41,67,11
2,1,12,1,0,0,1,58,96,11
3,2,14,1,0,0,1,17,20,11
1,1,2,0,3,0,1,25,128,11
6,3,0,0,1,0,2,44,20,11
5,2,23,0,5,1,2,25,91,11
5,2,19,1,4,0,2,2,101,11
9,4,16,1,1,0,3,20,101,11
7,3,12,1,2,0,3,11,77,11
11,4,8,1,6,1,4,3,80,9
11,4,11,1,6,1,4,3,25,11
11,4,16,1,6,1,4,58,77,11
11,4,18,1,6,1,4,32,101,11
12,1,8,1,1,0,4,55,20,11
8,3,11,1,5,1,3,59,101,11
11,4,13,1,0,0,4,32,25,11
9,4,16,1,1,0,3,77,40,11
8,3,14,1,5,1,3,89,67,11
12,1,13,1,0,0,4,5,128,11
2,1,20,1,3,0,1,14,91,11
2,1,3,0,6,1,1,73,128,11
7,3,12,1,2,0,3,30,91,9
4,2,12,1,4,0,2,49,91,11
4,2,19,1,4,0,2,36,77,11
7,3,2,0,4,0,3,41,12,11
6,3,23,0,5,1,2,10,95,8
10,4,14,1,5,1,4,2,20,11
5,2,12,1,6,1,2,87,89,11
7,3,21,0,1,0,3,14,91,11
2,1,20,1,1,0,1,14,91,11
6,3,22,0,2,0,2,49,101,11
12,1,11,1,1,0,4,15,128,11
6,3,19,1,2,0,2,19,128,11
12,1,16,1,3,0,4,56,89,11
7,3,23,0,4,0,3,27,91,11
5,2,8,1,6,1,2,32,68,11
6,3,18,1,2,0,2,25,89,11
12,1,23,0,3,0,4,77,86,11
12,1,5,0,3,0,4,11,77,11
7,3,17,1,4,0,3,53,25,11
10,4,14,1,5,1,4,34,89,11
11,4,12,1,1,0,4,36,40,11
10,4,0,0,5,1,4,58,128,11
12,1,3,0,3,0,4,58,128,11
5,2,19,1,6,1,2,54,67,11
8,3,5,0,0,0,3,29,104,11
10,4,22,0,5,1,4,2,67,11
1,1,17,1,5,1,1,62,20,9
9,4,15,1,5,1,3,25,20,11
2,1,14,1,1,0,1,7,101,11
6,3,20,1,2,0,2,16,37,11
1,1,18,1,5,1,1,49,101,11
3,2,3,0,1,0,1,73,67,9
2,1,14,1,1,0,1,44,101,11
9,4,15,1,3,0,3,9,77,11
9,4,16,1,6,1,3,25,25,11
6,3,19,1,0,0,2,36,128,11
11,4,18,1,0,0,4,25,101,11
7,3,21,0,5,1,3,14,91,11
2,1,13,1,0,0,1,25,101,11
10,4,20,1,6,1,4,15,91,11
9,4,23,0,4,0,3,44,57,11
10,4,11,1,6,1,4,10,128,11
3,2,20,1,2,0,1,8,128,11
12,1,16,1,4,0,4,25,20,11
4,2,14,1,2,0,2,14,101,9
2,1,1,0,2,0,1,11,128,11
3,2,19,1,2,0,1,75,91,11
7,3,19,1,5,1,3,50,77,11
6,3,0,0,3,0,2,2,128,11
1,1,5,0,6,1,1,3,20,11
2,1,11,1,0,0,1,14,91,11
7,3,22,0,5,1,3,50,128,11
12,1,17,1,4,0,4,73,77,11
9,4,21,0,1,0,3,15,128,11
6,3,1,0,3,0,2,25,35,11
1,1,18,1,4,0,1,8,128,11
3,2,1,0,2,0,1,25,91,11
8,3,1,0,1,0,3,36,128,11
7,3,18,1,5,1,3,11,28,11
7,3,17,1,5,1,3,20,128,11
2,1,9,1,2,0,1,10,77,9
10,4,18,1,6,1,4,8,91,11
11,4,8,1,2,0,4,8,128,11
6,3,18,1,1,0,2,84,25,11
1,1,20,1,6,1,1,58,40,11
5,2,17,1,2,0,2,84,101,11
4,2,11,1,5,1,2,69,107,8
10,4,14,1,6,1,4,36,128,11
12,1,4,0,4,0,4,25,101,11
9,4,0,0,1,0,3,14,91,11
4,2,9,1,0,0,2,89,27,9
9,4,19,1,4,0,3,14,91,11
12,1,9,1,3,0,4,84,77,11
12,1,3,0,5,1,4,14,91,11
8,3,13,1,4,0,3,87,91,11
3,2,2,0,6,1,1,77,98,11
9,4,22,0,5,1,3,14,91,11
4,2,19,1,3,0,2,14,91,11
2,1,18,1,5,1,1,25,101,11
12,1,21,0,1,0,4,14,91,11
12,1,21,0,1,0,4,14,91,11
12,1,0,0,3,0,4,77,99,11
2,1,5,0,2,0,1,36,128,11
5,2,20,1,3,0,2,19,40,11
12,1,12,1,4,0,4,5,128,11
11,4,18,1,0,0,4,84,32,11
4,2,21,0,2,0,2,84,125,11
9,4,7,1,1,0,3,72,20,11
10,4,23,0,1,0,4,14,101,11
8,3,15,1,5,1,3,2,77,11
5,2,20,1,5,1,2,14,128,11
5,2,17,1,3,0,2,79,101,11
10,4,17,1,2,0,4,8,74,11
7,3,15,1,1,0,3,59,101,11
11,4,16,1,5,1,4,79,101,11
3,2,22,0,5,1,1,44,89,11
1,1,18,1,2,0,1,58,128,11
8,3,20,1,4,0,3,14,91,11
11,4,5,0,5,1,4,15,101,11
2,1,16,1,5,1,1,3,91,11
3,2,15,1,5,1,1,29,128,11
11,4,12,1,5,1,4,8,91,11
3,2,9,1,5,1,1,3,91,11
11,4,18,1,5,1,4,3,91,11
11,4,11,1,5,1,4,6,128,11
12,1,12,1,0,0,4,29,128,11
11,4,19,1,5,1,4,3,91,11
3,2,15,1,5,1,1,66,96,11
1,1,3,0,2,0,1,14,90,11
2,1,11,1,6,1,1,3,101,11
7,3,15,1,1,0,3,15,20,11
10,4,5,0,2,0,4,16,40,9
9,4,14,1,0,0,3,24,80,11
7,3,4,0,2,0,3,36,97,11
3,2,18,1,6,1,1,47,40,11
7,3,15,1,2,0,3,46,67,11
6,3,23,0,0,0,2,3,20,11
12,1,20,1,0,0,4,84,67,11
5,2,17,1,4,0,2,59,101,11
7,3,11,1,2,0,3,24,101,11
5,2,20,1,4,0,2,20,91,11
3,2,20,1,6,1,1,54,91,11
3,2,1,0,6,1,1,61,120,9
3,2,18,1,6,1,1,88,20,9
7,3,18,1,2,0,3,22,17,11
6,3,10,1,0,0,2,58,77,11
7,3,9,1,2,0,3,77,91,11
3,2,20,1,6,1,1,59,20,11
9,4,16,1,1,0,3,79,77,11
8,3,13,1,5,1,3,22,91,11
11,4,7,1,6,1,4,58,123,11
12,1,19,1,1,0,4,76,106,9
9,4,17,1,1,0,3,73,40,11
3,2,23,0,5,1,1,8,101,11
9,4,1,0,1,0,3,46,77,11
9,4,10,1,1,0,3,5,128,11
10,4,11,1,3,0,4,29,128,11
9,4,16,1,1,0,3,2,91,11
8,3,8,1,5,1,3,77,128,11
11,4,14,1,6,1,4,14,77,11
10,4,23,0,3,0,4,56,101,11
10,4,18,1,3,0,4,44,101,11
12,1,15,1,1,0,4,74,77,11
8,3,16,1,5,1,3,80,89,11
8,3,11,1,5,1,3,3,122,11
9,4,19,1,1,0,3,38,91,11
9,4,22,0,1,0,3,30,67,11
10,4,19,1,3,0,4,7,101,11
8,3,23,0,5,1,3,5,67,9
9,4,21,0,1,0,3,16,40,11
11,4,17,1,6,1,4,56,101,11
12,1,7,1,1,0,4,13,123,11
9,4,16,1,1,0,3,2,128,11
8,3,22,0,5,1,3,6,47,11
2,1,20,1,0,0,1,49,77,11
3,2,20,1,0,0,1,77,128,11
3,2,13,1,0,0,1,29,89,11
1,1,18,1,4,0,1,34,101,11
2,1,13,1,0,0,1,3,25,11
2,1,14,1,0,0,1,59,40,11
2,1,5,0,0,0,1,36,128,11
3,2,19,1,0,0,1,2,13,11
3,2,13,1,0,0,1,29,91,11
9,4,17,1,2,0,3,15,128,11
10,4,15,1,4,0,4,71,67,11
10,4,23,0,4,0,4,3,128,11
8,3,17,1,6,1,3,11,128,11
11,4,18,1,0,0,4,13,91,11
11,4,17,1,0,0,4,79,101,11
9,4,16,1,2,0,3,16,101,11
11,4,11,1,0,0,4,3,88,11
10,4,17,1,4,0,4,84,12,11
9,4,13,1,2,0,3,7,101,11
7,3,17,1,3,0,3,79,101,11
9,4,1,0,2,0,3,8,101,11
7,3,16,1,3,0,3,79,101,11
5,2,22,0,5,1,2,11,128,11
7,3,10,1,3,0,3,54,77,11
5,2,11,1,5,1,2,36,67,11
8,3,14,1,6,1,3,59,101,11
8,3,7,1,6,1,3,30,20,11
4,2,15,1,3,0,2,3,32,11
9,4,12,1,2,0,3,79,101,11
8,3,0,0,6,1,3,87,91,9
10,4,14,1,4,0,4,3,91,11
10,4,15,1,4,0,4,29,128,11
9,4,19,1,2,0,3,40,101,11
7,3,19,1,3,0,3,29,101,11
12,1,17,1,2,0,4,25,101,11
12,1,19,1,2,0,4,79,101,11
9,4,7,1,2,0,3,25,128,11
12,1,5,0,2,0,4,15,20,11
12,1,19,1,0,0,4,56,12,9
6,3,18,1,2,0,2,47,101,11
5,2,17,1,6,1,2,19,91,11
7,3,11,1,4,0,3,79,77,11
3,2,10,1,1,0,1,6,89,11
2,1,23,0,1,0,1,19,128,11
1,1,6,0,4,0,1,22,91,11
9,4,18,1,3,0,3,29,40,9
1,1,3,0,5,1,1,78,128,11
10,4,0,0,5,1,4,10,77,11
10,4,17,1,5,1,4,66,40,11
11,4,9,1,1,0,4,7,123,11
12,1,8,1,3,0,4,77,77,11
11,4,13,1,1,0,4,73,20,11
12,1,17,1,3,0,4,74,128,9
8,3,20,1,0,0,3,7,101,11
9,4,12,1,3,0,3,36,96,11
6,3,2,0,2,0,2,11,85,11
1,1,1,0,5,1,1,3,77,9
3,2,7,1,1,0,1,25,67,11
1,1,15,1,6,1,1,29,101,11
12,1,21,0,3,0,4,25,53,8
1,1,15,1,6,1,1,17,101,11
5,2,22,0,0,0,2,88,123,9
3,2,12,1,2,0,1,8,101,11
2,1,14,1,2,0,1,39,101,11
5,2,23,0,0,0,2,74,101,11
4,2,16,1,5,1,2,83,101,11
6,3,10,1,3,0,2,37,20,11
2,1,13,1,2,0,1,73,101,11
4,2,21,0,5,1,2,71,101,11
5,2,22,0,0,0,2,58,128,11
2,1,19,1,2,0,1,72,101,11
3,2,21,0,2,0,1,44,101,11
3,2,22,0,2,0,1,61,7,11
9,4,14,1,4,0,3,58,91,11
6,3,15,1,3,0,2,3,20,11
10,4,17,1,6,1,4,24,101,11
10,4,15,1,6,1,4,29,101,11
10,4,3,0,6,1,4,72,89,11
11,4,22,0,1,0,4,32,67,11
8,3,23,0,1,0,3,61,7,11
9,4,8,1,4,0,3,59,110,11
8,3,17,1,1,0,3,3,89,11
6,3,6,0,6,1,2,8,128,11
6,3,21,0,3,0,2,14,91,11
12,1,0,0,4,0,4,85,128,9
1,1,18,1,0,0,1,69,101,11
1,1,16,1,0,0,1,44,101,11
3,2,7,1,3,0,1,3,91,11
2,1,12,1,3,0,1,29,12,11
1,1,12,1,0,0,1,17,128,11
1,1,13,1,0,0,1,87,121,11
2,1,2,0,3,0,1,14,20,11
1,1,20,1,0,0,1,3,91,11
9,4,15,1,1,0,3,41,128,11
3,2,17,1,3,0,1,30,121,11
5,2,10,1,1,0,2,14,77,9
5,2,23,0,1,0,2,21,77,11
5,2,1,0,1,0,2,25,96,11
3,2,17,1,3,0,1,44,91,11
3,2,22,0,3,0,1,74,101,11
7,3,9,1,6,1,3,29,81,11
9,4,9,1,5,1,3,22,77,11
10,4,20,1,0,0,4,15,67,11
4,2,21,0,6,1,2,59,101,11
10,4,13,1,0,0,4,26,128,11
10,4,6,0,0,0,4,44,91,11
8,3,4,0,2,0,3,36,128,11
6,3,19,1,4,0,2,25,55,9
8,3,15,1,2,0,3,24,40,9
4,2,8,1,6,1,2,44,91,11
7,3,12,1,6,1,3,20,128,11
8,3,15,1,2,0,3,44,101,11
9,4,0,0,5,1,3,36,91,11
7,3,16,1,6,1,3,21,91,11
3,2,17,1,3,0,1,2,20,9
5,2,17,1,1,0,2,2,89,11
4,2,12,1,6,1,2,53,20,11
4,2,0,0,6,1,2,66,77,11
10,4,13,1,0,0,4,15,89,11
6,3,12,1,4,0,2,79,101,11
5,2,21,0,1,0,2,16,20,11
7,3,20,1,6,1,3,14,91,11
11,4,17,1,3,0,4,84,55,11
11,4,19,1,3,0,4,36,20,11
12,1,21,0,5,1,4,36,77,11
11,4,23,0,3,0,4,44,90,11
10,4,8,1,0,0,4,3,91,11
1,1,17,1,1,0,1,2,3,11
5,2,0,0,2,0,2,14,91,11
10,4,5,0,1,0,4,14,91,11
2,1,15,1,4,0,1,25,20,11
4,2,22,0,0,0,2,25,96,11
4,2,20,1,0,0,2,2,101,11
11,4,19,1,4,0,4,39,91,11
10,4,8,1,1,0,4,37,123,9
12,1,22,0,6,1,4,84,101,11
11,4,23,0,4,0,4,40,67,11
10,4,6,0,1,0,4,59,101,9
11,4,7,1,3,0,4,55,20,8
3,2,8,1,4,0,1,36,91,11
8,3,21,0,3,0,3,16,91,11
8,3,11,1,3,0,3,44,128,11
10,4,17,1,1,0,4,30,91,11
6,3,16,1,5,1,2,41,91,11
7,3,22,0,0,0,3,74,101,11
4,2,9,1,0,0,2,5,88,11
3,2,15,1,4,0,1,2,91,11
1,1,12,1,1,0,1,77,91,11
12,1,20,1,5,1,4,14,91,11
3,2,7,1,4,0,1,44,101,11
1,1,0,0,2,0,1,8,89,11
10,4,4,0,1,0,4,3,91,11
10,4,12,1,1,0,4,79,20,11
6,3,22,0,5,1,2,14,91,11
12,1,21,0,6,1,4,2,101,11
1,1,2,0,1,0,1,17,128,11
9,4,16,1,6,1,3,26,101,11
10,4,17,1,1,0,4,33,91,11
10,4,11,1,1,0,4,26,110,11
4,2,22,0,0,0,2,5,128,11
7,3,22,0,0,0,3,66,40,11
3,2,3,0,4,0,1,64,89,11
6,3,18,1,5,1,2,87,101,9
12,1,9,1,6,1,4,36,86,11
8,3,6,0,3,0,3,32,91,11
4,2,21,0,0,0,2,17,77,11
2,1,17,1,4,0,1,3,101,11
10,4,20,1,1,0,4,14,91,11
2,1,19,1,4,0,1,41,101,11
8,3,14,1,3,0,3,59,13,9
1,1,15,1,1,0,1,32,125,9
3,2,20,1,4,0,1,21,101,11
9,4,19,1,6,1,3,56,101,11
6,3,21,0,6,1,2,82,91,11
4,2,19,1,1,0,2,8,130,9
3,2,0,0,5,1,1,87,87,11
12,1,15,1,4,0,4,14,101,11
5,2,10,1,3,0,2,10,25,11
10,4,9,1,2,0,4,79,101,11
8,3,19,1,4,0,3,3,98,11
9,4,3,0,0,0,3,11,101,11
3,2,22,0,5,1,1,9,128,11
9,4,3,0,0,0,3,36,128,11
2,1,20,1,5,1,1,3,91,11
8,3,2,0,4,0,3,44,101,11
8,3,21,0,4,0,3,25,101,11
11,4,22,0,5,1,4,2,55,11
1,1,12,1,2,0,1,56,128,11
10,4,0,0,2,0,4,44,101,11
2,1,9,1,5,1,1,76,20,11
12,1,15,1,0,0,4,88,123,9
1,1,0,0,2,0,1,25,101,11
11,4,17,1,5,1,4,3,8,11
4,2,1,0,0,0,2,25,91,11
6,3,1,0,6,1,2,14,91,9
9,4,0,0,0,0,3,3,128,11
12,1,10,1,0,0,4,29,101,9
1,1,10,1,2,0,1,14,121,11
5,2,19,1,3,0,2,25,128,11
5,2,21,0,3,0,2,8,101,11
3,2,23,0,5,1,1,25,128,11
11,4,1,0,5,1,4,50,128,11
11,4,20,1,5,1,4,49,91,11
1,1,17,1,2,0,1,3,128,11
7,3,14,1,1,0,3,14,91,11
11,4,12,1,5,1,4,69,20,11
12,1,2,0,0,0,4,2,101,11
1,1,12,1,2,0,1,3,128,11
11,4,2,0,5,1,4,14,91,11
8,3,8,1,5,1,3,84,20,11
8,3,14,1,5,1,3,69,67,11
2,1,20,1,0,0,1,25,101,11
7,3,14,1,3,0,3,32,77,9
1,1,13,1,4,0,1,87,33,11
5,2,12,1,4,0,2,8,20,11
10,4,20,1,3,0,4,21,101,11
10,4,13,1,3,0,4,6,128,11
8,3,16,1,6,1,3,44,91,11
1,1,10,1,4,0,1,14,77,9
11,4,20,1,0,0,4,2,101,11
2,1,11,1,0,0,1,25,101,11
8,3,16,1,5,1,3,79,101,11
8,3,9,1,6,1,3,8,20,11
8,3,16,1,5,1,3,44,101,11
9,4,12,1,2,0,3,44,89,11
4,2,18,1,2,0,2,75,20,9
6,3,13,1,0,0,2,36,89,11
1,1,10,1,3,0,1,40,101,11
11,4,3,0,0,0,4,44,128,11
9,4,14,1,2,0,3,10,106,11
3,2,8,1,0,0,1,25,20,8
3,2,21,0,0,0,1,84,12,9
5,2,15,1,0,0,2,14,91,9
12,1,17,1,2,0,4,20,101,11
2,1,14,1,4,0,1,54,91,9
10,4,0,0,4,0,4,25,91,11
6,3,23,0,6,1,2,3,91,11
8,3,16,1,5,1,3,25,91,11
4,2,20,1,3,0,2,14,91,9
4,2,11,1,2,0,2,50,101,11
4,2,23,0,2,0,2,41,91,11
3,2,3,0,6,1,1,69,67,9
9,4,16,1,2,0,3,20,101,11
7,3,22,0,2,0,3,25,128,11
3,2,17,1,6,1,1,25,91,11
6,3,23,0,4,0,2,14,91,11
5,2,19,1,5,1,2,44,101,11
5,2,2,0,5,1,2,11,128,11
4,2,23,0,3,0,2,30,101,11
10,4,15,1,4,0,4,49,101,11
12,1,15,1,0,0,4,2,78,11
5,2,7,1,5,1,2,55,20,9
9,4,15,1,2,0,3,20,101,11
6,3,9,1,0,0,2,25,101,11
6,3,14,1,1,0,2,3,91,9
1,1,2,0,3,0,1,75,25,11
11,4,19,1,0,0,4,3,91,11
2,1,7,1,0,0,1,11,67,11
7,3,13,1,2,0,3,25,25,11
2,1,6,0,0,0,1,26,91,11
7,3,21,0,3,0,3,69,128,11
10,4,11,1,4,0,4,8,128,11
5,2,13,1,5,1,2,77,25,11
3,2,20,1,6,1,1,3,89,11
4,2,4,0,3,0,2,14,20,11
12,1,17,1,2,0,4,25,45,11
11,4,13,1,6,1,4,44,101,11
4,2,19,1,3,0,2,10,13,11
7,3,18,1,2,0,3,69,7,11
1,1,12,1,3,0,1,59,77,9
8,3,10,1,5,1,3,25,91,11
12,1,12,1,2,0,4,11,91,11
8,3,20,1,5,1,3,36,123,9
12,1,14,1,0,0,4,3,91,11
2,1,19,1,0,0,1,11,67,11
2,1,10,1,6,1,1,44,91,11
9,4,17,1,0,0,3,9,20,11
2,1,8,1,0,0,1,50,110,11
5,2,3,0,5,1,2,25,78,11
11,4,17,1,0,0,4,2,101,11
12,1,4,0,1,0,4,58,37,11
2,1,13,1,6,1,1,79,24,11
1,1,6,0,3,0,1,13,101,11
2,1,21,0,6,1,1,61,89,11
2,1,2,0,6,1,1,76,68,11
1,1,20,1,3,0,1,44,101,11
5,2,11,1,4,0,2,72,91,11
4,2,7,1,2,0,2,3,50,11
3,2,10,1,1,0,1,84,24,9
12,1,18,1,3,0,4,84,25,11
1,1,19,1,5,1,1,14,91,9
12,1,20,1,3,0,4,87,128,11
5,2,6,0,6,1,2,32,77,9
5,2,1,0,6,1,2,60,128,11
1,1,4,0,0,0,1,15,91,11
7,3,9,1,1,0,3,14,91,11
4,2,14,1,4,0,2,29,68,11
5,2,16,1,6,1,2,49,101,11
6,3,1,0,5,1,2,14,20,11
2,1,18,1,1,0,1,49,101,11
2,1,18,1,1,0,1,44,101,11
5,2,16,1,3,0,2,3,67,11
12,1,21,0,6,1,4,14,91,11
3,2,7,1,1,0,1,3,57,11
1,1,20,1,5,1,1,88,128,11
5,2,12,1,6,1,2,36,78,11
1,1,15,1,5,1,1,3,91,11
2,1,0,0,1,0,1,50,40,11
3,2,10,1,1,0,1,25,13,11
1,1,2,0,5,1,1,15,78,11
2,1,14,1,1,0,1,15,67,9
11,4,23,0,2,0,4,8,20,11
1,1,12,1,1,0,1,87,91,11
8,3,13,1,2,0,3,35,77,11
12,1,2,0,4,0,4,39,20,9
9,4,13,1,4,0,3,40,20,11
6,3,22,0,3,0,2,51,91,11
3,2,10,1,2,0,1,58,7,11
12,1,22,0,4,0,4,11,128,11
7,3,2,0,2,0,3,36,128,11
4,2,19,1,5,1,2,25,89,11
9,4,8,1,2,0,3,38,101,11
12,1,8,1,4,0,4,43,20,11
12,1,15,1,4,0,4,41,123,11
11,4,20,1,2,0,4,16,128,11
12,1,11,1,4,0,4,42,91,11
10,4,20,1,6,1,4,11,128,11
2,1,22,0,5,1,1,63,128,11
11,4,18,1,2,0,4,8,91,11
2,1,22,0,2,0,1,29,128,11
5,2,2,0,0,0,2,2,128,11
1,1,16,1,6,1,1,3,20,11
4,2,19,1,5,1,2,3,40,11
3,2,8,1,5,1,1,45,128,11
5,2,5,0,1,0,2,26,101,11
6,3,19,1,3,0,2,3,67,11
1,1,10,1,2,0,1,6,128,11
12,1,21,0,4,0,4,16,20,9
9,4,1,0,4,0,3,44,123,11
6,3,12,1,2,0,2,3,91,11
6,3,7,1,3,0,2,24,128,11
7,3,21,0,0,0,3,14,91,11
10,4,17,1,5,1,4,25,78,11
10,4,22,0,2,0,4,14,91,11
8,3,19,1,1,0,3,11,128,11
12,1,4,0,3,0,4,14,91,11
11,4,7,1,4,0,4,25,128,11
5,2,17,1,2,0,2,2,91,11
10,4,9,1,0,0,4,14,91,11
11,4,22,0,1,0,4,14,91,11
3,2,21,0,5,1,1,14,91,11
1,1,2,0,0,0,1,3,91,11
9,4,19,1,2,0,3,3,20,11
5,2,15,1,1,0,2,14,91,9
8,3,6,0,1,0,3,56,20,9
5,2,18,1,5,1,2,77,91,11
4,2,17,1,4,0,2,14,91,11
6,3,14,1,5,1,2,14,91,11
9,4,23,0,2,0,3,58,128,11
9,4,11,1,2,0,3,77,91,11
9,4,19,1,6,1,3,72,128,11
1,1,8,1,4,0,1,72,91,11
10,4,0,0,2,0,4,87,128,11
11,4,22,0,0,0,4,61,91,11
6,3,2,0,6,1,2,25,85,11
11,4,21,0,5,1,4,59,101,11
10,4,12,1,2,0,4,59,128,11
1,1,19,1,2,0,1,2,128,11
12,1,13,1,0,0,4,9,67,11
10,4,12,1,2,0,4,9,128,11
12,1,15,1,0,0,4,6,101,11
5,2,13,1,3,0,2,79,47,11
9,4,12,1,0,0,3,68,91,11
1,1,17,1,2,0,1,66,101,11
10,4,0,0,2,0,4,22,13,11
8,3,17,1,4,0,3,5,101,11
8,3,20,1,4,0,3,25,101,11
9,4,14,1,0,0,3,30,57,11
1,1,11,1,2,0,1,11,128,11
3,2,19,1,5,1,1,83,101,11
3,2,13,1,5,1,1,13,128,11
12,1,23,0,0,0,4,14,128,11
1,1,1,0,2,0,1,58,128,11
2,1,8,1,6,1,1,49,96,11
2,1,15,1,5,1,1,44,91,11
12,1,11,1,0,0,4,41,91,11
4,2,7,1,2,0,2,75,91,9
3,2,15,1,6,1,1,36,67,11
5,2,0,0,4,0,2,45,101,11
5,2,18,1,4,0,2,20,128,11
3,2,17,1,6,1,1,24,128,11
5,2,22,0,4,0,2,8,89,11
7,3,18,1,2,0,3,79,101,11
7,3,2,0,2,0,3,87,101,11
6,3,18,1,0,0,2,20,128,11
4,2,19,1,2,0,2,22,101,11
9,4,0,0,1,0,3,11,40,11
9,4,13,1,1,0,3,49,124,11
8,3,18,1,5,1,3,45,91,11
11,4,19,1,6,1,4,79,101,11
8,3,21,0,5,1,3,3,128,11
10,4,16,1,3,0,4,25,91,9
11,4,13,1,6,1,4,36,7,11
10,4,7,1,3,0,4,25,77,11
12,1,17,1,1,0,4,53,128,11
10,4,19,1,3,0,4,77,40,11
12,1,12,1,1,0,4,36,67,11
10,4,11,1,3,0,4,39,91,11
12,1,12,1,1,0,4,42,91,11
9,4,14,1,1,0,3,44,101,11
11,4,19,1,6,1,4,25,91,9
12,1,15,1,1,0,4,40,101,11
10,4,11,1,3,0,4,3,128,11
1,1,17,1,2,0,1,77,91,11
8,3,9,1,5,1,3,3,91,11
4,2,9,1,3,0,2,14,123,11
1,1,14,1,4,0,1,12,101,11
1,1,15,1,4,0,1,40,101,11
3,2,10,1,0,0,1,11,77,11
2,1,20,1,0,0,1,66,128,11
2,1,18,1,0,0,1,44,101,11
3,2,2,0,0,0,1,44,128,11
9,4,19,1,2,0,3,81,91,11
7,3,23,0,3,0,3,44,128,11
8,3,19,1,6,1,3,79,101,11
7,3,17,1,3,0,3,8,101,11
11,4,21,0,0,0,4,83,77,8
10,4,1,0,4,0,4,50,128,11
6,3,22,0,1,0,2,36,67,11
9,4,20,1,2,0,3,8,98,11
11,4,9,1,0,0,4,9,67,11
10,4,10,1,4,0,4,58,67,9
8,3,21,0,6,1,3,16,101,11
6,3,12,1,1,0,2,2,101,11
7,3,3,0,3,0,3,61,91,11
5,2,22,0,5,1,2,25,91,11
8,3,12,1,6,1,3,74,101,11
7,3,11,1,3,0,3,74,91,11
10,4,17,1,4,0,4,79,101,11
8,3,14,1,6,1,3,73,101,11
6,3,10,1,1,0,2,2,101,11
10,4,17,1,4,0,4,57,20,11
10,4,11,1,4,0,4,30,20,9
9,4,8,1,2,0,3,64,89,11
10,4,17,1,4,0,4,2,101,11
10,4,21,0,4,0,4,39,128,11
10,4,2,0,4,0,4,88,128,11
9,4,19,1,2,0,3,41,101,11
8,3,4,0,6,1,3,45,77,11
5,2,19,1,5,1,2,79,101,11
8,3,11,1,6,1,3,73,101,11
9,4,19,1,2,0,3,79,101,11
10,4,12,1,4,0,4,59,101,11
11,4,16,1,0,0,4,38,101,11
6,3,12,1,1,0,2,25,55,9
12,1,17,1,2,0,4,29,101,11
12,1,19,1,2,0,4,77,91,11
12,1,18,1,2,0,4,29,101,11
12,1,7,1,2,0,4,17,110,11
12,1,23,0,2,0,4,8,91,11
7,3,18,1,4,0,3,55,91,11
3,2,22,0,1,0,1,23,67,11
6,3,3,0,2,0,2,36,128,11
5,2,19,1,6,1,2,19,91,11
9,4,13,1,3,0,3,25,101,9
5,2,7,1,6,1,2,51,87,11
8,3,17,1,0,0,3,8,91,11
8,3,20,1,6,1,3,41,77,11
4,2,20,1,4,0,2,74,77,11
9,4,17,1,3,0,3,7,101,11
11,4,12,1,1,0,4,2,128,11
12,1,17,1,3,0,4,56,20,11
9,4,22,0,3,0,3,55,128,11
4,2,10,1,4,0,2,14,91,11
12,1,13,1,3,0,4,50,20,11
6,3,7,1,2,0,2,45,20,11
11,4,21,0,1,0,4,36,67,11
9,4,10,1,3,0,3,25,57,11
9,4,16,1,3,0,3,3,91,11
12,1,14,1,3,0,4,50,57,9
2,1,4,0,1,0,1,58,67,11
5,2,5,0,6,1,2,76,77,8
4,2,12,1,4,0,2,18,128,11
8,3,2,0,0,0,3,2,128,11
12,1,13,1,3,0,4,50,101,11
9,4,8,1,3,0,3,3,89,11
11,4,19,1,1,0,4,22,91,11
3,2,10,1,1,0,1,25,77,11
1,1,17,1,6,1,1,10,67,11
1,1,0,0,2,0,1,58,67,11
1,1,13,1,6,1,1,3,91,11
6,3,20,1,3,0,2,25,101,11
7,3,0,0,5,1,3,21,89,11
5,2,21,0,0,0,2,3,90,11
4,2,14,1,5,1,2,5,106,9
2,1,14,1,2,0,1,16,101,11
3,2,16,1,2,0,1,3,91,11
3,2,19,1,2,0,1,2,101,11
3,2,2,0,2,0,1,8,128,11
2,1,23,0,2,0,1,49,67,11
5,2,13,1,0,0,2,41,128,11
4,2,14,1,5,1,2,34,101,11
2,1,16,1,2,0,1,78,64,8
8,3,0,0,1,0,3,11,10,11
8,3,21,0,1,0,3,87,91,11
9,4,1,0,4,0,3,19,91,11
9,4,19,1,4,0,3,25,101,11
7,3,13,1,5,1,3,49,101,11
10,4,12,1,6,1,4,41,77,8
7,3,15,1,5,1,3,14,91,11
9,4,17,1,4,0,3,79,101,11
7,3,7,1,5,1,3,36,96,11
8,3,4,0,1,0,3,36,86,11
8,3,17,1,1,0,3,17,45,11
8,3,5,0,1,0,3,16,101,11
9,4,15,1,4,0,3,29,101,11
9,4,13,1,4,0,3,25,55,11
10,4,3,0,6,1,4,55,96,11
7,3,21,0,5,1,3,86,91,11
11,4,4,0,2,0,4,36,67,11
11,4,13,1,2,0,4,56,122,11
10,4,0,0,6,1,4,15,128,11
6,3,17,1,3,0,2,25,7,11
12,1,7,1,4,0,4,83,12,9
6,3,17,1,3,0,2,14,91,11
12,1,21,0,4,0,4,25,67,11
12,1,5,0,4,0,4,11,128,11
12,1,15,1,4,0,4,29,101,11
10,4,16,1,3,0,4,3,20,11
11,4,17,1,2,0,4,20,77,9
4,2,13,1,5,1,2,25,20,11
4,2,2,0,5,1,2,25,128,9
4,2,21,0,6,1,2,14,91,11
5,2,15,1,1,0,2,36,128,11
6,3,6,0,4,0,2,3,91,11
6,3,12,1,4,0,2,88,20,11
5,2,19,1,1,0,2,36,45,11
4,2,10,1,6,1,2,43,83,11
4,2,17,1,6,1,2,39,122,11
8,3,3,0,2,0,3,5,101,11
3,2,23,0,3,0,1,75,20,9
10,4,21,0,0,0,4,32,101,11
6,3,21,0,4,0,2,11,68,11
4,2,10,1,6,1,2,85,125,9
5,2,6,0,1,0,2,61,20,9
9,4,2,0,5,1,3,25,68,11
5,2,13,1,1,0,2,29,45,9
7,3,14,1,6,1,3,20,20,11
10,4,12,1,0,0,4,37,20,11
8,3,21,0,2,0,3,25,101,11
8,3,21,0,2,0,3,3,91,11
7,3,5,0,1,0,3,84,128,11
7,3,8,1,6,1,3,49,20,11
9,4,21,0,5,1,3,85,101,11
8,3,14,1,2,0,3,59,101,11
3,2,17,1,3,0,1,88,25,11
3,2,19,1,3,0,1,85,101,11
4,2,17,1,6,1,2,41,91,11
10,4,16,1,0,0,4,14,91,9
10,4,8,1,0,0,4,21,128,11
7,3,15,1,6,1,3,50,91,11
7,3,12,1,6,1,3,59,101,11
7,3,5,0,6,1,3,8,101,11
7,3,11,1,6,1,3,8,47,11
12,1,21,0,5,1,4,5,36,11
9,4,11,1,5,1,3,14,91,11
11,4,20,1,3,0,4,3,128,11
11,4,13,1,3,0,4,3,101,11
11,4,16,1,3,0,4,36,128,11
11,4,13,1,3,0,4,73,25,11
11,4,23,0,3,0,4,29,101,11
11,4,1,0,3,0,4,44,91,11
11,4,1,0,3,0,4,8,96,11
12,1,20,1,5,1,4,22,91,8
11,4,15,1,4,0,4,25,91,11
12,1,0,0,6,1,4,14,91,11
12,1,4,0,6,1,4,36,40,9
12,1,11,1,5,1,4,38,110,11
6,3,13,1,5,1,2,44,101,11
8,3,13,1,3,0,3,17,101,11
8,3,17,1,3,0,3,79,101,11
11,4,18,1,4,0,4,74,101,11
11,4,23,0,4,0,4,16,78,11
2,1,8,1,4,0,1,3,67,11
3,2,13,1,4,0,1,29,101,11
7,3,8,1,0,0,3,8,128,11
6,3,18,1,5,1,2,25,128,11
3,2,15,1,4,0,1,11,101,11
4,2,11,1,0,0,2,83,96,11
2,1,15,1,4,0,1,83,101,11
3,2,12,1,4,0,1,3,91,11
2,1,22,0,4,0,1,21,101,11
6,3,18,1,5,1,2,25,91,11
1,1,16,1,1,0,1,79,101,11
3,2,15,1,4,0,1,19,128,11
10,4,6,0,1,0,4,59,110,11
3,2,21,0,4,0,1,25,101,11
6,3,15,1,5,1,2,21,101,11
7,3,22,0,0,0,3,59,101,11
3,2,18,1,4,0,1,25,25,11
9,4,22,0,6,1,3,25,101,11
7,3,19,1,0,0,3,59,101,11
7,3,9,1,0,0,3,87,101,11
9,4,9,1,6,1,3,44,20,11
10,4,7,1,1,0,4,87,101,11
8,3,16,1,3,0,3,55,20,11
7,3,17,1,0,0,3,44,91,11
10,4,18,1,1,0,4,79,101,11
6,3,21,0,5,1,2,24,9,11
1,1,11,1,1,0,1,55,91,11
2,1,12,1,4,0,1,25,77,11
2,1,15,1,4,0,1,25,101,9
2,1,6,0,4,0,1,2,101,11
6,3,16,1,5,1,2,49,91,11
9,4,9,1,6,1,3,2,101,11
4,2,14,1,0,0,2,19,77,11
4,2,13,1,0,0,2,5,25,8
4,2,9,1,0,0,2,17,128,11
7,3,18,1,0,0,3,55,20,11
8,3,16,1,3,0,3,36,57,8
5,2,4,0,3,0,2,36,67,11
12,1,18,1,6,1,4,25,101,11
6,3,20,1,6,1,2,8,101,11
2,1,4,0,5,1,1,8,128,11
2,1,0,0,5,1,1,50,101,11
11,4,15,1,5,1,4,69,128,11
8,3,18,1,4,0,3,25,91,11
10,4,8,1,2,0,4,44,101,11
11,4,11,1,5,1,4,79,101,11
5,2,18,1,3,0,2,13,91,11
1,1,21,0,2,0,1,36,20,9
7,3,4,0,2,0,3,25,128,11
9,4,13,1,0,0,3,61,91,11
2,1,17,1,4,0,1,22,101,11
8,3,18,1,4,0,3,41,91,11
9,4,4,0,0,0,3,87,20,9
9,4,12,1,0,0,3,21,101,11
11,4,19,1,5,1,4,14,91,11
8,3,11,1,4,0,3,36,85,11
9,4,2,0,0,0,3,14,128,11
5,2,16,1,3,0,2,2,25,11
12,1,16,1,0,0,4,25,83,11
4,2,14,1,1,0,2,41,77,11
3,2,15,1,5,1,1,21,55,9
11,4,22,0,5,1,4,2,101,11
7,3,17,1,1,0,3,49,91,11
9,4,22,0,0,0,3,84,113,9
12,1,19,1,0,0,4,11,77,11
11,4,0,0,5,1,4,22,128,11
4,2,9,1,1,0,2,41,91,11
9,4,6,0,0,0,3,79,91,9
12,1,23,0,0,0,4,13,101,11
7,3,12,1,1,0,3,11,40,11
10,4,11,1,2,0,4,70,67,9
6,3,23,0,6,1,2,17,101,11
7,3,8,1,2,0,3,45,40,11
7,3,7,1,3,0,3,75,20,11
9,4,1,0,1,0,3,11,77,9
7,3,7,1,2,0,3,77,101,11
6,3,9,1,1,0,2,88,101,11
7,3,15,1,3,0,3,32,20,11
12,1,10,1,2,0,4,86,89,11
1,1,10,1,3,0,1,3,68,8
10,4,21,0,4,0,4,61,128,11
10,4,8,1,4,0,4,8,128,11
9,4,13,1,1,0,3,14,91,11
7,3,3,0,3,0,3,67,37,9
5,2,3,0,5,1,2,84,20,11
7,3,23,0,3,0,3,79,101,11
12,1,5,0,2,0,4,58,20,11
1,1,11,1,4,0,1,8,91,11
6,3,23,0,0,0,2,39,101,11
11,4,14,1,5,1,4,25,128,11
5,2,18,1,3,0,2,84,25,11
6,3,2,0,0,0,2,3,101,11
2,1,4,0,0,0,1,59,67,11
11,4,13,1,0,0,4,2,128,11
2,1,0,0,6,1,1,14,91,11
12,1,11,1,2,0,4,41,128,11
6,3,15,1,1,0,2,41,91,11
2,1,19,1,0,0,1,22,101,11
2,1,21,0,0,0,1,88,91,11
10,4,14,1,4,0,4,83,77,9
6,3,21,0,1,0,2,80,71,8
10,4,6,0,3,0,4,3,91,11
10,4,11,1,3,0,4,3,91,11
12,1,20,1,2,0,4,9,55,11
6,3,1,0,0,0,2,25,91,11
11,4,18,1,0,0,4,29,128,11
5,2,15,1,5,1,2,79,101,11
7,3,20,1,2,0,3,59,101,11
8,3,14,1,6,1,3,3,91,11
1,1,6,0,4,0,1,25,101,11
4,2,14,1,3,0,2,16,20,11
2,1,2,0,0,0,1,3,128,11
1,1,8,1,3,0,1,26,110,11
9,4,7,1,2,0,3,41,77,11
12,1,20,1,1,0,4,44,25,11
2,1,2,0,6,1,1,25,101,11
12,1,12,1,1,0,4,54,91,11
11,4,14,1,0,0,4,32,24,11
3,2,7,1,0,0,1,3,13,11
8,3,11,1,6,1,3,58,127,9
8,3,22,0,4,0,3,25,25,11
10,4,22,0,4,0,4,68,78,11
12,1,16,1,6,1,4,25,25,11
1,1,11,1,3,0,1,69,91,11
3,2,14,1,6,1,1,22,20,11
2,1,14,1,0,0,1,30,91,11
2,1,17,1,5,1,1,3,91,9
5,2,12,1,4,0,2,25,101,11
1,1,21,0,3,0,1,14,91,11
4,2,20,1,2,0,2,20,101,11
6,3,20,1,6,1,2,25,128,11
12,1,4,0,1,0,4,11,77,11
12,1,18,1,1,0,4,29,29,11
5,2,17,1,5,1,2,8,58,11
6,3,16,1,6,1,2,22,128,11
12,1,13,1,1,0,4,15,101,11
1,1,18,1,3,0,1,59,101,11
4,2,22,0,2,0,2,83,101,11
6,3,7,1,0,0,2,11,67,8
1,1,12,1,3,0,1,25,91,11
2,1,0,0,6,1,1,58,91,11
9,4,17,1,1,0,3,21,101,11
9,4,17,1,3,0,3,2,128,11
12,1,23,0,2,0,4,77,91,9
9,4,16,1,3,0,3,54,120,11
12,1,23,0,3,0,4,37,128,11
2,1,3,0,6,1,1,87,25,11
1,1,17,1,2,0,1,3,25,11
8,3,18,1,0,0,3,49,101,11
6,3,0,0,2,0,2,3,91,11
4,2,14,1,4,0,2,22,91,11
12,1,12,1,3,0,4,58,67,9
7,3,18,1,4,0,3,3,91,11
6,3,22,0,2,0,2,24,12,11
2,1,1,0,1,0,1,63,20,11
4,2,13,1,4,0,2,14,125,11
7,3,23,0,4,0,3,58,89,11
9,4,20,1,3,0,3,10,101,11
8,3,16,1,0,0,3,3,25,11
2,1,7,1,1,0,1,61,57,11
6,3,16,1,2,0,2,44,88,11
12,1,14,1,3,0,4,51,91,11
5,2,4,0,6,1,2,36,80,11
2,1,13,1,5,1,1,25,25,11
11,4,10,1,6,1,4,25,37,11
4,2,6,0,4,0,2,79,101,11
1,1,21,0,5,1,1,54,91,11
6,3,18,1,2,0,2,22,67,9
5,2,16,1,6,1,2,25,91,11
6,3,8,1,2,0,2,77,91,11
7,3,21,0,4,0,3,59,55,11
9,4,12,1,3,0,3,43,110,11
9,4,12,1,3,0,3,84,25,11
10,4,7,1,6,1,4,14,91,11
8,3,17,1,2,0,3,14,91,11
12,1,23,0,4,0,4,15,77,11
1,1,14,1,3,0,1,84,25,11
4,2,21,0,5,1,2,71,77,9
3,2,13,1,2,0,1,36,40,11
2,1,17,1,2,0,1,22,101,11
3,2,14,1,2,0,1,20,101,11
2,1,16,1,2,0,1,8,25,11
9,4,0,0,4,0,3,83,20,8
10,4,13,1,6,1,4,8,128,11
8,3,0,0,1,0,3,3,128,11
10,4,12,1,2,0,4,40,101,11
7,3,16,1,5,1,3,41,77,11
7,3,18,1,1,0,3,2,55,11
9,4,17,1,4,0,3,44,128,11
4,2,11,1,5,1,2,76,128,11
7,3,5,0,5,1,3,29,128,11
10,4,2,0,6,1,4,3,128,11
7,3,19,1,2,0,3,25,101,11
9,4,15,1,4,0,3,14,91,11
11,4,17,1,2,0,4,61,91,11
9,4,10,1,4,0,3,25,23,8
8,3,0,0,1,0,3,58,128,11
7,3,18,1,5,1,3,2,128,11
12,1,13,1,4,0,4,87,25,11
12,1,14,1,4,0,4,59,67,9
5,2,17,1,0,0,2,22,77,11
5,2,3,0,0,0,2,25,20,11
2,1,11,1,2,0,1,36,67,11
10,4,18,1,6,1,4,24,80,9
5,2,16,1,0,0,2,41,40,11
6,3,13,1,3,0,2,11,77,11
7,3,23,0,5,1,3,3,128,11
7,3,6,0,5,1,3,59,128,11
11,4,20,1,2,0,4,24,128,11
8,3,1,0,1,0,3,61,67,11
10,4,11,1,5,1,4,31,101,11
7,3,20,1,5,1,3,25,77,11
6,3,21,0,5,1,2,8,91,11
5,2,8,1,3,0,2,6,128,11
1,1,16,1,4,0,1,2,128,11
10,4,14,1,6,1,4,86,67,11
9,4,13,1,2,0,3,14,91,11
5,2,3,0,3,0,2,25,96,11
12,1,20,1,5,1,4,14,91,11
1,1,15,1,0,0,1,14,91,11
9,4,13,1,2,0,3,14,91,11
6,3,18,1,5,1,2,14,91,11
2,1,16,1,5,1,1,40,101,11
5,2,23,0,0,0,2,14,91,11
12,1,23,0,6,1,4,14,91,11
11,4,14,1,5,1,4,14,91,11
12,1,13,1,2,0,4,14,25,11
11,4,5,0,5,1,4,84,128,11
10,4,21,0,4,0,4,14,91,11
7,3,17,1,4,0,3,14,91,11
7,3,11,1,2,0,3,19,4,9
5,2,21,0,0,0,2,77,31,11
7,3,4,0,1,0,3,14,91,11
2,1,14,1,2,0,1,88,128,11
8,3,15,1,5,1,3,86,128,11
1,1,14,1,6,1,1,40,40,8
1,1,0,0,1,0,1,40,128,11
9,4,11,1,0,0,3,15,101,11
7,3,10,1,5,1,3,14,101,9
3,2,13,1,3,0,1,15,67,11
5,2,18,1,3,0,2,9,40,11
2,1,15,1,5,1,1,47,77,11
2,1,1,0,5,1,1,61,67,9
10,4,3,0,2,0,4,36,20,9
2,1,12,1,5,1,1,59,128,11
9,4,19,1,0,0,3,25,20,11
4,2,18,1,1,0,2,36,89,11
1,1,14,1,2,0,1,11,128,11
6,3,15,1,6,1,2,65,128,11
5,2,17,1,3,0,2,61,7,11
5,2,3,0,3,0,2,56,101,11
4,2,2,0,1,0,2,44,20,11
1,1,21,0,2,0,1,75,20,11
1,1,2,0,2,0,1,58,68,11
3,2,16,1,5,1,1,14,91,11
1,1,4,0,2,0,1,54,40,11
1,1,20,1,3,0,1,44,89,11
6,3,14,1,6,1,2,50,128,11
8,3,13,1,4,0,3,12,12,11
2,1,8,1,6,1,1,16,40,11
2,1,11,1,6,1,1,40,40,11
2,1,11,1,6,1,1,20,128,11
1,1,18,1,2,0,1,25,37,11
2,1,7,1,5,1,1,30,128,11
3,2,11,1,5,1,1,13,77,11
11,4,13,1,5,1,4,63,77,11
7,3,23,0,1,0,3,8,101,11
4,2,13,1,2,0,2,77,91,9
3,2,16,1,6,1,1,3,128,11
5,2,19,1,4,0,2,56,101,11
3,2,5,0,6,1,1,20,77,9
3,2,8,1,6,1,1,88,12,11
4,2,12,1,2,0,2,50,40,11
4,2,19,1,2,0,2,2,101,11
6,3,21,0,0,0,2,73,101,11
5,2,16,1,4,0,2,2,128,11
4,2,18,1,2,0,2,45,101,11
3,2,11,1,6,1,1,38,91,11
5,2,20,1,4,0,2,55,67,11
3,2,14,1,6,1,1,25,106,11
5,2,20,1,4,0,2,49,128,11
2,1,5,0,6,1,1,36,128,11
3,2,6,0,6,1,1,36,91,11
2,1,22,0,6,1,1,72,20,11
4,2,22,0,2,0,2,77,77,9
11,4,17,1,6,1,4,59,101,11
12,1,16,1,1,0,4,8,128,11
9,4,16,1,1,0,3,50,128,11
7,3,11,1,2,0,3,36,67,11
8,3,13,1,5,1,3,8,91,11
8,3,23,0,5,1,3,9,96,11
8,3,16,1,5,1,3,7,101,11
9,4,14,1,1,0,3,76,101,11
9,4,19,1,1,0,3,55,67,11
8,3,10,1,5,1,3,3,91,11
8,3,19,1,5,1,3,2,101,11
8,3,9,1,5,1,3,56,128,11
8,3,9,1,5,1,3,62,128,11
10,4,12,1,3,0,4,39,77,11
10,4,16,1,3,0,4,50,13,11
9,4,11,1,1,0,3,25,67,11
9,4,15,1,1,0,3,8,128,11
12,1,1,0,1,0,4,79,101,11
8,3,17,1,5,1,3,59,101,11
12,1,7,1,1,0,4,17,77,11
9,4,18,1,1,0,3,40,86,11
9,4,10,1,1,0,3,49,128,11
9,4,21,0,1,0,3,25,89,11
11,4,23,0,6,1,4,30,101,11
11,4,21,0,6,1,4,9,128,11
12,1,13,1,1,0,4,10,101,11
9,4,22,0,1,0,3,77,91,9
11,4,3,0,6,1,4,40,7,8
5,2,14,1,3,0,2,25,91,11
3,2,15,1,0,0,1,76,101,11
2,1,20,1,0,0,1,74,40,11
3,2,9,1,0,0,1,54,110,11
2,1,20,1,0,0,1,22,128,11
2,1,4,0,0,0,1,36,128,11
3,2,2,0,0,0,1,36,20,11
9,4,15,1,2,0,3,36,98,11
10,4,16,1,4,0,4,73,91,11
9,4,20,1,2,0,3,8,91,11
10,4,18,1,4,0,4,79,101,11
8,3,19,1,6,1,3,83,101,11
9,4,21,0,2,0,3,3,128,11
10,4,11,1,4,0,4,84,12,11
11,4,18,1,0,0,4,74,101,11
10,4,17,1,4,0,4,79,101,11
11,4,11,1,0,0,4,3,98,11
11,4,16,1,0,0,4,79,101,11
7,3,14,1,3,0,3,29,101,11
6,3,11,1,1,0,2,2,101,11
7,3,3,0,3,0,3,44,20,11
9,4,14,1,2,0,3,2,101,11
8,3,19,1,6,1,3,56,101,11
6,3,18,1,1,0,2,36,57,11
8,3,15,1,6,1,3,59,101,11
7,3,12,1,1,0,3,36,40,11
8,3,8,1,6,1,3,43,128,11
10,4,17,1,3,0,4,36,128,11
6,3,21,0,1,0,2,2,101,11
5,2,23,0,5,1,2,3,91,11
4,2,14,1,3,0,2,31,91,11
8,3,22,0,6,1,3,25,96,11
7,3,23,0,3,0,3,25,96,11
8,3,20,1,6,1,3,75,101,11
8,3,15,1,6,1,3,34,101,11
8,3,19,1,6,1,3,84,101,11
8,3,20,1,6,1,3,21,101,11
10,4,14,1,4,0,4,74,101,11
9,4,13,1,2,0,3,16,101,11
10,4,15,1,4,0,4,79,101,9
6,3,12,1,1,0,2,8,91,11
9,4,18,1,2,0,3,66,101,11
12,1,13,1,2,0,4,20,128,11
12,1,11,1,2,0,4,87,20,11
12,1,13,1,2,0,4,10,91,11
9,4,16,1,2,0,3,25,125,9
10,4,11,1,4,0,4,17,40,11
10,4,5,0,2,0,4,16,40,11
10,4,2,0,4,0,4,25,101,11
7,3,21,0,4,0,3,55,68,11
4,2,15,1,4,0,2,45,20,8
10,4,19,1,5,1,4,8,91,11
9,4,19,1,3,0,3,3,20,11
11,4,14,1,1,0,4,88,91,11
6,3,15,1,2,0,2,3,20,11
11,4,15,1,1,0,4,3,91,11
10,4,23,0,5,1,4,69,20,11
4,2,20,1,4,0,2,19,25,11
4,2,9,1,4,0,2,77,40,11
7,3,19,1,4,0,3,44,91,11
5,2,22,0,6,1,2,36,128,11
4,2,18,1,4,0,2,27,91,11
11,4,15,1,1,0,4,79,91,11
9,4,0,0,3,0,3,26,86,11
9,4,2,0,3,0,3,20,128,11
8,3,8,1,0,0,3,50,128,11
4,2,11,1,4,0,2,25,128,11
9,4,12,1,3,0,3,59,101,11
2,1,19,1,1,0,1,19,78,11
11,4,10,1,1,0,4,36,67,11
12,1,14,1,3,0,4,72,128,11
2,1,7,1,2,0,1,16,101,11
1,1,0,0,6,1,1,19,91,11
1,1,16,1,6,1,1,8,128,11
2,1,12,1,2,0,1,16,29,11
5,2,15,1,0,0,2,8,101,11
4,2,5,0,5,1,2,49,7,9
6,3,19,1,3,0,2,29,101,11
3,2,21,0,2,0,1,56,101,11
3,2,19,1,2,0,1,25,91,11
2,1,22,0,2,0,1,49,91,11
6,3,21,0,3,0,2,2,101,11
4,2,12,1,5,1,2,22,67,11
4,2,4,0,5,1,2,9,89,11
4,2,1,0,5,1,2,15,128,11
3,2,0,0,2,0,1,2,128,11
3,2,21,0,2,0,1,83,101,11
7,3,13,1,5,1,3,2,67,11
7,3,14,1,5,1,3,14,91,11
6,3,20,1,3,0,2,8,91,11
8,3,19,1,1,0,3,2,101,11
2,1,17,1,5,1,1,25,91,11
10,4,11,1,6,1,4,44,91,11
12,1,19,1,4,0,4,16,110,11
10,4,18,1,6,1,4,24,101,11
12,1,9,1,4,0,4,38,91,11
7,3,11,1,3,0,3,17,128,11
3,2,10,1,3,0,1,3,89,11
2,1,10,1,3,0,1,73,91,11
1,1,16,1,0,0,1,24,101,11
2,1,19,1,3,0,1,14,91,11
2,1,1,0,3,0,1,14,23,8
3,2,1,0,3,0,1,25,91,11
1,1,18,1,0,0,1,14,91,11
1,1,12,1,0,0,1,30,20,9
1,1,5,0,0,0,1,11,122,11
2,1,11,1,3,0,1,73,15,11
2,1,16,1,2,0,1,25,101,11
2,1,20,1,3,0,1,49,91,11
2,1,1,0,3,0,1,14,91,11
4,2,16,1,6,1,2,17,101,11
4,2,18,1,6,1,2,39,20,9
4,2,1,0,6,1,2,55,78,9
4,2,14,1,6,1,2,21,13,9
5,2,21,0,1,0,2,75,101,11
3,2,12,1,3,0,1,25,25,11
4,2,17,1,6,1,2,79,101,11
5,2,21,0,1,0,2,3,91,11
5,2,16,1,1,0,2,29,91,11
3,2,12,1,3,0,1,89,91,9
4,2,10,1,6,1,2,41,91,11
6,3,12,1,4,0,2,79,101,11
7,3,2,0,6,1,3,55,67,11
6,3,11,1,4,0,2,16,91,11
8,3,3,0,2,0,3,14,91,11
4,2,0,0,6,1,2,36,128,11
10,4,19,1,0,0,4,74,101,11
6,3,10,1,4,0,2,84,25,11
7,3,10,1,6,1,3,49,25,11
5,2,4,0,1,0,2,20,20,9
10,4,10,1,0,0,4,58,91,11
8,3,2,0,2,0,3,14,91,11
8,3,17,1,2,0,3,25,67,11
7,3,23,0,6,1,3,25,128,11
7,3,20,1,6,1,3,8,91,11
5,2,20,1,1,0,2,25,20,11
12,1,3,0,5,1,4,36,89,11
12,1,16,1,5,1,4,50,20,11
12,1,23,0,5,1,4,14,91,11
9,4,2,0,5,1,3,14,91,11
12,1,16,1,5,1,4,22,91,11
11,4,14,1,3,0,4,44,101,11
11,4,13,1,3,0,4,14,91,11
7,3,15,1,6,1,3,14,25,9
1,1,15,1,1,0,1,79,101,11
12,1,11,1,6,1,4,59,101,11
12,1,17,1,6,1,4,21,101,11
11,4,1,0,4,0,4,2,20,9
9,4,20,1,6,1,3,37,101,11
9,4,13,1,6,1,3,25,91,11
11,4,13,1,4,0,4,44,101,9
11,4,21,0,4,0,4,59,101,11
9,4,15,1,6,1,3,5,101,11
10,4,21,0,1,0,4,49,45,11
4,2,2,0,0,0,2,59,101,11
4,2,13,1,0,0,2,49,101,11
10,4,3,0,1,0,4,40,101,11
5,2,21,0,2,0,2,14,91,11
1,1,13,1,1,0,1,21,101,11
8,3,15,1,3,0,3,11,89,11
8,3,13,1,3,0,3,59,101,11
9,4,5,0,6,1,3,79,101,11
4,2,19,1,0,0,2,25,128,11
3,2,22,0,4,0,1,8,20,11
3,2,0,0,4,0,1,86,24,11
12,1,22,0,5,1,4,25,7,11
2,1,10,1,1,0,1,22,91,9
10,4,19,1,1,0,4,55,67,11
6,3,11,1,5,1,2,3,89,11
4,2,21,0,0,0,2,59,101,11
8,3,17,1,3,0,3,76,25,11
7,3,9,1,0,0,3,25,25,9
1,1,13,1,1,0,1,44,101,11
8,3,14,1,2,0,3,56,101,11
10,4,12,1,1,0,4,59,55,11
1,1,19,1,1,0,1,14,20,11
10,4,22,0,1,0,4,25,91,9
6,3,16,1,5,1,2,87,25,11
5,2,22,0,2,0,2,32,24,11
4,2,7,1,0,0,2,3,91,11
10,4,23,0,1,0,4,82,101,11
6,3,18,1,5,1,2,2,101,11
2,1,17,1,4,0,1,63,67,9
1,1,15,1,1,0,1,20,91,11
1,1,21,0,1,0,1,14,91,11
1,1,21,0,1,0,1,14,91,9
8,3,18,1,3,0,3,17,91,11
3,2,18,1,4,0,1,73,101,11
4,2,10,1,0,0,2,3,91,11
4,2,13,1,0,0,2,46,128,11
9,4,15,1,6,1,3,29,91,11
9,4,21,0,6,1,3,87,77,11
7,3,0,0,0,0,3,25,25,11
4,2,14,1,1,0,2,17,91,11
4,2,17,1,1,0,2,20,77,11
6,3,15,1,6,1,2,20,91,11
8,3,18,1,4,0,3,56,101,11
9,4,19,1,0,0,3,44,101,11
10,4,11,1,2,0,4,41,101,11
10,4,11,1,2,0,4,29,25,11
3,2,15,1,4,0,1,25,125,11
2,1,14,1,5,1,1,25,101,11
10,4,18,1,2,0,4,39,101,8
11,4,16,1,5,1,4,44,125,11
1,1,9,1,2,0,1,25,89,11
5,2,17,1,3,0,2,79,101,11
6,3,23,0,6,1,2,16,91,9
7,3,22,0,1,0,3,59,101,11
10,4,6,0,2,0,4,58,128,11
9,4,23,0,0,0,3,29,101,11
4,2,11,1,1,0,2,25,101,11
2,1,0,0,5,1,1,25,96,11
9,4,19,1,6,1,3,37,55,9
2,1,13,1,5,1,1,22,91,9
2,1,20,1,5,1,1,2,101,11
11,4,12,1,5,1,4,50,20,11
10,4,12,1,1,0,4,79,101,11
12,1,12,1,0,0,4,49,122,11
5,2,19,1,3,0,2,25,20,11
10,4,22,0,2,0,4,79,101,11
9,4,14,1,0,0,3,2,89,11
10,4,0,0,2,0,4,25,113,9
1,1,19,1,2,0,1,77,20,11
7,3,20,1,1,0,3,71,91,11
7,3,22,0,1,0,3,44,101,11
2,1,17,1,5,1,1,41,77,11
3,2,16,1,5,1,1,2,101,11
7,3,21,0,1,0,3,44,101,11
12,1,13,1,0,0,4,7,101,11
10,4,11,1,2,0,4,88,110,11
7,3,16,1,1,0,3,3,77,9
6,3,3,0,6,1,2,20,91,11
5,2,10,1,3,0,2,87,125,11
10,4,14,1,2,0,4,49,71,11
1,1,14,1,2,0,1,3,128,11
7,3,16,1,3,0,3,39,101,11
8,3,16,1,6,1,3,25,32,11
8,3,8,1,6,1,3,17,20,11
12,1,16,1,0,0,4,29,101,11
4,2,22,0,4,0,2,14,91,11
3,2,9,1,6,1,1,79,101,11
6,3,16,1,1,0,2,36,90,11
1,1,6,0,3,0,1,16,23,11
9,4,6,0,2,0,3,36,128,11
5,2,13,1,5,1,2,49,77,11
3,2,14,1,0,0,1,25,67,11
10,4,10,1,4,0,4,7,101,11
5,2,9,1,5,1,2,2,101,11
12,1,21,0,0,0,4,5,128,11
1,1,23,0,3,0,1,25,128,9
4,2,2,0,2,0,2,36,7,11
7,3,9,1,3,0,3,14,20,11
12,1,17,1,2,0,4,49,100,11
9,4,14,1,2,0,3,41,91,11
6,3,5,0,0,0,2,3,20,11
8,3,20,1,5,1,3,8,101,11
2,1,17,1,6,1,1,25,25,11
12,1,22,0,2,0,4,2,101,11
10,4,14,1,3,0,4,84,91,11
9,4,12,1,1,0,3,49,91,11
7,3,7,1,2,0,3,21,55,11
5,2,10,1,5,1,2,41,91,11
9,4,14,1,2,0,3,74,101,11
9,4,13,1,2,0,3,17,101,11
11,4,17,1,6,1,4,21,128,11
8,3,8,1,6,1,3,88,91,11
7,3,18,1,2,0,3,86,91,11
5,2,22,0,4,0,2,14,91,11
9,4,16,1,1,0,3,49,96,11
3,2,22,0,6,1,1,14,91,11
4,2,19,1,2,0,2,21,101,11
3,2,3,0,5,1,1,22,54,9
7,3,18,1,2,0,3,79,101,11
11,4,1,0,6,1,4,42,101,11
11,4,19,1,5,1,4,14,91,11
1,1,0,0,3,0,1,3,91,11
8,3,1,0,5,1,3,19,20,11
1,1,13,1,4,0,1,87,20,11
2,1,21,0,0,0,1,3,91,11
1,1,21,0,3,0,1,3,91,11
2,1,19,1,6,1,1,36,68,11
3,2,18,1,6,1,1,56,101,11
1,1,2,0,2,0,1,14,91,11
2,1,10,1,1,0,1,37,89,11
11,4,15,1,1,0,4,42,25,11
4,2,18,1,4,0,2,73,101,11
1,1,23,0,5,1,1,10,20,11
7,3,9,1,4,0,3,17,101,11
2,1,18,1,5,1,1,25,91,11
8,3,15,1,4,0,3,29,128,11
2,1,11,1,1,0,1,29,128,11
11,4,11,1,1,0,4,88,91,9
4,2,15,1,0,0,2,52,91,11
1,1,22,0,1,0,1,36,89,11
4,2,15,1,4,0,2,66,25,9
9,4,20,1,3,0,3,44,101,11
5,2,12,1,6,1,2,8,77,11
8,3,9,1,0,0,3,44,91,11
2,1,13,1,1,0,1,88,91,11
2,1,18,1,1,0,1,14,91,11
3,2,17,1,1,0,1,49,101,11
12,1,22,0,3,0,4,25,128,11
9,4,9,1,3,0,3,25,78,11
9,4,23,0,0,0,3,3,128,11
5,2,4,0,4,0,2,14,91,11
4,2,0,0,6,1,2,14,91,11
9,4,11,1,6,1,3,14,91,9
12,1,9,1,3,0,4,49,91,11
3,2,13,1,1,0,1,10,101,11
1,1,18,1,5,1,1,14,101,11
3,2,1,0,1,0,1,67,67,11
4,2,15,1,5,1,2,56,101,11
9,4,18,1,4,0,3,29,128,11
5,2,15,1,6,1,2,14,125,11
2,1,21,0,2,0,1,20,128,11
2,1,22,0,2,0,1,83,67,11
2,1,15,1,2,0,1,20,128,11
7,3,11,1,2,0,3,25,101,11
1,1,3,0,2,0,1,36,128,11
6,3,5,0,6,1,2,8,91,11
2,1,12,1,2,0,1,5,89,11
2,1,12,1,2,0,1,79,101,11
1,1,12,1,6,1,1,9,91,11
9,4,0,0,4,0,3,14,91,11
4,2,10,1,5,1,2,37,89,11
1,1,8,1,6,1,1,69,17,11
9,4,16,1,4,0,3,57,68,11
8,3,0,0,1,0,3,49,45,11
1,1,14,1,6,1,1,3,20,9
2,1,5,0,2,0,1,36,96,11
11,4,18,1,2,0,4,25,91,11
7,3,22,0,5,1,3,17,25,11
10,4,17,1,6,1,4,17,113,9
1,1,23,0,6,1,1,25,128,11
7,3,17,1,5,1,3,16,101,11
2,1,19,1,2,0,1,24,77,11
4,2,21,0,5,1,2,37,77,11
11,4,11,1,2,0,4,20,128,11
8,3,22,0,3,0,3,8,91,11
3,2,19,1,2,0,1,2,128,11
11,4,12,1,2,0,4,22,77,9
12,1,10,1,4,0,4,87,45,9
2,1,19,1,6,1,1,5,91,11
6,3,7,1,0,0,2,14,91,11
10,4,12,1,2,0,4,14,104,11
5,2,21,0,4,0,2,36,128,11
2,1,21,0,6,1,1,14,91,11
1,1,12,1,2,0,1,3,128,11
11,4,2,0,5,1,4,14,91,9
12,1,14,1,6,1,4,14,91,11
7,3,22,0,4,0,3,14,91,11
7,3,21,0,0,0,3,14,91,9
9,4,23,0,6,1,3,40,20,11
3,2,21,0,3,0,1,36,128,11
7,3,22,0,2,0,3,14,91,11
11,4,3,0,1,0,4,36,128,11
7,3,9,1,6,1,3,61,91,11
4,2,20,1,1,0,2,56,128,11
8,3,4,0,4,0,3,64,67,11
4,2,17,1,1,0,2,25,125,11
2,1,9,1,5,1,1,66,30,11
5,2,15,1,3,0,2,83,101,11
4,2,23,0,1,0,2,25,128,11
2,1,8,1,5,1,1,36,128,11
9,4,22,0,0,0,3,36,77,9
2,1,19,1,5,1,1,63,77,11
7,3,22,0,1,0,3,21,20,11
11,4,15,1,5,1,4,34,101,11
11,4,12,1,5,1,4,79,101,11
10,4,14,1,2,0,4,34,128,11
9,4,13,1,0,0,3,54,77,11
10,4,15,1,2,0,4,25,91,11
11,4,17,1,5,1,4,76,67,11
2,1,17,1,6,1,1,15,40,11
8,3,19,1,4,0,3,33,91,11
12,1,16,1,0,0,4,86,101,11
2,1,10,1,6,1,1,39,77,11
1,1,3,0,3,0,1,2,128,11
3,2,4,0,5,1,1,75,101,11
3,2,2,0,5,1,1,36,128,11
10,4,18,1,2,0,4,73,101,11
11,4,20,1,5,1,4,86,13,11
6,3,18,1,6,1,2,89,91,11
1,1,20,1,2,0,1,29,128,11
3,2,17,1,5,1,1,3,91,11
6,3,15,1,6,1,2,2,67,11
2,1,4,0,6,1,1,55,77,9
6,3,12,1,6,1,2,77,125,11
11,4,21,0,5,1,4,43,128,11
1,1,1,0,2,0,1,87,77,11
9,4,8,1,0,0,3,55,128,11
2,1,18,1,6,1,1,75,128,11
12,1,13,1,0,0,4,15,128,11
6,3,0,0,0,0,2,84,23,11
6,3,21,0,0,0,2,55,67,11
7,3,20,1,2,0,3,44,40,11
2,1,6,0,6,1,1,36,128,11
5,2,12,1,4,0,2,49,68,11
6,3,17,1,0,0,2,12,101,11
7,3,1,0,2,0,3,36,67,11
7,3,10,1,1,0,3,25,67,11
7,3,18,1,2,0,3,79,101,11
4,2,9,1,2,0,2,61,67,11
5,2,14,1,4,0,2,46,101,11
7,3,11,1,2,0,3,79,101,11
7,3,15,1,2,0,3,56,91,11
12,1,16,1,1,0,4,66,128,11
11,4,19,1,6,1,4,20,67,11
9,4,15,1,1,0,3,23,25,11
9,4,2,0,1,0,3,75,128,11
8,3,4,0,5,1,3,46,77,11
9,4,0,0,1,0,3,79,77,11
10,4,15,1,3,0,4,76,101,11
9,4,20,1,1,0,3,2,128,11
10,4,11,1,3,0,4,2,101,11
10,4,23,0,3,0,4,49,101,11
9,4,18,1,1,0,3,10,40,11
8,3,15,1,5,1,3,25,55,11
8,3,21,0,5,1,3,72,128,11
9,4,14,1,1,0,3,44,126,11
12,1,9,1,1,0,4,2,128,11
8,3,15,1,5,1,3,58,20,9
11,4,20,1,6,1,4,3,40,11
4,2,6,0,3,0,2,17,66,11
4,2,13,1,3,0,2,73,40,11
1,1,18,1,4,0,1,9,40,11
1,1,20,1,4,0,1,13,59,11
1,1,0,0,4,0,1,76,67,11
3,2,4,0,0,0,1,88,128,11
1,1,4,0,4,0,1,36,128,11
3,2,22,0,0,0,1,29,98,11
7,3,18,1,3,0,3,27,91,11
10,4,12,1,4,0,4,25,101,11
10,4,17,1,4,0,4,59,101,11
10,4,15,1,4,0,4,3,89,11
8,3,14,1,6,1,3,59,101,11
11,4,9,1,0,0,4,61,91,11
4,2,15,1,3,0,2,74,101,11
8,3,20,1,6,1,3,25,101,11
9,4,21,0,2,0,3,78,7,9
11,4,18,1,0,0,4,22,91,11
5,2,13,1,5,1,2,40,101,11
11,4,13,1,0,0,4,13,101,11
12,1,22,0,1,0,4,3,128,11
10,4,14,1,4,0,4,2,101,11
10,4,11,1,4,0,4,21,101,11
5,2,19,1,5,1,2,71,67,11
6,3,17,1,1,0,2,25,101,11
10,4,11,1,4,0,4,21,101,11
5,2,18,1,5,1,2,59,101,11
9,4,17,1,2,0,3,79,101,11
5,2,22,0,5,1,2,69,40,11
7,3,8,1,3,0,3,34,89,11
8,3,19,1,6,1,3,59,101,11
5,2,2,0,5,1,2,74,128,11
6,3,5,0,1,0,2,25,67,11
8,3,18,1,6,1,3,2,101,11
10,4,21,0,4,0,4,16,13,11
8,3,19,1,6,1,3,88,25,11
7,3,14,1,3,0,3,45,25,11
9,4,14,1,2,0,3,40,125,11
9,4,16,1,2,0,3,74,101,11
10,4,11,1,4,0,4,49,101,11
9,4,17,1,2,0,3,39,24,11
9,4,16,1,2,0,3,79,101,11
5,2,18,1,5,1,2,79,101,11
5,2,20,1,3,0,2,3,77,11
10,4,15,1,4,0,4,59,101,11
6,3,16,1,1,0,2,41,91,11
10,4,8,1,4,0,4,55,128,11
8,3,16,1,6,1,3,56,101,11
12,1,12,1,2,0,4,8,20,11
12,1,17,1,2,0,4,21,101,11
8,3,3,0,6,1,3,25,128,11
6,3,14,1,1,0,2,25,20,11
12,1,19,1,2,0,4,2,101,11
12,1,16,1,2,0,4,48,40,11
12,1,20,1,2,0,4,40,101,11
12,1,17,1,2,0,4,25,25,11
6,3,14,1,2,0,2,3,91,11
7,3,21,0,4,0,3,73,77,11
11,4,8,1,1,0,4,52,128,11
8,3,9,1,0,0,3,3,77,11
11,4,18,1,1,0,4,58,67,9
3,2,21,0,1,0,1,25,96,11
12,1,18,1,3,0,4,44,91,8
4,2,23,0,4,0,2,88,128,11
9,4,14,1,3,0,3,85,96,11
8,3,12,1,0,0,3,2,101,11
10,4,19,1,5,1,4,25,67,11
6,3,21,0,2,0,2,54,91,11
3,2,23,0,1,0,1,9,91,11
5,2,8,1,6,1,2,79,101,11
10,4,13,1,5,1,4,2,77,11
6,3,9,1,2,0,2,8,101,9
6,3,1,0,2,0,2,36,45,9
9,4,5,0,3,0,3,25,128,11
9,4,6,0,3,0,3,25,128,11
1,1,13,1,6,1,1,11,40,11
1,1,17,1,6,1,1,21,101,11
1,1,11,1,6,1,1,17,109,11
1,1,17,1,6,1,1,30,101,11
8,3,16,1,5,1,3,14,20,11
1,1,9,1,6,1,1,56,101,11
1,1,18,1,6,1,1,37,125,11
2,1,4,0,2,0,1,25,96,11
4,2,18,1,5,1,2,85,25,11
1,1,19,1,6,1,1,44,67,11
2,1,14,1,2,0,1,14,20,11
4,2,17,1,5,1,2,74,101,11
2,1,14,1,2,0,1,52,57,11
2,1,17,1,2,0,1,9,57,11
4,2,12,1,5,1,2,5,91,11
4,2,12,1,5,1,2,8,101,11
5,2,17,1,0,0,2,61,47,11
5,2,23,0,0,0,2,3,20,11
5,2,11,1,0,0,2,59,101,11
3,2,0,0,2,0,1,49,128,11
10,4,15,1,6,1,4,68,98,11
2,1,5,0,2,0,1,36,128,11
8,3,14,1,1,0,3,25,40,11
7,3,9,1,5,1,3,3,91,11
11,4,0,0,2,0,4,2,128,11
9,4,12,1,4,0,3,32,101,11
6,3,18,1,3,0,2,10,101,11
11,4,12,1,2,0,4,42,128,11
12,1,8,1,1,0,4,2,128,11
12,1,14,1,4,0,4,61,91,11
12,1,1,0,4,0,4,25,128,11
11,4,22,0,2,0,4,49,98,11
12,1,14,1,4,0,4,41,101,11
10,4,0,0,4,0,4,16,71,11
2,1,17,1,5,1,1,44,91,11
11,4,23,0,2,0,4,11,89,11
11,4,4,0,2,0,4,36,128,11
8,3,10,1,1,0,3,14,91,11
2,1,21,0,3,0,1,8,101,11
1,1,23,0,0,0,1,8,101,11
1,1,16,1,0,0,1,13,101,11
2,1,9,1,3,0,1,82,91,11
4,2,9,1,6,1,2,85,20,11
4,2,9,1,6,1,2,3,91,11
4,2,15,1,6,1,2,17,101,11
1,1,14,1,0,0,1,10,101,11
4,2,16,1,6,1,2,3,91,11
11,4,10,1,1,0,4,78,68,9
8,3,14,1,2,0,3,25,91,9
10,4,13,1,0,0,4,53,101,11
4,2,23,0,6,1,2,10,25,9
10,4,9,1,0,0,4,25,25,11
9,4,10,1,5,1,3,25,101,11
6,3,14,1,4,0,2,53,20,11
4,2,22,0,6,1,2,14,91,11
8,3,0,0,2,0,3,55,67,11
8,3,17,1,2,0,3,77,91,11
7,3,17,1,6,1,3,36,57,9
10,4,4,0,0,0,4,58,91,11
5,2,13,1,1,0,2,25,37,11
3,2,19,1,3,0,1,49,101,11
4,2,10,1,6,1,2,56,20,11
4,2,9,1,6,1,2,49,91,11
7,3,14,1,6,1,3,44,101,11
8,3,13,1,2,0,3,36,67,11
9,4,15,1,5,1,3,74,101,11
11,4,2,0,3,0,4,55,101,11
4,2,20,1,6,1,2,16,101,11
12,1,4,0,5,1,4,83,20,8
12,1,15,1,5,1,4,79,20,11
12,1,18,1,5,1,4,41,91,9
5,2,2,0,1,0,2,61,91,11
10,4,20,1,0,0,4,87,40,9
4,2,22,0,6,1,2,14,101,11
11,4,21,0,3,0,4,68,128,11
7,3,21,0,0,0,3,29,101,11
2,1,17,1,4,0,1,22,25,9
12,1,13,1,6,1,4,59,101,11
2,1,14,1,4,0,1,17,13,11
12,1,5,0,6,1,4,3,91,11
6,3,12,1,5,1,2,2,101,11
7,3,16,1,0,0,3,79,101,11
12,1,22,0,6,1,4,41,128,11
11,4,19,1,4,0,4,79,101,11
10,4,10,1,1,0,4,25,25,8
10,4,15,1,1,0,4,44,101,11
11,4,11,1,4,0,4,14,91,11
10,4,1,0,1,0,4,55,128,11
5,2,18,1,2,0,2,38,101,11
8,3,16,1,3,0,3,3,91,11
7,3,8,1,0,0,3,56,123,11
2,1,21,0,4,0,1,10,101,11
4,2,16,1,0,0,2,55,128,11
1,1,23,0,1,0,1,83,91,11
4,2,0,0,0,0,2,25,128,11
4,2,7,1,0,0,2,29,123,11
4,2,5,0,0,0,2,14,91,11
3,2,2,0,4,0,1,79,101,11
8,3,19,1,3,0,3,56,128,11
4,2,23,0,0,0,2,36,7,11
10,4,7,1,1,0,4,2,101,11
3,2,14,1,4,0,1,5,101,9
10,4,22,0,1,0,4,8,91,11
12,1,17,1,6,1,4,16,67,11
11,4,6,0,4,0,4,88,20,11
5,2,9,1,2,0,2,11,89,11
7,3,15,1,0,0,3,71,91,11
8,3,15,1,1,0,3,25,101,11
10,4,15,1,1,0,4,21,101,11
3,2,18,1,4,0,1,41,91,9
1,1,11,1,1,0,1,59,91,11
7,3,16,1,0,0,3,83,101,11
1,1,20,1,1,0,1,59,101,11
6,3,15,1,5,1,2,79,20,11
4,2,14,1,0,0,2,59,101,11
11,4,21,0,4,0,4,14,91,11
6,3,11,1,5,1,2,79,20,11
3,2,16,1,4,0,1,20,20,8
6,3,0,0,5,1,2,14,128,11
4,2,10,1,0,0,2,3,77,11
9,4,19,1,6,1,3,49,77,11
1,1,12,1,2,0,1,14,91,11
1,1,0,0,2,0,1,84,89,11
5,2,21,0,1,0,2,14,91,11
4,2,17,1,1,0,2,10,101,11
9,4,5,0,0,0,3,49,91,11
11,4,12,1,5,1,4,57,91,11
12,1,12,1,0,0,4,61,91,11
1,1,2,0,2,0,1,44,20,11
12,1,14,1,0,0,4,83,101,11
11,4,20,1,5,1,4,32,12,9
6,3,8,1,6,1,2,16,20,9
12,1,11,1,0,0,4,30,20,11
10,4,12,1,2,0,4,25,57,11
11,4,19,1,5,1,4,3,91,11
2,1,22,0,5,1,1,14,91,9
11,4,12,1,5,1,4,30,77,11
2,1,20,1,5,1,1,25,101,11
11,4,15,1,5,1,4,24,101,11
11,4,22,0,5,1,4,79,89,11
7,3,0,0,1,0,3,3,89,11
7,3,23,0,1,0,3,11,89,11
2,1,22,0,5,1,1,29,128,11
2,1,0,0,5,1,1,25,89,11
7,3,17,1,1,0,3,2,91,11
8,3,6,0,5,1,3,8,91,11
4,2,16,1,3,0,2,32,40,9
4,2,10,1,2,0,2,88,77,11
11,4,19,1,6,1,4,25,101,11
7,3,15,1,3,0,3,25,81,11
6,3,7,1,1,0,2,25,67,11
6,3,8,1,0,0,2,8,89,11
12,1,8,1,2,0,4,32,25,11
9,4,15,1,6,1,3,3,39,11
5,2,6,0,4,0,2,79,106,9
9,4,16,1,2,0,3,20,101,11
2,1,18,1,0,0,1,58,80,11
10,4,21,0,3,0,4,56,101,11
9,4,11,1,2,0,3,3,91,11
2,1,11,1,5,1,1,75,101,9
9,4,14,1,4,0,3,14,91,11
12,1,0,0,2,0,4,25,128,11
7,3,10,1,3,0,3,3,91,11
12,1,9,1,2,0,4,76,20,11
9,4,13,1,1,0,3,40,25,11
5,2,17,1,4,0,2,77,91,9
9,4,11,1,1,0,3,25,101,11
1,1,11,1,3,0,1,79,101,11
10,4,9,1,4,0,4,2,101,11
12,1,0,0,1,0,4,61,89,11
11,4,18,1,6,1,4,75,20,11
11,4,11,1,6,1,4,23,20,11
2,1,9,1,0,0,1,22,101,11
5,2,0,0,5,1,2,10,37,11
4,2,16,1,3,0,2,73,66,11
11,4,13,1,0,0,4,29,101,11
1,1,17,1,3,0,1,56,101,11
2,1,9,1,6,1,1,22,101,11
11,4,8,1,0,0,4,15,17,9
11,4,21,0,0,0,4,74,12,11
3,2,12,1,0,0,1,36,128,11
2,1,20,1,6,1,1,3,40,11
1,1,19,1,4,0,1,10,101,11
6,3,20,1,1,0,2,59,128,11
12,1,23,0,2,0,4,3,91,11
12,1,3,0,2,0,4,75,47,11
3,2,17,1,6,1,1,29,101,11
3,2,17,1,6,1,1,14,77,11
11,4,16,1,6,1,4,82,91,11
1,1,9,1,3,0,1,59,125,11
6,3,10,1,1,0,2,76,89,9
10,4,12,1,3,0,4,79,25,11
1,1,20,1,3,0,1,58,7,11
9,4,1,0,1,0,3,69,77,11
3,2,2,0,0,0,1,79,110,11
7,3,23,0,2,0,3,14,91,11
2,1,2,0,6,1,1,3,20,9
11,4,20,1,0,0,4,49,101,11
2,1,20,1,6,1,1,41,91,11
3,2,12,1,6,1,1,37,110,11
1,1,4,0,3,0,1,36,40,9
2,1,17,1,6,1,1,44,25,11
2,1,15,1,6,1,1,30,89,11
3,2,3,0,6,1,1,58,20,9
9,4,22,0,3,0,3,44,128,11
4,2,5,0,4,0,2,36,128,11
11,4,16,1,1,0,4,14,20,11
2,1,23,0,1,0,1,69,20,11
2,1,7,1,1,0,1,25,67,9
4,2,13,1,3,0,2,75,91,11
7,3,10,1,0,0,3,84,91,11
11,4,20,1,1,0,4,87,128,9
4,2,22,0,4,0,2,3,91,11
5,2,21,0,6,1,2,3,91,11
12,1,19,1,3,0,4,88,91,11
9,4,23,0,5,1,3,14,91,11
12,1,3,0,3,0,4,58,20,9
4,2,19,1,4,0,2,17,91,11
7,3,12,1,4,0,3,52,91,11
1,1,4,0,4,0,1,22,101,11
6,3,22,0,2,0,2,56,20,11
11,4,18,1,1,0,4,77,67,11
9,4,18,1,6,1,3,25,101,9
5,2,10,1,6,1,2,83,23,11
1,1,13,1,5,1,1,49,91,11
6,3,1,0,2,0,2,36,128,11
2,1,13,1,1,0,1,60,67,9
9,4,14,1,3,0,3,29,128,11
11,4,10,1,2,0,4,36,52,11
5,2,18,1,4,0,2,9,91,11
11,4,17,1,4,0,4,40,101,11
12,1,21,0,4,0,4,51,20,9
4,2,7,1,5,1,2,53,110,11
8,3,15,1,1,0,3,56,77,9
4,2,1,0,5,1,2,79,13,11
2,1,17,1,2,0,1,3,91,11
12,1,20,1,4,0,4,9,96,11
1,1,8,1,6,1,1,3,20,9
6,3,17,1,3,0,2,58,91,11
4,2,15,1,2,0,2,14,91,11
8,3,4,0,1,0,3,44,58,11
11,4,13,1,2,0,4,87,67,11
5,2,14,1,5,1,2,87,125,11
4,2,12,1,5,1,2,43,77,11
7,3,5,0,5,1,3,8,20,11
8,3,3,0,1,0,3,25,20,11
9,4,18,1,4,0,3,43,20,11
2,1,22,0,2,0,1,44,40,11
8,3,5,0,1,0,3,29,47,9
8,3,19,1,1,0,3,69,67,11
8,3,1,0,1,0,3,55,128,11
8,3,12,1,1,0,3,68,67,11
6,3,14,1,3,0,2,29,128,11
6,3,7,1,3,0,2,78,20,11
12,1,17,1,4,0,4,16,88,8
5,2,22,0,2,0,2,36,128,11
5,2,10,1,0,0,2,77,99,11
2,1,9,1,1,0,1,31,91,11
7,3,6,0,4,0,3,14,91,11
7,3,6,0,1,0,3,14,91,11
7,3,19,1,2,0,3,14,91,11
8,3,19,1,4,0,3,38,91,11
1,1,19,1,1,0,1,25,40,11
12,1,12,1,1,0,4,14,91,11
3,2,9,1,2,0,1,34,23,11
7,3,18,1,4,0,3,58,128,11
5,2,14,1,0,0,2,75,101,11
2,1,15,1,5,1,1,3,91,11
6,3,7,1,5,1,2,14,91,11
12,1,10,1,0,0,4,19,91,11
7,3,23,0,5,1,3,14,20,11
1,1,12,1,5,1,1,36,128,11
7,3,18,1,1,0,3,83,101,11
7,3,16,1,1,0,3,16,128,11
10,4,15,1,2,0,4,84,25,11
4,2,19,1,1,0,2,55,128,11
5,2,22,0,3,0,2,8,101,11
4,2,19,1,1,0,2,73,67,11
2,1,23,0,5,1,1,60,128,11
3,2,6,0,5,1,1,68,101,11
11,4,20,1,5,1,4,68,40,9
4,2,18,1,1,0,2,32,77,11
4,2,14,1,1,0,2,73,40,11
10,4,13,1,2,0,4,10,101,11
3,2,20,1,5,1,1,17,77,11
10,4,14,1,2,0,4,61,91,11
10,4,11,1,2,0,4,3,77,11
7,3,18,1,1,0,3,32,77,11
2,1,16,1,6,1,1,38,101,11
12,1,13,1,0,0,4,86,77,11
1,1,10,1,3,0,1,58,82,9
3,2,20,1,5,1,1,50,128,11
1,1,12,1,3,0,1,20,7,9
10,4,22,0,2,0,4,2,123,9
1,1,11,1,2,0,1,63,89,11
1,1,7,1,2,0,1,17,77,11
2,1,7,1,5,1,1,30,128,11
5,2,19,1,3,0,2,9,128,11
2,1,12,1,5,1,1,36,7,11
2,1,18,1,6,1,1,29,96,11
2,1,2,0,6,1,1,40,77,11
11,4,17,1,5,1,4,25,25,11
3,2,18,1,6,1,1,13,101,11
5,2,20,1,4,0,2,44,77,11
6,3,19,1,0,0,2,22,13,11
3,2,18,1,6,1,1,79,101,11
7,3,15,1,2,0,3,50,101,11
5,2,18,1,4,0,2,60,101,11
5,2,20,1,4,0,2,41,128,11
7,3,18,1,2,0,3,29,77,11
7,3,14,1,2,0,3,16,106,9
2,1,19,1,6,1,1,50,128,11
9,4,22,0,1,0,3,24,68,11
12,1,18,1,1,0,4,77,77,11
9,4,14,1,1,0,3,7,128,11
8,3,20,1,5,1,3,38,101,11
11,4,14,1,6,1,4,13,77,11
8,3,15,1,5,1,3,74,128,11
11,4,10,1,6,1,4,79,101,11
12,1,17,1,1,0,4,44,91,11
9,4,13,1,1,0,3,10,77,11
9,4,14,1,1,0,3,74,101,11
8,3,22,0,5,1,3,83,101,11
10,4,0,0,3,0,4,59,77,11
10,4,14,1,3,0,4,2,128,11
9,4,14,1,1,0,3,49,128,11
8,3,22,0,5,1,3,3,40,11
12,1,14,1,1,0,4,79,101,11
10,4,11,1,3,0,4,22,101,11
2,1,11,1,5,1,1,3,128,11
10,4,17,1,3,0,4,36,128,11
11,4,18,1,6,1,4,47,40,11
10,4,17,1,3,0,4,39,101,11
12,1,4,0,1,0,4,21,128,11
9,4,10,1,1,0,3,62,128,11
11,4,7,1,6,1,4,59,55,11
11,4,23,0,5,1,4,30,101,11
2,1,17,1,5,1,1,77,91,11
2,1,14,1,0,0,1,29,128,11
1,1,19,1,4,0,1,61,128,11
3,2,23,0,0,0,1,44,77,11
2,1,18,1,0,0,1,68,40,11
3,2,22,0,0,0,1,7,101,11
1,1,17,1,4,0,1,16,128,11
2,1,22,0,0,0,1,58,128,11
3,2,6,0,0,0,1,25,13,9
3,2,21,0,0,0,1,63,67,11
1,1,2,0,4,0,1,49,128,11
3,2,19,1,0,0,1,56,101,11
8,3,2,0,6,1,3,16,128,11
10,4,11,1,4,0,4,22,91,11
7,3,21,0,3,0,3,77,91,11
7,3,14,1,3,0,3,25,91,11
7,3,13,1,3,0,3,88,77,11
8,3,12,1,6,1,3,21,125,9
11,4,14,1,0,0,4,69,91,11
5,2,16,1,5,1,2,3,31,11
9,4,11,1,2,0,3,2,101,11
1,1,3,0,4,0,1,49,128,11
7,3,22,0,3,0,3,7,101,11
11,4,15,1,0,0,4,34,101,11
10,4,12,1,4,0,4,74,101,11
10,4,16,1,4,0,4,22,101,11
6,3,22,0,1,0,2,34,89,11
11,4,5,0,0,0,4,58,128,11
7,3,14,1,3,0,3,59,101,11
7,3,13,1,3,0,3,7,101,11
8,3,19,1,6,1,3,36,67,9
7,3,13,1,3,0,3,75,101,11
5,2,4,0,5,1,2,20,128,11
10,4,21,0,4,0,4,21,128,11
9,4,14,1,2,0,3,29,101,11
10,4,16,1,4,0,4,41,128,11
10,4,12,1,4,0,4,88,89,11
9,4,19,1,2,0,3,25,40,11
6,3,13,1,1,0,2,2,106,11
7,3,14,1,3,0,3,44,20,11
4,2,19,1,3,0,2,74,101,11
8,3,22,0,6,1,3,56,40,9
10,4,21,0,4,0,4,2,101,11
11,4,3,0,0,0,4,36,7,11
7,3,6,0,3,0,3,58,20,11
5,2,22,0,5,1,2,25,128,11
9,4,17,1,2,0,3,73,101,11
5,2,20,1,5,1,2,7,101,11
8,3,9,1,6,1,3,36,77,11
12,1,17,1,2,0,4,14,77,9
12,1,18,1,2,0,4,59,101,11
12,1,12,1,2,0,4,2,101,11
10,4,21,0,4,0,4,24,101,11
12,1,8,1,2,0,4,25,101,11
12,1,1,0,2,0,4,55,101,11
11,4,13,1,0,0,4,54,101,11
10,4,12,1,3,0,4,59,101,11
11,4,18,1,5,1,4,32,101,11
5,2,22,0,6,1,2,36,67,11
7,3,23,0,4,0,3,74,98,11
9,4,9,1,3,0,3,36,67,11
9,4,20,1,3,0,3,8,128,9
10,4,13,1,5,1,4,14,77,11
9,4,12,1,2,0,3,25,101,11
12,1,23,0,3,0,4,6,128,11
9,4,0,0,3,0,3,36,74,9
12,1,18,1,3,0,4,25,77,11
8,3,17,1,0,0,3,11,67,11
3,2,21,0,1,0,1,46,77,9
12,1,22,0,3,0,4,11,91,11
7,3,19,1,4,0,3,76,110,11
9,4,16,1,3,0,3,41,128,11
11,4,1,0,1,0,4,25,91,9
11,4,2,0,1,0,4,25,128,11
11,4,23,0,1,0,4,25,91,11
12,1,10,1,3,0,4,58,91,11
12,1,17,1,3,0,4,8,128,11
6,3,9,1,2,0,2,61,67,11
10,4,15,1,5,1,4,2,47,11
6,3,19,1,2,0,2,13,128,11
12,1,21,0,3,0,4,66,40,11
6,3,15,1,2,0,2,22,67,11
10,4,18,1,5,1,4,15,20,11
12,1,21,0,3,0,4,58,124,11
1,1,13,1,6,1,1,25,91,11
1,1,11,1,6,1,1,59,101,11
1,1,5,0,6,1,1,37,7,9
1,1,1,0,6,1,1,25,91,11
1,1,19,1,6,1,1,32,67,11
6,3,15,1,3,0,2,3,91,11
4,2,11,1,5,1,2,88,25,11
3,2,11,1,2,0,1,38,91,11
5,2,1,0,0,0,2,58,77,11
4,2,0,0,5,1,2,25,128,11
2,1,22,0,2,0,1,14,91,11
2,1,23,0,2,0,1,11,68,11
3,2,18,1,2,0,1,8,91,11
4,2,2,0,5,1,2,3,77,11
4,2,13,1,5,1,2,25,128,11
3,2,20,1,2,0,1,3,91,11
4,2,11,1,4,0,2,8,20,11
5,2,13,1,0,0,2,74,78,9
4,2,21,0,1,0,2,44,128,11
11,4,7,1,2,0,4,8,20,11
8,3,22,0,1,0,3,59,101,11
8,3,13,1,1,0,3,2,37,11
7,3,22,0,5,1,3,55,67,11
9,4,5,0,4,0,3,61,77,9
9,4,12,1,4,0,3,44,24,11
9,4,19,1,4,0,3,25,20,11
9,4,10,1,4,0,3,25,45,11
9,4,13,1,4,0,3,3,91,11
5,2,19,1,0,0,2,10,101,11
9,4,20,1,4,0,3,14,91,11
9,4,8,1,4,0,3,2,101,11
7,3,2,0,5,1,3,14,25,11
10,4,21,0,6,1,4,11,77,11
11,4,4,0,2,0,4,50,91,11
9,4,18,1,2,0,3,36,20,11
10,4,19,1,6,1,4,24,101,11
7,3,14,1,3,0,3,25,89,11
8,3,7,1,1,0,3,14,91,11
2,1,17,1,3,0,1,36,67,11
3,2,11,1,3,0,1,56,101,11
1,1,17,1,0,0,1,56,20,8
2,1,1,0,3,0,1,25,101,11
9,4,13,1,4,0,3,22,91,11
2,1,21,0,3,0,1,75,20,9
1,1,11,1,0,0,1,14,90,11
4,2,16,1,6,1,2,3,91,11
5,2,21,0,1,0,2,50,67,11
6,3,15,1,4,0,2,44,91,11
6,3,16,1,4,0,2,30,101,11
4,2,12,1,6,1,2,11,89,11
5,2,14,1,1,0,2,56,101,11
3,2,21,0,3,0,1,37,91,11
4,2,6,0,6,1,2,5,128,11
5,2,16,1,1,0,2,3,91,9
10,4,11,1,0,0,4,59,101,11
8,3,16,1,2,0,3,41,101,11
6,3,16,1,4,0,2,50,20,11
5,2,11,1,1,0,2,41,91,11
6,3,17,1,4,0,2,25,40,11
7,3,18,1,6,1,3,8,89,11
9,4,19,1,5,1,3,22,101,11
8,3,23,0,2,0,3,2,101,11
10,4,12,1,0,0,4,61,91,11
10,4,1,0,0,0,4,41,91,11
9,4,22,0,5,1,3,22,91,11
10,4,7,1,0,0,4,16,125,11
10,4,19,1,0,0,4,25,101,11
12,1,17,1,5,1,4,3,91,11
3,2,15,1,3,0,1,25,101,11
11,4,17,1,3,0,4,14,91,9
11,4,23,0,3,0,4,59,101,11
7,3,18,1,6,1,3,14,91,11
8,3,17,1,2,0,3,25,101,11
10,4,14,1,0,0,4,22,91,11
6,3,2,0,6,1,2,36,37,11
6,3,14,1,6,1,2,25,67,11
8,3,17,1,3,0,3,59,101,11
12,1,8,1,6,1,4,73,24,11
8,3,3,0,3,0,3,69,57,11
12,1,18,1,6,1,4,41,128,11
3,2,8,1,4,0,1,58,89,11
8,3,11,1,3,0,3,6,101,11
9,4,16,1,6,1,3,50,101,11
11,4,22,0,4,0,4,11,89,11
8,3,18,1,3,0,3,25,101,11
5,2,19,1,2,0,2,49,45,11
9,4,23,0,6,1,3,14,101,11
6,3,2,0,5,1,2,55,128,11
7,3,20,1,0,0,3,36,128,11
4,2,17,1,0,0,2,19,25,11
9,4,0,0,6,1,3,8,101,11
4,2,2,0,0,0,2,36,128,11
11,4,13,1,4,0,4,20,101,11
9,4,19,1,6,1,3,25,20,11
3,2,20,1,4,0,1,79,101,11
2,1,15,1,4,0,1,37,57,11
5,2,13,1,2,0,2,29,101,11
3,2,7,1,4,0,1,77,43,8
5,2,13,1,3,0,2,87,2,11
9,4,0,0,6,1,3,25,20,9
7,3,4,0,0,0,3,3,20,11
4,2,23,0,0,0,2,2,101,11
10,4,9,1,1,0,4,56,20,11
2,1,10,1,4,0,1,36,67,11
3,2,19,1,4,0,1,77,91,11
8,3,12,1,3,0,3,36,96,11
5,2,14,1,2,0,2,5,20,11
6,3,19,1,5,1,2,49,25,11
4,2,0,0,0,0,2,77,91,11
7,3,17,1,0,0,3,46,91,11
1,1,2,0,1,0,1,49,40,11
3,2,20,1,4,0,1,25,101,11
1,1,19,1,1,0,1,77,91,11
1,1,21,0,1,0,1,55,91,11
8,3,11,1,3,0,3,25,101,11
1,1,1,0,1,0,1,11,128,11
1,1,13,1,1,0,1,66,101,11
8,3,23,0,2,0,3,14,91,11
9,4,22,0,6,1,3,40,77,8
6,3,16,1,5,1,2,76,101,11
10,4,10,1,1,0,4,56,128,11
8,3,3,0,2,0,3,36,128,11
9,4,14,1,6,1,3,12,101,11
9,4,15,1,6,1,3,77,91,11
1,1,17,1,1,0,1,59,101,11
2,1,4,0,5,1,1,9,128,11
1,1,17,1,2,0,1,79,101,11
6,3,17,1,6,1,2,59,101,11
4,2,15,1,1,0,2,14,91,11
1,1,19,1,1,0,1,14,91,11
3,2,14,1,5,1,1,59,101,9
4,2,19,1,1,0,2,61,91,11
11,4,1,0,5,1,4,55,91,11
11,4,12,1,5,1,4,44,101,9
2,1,21,0,5,1,1,56,101,11
11,4,8,1,5,1,4,19,25,11
12,1,2,0,0,0,4,6,101,11
7,3,20,1,1,0,3,85,12,11
2,1,0,0,5,1,1,26,89,11
8,3,23,0,4,0,3,17,20,11
8,3,12,1,4,0,3,2,101,11
2,1,8,1,5,1,1,49,122,11
1,1,21,0,2,0,1,14,91,11
11,4,22,0,5,1,4,2,101,11
2,1,11,1,5,1,1,40,25,11
11,4,13,1,2,0,4,14,91,9
2,1,4,0,5,1,1,41,91,11
12,1,12,1,0,0,4,61,23,11
7,3,21,0,1,0,3,3,91,9
11,4,17,1,5,1,4,15,67,11
5,2,19,1,3,0,2,84,110,11
12,1,23,0,0,0,4,7,101,11
4,2,18,1,1,0,2,79,55,11
12,1,12,1,0,0,4,3,91,11
8,3,14,1,4,0,3,87,101,11
6,3,17,1,6,1,2,55,91,11
12,1,14,1,0,0,4,2,101,11
7,3,12,1,3,0,3,2,101,11
9,4,3,0,1,0,3,44,128,11
12,1,15,1,1,0,4,26,128,11
4,2,18,1,3,0,2,26,101,11
9,4,8,1,6,1,3,14,91,11
9,4,12,1,2,0,3,59,101,11
9,4,11,1,2,0,3,41,91,11
3,2,14,1,6,1,1,8,91,9
1,1,8,1,4,0,1,50,77,11
5,2,13,1,4,0,2,21,101,9
9,4,17,1,2,0,3,73,101,11
8,3,13,1,6,1,3,39,101,11
10,4,21,0,3,0,4,25,128,11
7,3,13,1,2,0,3,2,24,11
5,2,19,1,5,1,2,3,45,9
5,2,21,0,5,1,2,14,91,11
8,3,22,0,5,1,3,14,91,11
9,4,15,1,0,0,3,25,91,11
7,3,21,0,2,0,3,41,91,11
4,2,17,1,2,0,2,79,101,11
9,4,14,1,2,0,3,36,128,11
10,4,20,1,3,0,4,2,101,11
7,3,8,1,2,0,3,50,91,11
12,1,22,0,1,0,4,68,101,11
1,1,9,1,3,0,1,7,25,11
1,1,17,1,3,0,1,85,101,11
5,2,22,0,5,1,2,14,101,11
1,1,21,0,4,0,1,74,101,11
1,1,10,1,6,1,1,67,7,11
11,4,18,1,5,1,4,25,91,11
4,2,10,1,2,0,2,73,91,9
8,3,23,0,6,1,3,22,91,11
7,3,11,1,3,0,3,3,91,11
12,1,10,1,1,0,4,37,20,9
12,1,19,1,1,0,4,76,89,11
10,4,17,1,0,0,4,22,91,11
2,1,0,0,0,0,1,39,77,9
9,4,19,1,2,0,3,25,101,11
4,2,21,0,2,0,2,75,128,9
12,1,16,1,1,0,4,14,101,11
1,1,14,1,3,0,1,44,101,11
10,4,19,1,4,0,4,61,91,11
4,2,12,1,2,0,2,25,101,11
12,1,15,1,1,0,4,2,91,11
12,1,12,1,1,0,4,10,101,11
11,4,15,1,0,0,4,3,20,11
2,1,15,1,6,1,1,44,101,11
2,1,11,1,6,1,1,25,128,9
12,1,1,0,6,1,4,3,91,11
7,3,17,1,2,0,3,41,91,11
4,2,1,0,2,0,2,44,12,11
10,4,14,1,3,0,4,2,55,11
4,2,18,1,2,0,2,14,91,11
1,1,17,1,3,0,1,41,25,11
1,1,8,1,3,0,1,79,101,11
1,1,23,0,3,0,1,50,55,11
10,4,23,0,3,0,4,25,20,11
2,1,2,0,5,1,1,14,101,11
2,1,6,0,6,1,1,88,128,11
12,1,3,0,2,0,4,2,128,11
12,1,11,1,1,0,4,36,128,11
7,3,2,0,2,0,3,42,125,11
9,4,1,0,1,0,3,25,101,11
9,4,23,0,1,0,3,3,7,11
2,1,14,1,0,0,1,17,110,11
11,4,16,1,6,1,4,3,121,11
6,3,5,0,3,0,2,3,128,11
12,1,18,1,1,0,4,21,77,9
3,2,14,1,6,1,1,3,13,9
11,4,20,1,6,1,4,3,125,11
12,1,20,1,1,0,4,14,91,11
5,2,6,0,4,0,2,36,67,9
11,4,19,1,6,1,4,36,96,11
12,1,5,0,1,0,4,3,128,11
12,1,4,0,1,0,4,58,77,8
1,1,14,1,3,0,1,25,89,11
12,1,20,1,1,0,4,3,67,11
7,3,20,1,4,0,3,49,101,9
7,3,16,1,4,0,3,58,65,11
6,3,12,1,2,0,2,81,77,11
9,4,13,1,2,0,3,36,67,11
12,1,17,1,3,0,4,49,101,9
6,3,8,1,1,0,2,14,91,11
2,1,15,1,1,0,1,25,91,9
1,1,22,0,1,0,1,15,128,11
6,3,15,1,2,0,2,25,128,9
4,2,8,1,4,0,2,86,20,11
5,2,17,1,6,1,2,25,25,11
6,3,16,1,2,0,2,15,126,9
5,2,9,1,4,0,2,25,91,11
9,4,11,1,3,0,3,3,91,11
10,4,13,1,0,0,4,25,91,9
1,1,4,0,5,1,1,36,123,11
3,2,21,0,3,0,1,77,57,9
8,3,17,1,5,1,3,87,25,11
12,1,1,0,3,0,4,2,128,11
2,1,18,1,1,0,1,3,91,11
11,4,17,1,1,0,4,32,77,11
3,2,17,1,1,0,1,58,20,11
5,2,18,1,6,1,2,55,91,11
3,2,21,0,1,0,1,53,101,11
2,1,18,1,1,0,1,7,101,11
2,1,13,1,1,0,1,59,101,11
12,1,21,0,4,0,4,58,67,11
6,3,11,1,2,0,2,14,125,11
9,4,1,0,4,0,3,26,101,11
9,4,18,1,4,0,3,39,101,11
7,3,12,1,5,1,3,22,25,11
5,2,3,0,3,0,2,15,128,11
7,3,15,1,5,1,3,63,128,11
11,4,11,1,2,0,4,36,91,11
2,1,20,1,2,0,1,73,67,11
4,2,10,1,5,1,2,6,89,11
7,3,8,1,5,1,3,2,128,11
7,3,20,1,4,0,3,25,91,11
2,1,22,0,2,0,1,45,91,11
5,2,12,1,2,0,2,14,20,11
12,1,22,0,4,0,4,6,13,11
5,2,13,1,5,1,2,25,91,11
8,3,11,1,0,0,3,29,128,11
6,3,16,1,3,0,2,85,128,11
9,4,14,1,4,0,3,25,20,11
3,2,9,1,6,1,1,14,91,11
7,3,17,1,5,1,3,25,20,11
8,3,6,0,6,1,3,84,20,9
2,1,20,1,2,0,1,15,96,11
7,3,21,0,5,1,3,25,13,11
1,1,22,0,0,0,1,14,91,11
10,4,16,1,6,1,4,25,101,11
4,2,13,1,5,1,2,46,20,11
3,2,14,1,6,1,1,14,91,11
1,1,17,1,3,0,1,14,91,11
5,2,13,1,2,0,2,14,91,11
8,3,23,0,0,0,3,14,91,11
11,4,18,1,6,1,4,14,91,11
5,2,19,1,3,0,2,14,91,11
8,3,18,1,1,0,3,14,91,11
3,2,6,0,4,0,1,14,91,11
3,2,2,0,1,0,1,36,7,11
3,2,18,1,1,0,1,14,91,11
10,4,21,0,1,0,4,14,91,11
10,4,17,1,6,1,4,14,91,11
12,1,3,0,4,0,4,86,128,11
2,1,10,1,6,1,1,84,91,11
10,4,23,0,1,0,4,14,91,11
5,2,12,1,3,0,2,61,91,11
6,3,17,1,6,1,2,83,91,11
4,2,11,1,1,0,2,49,77,11
11,4,2,0,5,1,4,36,20,9
10,4,12,1,2,0,4,49,77,11
4,2,5,0,1,0,2,52,47,8
9,4,16,1,0,0,3,68,77,11
5,2,20,1,3,0,2,68,67,11
8,3,4,0,4,0,3,17,40,11
7,3,18,1,1,0,3,47,128,11
9,4,14,1,0,0,3,2,128,11
1,1,0,0,3,0,1,50,128,11
8,3,15,1,4,0,3,40,13,11
3,2,8,1,5,1,1,61,7,9
1,1,22,0,2,0,1,71,128,11
7,3,10,1,1,0,3,3,20,8
8,3,14,1,4,0,3,59,128,11
6,3,16,1,6,1,2,9,128,11
3,2,18,1,5,1,1,82,14,9
10,4,19,1,2,0,4,49,91,11
3,2,7,1,5,1,1,56,128,11
9,4,21,0,0,0,3,25,91,11
9,4,3,0,0,0,3,8,40,11
1,1,17,1,2,0,1,50,101,11
6,3,20,1,6,1,2,41,91,11
11,4,22,0,5,1,4,14,91,11
3,2,17,1,5,1,1,41,101,11
11,4,23,0,5,1,4,3,91,11
6,3,18,1,6,1,2,29,128,11
8,3,13,1,4,0,3,61,91,11
8,3,21,0,4,0,3,20,128,11
12,1,13,1,0,0,4,21,20,11
6,3,12,1,0,0,2,45,58,11
4,2,11,1,2,0,2,25,67,11
4,2,14,1,2,0,2,61,77,11
2,1,15,1,6,1,1,3,40,11
7,3,12,1,2,0,3,59,40,11
3,2,2,0,6,1,1,41,128,11
7,3,19,1,2,0,3,25,128,11
3,2,22,0,6,1,1,59,128,11
5,2,16,1,4,0,2,30,101,11
5,2,14,1,4,0,2,44,125,11
5,2,19,1,4,0,2,36,67,11
6,3,17,1,0,0,2,3,128,11
12,1,22,0,1,0,4,7,101,11
12,1,19,1,1,0,4,87,101,9
8,3,9,1,5,1,3,8,20,11
8,3,22,0,5,1,3,58,40,11
10,4,17,1,3,0,4,8,91,11
8,3,18,1,5,1,3,59,101,11
8,3,18,1,5,1,3,25,89,11
9,4,17,1,1,0,3,16,101,11
9,4,13,1,1,0,3,13,101,11
10,4,14,1,3,0,4,7,101,11
12,1,22,0,1,0,4,40,77,11
12,1,10,1,1,0,4,55,57,11
8,3,23,0,5,1,3,15,40,11
12,1,19,1,1,0,4,14,20,11
11,4,12,1,6,1,4,3,91,11
7,3,0,0,1,0,3,25,128,11
5,2,17,1,3,0,2,25,128,11
3,2,3,0,0,0,1,14,47,9
1,1,12,1,4,0,1,40,32,11
3,2,20,1,0,0,1,83,13,11
2,1,18,1,0,0,1,45,47,11
1,1,18,1,4,0,1,55,128,11
3,2,19,1,0,0,1,39,40,11
3,2,10,1,0,0,1,48,128,11
7,3,18,1,3,0,3,13,101,11
10,4,1,0,4,0,4,14,91,11
7,3,13,1,3,0,3,86,101,11
7,3,23,0,3,0,3,73,77,11
6,3,19,1,1,0,2,13,101,11
5,2,11,1,5,1,2,38,101,11
7,3,21,0,3,0,3,66,101,11
9,4,16,1,2,0,3,16,101,11
7,3,19,1,3,0,3,13,101,11
9,4,12,1,2,0,3,59,101,11
10,4,3,0,4,0,4,3,91,11
5,2,8,1,5,1,2,3,91,11
12,1,5,0,2,0,4,89,57,11
11,4,23,0,0,0,4,14,91,11
11,4,14,1,0,0,4,17,101,11
7,3,19,1,3,0,3,79,101,11
5,2,22,0,5,1,2,25,128,11
6,3,14,1,1,0,2,16,110,11
6,3,19,1,1,0,2,2,101,11
7,3,14,1,3,0,3,25,67,11
7,3,14,1,3,0,3,79,101,11
3,2,15,1,0,0,1,79,106,11
6,3,13,1,1,0,2,79,101,11
8,3,19,1,6,1,3,7,101,11
9,4,11,1,2,0,3,21,91,11
9,4,15,1,2,0,3,25,67,11
9,4,12,1,2,0,3,34,12,11
12,1,18,1,2,0,4,41,91,11
12,1,21,0,2,0,4,69,128,11
12,1,18,1,2,0,4,40,101,11
12,1,17,1,2,0,4,13,101,11
11,4,10,1,0,0,4,44,12,9
9,4,22,0,2,0,3,37,91,11
12,1,16,1,2,0,4,3,91,11
8,3,16,1,6,1,3,40,128,11
7,3,21,0,4,0,3,3,20,11
7,3,22,0,4,0,3,69,20,8
7,3,17,1,4,0,3,77,91,11
8,3,10,1,0,0,3,8,20,11
12,1,17,1,3,0,4,2,101,11
3,2,0,0,1,0,1,31,20,11
8,3,0,0,0,0,3,2,89,11
1,1,14,1,5,1,1,2,91,11
5,2,14,1,6,1,2,50,12,11
7,3,6,0,4,0,3,14,20,11
3,2,23,0,1,0,1,10,91,11
8,3,15,1,0,0,3,50,12,11
9,4,20,1,3,0,3,40,106,11
11,4,13,1,1,0,4,73,101,11
5,2,23,0,6,1,2,8,91,11
12,1,21,0,3,0,4,3,25,11
3,2,15,1,1,0,1,10,77,11
9,4,14,1,3,0,3,79,101,11
10,4,12,1,5,1,4,68,101,11
2,1,3,0,1,0,1,55,101,11
11,4,13,1,1,0,4,10,101,11
2,1,20,1,1,0,1,21,101,11
7,3,11,1,4,0,3,29,101,11
11,4,16,1,1,0,4,83,101,11
6,3,6,0,2,0,2,58,37,11
9,4,9,1,3,0,3,45,20,9
11,4,20,1,1,0,4,88,55,11
7,3,21,0,4,0,3,29,101,11
11,4,16,1,1,0,4,84,128,11
8,3,15,1,6,1,3,14,91,11
1,1,13,1,6,1,1,34,101,11
1,1,23,0,6,1,1,36,68,11
1,1,19,1,6,1,1,8,101,11
6,3,13,1,3,0,2,87,101,11
3,2,11,1,2,0,1,3,101,11
5,2,15,1,0,0,2,84,91,11
4,2,10,1,5,1,2,3,91,11
6,3,10,1,3,0,2,61,91,11
4,2,21,0,5,1,2,15,91,11
5,2,17,1,0,0,2,10,91,11
6,3,13,1,3,0,2,41,91,11
4,2,12,1,5,1,2,2,101,11
4,2,16,1,5,1,2,10,40,11
6,3,9,1,3,0,2,61,91,11
3,2,20,1,2,0,1,81,128,11
4,2,4,0,5,1,2,40,89,11
4,2,10,1,5,1,2,63,91,11
3,2,20,1,2,0,1,7,101,11
2,1,12,1,2,0,1,21,101,11
5,2,11,1,0,0,2,22,128,9
2,1,20,1,2,0,1,58,91,11
9,4,23,0,4,0,3,7,13,11
10,4,15,1,6,1,4,71,128,11
9,4,14,1,4,0,3,36,128,11
7,3,10,1,5,1,3,61,101,11
7,3,17,1,5,1,3,14,91,11
10,4,17,1,6,1,4,22,77,11
9,4,18,1,4,0,3,3,77,11
5,2,1,0,5,1,2,68,128,11
6,3,19,1,3,0,2,44,128,11
8,3,11,1,1,0,3,56,101,11
9,4,15,1,4,0,3,58,67,11
7,3,13,1,5,1,3,25,81,11
10,4,14,1,6,1,4,50,101,11
3,2,15,1,0,0,1,25,101,11
6,3,8,1,3,0,2,14,91,11
10,4,17,1,6,1,4,2,101,11
3,2,9,1,3,0,1,11,67,11
2,1,16,1,3,0,1,44,13,11
2,1,13,1,3,0,1,41,91,11
3,2,11,1,3,0,1,3,91,11
2,1,9,1,3,0,1,41,12,11
5,2,11,1,0,0,2,25,55,11
2,1,2,0,3,0,1,14,91,9
3,2,9,1,3,0,1,27,20,11
4,2,12,1,6,1,2,33,81,8
4,2,8,1,6,1,2,25,101,11
6,3,0,0,4,0,2,8,98,11
4,2,6,0,6,1,2,12,91,11
4,2,18,1,6,1,2,17,101,11
4,2,17,1,6,1,2,8,101,11
5,2,15,1,1,0,2,79,101,11
10,4,11,1,0,0,4,32,106,9
4,2,16,1,6,1,2,17,101,11
7,3,12,1,6,1,3,73,101,11
9,4,2,0,5,1,3,2,20,9
8,3,9,1,2,0,3,34,89,11
8,3,22,0,2,0,3,14,91,11
10,4,11,1,0,0,4,79,68,11
7,3,3,0,6,1,3,48,30,8
7,3,16,1,6,1,3,87,25,11
7,3,9,1,6,1,3,39,95,11
7,3,22,0,6,1,3,41,91,11
10,4,10,1,0,0,4,76,91,11
10,4,9,1,0,0,4,11,20,11
8,3,16,1,2,0,3,14,25,9
8,3,2,0,2,0,3,25,128,11
7,3,17,1,6,1,3,26,67,11
8,3,17,1,2,0,3,8,101,11
8,3,5,0,2,0,3,25,128,11
9,4,18,1,5,1,3,73,20,9
7,3,0,0,6,1,3,25,91,11
9,4,7,1,5,1,3,15,128,11
6,3,11,1,4,0,2,36,128,11
10,4,22,0,0,0,4,2,101,11
11,4,16,1,3,0,4,44,25,11
11,4,8,1,3,0,4,25,128,11
2,1,13,1,5,1,1,14,91,11
9,4,19,1,1,0,3,84,76,11
4,2,14,1,1,0,2,36,89,11
2,1,20,1,4,0,1,73,101,11
5,2,0,0,2,0,2,14,91,11
9,4,13,1,6,1,3,87,25,9
8,3,15,1,3,0,3,14,101,11
6,3,10,1,5,1,2,79,101,11
11,4,18,1,4,0,4,25,25,9
12,1,23,0,6,1,4,46,20,9
11,4,2,0,4,0,4,50,101,11
10,4,21,0,1,0,4,87,101,11
8,3,11,1,3,0,3,17,101,11
11,4,21,0,4,0,4,41,101,11
11,4,7,1,4,0,4,68,20,11
12,1,2,0,6,1,4,2,106,9
1,1,6,0,1,0,1,14,91,11
9,4,21,0,6,1,3,50,20,11
5,2,12,1,2,0,2,3,91,11
11,4,4,0,4,0,4,32,101,11
4,2,18,1,0,0,2,56,101,11
1,1,21,0,1,0,1,79,101,11
8,3,16,1,3,0,3,44,101,11
1,1,22,0,1,0,1,32,125,11
3,2,3,0,4,0,1,14,91,11
3,2,18,1,4,0,1,29,101,11
4,2,16,1,0,0,2,61,91,11
2,1,13,1,4,0,1,48,128,11
11,4,20,1,0,0,4,54,128,11
4,2,10,1,0,0,2,24,77,11
10,4,14,1,1,0,4,3,20,11
10,4,10,1,1,0,4,21,55,11
9,4,6,0,6,1,3,22,91,11
10,4,18,1,1,0,4,21,55,11
4,2,13,1,0,0,2,2,101,11
10,4,17,1,1,0,4,16,20,9
11,4,19,1,4,0,4,79,101,11
8,3,14,1,3,0,3,54,7,11
8,3,16,1,3,0,3,79,101,11
8,3,17,1,3,0,3,32,101,11
9,4,6,0,6,1,3,30,77,11
4,2,1,0,0,0,2,36,67,11
6,3,14,1,5,1,2,75,101,11
6,3,15,1,5,1,2,10,89,11
3,2,11,1,4,0,1,79,25,11
1,1,19,1,2,0,1,25,101,11
6,3,13,1,6,1,2,49,91,11
5,2,1,0,3,0,2,77,91,11
3,2,23,0,5,1,1,8,78,11
11,4,8,1,5,1,4,50,20,11
7,3,18,1,1,0,3,58,91,11
10,4,21,0,2,0,4,50,101,11
9,4,15,1,0,0,3,29,101,11
5,2,4,0,3,0,2,8,91,11
10,4,23,0,2,0,4,2,101,11
9,4,10,1,0,0,3,69,123,9
11,4,16,1,5,1,4,36,128,11
10,4,13,1,2,0,4,8,16,11
10,4,14,1,2,0,4,20,91,11
6,3,12,1,6,1,2,79,67,11
2,1,22,0,5,1,1,2,67,11
8,3,15,1,4,0,3,71,91,11
2,1,12,1,5,1,1,3,91,11
2,1,11,1,5,1,1,73,37,11
11,4,5,0,5,1,4,21,128,11
7,3,14,1,1,0,3,25,91,11
11,4,19,1,5,1,4,25,101,9
1,1,11,1,2,0,1,17,101,11
9,4,14,1,0,0,3,59,101,11
9,4,21,0,0,0,3,44,25,11
9,4,21,0,0,0,3,2,101,11
9,4,2,0,0,0,3,74,91,11
3,2,16,1,5,1,1,34,101,11
10,4,1,0,2,0,4,25,91,11
2,1,21,0,4,0,1,3,91,11
1,1,22,0,2,0,1,36,57,11
5,2,14,1,3,0,2,5,12,11
12,1,18,1,0,0,4,11,128,11
12,1,1,0,0,0,4,16,91,11
2,1,19,1,5,1,1,49,128,9
4,2,11,1,2,0,2,25,28,11
11,4,22,0,6,1,4,22,128,11
12,1,17,1,1,0,4,74,101,11
7,3,8,1,3,0,3,3,123,11
7,3,2,0,2,0,3,87,86,9
7,3,17,1,3,0,3,77,91,11
11,4,9,1,0,0,4,44,91,11
6,3,0,0,0,0,2,43,110,11
4,2,22,0,2,0,2,7,101,11
5,2,17,1,5,1,2,3,32,11
5,2,18,1,5,1,2,59,101,11
7,3,21,0,1,0,3,14,91,11
9,4,8,1,1,0,3,22,91,11
6,3,18,1,1,0,2,87,40,11
12,1,12,1,2,0,4,25,25,11
12,1,19,1,2,0,4,44,91,11
1,1,15,1,4,0,1,16,24,11
12,1,2,0,3,0,4,14,91,11
1,1,23,0,4,0,1,36,128,11
9,4,11,1,2,0,3,21,24,11
8,3,14,1,6,1,3,87,25,11
9,4,4,0,2,0,3,8,99,11
12,1,11,1,2,0,4,3,91,11
12,1,19,1,2,0,4,59,101,11
11,4,18,1,0,0,4,25,101,11
12,1,1,0,2,0,4,26,101,11
3,2,8,1,6,1,1,36,78,11
5,2,13,1,5,1,2,2,128,11
9,4,16,1,1,0,3,32,91,11
5,2,13,1,5,1,2,25,91,11
11,4,23,0,6,1,4,32,101,11
3,2,12,1,4,0,1,14,91,11
11,4,12,1,0,0,4,22,91,11
12,1,5,0,2,0,4,55,37,9
8,3,12,1,6,1,3,3,77,9
1,1,14,1,0,0,1,14,91,11
5,2,18,1,4,0,2,25,101,11
2,1,11,1,6,1,1,21,128,11
2,1,16,1,6,1,1,8,101,11
8,3,12,1,5,1,3,21,106,9
9,4,23,0,6,1,3,3,59,11
5,2,2,0,5,1,2,14,57,9
12,1,18,1,1,0,4,76,25,11
9,4,3,0,0,0,3,69,101,11
2,1,22,0,6,1,1,2,110,11
9,4,3,0,0,0,3,45,23,9
11,4,12,1,0,0,4,22,25,11
9,4,15,1,1,0,3,25,77,11
5,2,14,1,5,1,2,32,77,11
9,4,10,1,2,0,3,16,25,11
7,3,2,0,2,0,3,20,128,11
6,3,19,1,0,0,2,84,91,11
1,1,23,0,3,0,1,50,91,11
6,3,18,1,0,0,2,22,101,11
10,4,11,1,4,0,4,2,77,8
8,3,22,0,5,1,3,44,101,11
3,2,17,1,6,1,1,34,101,11
12,1,23,0,2,0,4,55,126,11
4,2,14,1,2,0,2,73,101,11
7,3,0,0,2,0,3,13,101,11
12,1,5,0,1,0,4,58,20,11
5,2,13,1,3,0,2,55,101,11
2,1,13,1,6,1,1,56,20,11
3,2,4,0,0,0,1,55,57,11
11,4,15,1,6,1,4,2,55,11
9,4,23,0,3,0,3,49,91,11
3,2,13,1,2,0,1,3,1,11
8,3,20,1,3,0,3,14,91,11
9,4,17,1,3,0,3,13,67,11
11,4,10,1,0,0,4,32,91,11
2,1,19,1,4,0,1,14,91,11
6,3,12,1,5,1,2,84,101,11
4,2,19,1,4,0,2,76,67,9
11,4,21,0,1,0,4,63,23,11
1,1,22,0,3,0,1,14,91,11
11,4,3,0,1,0,4,61,20,9
4,2,17,1,3,0,2,79,101,11
6,3,12,1,5,1,2,77,91,11
4,2,5,0,4,0,2,3,20,9
3,2,13,1,1,0,1,77,77,11
2,1,1,0,1,0,1,25,128,11
4,2,12,1,4,0,2,34,128,11
11,4,13,1,1,0,4,77,40,11
3,2,21,0,1,0,1,29,91,11
12,1,3,0,2,0,4,25,101,11
12,1,15,1,3,0,4,84,128,8
7,3,19,1,0,0,3,84,89,11
7,3,23,0,4,0,3,74,101,11
3,2,21,0,1,0,1,14,128,11
12,1,11,1,6,1,4,25,25,11
2,1,3,0,1,0,1,81,128,11
9,4,8,1,5,1,3,77,13,9
7,3,15,1,4,0,3,61,128,11
9,4,11,1,3,0,3,30,12,11
8,3,14,1,0,0,3,56,89,11
12,1,18,1,4,0,4,34,101,11
2,1,21,0,2,0,1,29,77,11
2,1,15,1,2,0,1,6,25,11
2,1,20,1,2,0,1,22,123,8
3,2,4,0,2,0,1,8,20,11
5,2,0,0,0,0,2,58,57,11
11,4,8,1,2,0,4,2,68,11
1,1,21,0,1,0,1,25,101,11
4,2,12,1,2,0,2,14,91,11
11,4,20,1,2,0,4,34,77,11
9,4,12,1,4,0,3,36,67,11
1,1,9,1,6,1,1,25,67,11
10,4,18,1,6,1,4,45,101,11
7,3,10,1,5,1,3,2,77,11
10,4,15,1,3,0,4,8,91,11
3,2,21,0,2,0,1,15,96,11
6,3,18,1,3,0,2,25,20,11
3,2,0,0,2,0,1,36,7,11
11,4,20,1,2,0,4,59,128,11
1,1,15,1,6,1,1,2,67,11
2,1,13,1,2,0,1,87,77,11
12,1,22,0,4,0,4,36,29,11
12,1,4,0,4,0,4,16,77,9
7,3,22,0,1,0,3,36,128,11
5,2,22,0,2,0,2,15,89,11
11,4,0,0,1,0,4,14,91,11
9,4,13,1,2,0,3,46,101,11
1,1,11,1,1,0,1,14,91,11
7,3,5,0,6,1,3,14,91,11
3,2,19,1,3,0,1,14,91,11
1,1,7,1,3,0,1,14,91,11
4,2,0,0,0,0,2,14,45,9
2,1,17,1,1,0,1,25,101,11
7,3,22,0,0,0,3,14,91,11
3,2,18,1,4,0,1,46,77,11
1,1,12,1,6,1,1,37,20,11
10,4,16,1,3,0,4,46,91,11
7,3,17,1,4,0,3,77,91,9
3,2,20,1,5,1,1,14,91,11
8,3,18,1,6,1,3,77,91,9
12,1,22,0,3,0,4,14,91,11
3,2,18,1,3,0,1,14,91,11
6,3,18,1,4,0,2,15,8,11
3,2,0,0,2,0,1,77,91,11
6,3,8,1,6,1,2,84,91,11
11,4,18,1,1,0,4,61,128,11
1,1,18,1,1,0,1,14,89,9
10,4,18,1,1,0,4,25,25,11
5,2,12,1,3,0,2,44,128,11
11,4,1,0,5,1,4,88,128,11
8,3,19,1,4,0,3,8,91,11
4,2,10,1,1,0,2,59,101,11
3,2,14,1,5,1,1,36,67,11
4,2,18,1,1,0,2,59,101,11
1,1,2,0,2,0,1,61,77,11
3,2,17,1,5,1,1,59,101,11
10,4,13,1,2,0,4,65,40,11
10,4,15,1,2,0,4,30,128,11
12,1,2,0,0,0,4,50,40,11
4,2,2,0,1,0,2,77,91,11
1,1,13,1,3,0,1,56,91,11
1,1,11,1,2,0,1,84,67,11
2,1,11,1,5,1,1,2,101,11
11,4,18,1,5,1,4,32,101,11
4,2,6,0,1,0,2,2,20,11
2,1,17,1,5,1,1,22,91,11
3,2,14,1,5,1,1,8,128,11
12,1,17,1,0,0,4,75,101,11
1,1,22,0,2,0,1,8,89,11
5,2,17,1,3,0,2,59,101,11
5,2,8,1,3,0,2,49,77,11
8,3,19,1,4,0,3,14,101,11
4,2,16,1,1,0,2,59,101,11
2,1,21,0,5,1,1,25,96,11
10,4,22,0,2,0,4,36,89,11
7,3,11,1,2,0,3,88,13,11
2,1,18,1,6,1,1,4,77,11
4,2,17,1,2,0,2,2,68,11
4,2,0,0,2,0,2,11,128,11
7,3,8,1,2,0,3,56,128,11
7,3,23,0,2,0,3,25,68,11
5,2,22,0,4,0,2,22,91,11
4,2,7,1,2,0,2,61,25,11
1,1,12,1,3,0,1,61,91,11
4,2,6,0,2,0,2,67,77,9
3,2,16,1,5,1,1,66,12,9
7,3,22,0,2,0,3,5,40,11
12,1,14,1,1,0,4,79,101,11
9,4,11,1,1,0,3,89,7,11
8,3,17,1,5,1,3,14,91,11
8,3,18,1,5,1,3,37,101,11
11,4,0,0,6,1,4,50,128,11
9,4,15,1,1,0,3,9,128,11
8,3,14,1,5,1,3,39,77,11
8,3,12,1,5,1,3,55,67,11
9,4,19,1,1,0,3,41,91,11
7,3,21,0,2,0,3,44,68,11
11,4,17,1,6,1,4,56,77,9
11,4,7,1,6,1,4,50,128,11
11,4,19,1,6,1,4,13,77,11
11,4,22,0,6,1,4,15,68,11
5,2,17,1,3,0,2,25,91,11
4,2,16,1,3,0,2,79,24,11
2,1,21,0,0,0,1,88,20,9
1,1,2,0,4,0,1,36,67,9
3,2,1,0,0,0,1,44,98,11
1,1,23,0,4,0,1,74,20,11
3,2,12,1,0,0,1,40,86,11
3,2,16,1,0,0,1,3,77,11
3,2,18,1,0,0,1,85,101,11
2,1,0,0,0,0,1,14,78,11
1,1,12,1,4,0,1,85,101,11
4,2,12,1,3,0,2,39,91,11
2,1,21,0,0,0,1,66,98,11
7,3,19,1,3,0,3,13,77,11
10,4,17,1,4,0,4,2,55,11
11,4,10,1,0,0,4,3,101,11
11,4,18,1,0,0,4,79,101,11
9,4,19,1,2,0,3,59,101,11
10,4,10,1,4,0,4,36,67,11
10,4,18,1,4,0,4,13,101,11
5,2,19,1,5,1,2,38,77,11
6,3,15,1,1,0,2,79,101,11
6,3,13,1,1,0,2,47,91,11
5,2,18,1,5,1,2,14,91,11
7,3,15,1,3,0,3,34,40,11
10,4,13,1,4,0,4,3,77,11
11,4,14,1,0,0,4,3,90,11
11,4,18,1,0,0,4,84,91,11
8,3,10,1,6,1,3,59,128,11
11,4,15,1,0,0,4,74,91,11
9,4,9,1,2,0,3,60,128,11
10,4,15,1,4,0,4,79,55,9
11,4,10,1,0,0,4,16,101,11
8,3,19,1,6,1,3,74,101,11
11,4,9,1,0,0,4,36,40,11
9,4,11,1,2,0,3,59,101,11
11,4,19,1,0,0,4,40,101,11
11,4,16,1,0,0,4,86,101,11
6,3,12,1,1,0,2,79,101,11
5,2,3,0,5,1,2,8,40,11
6,3,12,1,1,0,2,63,128,11
7,3,15,1,3,0,3,25,91,11
6,3,18,1,1,0,2,3,91,11
8,3,17,1,6,1,3,88,101,11
11,4,3,0,0,0,4,36,67,11
3,2,20,1,0,0,1,36,101,11
10,4,17,1,4,0,4,55,20,11
10,4,16,1,4,0,4,2,101,11
10,4,23,0,4,0,4,3,20,9
8,3,16,1,6,1,3,2,101,11
9,4,17,1,2,0,3,2,101,11
12,1,23,0,2,0,4,11,85,9
3,2,20,1,0,0,1,17,77,11
12,1,16,1,2,0,4,88,101,11
12,1,6,0,2,0,4,3,91,11
9,4,12,1,2,0,3,34,101,11
12,1,22,0,2,0,4,25,91,9
9,4,14,1,2,0,3,25,25,9
2,1,18,1,5,1,1,19,128,11
3,2,22,0,1,0,1,44,128,11
8,3,22,0,0,0,3,84,35,9
2,1,21,0,0,0,1,44,128,11
12,1,13,1,3,0,4,2,101,11
3,2,18,1,1,0,1,22,13,8
9,4,19,1,3,0,3,15,67,11
12,1,11,1,3,0,4,60,128,11
1,1,23,0,5,1,1,58,67,11
10,4,22,0,5,1,4,47,91,11
9,4,9,1,3,0,3,87,40,11
11,4,20,1,1,0,4,56,101,11
11,4,3,0,1,0,4,3,40,11
5,2,21,0,6,1,2,20,77,9
1,1,9,1,5,1,1,69,91,9
10,4,12,1,5,1,4,42,91,11
11,4,19,1,1,0,4,22,67,11
11,4,17,1,0,0,4,25,91,11
4,2,18,1,1,0,2,50,77,11
4,2,14,1,4,0,2,25,77,11
1,1,3,0,6,1,1,14,91,11
1,1,16,1,6,1,1,83,101,11
6,3,18,1,3,0,2,55,40,11
5,2,3,0,0,0,2,3,71,9
3,2,21,0,2,0,1,58,67,11
4,2,20,1,5,1,2,58,101,11
4,2,10,1,5,1,2,74,77,8
3,2,19,1,2,0,1,89,45,8
6,3,15,1,3,0,2,74,101,11
4,2,20,1,5,1,2,34,101,11
3,2,12,1,2,0,1,21,55,11
3,2,14,1,2,0,1,50,77,11
3,2,21,0,2,0,1,3,91,11
2,1,12,1,2,0,1,2,101,11
9,4,23,0,4,0,3,17,91,11
10,4,15,1,6,1,4,36,123,11
11,4,3,0,2,0,4,65,101,11
8,3,1,0,1,0,3,14,20,11
7,3,12,1,5,1,3,3,7,11
10,4,12,1,6,1,4,50,101,11
8,3,14,1,6,1,3,29,101,11
8,3,15,1,1,0,3,25,128,11
9,4,14,1,4,0,3,77,91,11
10,4,13,1,6,1,4,77,89,11
9,4,18,1,4,0,3,24,101,11
9,4,20,1,4,0,3,79,101,11
11,4,16,1,2,0,4,41,20,11
8,3,3,0,1,0,3,14,91,11
7,3,11,1,5,1,3,32,101,11
9,4,17,1,4,0,3,14,25,11
11,4,15,1,6,1,4,2,55,11
12,1,16,1,4,0,4,2,101,11
10,4,19,1,6,1,4,11,91,11
9,4,10,1,4,0,3,22,40,11
2,1,18,1,3,0,1,38,20,11
2,1,22,0,3,0,1,14,91,11
1,1,23,0,0,0,1,25,128,11
1,1,12,1,0,0,1,2,101,11
5,2,0,0,0,0,2,25,128,11
1,1,16,1,0,0,1,56,101,11
3,2,7,1,3,0,1,25,7,11
1,1,15,1,0,0,1,41,91,11
5,2,12,1,1,0,2,22,91,11
3,2,16,1,3,0,1,8,25,11
5,2,10,1,1,0,2,25,101,11
4,2,19,1,6,1,2,61,101,11
1,1,21,0,0,0,1,61,91,11
6,3,11,1,4,0,2,58,101,11
5,2,11,1,1,0,2,25,101,11
7,3,20,1,6,1,3,8,91,11
5,2,23,0,1,0,2,41,91,11
9,4,18,1,5,1,3,50,128,11
7,3,15,1,6,1,3,73,101,11
4,2,15,1,6,1,2,25,25,11
5,2,0,0,1,0,2,36,89,11
7,3,21,0,6,1,3,19,91,11
9,4,10,1,5,1,3,87,25,11
7,3,19,1,6,1,3,36,128,11
4,2,14,1,6,1,2,44,25,11
4,2,20,1,6,1,2,37,7,11
6,3,3,0,4,0,2,55,20,9
4,2,10,1,6,1,2,2,91,11
8,3,3,0,2,0,3,68,78,11
9,4,13,1,5,1,3,22,91,11
8,3,19,1,2,0,3,61,69,11
9,4,22,0,5,1,3,7,55,11
10,4,5,0,0,0,4,38,91,11
10,4,15,1,0,0,4,87,20,11
12,1,11,1,5,1,4,79,101,11
12,1,17,1,5,1,4,25,125,11
5,2,15,1,1,0,2,22,91,11
12,1,18,1,5,1,4,10,128,11
12,1,19,1,5,1,4,44,123,9
11,4,19,1,3,0,4,14,91,9
11,4,9,1,3,0,4,8,91,11
8,3,9,1,2,0,3,36,128,11
11,4,18,1,3,0,4,36,101,11
12,1,17,1,5,1,4,44,91,11
10,4,20,1,0,0,4,8,91,11
12,1,21,0,5,1,4,56,91,11
9,4,8,1,5,1,3,40,101,11
4,2,2,0,1,0,2,25,131,11
1,1,0,0,2,0,1,25,37,11
9,4,20,1,6,1,3,58,128,11
6,3,23,0,5,1,2,59,101,11
12,1,13,1,6,1,4,44,91,11
2,1,22,0,4,0,1,3,91,11
8,3,2,0,3,0,3,49,101,11
1,1,13,1,1,0,1,44,25,9
12,1,18,1,6,1,4,59,91,11
7,3,23,0,0,0,3,3,101,9
12,1,16,1,6,1,4,32,125,11
12,1,16,1,6,1,4,25,110,11
10,4,13,1,1,0,4,44,91,11
5,2,13,1,2,0,2,14,91,9
10,4,17,1,1,0,4,82,91,11
1,1,21,0,1,0,1,7,101,11
8,3,21,0,3,0,3,50,47,11
8,3,11,1,3,0,3,44,101,11
11,4,11,1,4,0,4,44,101,11
3,2,14,1,4,0,1,7,101,11
1,1,17,1,1,0,1,5,128,11
1,1,18,1,1,0,1,32,101,11
2,1,23,0,4,0,1,36,67,11
3,2,1,0,4,0,1,55,91,11
3,2,1,0,4,0,1,40,101,11
6,3,10,1,5,1,2,3,77,11
3,2,9,1,4,0,1,44,77,11
11,4,17,1,4,0,4,36,96,11
8,3,8,1,3,0,3,14,77,11
12,1,11,1,5,1,4,14,91,11
10,4,17,1,1,0,4,85,91,11
4,2,22,0,0,0,2,58,128,11
9,4,5,0,6,1,3,3,91,11
1,1,19,1,1,0,1,32,101,11
6,3,15,1,5,1,2,41,25,11
1,1,12,1,1,0,1,2,89,11
11,4,18,1,4,0,4,2,101,9
6,3,22,0,5,1,2,3,128,11
4,2,20,1,0,0,2,17,13,11
3,2,20,1,4,0,1,32,101,11
4,2,6,0,0,0,2,41,35,9
8,3,5,0,2,0,3,36,89,11
2,1,19,1,4,0,1,49,101,11
7,3,0,0,1,0,3,44,128,11
6,3,3,0,6,1,2,41,128,11
6,3,17,1,6,1,2,36,67,11
3,2,15,1,5,1,1,2,89,11
3,2,6,0,5,1,1,44,101,11
2,1,21,0,4,0,1,3,25,11
7,3,2,0,1,0,3,8,20,9
11,4,7,1,5,1,4,39,20,11
12,1,7,1,3,0,4,14,91,11
8,3,15,1,4,0,3,41,91,11
8,3,12,1,4,0,3,7,91,11
11,4,12,1,5,1,4,19,91,11
8,3,22,0,4,0,3,36,8,11
11,4,6,0,5,1,4,59,83,11
6,3,8,1,6,1,2,11,45,11
10,4,10,1,2,0,4,36,128,11
3,2,13,1,5,1,1,17,89,11
10,4,19,1,2,0,4,76,20,9
9,4,11,1,0,0,3,3,91,11
9,4,6,0,6,1,3,47,91,11
11,4,16,1,5,1,4,14,91,11
3,2,14,1,5,1,1,2,101,11
9,4,15,1,0,0,3,2,101,9
10,4,19,1,0,0,4,14,91,11
1,1,10,1,2,0,1,44,91,11
4,2,19,1,1,0,2,3,91,11
11,4,19,1,5,1,4,41,13,11
12,1,2,0,0,0,4,17,35,11
7,3,17,1,1,0,3,3,101,11
1,1,20,1,2,0,1,39,101,11
12,1,8,1,0,0,4,7,91,11
6,3,17,1,6,1,2,41,25,11
12,1,15,1,0,0,4,29,101,11
7,3,22,0,1,0,3,39,101,11
1,1,1,0,2,0,1,3,101,11
4,2,18,1,0,0,2,25,89,11
9,4,21,0,0,0,3,40,77,11
2,1,21,0,5,1,1,49,101,11
12,1,11,1,0,0,4,44,91,11
1,1,17,1,2,0,1,86,101,11
5,2,14,1,3,0,2,36,77,11
10,4,14,1,2,0,4,8,13,11
12,1,15,1,0,0,4,83,101,11
10,4,22,0,2,0,4,56,91,11
2,1,13,1,0,0,1,3,110,11
7,3,5,0,3,0,3,26,130,11
9,4,21,0,0,0,3,8,91,11
3,2,16,1,0,0,1,44,101,11
6,3,3,0,0,0,2,66,67,11
4,2,4,0,3,0,2,58,20,9
11,4,20,1,5,1,4,2,128,11
7,3,0,0,3,0,3,30,20,11
6,3,18,1,1,0,2,17,101,11
3,2,20,1,0,0,1,3,40,11
11,4,23,0,0,0,4,73,101,11
1,1,2,0,4,0,1,59,91,11
3,2,0,0,6,1,1,44,91,11
11,4,20,1,0,0,4,25,20,11
12,1,13,1,1,0,4,49,91,11
8,3,2,0,5,1,3,30,77,9
9,4,5,0,2,0,3,36,20,11
4,2,12,1,2,0,2,79,101,11
2,1,16,1,0,0,1,11,110,11
6,3,2,0,0,0,2,79,101,11
1,1,13,1,1,0,1,25,67,11
12,1,17,1,2,0,4,3,91,11
8,3,13,1,6,1,3,73,101,11
9,4,20,1,2,0,3,83,101,11
6,3,3,0,0,0,2,19,78,9
4,2,1,0,3,0,2,77,54,11
10,4,8,1,3,0,4,10,101,11
12,1,2,0,0,0,4,22,101,11
4,2,18,1,2,0,2,68,57,11
10,4,0,0,2,0,4,14,101,11
7,3,8,1,3,0,3,11,90,11
4,2,13,1,3,0,2,44,67,11
9,4,22,0,2,0,3,16,20,11
12,1,17,1,2,0,4,6,91,11
1,1,20,1,3,0,1,36,90,11
12,1,22,0,2,0,4,25,91,11
12,1,22,0,2,0,4,8,91,11
3,2,15,1,0,0,1,11,101,11
1,1,20,1,3,0,1,2,89,11
7,3,6,0,3,0,3,88,37,9
8,3,10,1,5,1,3,75,128,11
8,3,0,0,5,1,3,8,91,11
9,4,18,1,2,0,3,3,77,11
10,4,20,1,4,0,4,8,101,11
9,4,17,1,2,0,3,44,91,11
6,3,11,1,1,0,2,36,67,11
5,2,21,0,5,1,2,14,91,11
5,2,14,1,4,0,2,69,128,11
8,3,13,1,6,1,3,22,86,9
2,1,9,1,6,1,1,36,67,9
6,3,5,0,0,0,2,69,67,11
1,1,16,1,3,0,1,8,91,11
7,3,22,0,2,0,3,25,96,11
10,4,3,0,4,0,4,25,20,11
3,2,20,1,6,1,1,77,20,11
1,1,16,1,4,0,1,55,89,11
12,1,18,1,2,0,4,44,25,11
6,3,13,1,0,0,2,13,101,11
4,2,9,1,2,0,2,79,101,11
10,4,14,1,4,0,4,25,91,11
12,1,13,1,2,0,4,2,101,11
11,4,22,0,0,0,4,44,101,11
6,3,5,0,0,0,2,59,20,11
10,4,10,1,0,0,4,75,128,11
11,4,21,0,3,0,4,14,91,11
3,2,1,0,6,1,1,58,123,11
2,1,12,1,6,1,1,5,89,11
3,2,22,0,6,1,1,59,101,11
2,1,17,1,1,0,1,37,91,11
1,1,11,1,5,1,1,83,101,11
6,3,18,1,2,0,2,49,101,11
9,4,5,0,3,0,3,36,78,11
7,3,17,1,4,0,3,39,101,11
10,4,16,1,5,1,4,44,67,11
10,4,14,1,5,1,4,16,91,11
9,4,20,1,3,0,3,25,101,11
1,1,15,1,5,1,1,25,91,11
9,4,23,0,3,0,3,3,91,9
5,2,3,0,1,0,2,15,128,11
12,1,15,1,3,0,4,32,77,9
8,3,14,1,0,0,3,56,128,11
10,4,10,1,5,1,4,30,25,9
6,3,10,1,2,0,2,16,91,11
2,1,19,1,1,0,1,49,101,11
12,1,9,1,3,0,4,58,20,9
11,4,11,1,1,0,4,36,85,11
7,3,10,1,4,0,3,25,128,11
2,1,12,1,2,0,1,29,67,11
3,2,10,1,2,0,1,56,67,11
9,4,4,0,4,0,3,36,128,9
3,2,11,1,3,0,1,8,91,11
5,2,10,1,0,0,2,24,40,11
9,4,8,1,4,0,3,36,40,11
9,4,7,1,4,0,3,39,128,11
6,3,21,0,3,0,2,3,77,11
12,1,23,0,4,0,4,8,91,11
4,2,15,1,5,1,2,25,101,11
5,2,8,1,0,0,2,39,12,9
12,1,20,1,4,0,4,83,128,11
1,1,16,1,6,1,1,25,128,11
12,1,17,1,4,0,4,42,20,11
3,2,13,1,2,0,1,8,85,11
5,2,18,1,3,0,2,15,89,11
5,2,17,1,0,0,2,6,12,9
9,4,18,1,4,0,3,2,13,11
9,4,17,1,4,0,3,63,96,11
7,3,8,1,5,1,3,58,20,9
10,4,20,1,6,1,4,25,20,11
8,3,22,0,1,0,3,22,128,11
1,1,3,0,6,1,1,55,96,11
7,3,10,1,5,1,3,30,99,11
9,4,13,1,4,0,3,14,91,11
3,2,2,0,2,0,1,14,101,11
9,4,10,1,2,0,3,14,91,11
7,3,20,1,6,1,3,14,91,11
7,3,21,0,6,1,3,14,91,11
9,4,13,1,1,0,3,14,128,11
1,1,16,1,5,1,1,77,99,11
12,1,1,0,5,1,4,14,91,11
2,1,12,1,0,0,1,87,89,11
3,2,23,0,4,0,1,14,91,11
11,4,18,1,3,0,4,46,20,9
8,3,14,1,1,0,3,14,91,8
3,2,21,0,3,0,1,36,128,11
6,3,1,0,0,0,2,36,128,11
4,2,2,0,4,0,2,36,67,11
1,1,20,1,4,0,1,13,59,11
4,2,14,1,5,1,2,58,101,11
10,4,20,1,3,0,4,84,89,11
6,3,15,1,1,0,2,61,67,11
2,1,23,0,6,1,1,14,91,11
7,3,12,1,2,0,3,14,128,11
7,3,14,1,4,0,3,14,91,11
4,2,15,1,1,0,2,43,77,11
8,3,15,1,4,0,3,2,77,11
12,1,16,1,0,0,4,25,128,11
9,4,16,1,0,0,3,56,101,11
11,4,14,1,5,1,4,38,128,11
6,3,17,1,6,1,2,8,101,11
2,1,12,1,5,1,1,49,128,11
2,1,3,0,5,1,1,59,77,11
10,4,4,0,2,0,4,25,96,11
5,2,19,1,3,0,2,41,101,11
11,4,19,1,5,1,4,3,91,11
6,3,14,1,6,1,2,25,91,11
2,1,23,0,5,1,1,60,128,11
6,3,12,1,6,1,2,48,37,8
3,2,13,1,5,1,1,25,67,11
7,3,19,1,1,0,3,58,7,11
10,4,18,1,2,0,4,8,91,11
7,3,14,1,1,0,3,45,20,11
1,1,1,0,3,0,1,36,128,11
9,4,18,1,0,0,3,77,101,11
1,1,21,0,2,0,1,61,67,9
5,2,22,0,3,0,2,8,13,9
1,1,1,0,2,0,1,89,128,11
1,1,12,1,2,0,1,73,40,11
4,2,21,0,1,0,2,58,91,11
1,1,21,0,2,0,1,63,128,11
8,3,19,1,4,0,3,25,91,11
1,1,15,1,3,0,1,3,91,11
7,3,14,1,1,0,3,10,39,11
9,4,20,1,0,0,3,71,20,11
4,2,12,1,1,0,2,10,101,11
9,4,13,1,0,0,3,25,77,11
3,2,20,1,5,1,1,20,128,11
8,3,21,0,4,0,3,21,101,11
5,2,20,1,3,0,2,49,101,11
1,1,10,1,3,0,1,3,101,11
3,2,17,1,6,1,1,22,91,11
7,3,1,0,2,0,3,8,101,11
5,2,14,1,4,0,2,9,67,11
6,3,18,1,0,0,2,45,40,11
4,2,15,1,2,0,2,8,23,11
4,2,23,0,2,0,2,61,101,11
6,3,18,1,0,0,2,79,101,11
2,1,23,0,6,1,1,36,128,11
6,3,21,0,0,0,2,25,91,11
10,4,15,1,3,0,4,56,101,11
8,3,18,1,5,1,3,56,101,11
12,1,7,1,1,0,4,15,128,11
5,2,18,1,4,0,2,3,91,11
9,4,12,1,1,0,3,17,81,11
12,1,0,0,1,0,4,3,101,11
8,3,11,1,5,1,3,2,77,11
9,4,16,1,1,0,3,74,101,11
9,4,9,1,1,0,3,11,128,11
10,4,20,1,3,0,4,2,128,11
10,4,14,1,3,0,4,25,128,11
8,3,20,1,5,1,3,68,67,11
12,1,12,1,1,0,4,2,128,11
9,4,12,1,1,0,3,55,67,8
12,1,16,1,1,0,4,44,101,11
10,4,16,1,3,0,4,7,101,11
10,4,19,1,3,0,4,8,128,11
11,4,19,1,6,1,4,36,67,11
12,1,12,1,1,0,4,17,68,11
12,1,16,1,1,0,4,44,101,11
3,2,22,0,0,0,1,8,91,11
2,1,1,0,0,0,1,11,128,11
3,2,23,0,0,0,1,44,101,11
1,1,19,1,4,0,1,33,128,11
3,2,12,1,0,0,1,3,101,11
3,2,19,1,0,0,1,25,101,11
2,1,19,1,0,0,1,7,128,11
1,1,1,0,4,0,1,86,77,11
3,2,19,1,0,0,1,8,91,11
9,4,16,1,2,0,3,61,128,11
10,4,15,1,4,0,4,25,101,11
7,3,14,1,3,0,3,29,101,11
8,3,13,1,6,1,3,32,101,11
9,4,20,1,2,0,3,2,101,11
11,4,19,1,0,0,4,44,101,11
9,4,12,1,2,0,3,8,128,11
9,4,21,0,2,0,3,79,101,11
8,3,23,0,6,1,3,41,91,11
10,4,18,1,4,0,4,34,101,11
9,4,15,1,2,0,3,74,101,11
9,4,11,1,2,0,3,27,101,11
8,3,15,1,6,1,3,7,55,11
7,3,10,1,3,0,3,55,20,11
6,3,14,1,1,0,2,73,128,11
11,4,12,1,0,0,4,13,101,11
9,4,12,1,2,0,3,13,91,11
8,3,0,0,6,1,3,48,20,11
5,2,15,1,5,1,2,89,89,11
9,4,17,1,2,0,3,49,96,11
9,4,2,0,2,0,3,11,128,11
4,2,23,0,3,0,2,10,20,11
6,3,6,0,1,0,2,15,77,9
6,3,4,0,1,0,2,76,77,9
4,2,14,1,3,0,2,34,101,11
6,3,15,1,1,0,2,29,101,11
8,3,12,1,6,1,3,73,101,11
4,2,23,0,3,0,2,25,91,11
10,4,14,1,4,0,4,8,91,11
8,3,15,1,6,1,3,16,128,11
9,4,17,1,2,0,3,86,25,11
10,4,14,1,4,0,4,74,101,11
6,3,16,1,1,0,2,2,101,11
8,3,13,1,6,1,3,74,91,11
12,1,13,1,2,0,4,44,69,11
12,1,17,1,2,0,4,24,101,11
12,1,16,1,2,0,4,47,128,11
6,3,23,0,1,0,2,25,91,11
12,1,10,1,2,0,4,3,25,11
7,3,13,1,4,0,3,14,91,11
6,3,16,1,2,0,2,74,23,11
6,3,1,0,2,0,2,24,34,11
5,2,17,1,6,1,2,25,20,11
9,4,22,0,3,0,3,54,91,11
3,2,14,1,1,0,1,25,67,11
10,4,0,0,5,1,4,3,89,11
9,4,11,1,3,0,3,55,128,11
11,4,15,1,1,0,4,47,20,11
5,2,15,1,6,1,2,40,77,11
5,2,14,1,6,1,2,25,67,9
5,2,22,0,6,1,2,54,91,11
6,3,13,1,2,0,2,86,128,11
8,3,3,0,0,0,3,2,128,11
6,3,6,0,2,0,2,8,91,11
7,3,21,0,4,0,3,45,101,11
9,4,16,1,3,0,3,59,101,11
9,4,16,1,2,0,3,3,101,11
12,1,16,1,2,0,4,84,110,11
2,1,4,0,1,0,1,43,123,8
10,4,18,1,5,1,4,84,20,11
1,1,10,1,6,1,1,60,67,11
1,1,20,1,6,1,1,16,128,11
1,1,12,1,6,1,1,25,9,11
4,2,20,1,5,1,2,87,91,11
6,3,0,0,3,0,2,41,128,11
2,1,16,1,2,0,1,74,101,11
3,2,22,0,2,0,1,87,91,11
4,2,12,1,5,1,2,8,91,11
2,1,19,1,2,0,1,79,86,11
6,3,0,0,3,0,2,61,123,8
5,2,20,1,0,0,2,36,20,11
3,2,13,1,2,0,1,9,13,8
6,3,9,1,3,0,2,46,26,11
2,1,16,1,2,0,1,73,101,11
4,2,11,1,5,1,2,53,91,11
2,1,20,1,2,0,1,7,101,11
4,2,15,1,5,1,2,50,101,11
4,2,16,1,5,1,2,3,25,9
4,2,1,0,5,1,2,34,91,11
4,2,18,1,5,1,2,2,101,11
11,4,7,1,2,0,4,61,67,11
4,2,20,1,5,1,2,14,91,11
11,4,3,0,2,0,4,42,20,11
10,4,12,1,6,1,4,32,101,11
7,3,20,1,5,1,3,61,91,11
10,4,0,0,6,1,4,55,128,11
11,4,15,1,6,1,4,50,101,11
9,4,18,1,4,0,3,69,91,11
9,4,20,1,4,0,3,2,101,11
6,3,17,1,2,0,2,3,91,11
12,1,0,0,4,0,4,75,128,11
12,1,3,0,4,0,4,25,20,11
10,4,3,0,6,1,4,68,20,11
12,1,15,1,4,0,4,36,8,11
11,4,23,0,2,0,4,2,101,11
9,4,19,1,0,0,3,88,91,11
12,1,10,1,4,0,4,40,101,11
1,1,8,1,0,0,1,44,101,11
2,1,16,1,3,0,1,25,91,11
2,1,12,1,3,0,1,14,91,11
1,1,11,1,0,0,1,46,113,11
2,1,1,0,3,0,1,50,20,9
3,2,15,1,3,0,1,44,101,11
6,3,11,1,4,0,2,22,91,9
4,2,9,1,6,1,2,8,91,11
5,2,15,1,1,0,2,44,20,11
6,3,11,1,4,0,2,83,101,11
6,3,7,1,4,0,2,10,91,11
5,2,17,1,1,0,2,30,25,11
9,4,13,1,5,1,3,56,101,11
9,4,22,0,5,1,3,8,101,11
9,4,1,0,5,1,3,55,57,11
6,3,2,0,4,0,2,22,20,8
10,4,15,1,0,0,4,11,128,11
6,3,21,0,4,0,2,30,101,11
5,2,18,1,1,0,2,86,25,11
10,4,15,1,0,0,4,61,91,11
4,2,12,1,6,1,2,83,128,11
6,3,20,1,4,0,2,10,91,11
7,3,14,1,6,1,3,79,101,11
9,4,15,1,5,1,3,6,91,11
8,3,16,1,2,0,3,41,91,11
8,3,11,1,2,0,3,59,101,11
6,3,0,0,4,0,2,83,77,11
4,2,11,1,6,1,2,25,91,11
4,2,1,0,6,1,2,8,96,11
10,4,15,1,0,0,4,2,77,11
10,4,1,0,0,0,4,25,55,11
10,4,17,1,0,0,4,44,101,11
8,3,12,1,2,0,3,59,20,11
6,3,20,1,4,0,2,3,121,11
11,4,6,0,3,0,4,25,128,9
4,2,17,1,6,1,2,69,128,11
12,1,10,1,5,1,4,2,101,11
7,3,10,1,6,1,3,49,91,11
11,4,9,1,3,0,4,2,13,11
11,4,17,1,3,0,4,14,25,11
12,1,17,1,5,1,4,3,91,11
11,4,18,1,3,0,4,41,91,11
12,1,0,0,5,1,4,25,89,11
12,1,21,0,5,1,4,37,91,11
3,2,7,1,5,1,1,29,128,11
9,4,11,1,6,1,3,87,89,11
5,2,19,1,2,0,2,32,101,11
2,1,20,1,4,0,1,3,77,11
7,3,13,1,0,0,3,25,101,9
7,3,21,0,0,0,3,79,20,11
9,4,13,1,6,1,3,55,67,11
12,1,17,1,6,1,4,44,101,11
10,4,17,1,1,0,4,25,91,11
11,4,18,1,4,0,4,3,91,11
12,1,16,1,6,1,4,22,91,9
12,1,16,1,6,1,4,59,101,11
12,1,22,0,5,1,4,56,101,11
8,3,8,1,3,0,3,75,88,11
8,3,13,1,3,0,3,43,91,11
8,3,16,1,3,0,3,29,40,9
2,1,21,0,4,0,1,3,20,11
1,1,4,0,1,0,1,87,91,11
6,3,3,0,5,1,2,54,98,11
4,2,16,1,0,0,2,74,101,11
8,3,13,1,3,0,3,87,91,11
2,1,12,1,4,0,1,36,91,11
2,1,10,1,4,0,1,25,121,11
12,1,4,0,4,0,4,22,20,9
4,2,5,0,0,0,2,36,101,11
1,1,13,1,1,0,1,42,125,9
3,2,9,1,4,0,1,58,91,11
3,2,13,1,4,0,1,87,128,9
2,1,17,1,4,0,1,39,101,11
1,1,9,1,1,0,1,41,91,11
12,1,22,0,5,1,4,56,101,11
8,3,16,1,3,0,3,25,91,11
4,2,4,0,0,0,2,79,101,11
9,4,11,1,6,1,3,22,77,11
1,1,14,1,1,0,1,79,101,11
2,1,0,0,4,0,1,2,128,11
6,3,17,1,5,1,2,25,101,11
10,4,11,1,1,0,4,59,101,11
7,3,0,0,0,0,3,13,101,11
2,1,21,0,4,0,1,56,101,11
5,2,8,1,2,0,2,3,91,11
10,4,17,1,1,0,4,73,101,11
1,1,18,1,1,0,1,83,101,11
10,4,21,0,1,0,4,36,89,11
8,3,8,1,3,0,3,83,101,11
5,2,22,0,2,0,2,25,89,11
6,3,7,1,5,1,2,25,67,11
4,2,10,1,0,0,2,25,101,11
9,4,4,0,6,1,3,36,59,9
5,2,20,1,2,0,2,76,68,11
9,4,11,1,6,1,3,79,101,11
4,2,7,1,0,0,2,2,101,11
3,2,11,1,4,0,1,11,96,11
9,4,21,0,6,1,3,55,68,11
6,3,14,1,6,1,2,16,101,11
2,1,20,1,5,1,1,74,101,9
4,2,13,1,1,0,2,49,101,11
6,3,22,0,6,1,2,59,101,11
3,2,12,1,5,1,1,69,63,11
5,2,4,0,3,0,2,14,91,11
4,2,20,1,1,0,2,79,101,11
11,4,18,1,5,1,4,49,101,11
6,3,7,1,6,1,2,79,101,11
2,1,21,0,5,1,1,36,47,11
11,4,0,0,5,1,4,22,101,11
8,3,10,1,4,0,3,11,90,11
1,1,12,1,2,0,1,63,101,11
3,2,6,0,5,1,1,8,128,11
4,2,21,0,1,0,2,36,67,11
10,4,5,0,2,0,4,58,128,11
11,4,15,1,5,1,4,44,91,9
12,1,15,1,0,0,4,2,101,11
9,4,2,0,0,0,3,68,128,11
2,1,7,1,3,0,1,14,91,11
7,3,15,1,1,0,3,74,91,11
10,4,18,1,2,0,4,21,101,11
10,4,16,1,2,0,4,14,20,11
8,3,10,1,4,0,3,2,101,11
3,2,19,1,5,1,1,3,47,11
11,4,20,1,5,1,4,17,91,11
7,3,7,1,1,0,3,88,91,11
3,2,10,1,4,0,1,3,91,11
2,1,13,1,5,1,1,41,91,11
8,3,17,1,4,0,3,2,101,11
7,3,15,1,1,0,3,68,101,11
7,3,18,1,1,0,3,36,128,11
2,1,10,1,5,1,1,84,20,9
2,1,12,1,5,1,1,73,101,11
2,1,23,0,0,0,1,71,20,11
12,1,12,1,1,0,4,44,20,11
9,4,19,1,6,1,3,25,77,9
1,1,9,1,3,0,1,44,20,11
4,2,15,1,3,0,2,13,77,11
7,3,4,0,2,0,3,14,128,11
6,3,15,1,0,0,2,3,77,11
10,4,15,1,4,0,4,79,101,11
11,4,14,1,0,0,4,2,101,11
8,3,17,1,5,1,3,3,20,11
6,3,10,1,0,0,2,22,101,11
5,2,20,1,5,1,2,40,128,11
10,4,12,1,4,0,4,41,91,11
1,1,17,1,4,0,1,22,101,11
11,4,23,0,6,1,4,61,91,11
3,2,14,1,0,0,1,22,101,11
11,4,5,0,6,1,4,25,67,11
4,2,14,1,3,0,2,25,101,11
11,4,21,0,1,0,4,14,91,11
10,4,16,1,3,0,4,25,101,11
12,1,22,0,2,0,4,25,37,11
2,1,20,1,0,0,1,17,110,11
7,3,0,0,2,0,3,17,101,11
11,4,11,1,3,0,4,14,91,11
7,3,19,1,2,0,3,14,89,11
12,1,11,1,1,0,4,43,20,11
4,2,15,1,3,0,2,44,67,11
9,4,18,1,1,0,3,56,101,11
1,1,1,0,3,0,1,13,13,11
5,2,0,0,5,1,2,87,125,11
1,1,22,0,4,0,1,3,40,11
10,4,16,1,2,0,4,25,128,11
5,2,12,1,4,0,2,59,101,11
3,2,12,1,0,0,1,6,91,11
11,4,13,1,0,0,4,20,101,11
5,2,15,1,5,1,2,22,91,11
6,3,20,1,5,1,2,25,25,11
11,4,13,1,6,1,4,83,101,9
6,3,15,1,0,0,2,25,7,11
8,3,14,1,5,1,3,75,77,11
6,3,10,1,5,1,2,25,20,11
9,4,15,1,1,0,3,79,101,11
10,4,15,1,4,0,4,40,25,11
12,1,23,0,1,0,4,55,89,11
11,4,13,1,6,1,4,21,24,11
1,1,14,1,4,0,1,59,101,11
6,3,4,0,1,0,2,55,128,11
3,2,8,1,6,1,1,50,77,11
10,4,19,1,4,0,4,12,101,11
11,4,15,1,5,1,4,69,13,11
6,3,12,1,1,0,2,36,128,11
7,3,16,1,3,0,3,19,25,11
12,1,21,0,1,0,4,44,101,11
3,2,20,1,6,1,1,14,91,11
8,3,19,1,5,1,3,83,101,11
3,2,4,0,6,1,1,2,101,11
7,3,6,0,2,0,3,25,101,11
9,4,12,1,2,0,3,59,101,11
11,4,16,1,6,1,4,14,91,11
5,2,18,1,5,1,2,74,101,11
1,1,12,1,3,0,1,21,91,11
3,2,15,1,6,1,1,49,91,11
5,2,23,0,4,0,2,44,101,11
2,1,17,1,0,0,1,76,110,11
6,3,11,1,0,0,2,36,67,11
11,4,8,1,6,1,4,2,101,11
3,2,18,1,6,1,1,59,101,11
2,1,17,1,6,1,1,3,89,11
3,2,19,1,1,0,1,37,128,11
12,1,4,0,3,0,4,20,20,11
4,2,20,1,4,0,2,25,40,11
7,3,17,1,4,0,3,39,101,11
2,1,3,0,1,0,1,25,101,11
12,1,15,1,6,1,4,10,91,11
5,2,18,1,6,1,2,25,101,11
9,4,13,1,3,0,3,25,128,11
6,3,6,0,2,0,2,22,110,11
11,4,14,1,0,0,4,32,24,11
10,4,17,1,5,1,4,13,13,11
5,2,6,0,6,1,2,25,20,11
3,2,18,1,1,0,1,84,25,11
2,1,1,0,1,0,1,25,128,11
6,3,19,1,2,0,2,22,128,9
8,3,12,1,4,0,3,14,91,9
4,2,14,1,4,0,2,3,91,11
9,4,21,0,3,0,3,10,128,11
10,4,12,1,5,1,4,79,128,11
1,1,22,0,5,1,1,22,91,11
5,2,18,1,6,1,2,58,20,11
1,1,21,0,6,1,1,14,91,11
11,4,22,0,1,0,4,30,128,11
2,1,2,0,1,0,1,25,128,11
2,1,6,0,1,0,1,73,20,11
1,1,15,1,3,0,1,12,101,11
5,2,18,1,6,1,2,45,101,11
2,1,18,1,1,0,1,12,101,11
8,3,16,1,5,1,3,25,101,11
3,2,12,1,1,0,1,36,130,11
1,1,20,1,5,1,1,3,91,11
2,1,11,1,1,0,1,84,32,11
1,1,6,0,5,1,1,89,40,11
2,1,12,1,1,0,1,2,20,11
6,3,19,1,2,0,2,6,101,11
7,3,15,1,4,0,3,11,67,9
8,3,20,1,1,0,3,54,77,11
10,4,14,1,6,1,4,25,40,11
4,2,17,1,5,1,2,44,89,11
1,1,17,1,6,1,1,2,110,11
4,2,11,1,5,1,2,49,67,11
3,2,19,1,2,0,1,9,110,11
3,2,14,1,2,0,1,22,47,11
7,3,22,0,5,1,3,74,128,11
12,1,18,1,5,1,4,14,91,11
1,1,10,1,6,1,1,85,80,11
12,1,17,1,0,0,4,36,89,11
2,1,0,0,2,0,1,8,101,11
2,1,0,0,1,0,1,25,89,11
12,1,19,1,4,0,4,38,101,11
3,2,10,1,3,0,1,14,91,11
8,3,11,1,1,0,3,25,77,9
9,4,20,1,4,0,3,14,128,11
11,4,20,1,2,0,4,8,91,11
1,1,17,1,6,1,1,22,101,11
9,4,18,1,4,0,3,43,40,11
6,3,5,0,3,0,2,52,128,11
12,1,18,1,4,0,4,87,25,11
3,2,21,0,2,0,1,88,91,11
3,2,14,1,2,0,1,8,77,11
9,4,0,0,4,0,3,73,77,11
2,1,14,1,2,0,1,75,101,11
1,1,3,0,6,1,1,58,20,11
10,4,14,1,6,1,4,76,67,11
3,2,8,1,6,1,1,84,91,11
7,3,14,1,0,0,3,14,91,11
7,3,11,1,6,1,3,14,91,11
10,4,10,1,4,0,4,3,25,11
2,1,20,1,2,0,1,14,91,11
3,2,4,0,6,1,1,77,58,11
1,1,10,1,4,0,1,3,101,11
11,4,6,0,4,0,4,25,101,11
1,1,22,0,0,0,1,3,91,11
7,3,11,1,1,0,3,38,101,11
10,4,10,1,4,0,4,84,101,11
3,2,22,0,1,0,1,15,89,11
7,3,10,1,2,0,3,14,91,11
4,2,15,1,0,0,2,84,89,11
5,2,12,1,3,0,2,61,101,11
2,1,22,0,5,1,1,44,67,11
1,1,18,1,2,0,1,2,77,11
9,4,15,1,0,0,3,44,101,11
1,1,21,0,2,0,1,45,109,11
11,4,18,1,5,1,4,72,101,11
8,3,10,1,4,0,3,2,128,11
12,1,3,0,0,0,4,6,109,11
7,3,3,0,1,0,3,8,89,11
2,1,21,0,5,1,1,8,96,11
5,2,9,1,3,0,2,24,128,11
2,1,11,1,5,1,1,60,77,11
3,2,11,1,5,1,1,73,20,11
7,3,21,0,1,0,3,61,128,11
1,1,17,1,2,0,1,12,77,11
7,3,23,0,1,0,3,8,101,11
7,3,16,1,1,0,3,87,55,11
3,2,5,0,6,1,1,36,20,11
10,4,11,1,2,0,4,36,69,11
1,1,1,0,3,0,1,61,20,8
8,3,0,0,4,0,3,37,20,11
1,1,8,1,2,0,1,37,77,9
9,4,20,1,0,0,3,38,91,11
3,2,20,1,5,1,1,85,128,11
4,2,14,1,1,0,2,17,77,11
5,2,17,1,3,0,2,39,101,11
12,1,16,1,0,0,4,58,77,11
8,3,18,1,4,0,3,84,20,9
2,1,21,0,5,1,1,65,96,11
11,4,15,1,5,1,4,21,77,9
2,1,8,1,5,1,1,32,101,11
5,2,21,0,4,0,2,86,25,11
7,3,18,1,2,0,3,24,101,11
7,3,14,1,2,0,3,33,91,11
6,3,14,1,0,0,2,36,7,11
4,2,19,1,2,0,2,15,67,9
5,2,16,1,4,0,2,13,101,11
3,2,18,1,6,1,1,32,91,11
5,2,17,1,4,0,2,20,128,11
3,2,19,1,6,1,1,83,128,11
6,3,17,1,0,0,2,51,91,11
7,3,20,1,2,0,3,9,128,11
6,3,8,1,0,0,2,25,67,11
2,1,20,1,6,1,1,44,101,11
5,2,14,1,4,0,2,44,67,11
4,2,3,0,2,0,2,72,57,11
11,4,23,0,6,1,4,56,128,11
9,4,11,1,1,0,3,65,128,11
6,3,16,1,1,0,2,86,55,9
11,4,11,1,6,1,4,25,91,11
10,4,8,1,3,0,4,50,40,11
9,4,15,1,1,0,3,41,128,11
10,4,19,1,3,0,4,29,128,11
10,4,21,0,3,0,4,68,128,11
9,4,20,1,1,0,3,58,128,11
9,4,13,1,1,0,3,3,91,11
8,3,13,1,5,1,3,38,77,9
12,1,10,1,1,0,4,36,101,11
11,4,16,1,6,1,4,89,77,11
11,4,16,1,6,1,4,8,101,11
9,4,7,1,1,0,3,44,23,11
8,3,0,0,5,1,3,37,128,11
12,1,9,1,1,0,4,50,20,11
11,4,11,1,6,1,4,55,20,11
7,3,12,1,2,0,3,14,128,11
3,2,23,0,0,0,1,36,128,11
2,1,4,0,0,0,1,36,128,11
3,2,12,1,0,0,1,9,67,11
2,1,11,1,0,0,1,2,77,11
2,1,13,1,0,0,1,56,101,11
3,2,16,1,0,0,1,22,128,11
1,1,18,1,4,0,1,87,77,9
9,4,9,1,2,0,3,25,47,11
10,4,11,1,4,0,4,74,101,11
6,3,18,1,1,0,2,13,101,11
11,4,15,1,0,0,4,58,20,8
5,2,19,1,5,1,2,7,101,11
8,3,16,1,6,1,3,3,91,11
8,3,18,1,6,1,3,50,20,11
10,4,19,1,4,0,4,59,101,11
10,4,21,0,4,0,4,3,20,11
6,3,2,0,1,0,2,25,67,8
10,4,18,1,4,0,4,30,101,11
11,4,15,1,0,0,4,61,91,11
6,3,12,1,1,0,2,24,91,11
3,2,23,0,0,0,1,79,40,11
6,3,19,1,1,0,2,39,101,11
4,2,13,1,3,0,2,2,89,11
6,3,21,0,1,0,2,46,101,11
8,3,19,1,6,1,3,79,101,11
7,3,21,0,3,0,3,55,67,11
8,3,11,1,6,1,3,75,67,11
7,3,15,1,3,0,3,8,101,11
9,4,20,1,2,0,3,61,96,11
10,4,20,1,4,0,4,21,101,11
10,4,20,1,4,0,4,14,91,11
10,4,10,1,4,0,4,2,91,11
10,4,11,1,4,0,4,87,20,9
6,3,16,1,1,0,2,42,40,9
10,4,16,1,4,0,4,8,101,11
9,4,9,1,2,0,3,2,101,11
9,4,13,1,2,0,3,24,128,11
8,3,15,1,6,1,3,54,128,11
12,1,20,1,2,0,4,59,101,11
12,1,19,1,2,0,4,11,67,11
11,4,17,1,0,0,4,36,96,11
12,1,15,1,2,0,4,77,91,11
12,1,12,1,2,0,4,12,101,11
11,4,16,1,0,0,4,38,101,11
7,3,18,1,3,0,3,85,13,11
10,4,15,1,5,1,4,12,101,11
3,2,18,1,1,0,1,25,128,9
12,1,12,1,3,0,4,25,67,11
11,4,14,1,1,0,4,3,128,11
8,3,16,1,0,0,3,54,128,11
6,3,19,1,1,0,2,25,128,11
6,3,15,1,1,0,2,25,101,11
8,3,7,1,0,0,3,39,101,11
8,3,21,0,0,0,3,20,101,11
5,2,19,1,6,1,2,3,25,11
11,4,13,1,1,0,4,44,101,11
12,1,14,1,3,0,4,77,91,11
6,3,1,0,2,0,2,15,13,11
6,3,22,0,2,0,2,68,67,11
2,1,22,0,0,0,1,44,128,11
3,2,14,1,1,0,1,2,101,11
10,4,14,1,5,1,4,3,40,11
1,1,14,1,6,1,1,58,91,11
1,1,13,1,6,1,1,59,101,11
1,1,18,1,6,1,1,87,91,9
6,3,21,0,3,0,2,14,91,11
6,3,17,1,3,0,2,36,67,11
5,2,23,0,0,0,2,77,91,8
3,2,12,1,2,0,1,16,128,11
3,2,12,1,2,0,1,13,124,11
5,2,14,1,0,0,2,68,20,11
6,3,19,1,3,0,2,49,101,11
4,2,13,1,5,1,2,8,91,11
1,1,20,1,6,1,1,8,91,11
6,3,3,0,3,0,2,61,91,11
4,2,12,1,5,1,2,29,20,9
7,3,16,1,5,1,3,59,91,11
9,4,15,1,4,0,3,15,101,11
10,4,16,1,6,1,4,20,55,11
11,4,10,1,2,0,4,25,74,9
7,3,0,0,5,1,3,14,91,11
6,3,10,1,3,0,2,14,25,8
11,4,20,1,2,0,4,2,128,11
10,4,18,1,6,1,4,24,101,11
7,3,20,1,5,1,3,58,101,11
7,3,23,0,5,1,3,14,91,11
7,3,21,0,5,1,3,73,101,11
11,4,4,0,2,0,4,68,89,11
6,3,11,1,3,0,2,42,91,11
7,3,19,1,5,1,3,39,67,11
7,3,21,0,5,1,3,14,91,11
8,3,17,1,1,0,3,24,101,11
7,3,22,0,5,1,3,49,101,11
10,4,0,0,3,0,4,5,128,11
12,1,19,1,4,0,4,36,89,11
5,2,14,1,0,0,2,50,91,11
11,4,5,0,2,0,4,36,128,11
3,2,8,1,3,0,1,79,101,11
2,1,17,1,3,0,1,21,91,11
2,1,1,0,3,0,1,2,101,11
9,4,20,1,4,0,3,2,101,11
2,1,8,1,3,0,1,14,91,11
2,1,14,1,3,0,1,71,67,11
2,1,22,0,3,0,1,84,20,9
3,2,2,0,3,0,1,55,77,11
4,2,11,1,6,1,2,40,20,9
5,2,19,1,1,0,2,58,98,11
3,2,17,1,3,0,1,44,101,11
3,2,14,1,3,0,1,14,91,9
6,3,18,1,4,0,2,41,91,11
5,2,11,1,1,0,2,25,101,11
4,2,13,1,6,1,2,56,101,11
8,3,15,1,2,0,3,40,91,11
8,3,15,1,2,0,3,41,91,11
10,4,14,1,0,0,4,11,89,11
5,2,14,1,1,0,2,69,20,9
9,4,19,1,5,1,3,14,128,11
7,3,21,0,6,1,3,32,91,11
4,2,20,1,6,1,2,58,77,11
6,3,14,1,4,0,2,58,20,11
9,4,17,1,5,1,3,59,101,11
7,3,17,1,6,1,3,25,91,11
8,3,18,1,2,0,3,44,101,11
8,3,18,1,2,0,3,8,91,11
8,3,21,0,2,0,3,20,101,11
5,2,21,0,1,0,2,2,89,11
9,4,23,0,5,1,3,10,91,11
9,4,20,1,5,1,3,25,128,11
10,4,11,1,0,0,4,75,91,11
11,4,10,1,3,0,4,79,101,11
12,1,17,1,5,1,4,10,101,11
12,1,5,0,5,1,4,14,40,11
5,2,17,1,3,0,2,25,2,11
8,3,18,1,3,0,3,59,128,11
12,1,11,1,6,1,4,63,91,11
3,2,1,0,4,0,1,87,101,11
12,1,17,1,6,1,4,17,101,11
12,1,9,1,6,1,4,39,91,11
12,1,21,0,6,1,4,21,128,11
9,4,23,0,6,1,3,2,91,9
6,3,21,0,5,1,2,85,101,11
9,4,0,0,6,1,3,32,125,9
7,3,22,0,0,0,3,3,91,11
6,3,16,1,1,0,2,86,101,9
4,2,18,1,0,0,2,21,101,11
3,2,21,0,4,0,1,3,91,11
1,1,18,1,1,0,1,32,125,11
4,2,17,1,0,0,2,19,91,11
4,2,19,1,0,0,2,36,89,11
3,2,16,1,4,0,1,87,125,11
8,3,4,0,2,0,3,36,89,11
10,4,11,1,1,0,4,11,128,11
8,3,22,0,3,0,3,8,91,11
10,4,14,1,1,0,4,79,101,11
11,4,11,1,4,0,4,77,128,11
8,3,11,1,3,0,3,73,101,11
5,2,13,1,2,0,2,25,128,9
3,2,15,1,4,0,1,56,45,11
6,3,18,1,5,1,2,2,91,11
6,3,15,1,5,1,2,44,101,11
2,1,23,0,4,0,1,82,89,11
3,2,17,1,4,0,1,34,20,11
6,3,20,1,5,1,2,36,91,11
1,1,19,1,1,0,1,44,91,11
3,2,13,1,4,0,1,79,101,11
10,4,10,1,1,0,4,79,37,11
12,1,21,0,5,1,4,14,91,11
5,2,20,1,2,0,2,3,91,11
4,2,10,1,1,0,2,79,101,11
11,4,11,1,4,0,4,25,55,11
5,2,20,1,3,0,2,88,128,11
8,3,19,1,4,0,3,25,101,11
10,4,13,1,2,0,4,25,101,11
10,4,19,1,2,0,4,25,7,11
9,4,20,1,0,0,3,39,101,11
6,3,8,1,4,0,2,14,91,11
10,4,22,0,2,0,4,40,67,11
10,4,3,0,2,0,4,3,20,11
12,1,0,0,0,0,4,77,20,9
9,4,12,1,0,0,3,13,91,11
8,3,15,1,4,0,3,16,20,11
7,3,17,1,1,0,3,77,98,11
7,3,19,1,1,0,3,41,78,11
9,4,15,1,0,0,3,49,101,11
9,4,20,1,0,0,3,87,91,11
12,1,17,1,0,0,4,29,101,11
3,2,12,1,5,1,1,3,91,11
8,3,18,1,4,0,3,40,101,11
1,1,17,1,2,0,1,88,57,9
5,2,17,1,3,0,2,14,91,11
1,1,13,1,1,0,1,14,91,11
11,4,15,1,5,1,4,59,101,11
11,4,16,1,5,1,4,29,25,11
2,1,19,1,5,1,1,84,20,9
10,4,22,0,2,0,4,31,20,11
8,3,13,1,4,0,3,11,77,11
8,3,14,1,4,0,3,83,20,11
10,4,9,1,2,0,4,88,18,11
3,2,13,1,5,1,1,15,40,11
9,4,13,1,6,1,3,32,101,11
2,1,23,0,5,1,1,20,20,11
7,3,15,1,1,0,3,2,91,11
8,3,14,1,4,0,3,22,91,11
7,3,6,0,1,0,3,58,40,9
7,3,16,1,1,0,3,79,101,11
8,3,1,0,2,0,3,56,120,11
5,2,19,1,3,0,2,49,55,11
12,1,2,0,0,0,4,22,128,11
11,4,9,1,4,0,4,25,45,8
7,3,22,0,1,0,3,25,91,11
2,1,19,1,5,1,1,3,7,11
8,3,15,1,4,0,3,61,67,11
6,3,18,1,6,1,2,58,101,11
9,4,3,0,1,0,3,61,47,9
11,4,21,0,0,0,4,59,40,11
9,4,20,1,0,0,3,9,40,11
12,1,14,1,0,0,4,30,101,11
8,3,0,0,5,1,3,69,128,11
1,1,15,1,1,0,1,25,101,11
7,3,15,1,3,0,3,44,66,11
11,4,0,0,0,0,4,11,123,11
6,3,2,0,1,0,2,2,95,9
8,3,19,1,6,1,3,25,40,11
1,1,15,1,4,0,1,89,6,11
2,1,23,0,6,1,1,40,101,11
8,3,1,0,5,1,3,58,128,11
9,4,14,1,6,1,3,14,91,11
8,3,5,0,5,1,3,13,23,11
3,2,7,1,0,0,1,76,45,9
2,1,2,0,0,0,1,22,55,11
5,2,19,1,4,0,2,69,17,11
9,4,12,1,0,0,3,3,77,11
5,2,20,1,4,0,2,25,101,11
11,4,12,1,6,1,4,31,77,9
9,4,16,1,1,0,3,49,128,9
11,4,11,1,0,0,4,32,24,11
9,4,19,1,1,0,3,41,25,11
9,4,11,1,1,0,3,83,101,11
12,1,13,1,2,0,4,73,101,11
7,3,17,1,2,0,3,59,101,11
10,4,15,1,4,0,4,57,91,11
1,1,0,0,3,0,1,5,101,11
11,4,23,0,0,0,4,22,122,8
2,1,13,1,0,0,1,71,91,11
7,3,21,0,1,0,3,14,91,11
4,2,22,0,3,0,2,25,91,11
5,2,17,1,4,0,2,79,101,11
11,4,12,1,6,1,4,59,128,11
11,4,21,0,6,1,4,8,91,11
5,2,21,0,4,0,2,58,98,11
3,2,10,1,0,0,1,26,20,11
6,3,7,1,1,0,2,3,91,11
7,3,13,1,2,0,3,25,67,9
9,4,12,1,2,0,3,17,77,11
9,4,13,1,2,0,3,9,89,11
2,1,20,1,0,0,1,16,110,11
3,2,12,1,0,0,1,22,101,11
8,3,13,1,5,1,3,45,108,11
8,3,20,1,5,1,3,79,101,11
10,4,19,1,4,0,4,59,55,11
5,2,5,0,5,1,2,19,28,11
11,4,1,0,0,0,4,2,101,11
12,1,15,1,1,0,4,79,101,11
3,2,4,0,6,1,1,49,68,11
6,3,9,1,1,0,2,69,40,8
2,1,22,0,6,1,1,3,128,11
2,1,0,0,6,1,1,44,98,11
12,1,19,1,1,0,4,59,128,11
8,3,16,1,5,1,3,25,20,11
5,2,1,0,4,0,2,14,91,11
7,3,13,1,2,0,3,59,101,11
5,2,23,0,4,0,2,17,101,11
12,1,13,1,1,0,4,25,101,11
3,2,15,1,6,1,1,32,101,11
12,1,17,1,1,0,4,6,91,11
11,4,13,1,6,1,4,7,101,11
2,1,13,1,6,1,1,58,40,11
5,2,0,0,4,0,2,25,101,11
6,3,21,0,0,0,2,36,101,11
3,2,12,1,6,1,1,58,20,9
7,3,13,1,4,0,3,39,101,11
4,2,11,1,4,0,2,39,45,11
3,2,23,0,3,0,1,14,91,11
6,3,4,0,0,0,2,3,91,11
12,1,22,0,3,0,4,2,101,11
9,4,1,0,3,0,3,43,128,9
7,3,18,1,3,0,3,14,77,11
4,2,15,1,4,0,2,49,91,11
9,4,16,1,3,0,3,49,101,11
11,4,2,0,6,1,4,14,91,11
1,1,16,1,5,1,1,10,77,11
6,3,19,1,2,0,2,3,40,11
8,3,22,0,5,1,3,25,91,11
10,4,16,1,4,0,4,25,25,11
12,1,11,1,3,0,4,25,128,9
9,4,21,0,3,0,3,68,110,11
12,1,14,1,3,0,4,65,128,11
4,2,8,1,4,0,2,49,101,11
4,2,11,1,4,0,2,56,110,11
11,4,12,1,1,0,4,39,121,11
4,2,9,1,4,0,2,3,128,11
9,4,19,1,2,0,3,84,101,11
2,1,11,1,1,0,1,17,91,11
3,2,17,1,1,0,1,44,101,9
11,4,7,1,5,1,4,29,89,11
10,4,12,1,2,0,4,10,101,11
5,2,14,1,6,1,2,58,35,11
10,4,10,1,5,1,4,38,91,11
11,4,2,0,3,0,4,87,101,11
8,3,8,1,1,0,3,58,67,11
2,1,22,0,2,0,1,49,77,11
7,3,1,0,5,1,3,36,77,11
5,2,0,0,0,0,2,62,77,9
7,3,19,1,5,1,3,15,98,11
1,1,12,1,5,1,1,25,101,11
7,3,18,1,5,1,3,27,128,11
1,1,2,0,2,0,1,25,7,11
7,3,18,1,5,1,3,36,128,11
5,2,15,1,0,0,2,63,67,11
2,1,13,1,2,0,1,47,128,11
12,1,18,1,4,0,4,16,101,11
7,3,17,1,5,1,3,59,101,11
4,2,10,1,5,1,2,11,128,11
2,1,12,1,0,0,1,87,91,11
2,1,8,1,5,1,1,36,96,11
1,1,17,1,6,1,1,36,67,11
5,2,6,0,0,0,2,61,77,11
2,1,18,1,2,0,1,84,128,11
12,1,7,1,6,1,4,25,91,11
3,2,18,1,2,0,1,88,91,11
3,2,22,0,2,0,1,16,35,11
10,4,0,0,6,1,4,3,46,11
10,4,19,1,6,1,4,36,128,11
6,3,21,0,3,0,2,8,96,11
10,4,18,1,6,1,4,21,110,11
6,3,19,1,3,0,2,8,128,11
8,3,18,1,1,0,3,63,77,11
9,4,17,1,4,0,3,84,25,11
7,3,13,1,5,1,3,2,128,11
10,4,23,0,6,1,4,29,101,11
3,2,0,0,0,0,1,14,91,11
11,4,2,0,5,1,4,77,91,11
12,1,2,0,6,1,4,14,91,11
11,4,16,1,1,0,4,24,101,11
10,4,0,0,4,0,4,14,91,11
3,2,13,1,1,0,1,10,101,11
7,3,10,1,5,1,3,25,27,9
3,2,9,1,0,0,1,14,91,11
9,4,12,1,6,1,3,25,101,11
4,2,22,0,0,0,2,14,91,11
7,3,21,0,0,0,3,46,101,11
10,4,23,0,0,0,4,62,101,11
10,4,19,1,5,1,4,14,91,11
3,2,17,1,3,0,1,61,89,11
10,4,13,1,1,0,4,58,90,11
1,1,12,1,1,0,1,40,24,9
12,1,20,1,2,0,4,40,101,11
1,1,14,1,6,1,1,77,89,11
4,2,18,1,2,0,2,36,23,11
8,3,2,0,3,0,3,14,91,11
5,2,7,1,4,0,2,15,45,11
6,3,19,1,3,0,2,14,91,11
3,2,23,0,5,1,1,10,40,11
7,3,14,1,1,0,3,24,101,11
12,1,12,1,0,0,4,54,128,11
4,2,16,1,1,0,2,41,91,11
6,3,12,1,6,1,2,59,89,11
9,4,23,0,0,0,3,15,67,11
2,1,9,1,5,1,1,55,90,11
5,2,16,1,3,0,2,6,77,11
12,1,18,1,0,0,4,45,128,11
12,1,9,1,0,0,4,36,67,11
3,2,18,1,5,1,1,8,27,9
5,2,21,0,3,0,2,32,91,9
1,1,17,1,3,0,1,54,77,11
2,1,16,1,6,1,1,44,101,11
11,4,17,1,5,1,4,79,101,11
8,3,18,1,4,0,3,33,101,11
1,1,9,1,3,0,1,59,128,11
10,4,14,1,2,0,4,84,40,11
11,4,11,1,5,1,4,73,91,11
8,3,18,1,4,0,3,22,128,11
1,1,13,1,3,0,1,3,91,11
1,1,22,0,3,0,1,8,91,11
10,4,23,0,2,0,4,55,68,11
11,4,22,0,5,1,4,25,91,11
9,4,15,1,0,0,3,10,101,11
1,1,13,1,2,0,1,9,128,11
11,4,13,1,5,1,4,14,91,11
1,1,0,0,2,0,1,9,128,11
2,1,17,1,5,1,1,72,101,11
2,1,11,1,6,1,1,22,128,11
2,1,7,1,6,1,1,3,91,11
5,2,19,1,4,0,2,79,77,11
6,3,21,0,0,0,2,88,67,11
6,3,14,1,0,0,2,22,101,11
7,3,17,1,2,0,3,7,101,11
4,2,16,1,2,0,2,11,67,11
6,3,17,1,0,0,2,61,40,11
6,3,22,0,0,0,2,66,16,11
3,2,7,1,6,1,1,61,128,11
5,2,18,1,4,0,2,13,77,11
4,2,17,1,2,0,2,77,91,8
7,3,11,1,2,0,3,41,128,11
7,3,20,1,2,0,3,17,77,11
2,1,21,0,6,1,1,8,128,11
7,3,16,1,2,0,3,50,67,11
4,2,21,0,2,0,2,77,20,11
7,3,14,1,2,0,3,79,101,11
12,1,12,1,1,0,4,63,101,11
12,1,19,1,1,0,4,59,77,11
11,4,19,1,6,1,4,32,101,11
8,3,17,1,5,1,3,56,67,11
9,4,12,1,1,0,3,80,96,11
9,4,18,1,1,0,3,3,40,11
11,4,12,1,6,1,4,32,91,9
12,1,20,1,1,0,4,58,128,11
10,4,22,0,3,0,4,34,89,11
6,3,12,1,0,0,2,6,20,8
9,4,11,1,1,0,3,22,91,11
8,3,13,1,5,1,3,7,128,11
11,4,0,0,6,1,4,3,77,11
10,4,16,1,3,0,4,55,128,11
8,3,10,1,5,1,3,25,125,11
8,3,17,1,5,1,3,21,91,11
11,4,12,1,6,1,4,2,101,11
11,4,13,1,6,1,4,79,101,11
11,4,2,0,6,1,4,26,128,11
12,1,0,0,1,0,4,43,110,11
12,1,21,0,1,0,4,3,77,11
3,2,11,1,0,0,1,44,128,11
3,2,22,0,0,0,1,12,40,9
3,2,22,0,0,0,1,30,81,11
1,1,13,1,4,0,1,85,77,11
2,1,4,0,0,0,1,85,77,11
3,2,10,1,0,0,1,39,96,11
2,1,18,1,0,0,1,41,91,11
1,1,18,1,4,0,1,16,101,11
3,2,14,1,0,0,1,58,20,9
3,2,19,1,0,0,1,7,101,11
9,4,14,1,2,0,3,2,20,11
10,4,19,1,4,0,4,59,101,11
11,4,17,1,0,0,4,79,101,11
11,4,15,1,0,0,4,73,101,11
9,4,22,0,2,0,3,79,101,11
8,3,20,1,6,1,3,3,91,11
9,4,15,1,2,0,3,32,91,11
11,4,19,1,0,0,4,41,91,11
11,4,10,1,0,0,4,16,101,11
9,4,1,0,2,0,3,14,77,11
7,3,13,1,3,0,3,25,101,9
8,3,1,0,6,1,3,36,128,11
11,4,3,0,0,0,4,8,20,8
10,4,19,1,4,0,4,15,45,11
9,4,20,1,2,0,3,27,91,11
10,4,15,1,4,0,4,13,101,11
9,4,16,1,2,0,3,2,101,11
11,4,12,1,0,0,4,39,83,11
8,3,17,1,6,1,3,87,91,11
8,3,18,1,6,1,3,50,128,11
11,4,17,1,0,0,4,32,101,11
6,3,18,1,1,0,2,40,59,11
5,2,21,0,5,1,2,12,128,11
6,3,19,1,1,0,2,3,91,11
6,3,18,1,1,0,2,79,101,11
10,4,12,1,4,0,4,40,101,11
9,4,11,1,2,0,3,74,101,11
9,4,17,1,2,0,3,59,55,11
6,3,16,1,1,0,2,7,101,11
9,4,19,1,2,0,3,59,101,11
6,3,15,1,1,0,2,83,101,11
9,4,18,1,2,0,3,59,101,11
12,1,16,1,2,0,4,36,67,9
12,1,16,1,2,0,4,38,101,11
12,1,23,0,2,0,4,25,128,11
3,2,21,0,0,0,1,3,14,9
10,4,0,0,5,1,4,10,89,11
10,4,18,1,5,1,4,3,101,11
12,1,23,0,3,0,4,25,20,11
5,2,17,1,6,1,2,25,89,11
6,3,16,1,1,0,2,25,101,11
11,4,7,1,1,0,4,16,128,11
4,2,8,1,4,0,2,7,101,11
2,1,1,0,1,0,1,20,128,9
6,3,1,0,2,0,2,69,127,11
8,3,8,1,0,0,3,14,91,11
5,2,3,0,6,1,2,25,128,11
8,3,14,1,0,0,3,59,101,11
5,2,8,1,6,1,2,56,101,11
10,4,11,1,5,1,4,38,89,11
8,3,1,0,0,0,3,3,25,11
12,1,17,1,3,0,4,73,101,11
12,1,20,1,3,0,4,20,77,11
2,1,0,0,1,0,1,41,128,11
4,2,10,1,4,0,2,42,77,11
10,4,15,1,5,1,4,85,101,11
7,3,21,0,4,0,3,49,101,11
10,4,21,0,5,1,4,8,91,11
12,1,23,0,3,0,4,36,20,8
2,1,10,1,1,0,1,36,17,11
9,4,6,0,3,0,3,25,96,11
7,3,2,0,4,0,3,69,77,11
9,4,6,0,3,0,3,25,96,11
1,1,4,0,6,1,1,11,128,11
1,1,18,1,6,1,1,44,128,11
1,1,13,1,6,1,1,79,101,11
6,3,9,1,3,0,2,22,101,11
3,2,20,1,2,0,1,25,128,11
2,1,13,1,2,0,1,22,91,11
5,2,16,1,0,0,2,25,101,11
3,2,17,1,2,0,1,25,91,11
3,2,13,1,2,0,1,50,91,11
2,1,20,1,2,0,1,79,89,11
4,2,20,1,5,1,2,49,45,11
5,2,15,1,0,0,2,3,91,11
5,2,19,1,0,0,2,77,67,11
4,2,10,1,5,1,2,2,67,11
6,3,6,0,3,0,2,25,101,11
3,2,11,1,2,0,1,25,128,11
10,4,19,1,6,1,4,59,101,11
7,3,21,0,5,1,3,3,101,11
8,3,15,1,1,0,3,21,101,11
10,4,22,0,6,1,4,8,7,9
11,4,18,1,2,0,4,3,125,11
11,4,22,0,5,1,4,59,101,11
8,3,22,0,5,1,3,25,8,11
2,1,17,1,3,0,1,79,101,11
3,2,2,0,3,0,1,8,91,11
1,1,22,0,0,0,1,44,101,11
4,2,21,0,6,1,2,3,91,9
3,2,13,1,3,0,1,17,91,11
4,2,17,1,6,1,2,59,101,9
5,2,18,1,1,0,2,8,35,11
5,2,20,1,1,0,2,56,101,11
6,3,5,0,4,0,2,59,35,9
4,2,10,1,6,1,2,3,40,11
7,3,15,1,6,1,3,14,91,11
7,3,0,0,6,1,3,58,128,11
7,3,10,1,6,1,3,19,128,11
8,3,3,0,2,0,3,17,128,11
8,3,22,0,2,0,3,17,40,11
6,3,18,1,4,0,2,50,20,11
10,4,18,1,0,0,4,2,101,11
7,3,23,0,6,1,3,8,98,11
8,3,14,1,2,0,3,14,91,11
11,4,10,1,2,0,4,6,71,9
7,3,13,1,6,1,3,5,77,11
6,3,13,1,4,0,2,57,91,11
7,3,19,1,6,1,3,84,101,11
8,3,21,0,2,0,3,44,91,11
5,2,21,0,1,0,2,37,91,11
9,4,21,0,5,1,3,21,101,11
8,3,9,1,2,0,3,14,91,11
7,3,15,1,6,1,3,14,91,11
9,4,18,1,5,1,3,2,110,11
9,4,17,1,5,1,3,56,101,11
12,1,2,0,5,1,4,69,78,11
12,1,12,1,5,1,4,11,128,11
11,4,15,1,3,0,4,58,20,11
11,4,18,1,3,0,4,2,55,11
12,1,12,1,5,1,4,32,125,11
6,3,2,0,5,1,2,36,67,9
4,2,16,1,0,0,2,36,128,11
6,3,10,1,5,1,2,49,91,11
12,1,22,0,6,1,4,21,25,11
9,4,4,0,6,1,3,25,101,11
11,4,11,1,4,0,4,17,101,11
1,1,17,1,1,0,1,8,91,11
1,1,3,0,1,0,1,25,96,11
8,3,21,0,2,0,3,22,25,11
9,4,0,0,6,1,3,3,91,11
10,4,1,0,1,0,4,55,128,11
6,3,22,0,5,1,2,3,91,11
5,2,22,0,2,0,2,8,20,11
6,3,0,0,5,1,2,44,101,11
10,4,16,1,1,0,4,11,20,11
8,3,17,1,3,0,3,56,101,11
6,3,21,0,5,1,2,40,101,9
4,2,15,1,0,0,2,36,7,11
4,2,13,1,0,0,2,49,101,11
7,3,18,1,0,0,3,46,91,11
4,2,20,1,0,0,2,24,25,11
4,2,15,1,0,0,2,41,91,11
2,1,12,1,4,0,1,3,91,11
1,1,17,1,1,0,1,11,47,11
1,1,19,1,1,0,1,9,67,9
3,2,4,0,4,0,1,5,101,11
3,2,2,0,4,0,1,3,91,11
3,2,20,1,4,0,1,89,98,11
3,2,5,0,4,0,1,61,29,11
1,1,7,1,1,0,1,14,101,11
5,2,15,1,2,0,2,2,89,11
12,1,19,1,6,1,4,56,91,11
5,2,17,1,2,0,2,41,91,9
6,3,0,0,5,1,2,25,20,8
12,1,15,1,5,1,4,14,77,11
7,3,14,1,0,0,3,36,67,8
6,3,9,1,5,1,2,3,91,11
6,3,12,1,5,1,2,79,101,11
6,3,21,0,5,1,2,21,101,11
5,2,17,1,2,0,2,2,25,11
5,2,14,1,2,0,2,17,89,11
11,4,12,1,4,0,4,53,91,11
5,2,18,1,2,0,2,76,91,11
2,1,23,0,4,0,1,40,101,11
7,3,18,1,0,0,3,79,101,11
4,2,11,1,0,0,2,15,91,11
9,4,15,1,6,1,3,34,101,9
2,1,19,1,4,0,1,32,101,11
2,1,5,0,4,0,1,44,128,11
2,1,0,0,4,0,1,25,25,11
1,1,12,1,1,0,1,8,101,11
5,2,10,1,2,0,2,2,101,11
6,3,22,0,6,1,2,13,110,11
7,3,2,0,1,0,3,3,67,8
3,2,17,1,5,1,1,25,67,11
1,1,6,0,2,0,1,54,30,11
2,1,2,0,5,1,1,14,91,11
6,3,18,1,6,1,2,3,25,11
4,2,16,1,1,0,2,11,89,11
4,2,17,1,1,0,2,21,101,11
4,2,17,1,1,0,2,34,20,11
4,2,22,0,1,0,2,55,6,11
7,3,13,1,1,0,3,20,101,11
9,4,20,1,0,0,3,14,91,11
9,4,23,0,0,0,3,50,101,11
11,4,19,1,5,1,4,7,101,11
6,3,23,0,6,1,2,2,91,11
11,4,3,0,5,1,4,44,101,11
12,1,23,0,6,1,4,85,101,11
11,4,14,1,5,1,4,3,101,11
3,2,19,1,5,1,1,16,13,11
11,4,13,1,5,1,4,79,91,11
10,4,19,1,2,0,4,44,101,11
1,1,15,1,1,0,1,14,91,11
11,4,8,1,5,1,4,41,128,11
2,1,12,1,5,1,1,10,101,11
3,2,15,1,5,1,1,16,20,11
8,3,18,1,4,0,3,16,101,11
11,4,0,0,5,1,4,36,67,11
10,4,14,1,2,0,4,49,121,11
6,3,15,1,6,1,2,25,101,11
11,4,0,0,5,1,4,44,101,11
11,4,19,1,5,1,4,44,125,11
1,1,2,0,2,0,1,55,20,9
1,1,9,1,2,0,1,49,20,9
2,1,10,1,5,1,1,11,96,11
1,1,18,1,2,0,1,2,101,11
7,3,23,0,1,0,3,58,128,11
2,1,16,1,5,1,1,22,89,11
6,3,1,0,6,1,2,16,101,11
5,2,21,0,3,0,2,84,110,11
3,2,13,1,5,1,1,41,101,11
5,2,9,1,3,0,2,79,20,9
12,1,14,1,0,0,4,17,25,11
10,4,14,1,2,0,4,14,101,11
6,3,22,0,6,1,2,84,101,11
1,1,10,1,2,0,1,79,67,11
11,4,16,1,5,1,4,36,67,11
12,1,18,1,0,0,4,50,101,11
3,2,8,1,0,0,1,79,110,11
8,3,13,1,5,1,3,21,101,11
11,4,23,0,6,1,4,55,123,11
5,2,8,1,5,1,2,88,91,11
5,2,17,1,5,1,2,44,91,9
5,2,15,1,5,1,2,59,101,11
10,4,1,0,3,0,4,41,101,11
7,3,23,0,3,0,3,17,110,11
7,3,0,0,3,0,3,68,20,11
11,4,0,0,0,0,4,14,91,11
5,2,19,1,5,1,2,37,40,11
7,3,1,0,2,0,3,22,128,11
4,2,12,1,3,0,2,71,110,11
7,3,6,0,2,0,3,15,89,11
3,2,11,1,6,1,1,83,91,9
5,2,22,0,5,1,2,22,101,9
12,1,14,1,2,0,4,21,101,11
10,4,15,1,4,0,4,41,91,11
12,1,18,1,2,0,4,73,12,9
7,3,16,1,3,0,3,55,101,11
10,4,20,1,4,0,4,25,89,11
11,4,1,0,0,0,4,44,89,11
7,3,12,1,3,0,3,50,20,8
12,1,14,1,0,0,4,25,24,9
4,2,23,0,3,0,2,72,20,9
1,1,20,1,4,0,1,22,91,11
1,1,11,1,4,0,1,83,101,11
11,4,12,1,0,0,4,36,7,11
1,1,19,1,4,0,1,21,101,11
9,4,8,1,2,0,3,8,20,11
9,4,16,1,6,1,3,87,91,11
10,4,22,0,4,0,4,50,77,11
3,2,20,1,6,1,1,16,101,11
4,2,13,1,2,0,2,22,101,9
7,3,2,0,2,0,3,56,101,11
4,2,18,1,3,0,2,2,77,11
2,1,15,1,0,0,1,56,101,11
6,3,12,1,1,0,2,84,123,8
2,1,8,1,0,0,1,73,101,11
8,3,19,1,5,1,3,19,128,11
6,3,1,0,0,0,2,8,89,9
12,1,17,1,2,0,4,59,101,11
11,4,19,1,0,0,4,59,101,11
4,2,19,1,1,0,2,14,91,11
5,2,22,0,5,1,2,36,96,11
9,4,20,1,1,0,3,14,91,11
9,4,15,1,2,0,3,15,67,11
2,1,14,1,0,0,1,44,101,11
5,2,13,1,4,0,2,26,20,9
8,3,16,1,6,1,3,79,25,11
4,2,1,0,2,0,2,85,89,11
11,4,6,0,6,1,4,25,101,11
3,2,20,1,6,1,1,2,89,11
10,4,4,0,4,0,4,55,128,11
12,1,18,1,2,0,4,21,101,9
10,4,20,1,3,0,4,41,101,11
12,1,15,1,2,0,4,49,101,11
2,1,10,1,0,0,1,3,91,11
11,4,20,1,0,0,4,59,91,9
6,3,2,0,0,0,2,54,91,11
9,4,12,1,1,0,3,21,91,11
10,4,0,0,3,0,4,84,89,11
12,1,19,1,1,0,4,84,55,11
1,1,15,1,3,0,1,50,67,11
2,1,14,1,6,1,1,21,25,11
2,1,19,1,6,1,1,61,23,8
3,2,19,1,6,1,1,75,20,9
1,1,17,1,3,0,1,2,91,11
11,4,14,1,1,0,4,39,57,11
11,4,17,1,1,0,4,36,7,11
11,4,12,1,1,0,4,77,91,9
12,1,20,1,3,0,4,50,77,8
11,4,21,0,1,0,4,8,91,11
1,1,8,1,5,1,1,68,77,11
8,3,20,1,6,1,3,44,101,11
7,3,16,1,4,0,3,21,20,11
7,3,16,1,4,0,3,79,12,11
12,1,10,1,3,0,4,25,67,11
8,3,3,0,0,0,3,14,91,11
4,2,18,1,4,0,2,3,91,11
2,1,8,1,1,0,1,22,128,11
2,1,14,1,1,0,1,14,91,11
9,4,21,0,6,1,3,43,91,11
11,4,20,1,1,0,4,49,128,11
1,1,20,1,0,0,1,75,128,11
2,1,20,1,1,0,1,14,91,11
9,4,11,1,3,0,3,25,128,11
7,3,20,1,4,0,3,63,40,11
4,2,16,1,4,0,2,77,91,11
10,4,6,0,5,1,4,28,77,11
2,1,3,0,6,1,1,25,77,8
2,1,19,1,1,0,1,7,91,11
8,3,14,1,0,0,3,41,106,11
6,3,13,1,1,0,2,3,12,8
9,4,22,0,3,0,3,25,128,11
12,1,19,1,3,0,4,87,77,11
3,2,0,0,1,0,1,14,91,11
11,4,6,0,5,1,4,14,91,11
7,3,17,1,3,0,3,25,128,11
1,1,13,1,5,1,1,36,98,11
12,1,18,1,3,0,4,16,101,11
4,2,19,1,2,0,2,87,45,8
1,1,15,1,5,1,1,10,77,11
4,2,10,1,4,0,2,6,45,9
9,4,18,1,3,0,3,17,101,11
5,2,18,1,6,1,2,50,128,11
5,2,18,1,6,1,2,36,89,11
2,1,13,1,1,0,1,3,91,11
2,1,11,1,1,0,1,50,128,11
7,3,17,1,5,1,3,5,77,11
6,3,20,1,5,1,2,8,101,11
1,1,0,0,2,0,1,84,110,11
10,4,2,0,6,1,4,49,77,9
12,1,15,1,0,0,4,6,128,11
11,4,10,1,2,0,4,2,45,9
8,3,13,1,4,0,3,36,101,11
11,4,15,1,2,0,4,25,20,11
1,1,2,0,6,1,1,15,128,11
10,4,15,1,6,1,4,11,77,9
8,3,0,0,1,0,3,3,128,11
3,2,19,1,2,0,1,3,91,11
11,4,10,1,2,0,4,11,67,9
5,2,18,1,0,0,2,55,77,11
9,4,23,0,4,0,3,6,128,11
5,2,19,1,0,0,2,16,101,11
7,3,19,1,5,1,3,21,101,11
10,4,14,1,6,1,4,8,40,11
7,3,8,1,5,1,3,88,67,11
10,4,15,1,0,0,4,75,40,11
7,3,19,1,5,1,3,84,67,11
8,3,17,1,1,0,3,3,128,11
6,3,19,1,3,0,2,40,110,11
7,3,14,1,0,0,3,14,91,11
7,3,20,1,4,0,3,14,91,11
4,2,21,0,1,0,2,14,91,11
2,1,7,1,4,0,1,14,91,11
6,3,20,1,5,1,2,14,91,11
4,2,21,0,0,0,2,14,91,11
3,2,22,0,3,0,1,14,91,11
2,1,23,0,5,1,1,58,91,11
5,2,20,1,1,0,2,14,77,11
6,3,1,0,2,0,2,14,128,11
2,1,13,1,4,0,1,25,25,11
4,2,23,0,3,0,2,58,128,11
6,3,11,1,2,0,2,36,40,11
5,2,17,1,0,0,2,3,8,11
2,1,5,0,2,0,1,36,20,11
1,1,14,1,6,1,1,77,91,11
6,3,8,1,4,0,2,15,37,11
3,2,12,1,5,1,1,73,101,11
7,3,19,1,1,0,3,37,77,11
7,3,13,1,1,0,3,63,101,11
8,3,12,1,4,0,3,52,91,11
11,4,12,1,5,1,4,84,91,9
11,4,14,1,5,1,4,89,128,11
10,4,13,1,2,0,4,41,20,11
5,2,14,1,3,0,2,34,128,11
11,4,14,1,5,1,4,41,12,11
11,4,16,1,5,1,4,8,75,11
11,4,9,1,5,1,4,9,89,11
10,4,20,1,2,0,4,2,128,11
4,2,10,1,1,0,2,12,77,9
4,2,11,1,1,0,2,20,20,9
7,3,22,0,1,0,3,44,91,11
11,4,5,0,5,1,4,6,77,9
3,2,2,0,6,1,1,3,51,9
8,3,12,1,4,0,3,41,77,11
1,1,11,1,3,0,1,77,55,11
1,1,10,1,3,0,1,2,128,11
1,1,13,1,3,0,1,3,91,11
1,1,16,1,3,0,1,74,101,11
2,1,22,0,5,1,1,55,128,11
8,3,11,1,4,0,3,54,77,11
12,1,22,0,0,0,4,25,20,11
11,4,2,0,5,1,4,2,128,11
11,4,15,1,5,1,4,49,96,11
11,4,19,1,5,1,4,44,128,11
1,1,5,0,2,0,1,20,77,8
7,3,15,1,2,0,3,79,101,11
4,2,8,1,2,0,2,63,67,11
4,2,9,1,2,0,2,65,57,11
5,2,20,1,4,0,2,2,40,11
6,3,15,1,0,0,2,49,101,11
3,2,10,1,6,1,1,68,13,9
6,3,14,1,0,0,2,25,77,11
5,2,14,1,4,0,2,58,67,11
4,2,11,1,2,0,2,77,91,11
3,2,15,1,6,1,1,25,101,11
2,1,13,1,5,1,1,3,40,11
9,4,12,1,1,0,3,36,128,11
7,3,22,0,2,0,3,36,67,8
9,4,12,1,1,0,3,79,13,11
8,3,12,1,5,1,3,11,77,11
10,4,3,0,3,0,4,58,89,11
8,3,20,1,5,1,3,36,67,9
11,4,17,1,6,1,4,59,101,11
10,4,11,1,3,0,4,54,128,11
6,3,15,1,0,0,2,34,89,11
11,4,17,1,6,1,4,6,77,11
12,1,13,1,1,0,4,66,128,11
12,1,12,1,1,0,4,3,128,11
12,1,18,1,1,0,4,43,69,11
12,1,15,1,1,0,4,58,67,9
11,4,11,1,6,1,4,41,91,11
11,4,15,1,6,1,4,29,128,11
10,4,10,1,3,0,4,61,91,11
12,1,13,1,1,0,4,25,20,9
11,4,22,0,6,1,4,14,91,11
11,4,20,1,6,1,4,21,96,11
11,4,15,1,5,1,4,36,128,11
1,1,16,1,4,0,1,38,89,11
1,1,16,1,4,0,1,68,77,11
4,2,13,1,3,0,2,79,67,11
1,1,4,0,4,0,1,3,128,11
1,1,12,1,4,0,1,21,101,11
3,2,23,0,0,0,1,44,128,9
2,1,22,0,0,0,1,58,128,11
3,2,9,1,0,0,1,83,128,11
2,1,17,1,0,0,1,76,96,11
1,1,3,0,4,0,1,49,128,11
2,1,0,0,0,0,1,68,128,11
2,1,14,1,0,0,1,10,40,9
2,1,21,0,0,0,1,40,128,11
3,2,10,1,0,0,1,29,98,11
2,1,11,1,5,1,1,22,77,11
3,2,8,1,0,0,1,8,91,11
3,2,21,0,0,0,1,29,98,11
2,1,14,1,0,0,1,69,128,11
7,3,18,1,3,0,3,25,101,11
9,4,0,0,2,0,3,29,128,11
10,4,14,1,4,0,4,49,101,11
4,2,23,0,3,0,2,63,128,11
7,3,19,1,3,0,3,24,101,11
6,3,14,1,1,0,2,3,91,11
11,4,8,1,0,0,4,16,106,9
9,4,13,1,2,0,3,7,101,11
10,4,17,1,4,0,4,13,101,11
10,4,19,1,4,0,4,50,91,11
9,4,12,1,2,0,3,29,101,11
11,4,12,1,0,0,4,83,101,11
9,4,15,1,2,0,3,9,67,11
11,4,15,1,0,0,4,79,101,11
9,4,11,1,2,0,3,50,101,11
11,4,11,1,0,0,4,11,128,11
6,3,14,1,1,0,2,13,67,11
6,3,21,0,1,0,2,69,77,11
11,4,22,0,0,0,4,73,91,11
11,4,16,1,0,0,4,19,67,8
6,3,20,1,1,0,2,63,128,11
7,3,8,1,3,0,3,56,20,9
5,2,17,1,5,1,2,18,128,11
5,2,17,1,5,1,2,50,128,11
8,3,11,1,6,1,3,59,128,11
5,2,10,1,5,1,2,41,91,11
7,3,21,0,3,0,3,79,101,11
7,3,23,0,3,0,3,14,91,11
6,3,3,0,1,0,2,36,67,11
5,2,15,1,5,1,2,24,101,11
8,3,21,0,6,1,3,86,40,9
10,4,17,1,4,0,4,56,67,11
11,4,0,0,0,0,4,20,77,8
10,4,11,1,4,0,4,44,55,11
10,4,15,1,4,0,4,2,101,11
10,4,13,1,4,0,4,59,91,11
11,4,8,1,0,0,4,59,67,11
4,2,15,1,3,0,2,76,101,11
9,4,13,1,2,0,3,40,101,11
8,3,6,0,6,1,3,44,24,9
12,1,13,1,2,0,4,3,91,11
12,1,16,1,2,0,4,59,101,11
7,3,21,0,4,0,3,7,101,11
1,1,21,0,5,1,1,36,45,8
8,3,2,0,0,0,3,25,91,11
7,3,11,1,4,0,3,25,77,11
10,4,15,1,5,1,4,16,26,9
12,1,15,1,3,0,4,74,101,11
11,4,16,1,1,0,4,25,101,11
5,2,14,1,6,1,2,29,128,11
2,1,3,0,1,0,1,49,24,9
11,4,0,0,1,0,4,22,128,11
8,3,21,0,0,0,3,61,101,11
12,1,15,1,3,0,4,79,101,11
12,1,16,1,3,0,4,83,101,11
11,4,16,1,1,0,4,49,14,11
10,4,22,0,5,1,4,61,128,11
7,3,2,0,4,0,3,17,128,11
5,2,19,1,6,1,2,11,7,11
11,4,11,1,1,0,4,2,89,11
10,4,16,1,5,1,4,37,101,11
10,4,23,0,5,1,4,54,91,11
11,4,11,1,1,0,4,74,101,11
7,3,5,0,4,0,3,14,91,11
6,3,18,1,2,0,2,25,101,11
11,4,19,1,1,0,4,74,101,11
2,1,21,0,1,0,1,36,67,11
9,4,4,0,3,0,3,25,96,11
11,4,20,1,1,0,4,25,55,8
1,1,2,0,6,1,1,25,128,11
2,1,4,0,2,0,1,3,91,11
6,3,14,1,3,0,2,45,91,11
2,1,19,1,2,0,1,3,128,11
4,2,12,1,5,1,2,10,101,11
3,2,13,1,2,0,1,5,91,11
5,2,8,1,0,0,2,73,91,11
3,2,21,0,2,0,1,68,101,11
6,3,10,1,3,0,2,3,89,11
12,1,20,1,3,0,4,88,91,11
1,1,2,0,6,1,1,8,77,11
2,1,18,1,2,0,1,25,101,11
2,1,14,1,2,0,1,17,91,11
4,2,12,1,5,1,2,55,128,11
3,2,23,0,2,0,1,34,101,11
4,2,17,1,5,1,2,44,106,8
4,2,21,0,5,1,2,59,101,11
2,1,13,1,2,0,1,8,20,11
4,2,2,0,5,1,2,25,96,11
5,2,23,0,0,0,2,14,91,11
9,4,9,1,4,0,3,41,91,11
8,3,12,1,1,0,3,41,67,11
7,3,15,1,5,1,3,46,20,11
8,3,19,1,1,0,3,21,55,11
10,4,21,0,6,1,4,55,20,11
8,3,1,0,1,0,3,36,128,11
9,4,12,1,4,0,3,25,101,11
10,4,17,1,6,1,4,24,101,11
6,3,20,1,3,0,2,14,25,11
8,3,14,1,1,0,3,58,123,11
1,1,11,1,6,1,1,3,91,11
2,1,10,1,2,0,1,44,89,11
2,1,18,1,0,0,1,41,128,11
7,3,6,0,5,1,3,14,91,11
11,4,21,0,2,0,4,86,77,8
12,1,22,0,4,0,4,25,20,9
10,4,18,1,6,1,4,25,77,11
8,3,20,1,1,0,3,28,40,11
5,2,21,0,0,0,2,56,101,11
12,1,11,1,4,0,4,25,128,11
12,1,6,0,4,0,4,79,101,11
1,1,16,1,0,0,1,25,91,9
3,2,10,1,3,0,1,41,91,11
2,1,22,0,3,0,1,15,81,11
1,1,0,0,0,0,1,59,101,11
3,2,12,1,3,0,1,22,101,11
1,1,12,1,0,0,1,29,91,11
2,1,17,1,3,0,1,14,91,11
1,1,12,1,0,0,1,3,101,9
1,1,23,0,0,0,1,59,55,11
2,1,0,0,3,0,1,14,91,11
2,1,21,0,2,0,1,25,66,9
5,2,17,1,1,0,2,8,91,9
5,2,14,1,1,0,2,44,25,11
4,2,6,0,6,1,2,58,128,11
3,2,21,0,3,0,1,49,101,11
4,2,17,1,6,1,2,49,101,11
6,3,21,0,4,0,2,25,125,11
9,4,12,1,5,1,3,76,101,11
10,4,10,1,0,0,4,25,67,9
7,3,17,1,6,1,3,59,101,11
6,3,20,1,4,0,2,25,77,11
10,4,6,0,0,0,4,16,91,11
6,3,18,1,4,0,2,79,101,11
9,4,20,1,5,1,3,56,90,11
8,3,13,1,2,0,3,25,128,11
10,4,11,1,0,0,4,19,91,8
8,3,21,0,2,0,3,44,91,11
4,2,18,1,6,1,2,10,101,11
8,3,12,1,2,0,3,14,91,11
9,4,0,0,5,1,3,14,91,11
7,3,3,0,6,1,3,25,67,11
10,4,1,0,0,0,4,17,91,11
8,3,18,1,2,0,3,21,101,11
8,3,6,0,2,0,3,14,91,11
11,4,11,1,3,0,4,21,101,11
12,1,16,1,5,1,4,3,91,11
12,1,6,0,5,1,4,25,67,11
11,4,2,0,3,0,4,14,91,11
11,4,23,0,3,0,4,25,68,11
11,4,12,1,3,0,4,63,101,11
1,1,15,1,2,0,1,36,89,11
5,2,17,1,2,0,2,55,89,11
8,3,12,1,3,0,3,84,91,11
2,1,11,1,4,0,1,37,91,11
5,2,12,1,2,0,2,50,20,11
7,3,3,0,0,0,3,87,128,11
7,3,20,1,0,0,3,44,101,11
10,4,3,0,1,0,4,25,91,9
12,1,9,1,6,1,4,25,128,11
10,4,10,1,1,0,4,22,122,9
6,3,18,1,5,1,2,29,101,11
11,4,13,1,4,0,4,59,101,11
10,4,3,0,1,0,4,14,91,11
12,1,13,1,6,1,4,32,101,11
8,3,14,1,3,0,3,16,125,11
11,4,16,1,4,0,4,14,91,11
4,2,16,1,0,0,2,69,20,11
10,4,13,1,6,1,4,25,101,11
11,4,11,1,4,0,4,21,23,11
4,2,0,0,0,0,2,76,12,9
2,1,15,1,4,0,1,49,91,11
4,2,1,0,0,0,2,8,40,11
1,1,18,1,1,0,1,66,124,11
1,1,18,1,1,0,1,30,101,11
5,2,23,0,2,0,2,25,128,11
1,1,21,0,1,0,1,3,91,11
3,2,11,1,4,0,1,25,67,11
5,2,12,1,2,0,2,75,91,11
2,1,12,1,4,0,1,76,91,11
8,3,14,1,3,0,3,5,101,11
5,2,15,1,2,0,2,2,101,11
3,2,13,1,4,0,1,3,39,11
6,3,17,1,5,1,2,30,101,11
10,4,10,1,1,0,4,36,20,9
2,1,6,0,4,0,1,8,91,11
8,3,12,1,3,0,3,44,6,11
9,4,0,0,6,1,3,15,68,11
2,1,14,1,4,0,1,41,91,11
2,1,0,0,4,0,1,15,101,11
3,2,8,1,4,0,1,14,91,11
6,3,18,1,5,1,2,34,23,11
3,2,13,1,4,0,1,10,101,11
6,3,14,1,5,1,2,40,24,11
11,4,19,1,4,0,4,29,101,11
11,4,8,1,4,0,4,44,101,11
8,3,8,1,3,0,3,59,101,11
1,1,8,1,1,0,1,83,91,11
3,2,15,1,4,0,1,55,59,11
9,4,16,1,6,1,3,44,101,11
5,2,21,0,2,0,2,16,91,11
7,3,17,1,0,0,3,26,91,11
4,2,21,0,0,0,2,39,67,11
6,3,12,1,6,1,2,59,101,11
6,3,15,1,6,1,2,13,106,11
11,4,23,0,5,1,4,2,101,11
12,1,13,1,4,0,4,14,91,11
10,4,20,1,2,0,4,19,37,8
2,1,23,0,5,1,1,44,101,11
11,4,17,1,5,1,4,59,12,11
8,3,18,1,4,0,3,74,101,11
3,2,22,0,5,1,1,2,89,11
11,4,9,1,5,1,4,25,101,11
12,1,18,1,4,0,4,14,91,11
7,3,15,1,1,0,3,25,91,11
2,1,18,1,5,1,1,32,101,11
4,2,15,1,1,0,2,29,20,9
10,4,10,1,2,0,4,22,91,11
7,3,12,1,1,0,3,3,81,11
5,2,16,1,3,0,2,29,110,11
7,3,14,1,1,0,3,54,101,11
12,1,12,1,0,0,4,32,101,11
3,2,16,1,5,1,1,3,47,11
2,1,20,1,4,0,1,14,91,11
1,1,1,0,1,0,1,14,91,11
4,2,19,1,1,0,2,59,128,11
8,3,8,1,4,0,3,25,101,11
5,2,17,1,3,0,2,22,35,11
5,2,23,0,3,0,2,55,91,11
7,3,19,1,2,0,3,36,7,8
9,4,13,1,1,0,3,53,20,11
10,4,10,1,4,0,4,10,106,11
4,2,17,1,2,0,2,41,91,11
5,2,14,1,4,0,2,14,89,11
3,2,3,0,0,0,1,24,20,11
7,3,23,0,3,0,3,55,78,9
12,1,3,0,0,0,4,69,74,9
2,1,15,1,0,0,1,25,77,11
4,2,14,1,3,0,2,38,101,11
2,1,11,1,0,0,1,50,110,11
5,2,16,1,5,1,2,10,101,11
12,1,11,1,1,0,4,3,20,11
11,4,7,1,6,1,4,3,128,11
12,1,3,0,2,0,4,36,40,11
10,4,15,1,4,0,4,41,91,11
1,1,12,1,4,0,1,85,101,11
11,4,8,1,6,1,4,3,101,11
4,2,14,1,4,0,2,14,91,11
12,1,13,1,2,0,4,40,101,11
10,4,23,0,4,0,4,3,20,11
7,3,21,0,2,0,3,55,128,11
7,3,11,1,2,0,3,73,57,11
12,1,21,0,2,0,4,20,77,11
3,2,21,0,0,0,1,25,40,9
6,3,4,0,0,0,2,20,128,11
2,1,21,0,6,1,1,8,27,11
4,2,22,0,2,0,2,73,101,11
6,3,5,0,0,0,2,22,20,8
4,2,18,1,2,0,2,40,25,11
10,4,18,1,4,0,4,14,91,11
2,1,15,1,3,0,1,14,91,11
7,3,18,1,1,0,3,26,101,11
6,3,1,0,0,0,2,25,7,11
12,1,17,1,0,0,4,74,91,11
12,1,14,1,1,0,4,13,101,11
10,4,17,1,3,0,4,25,20,8
12,1,4,0,2,0,4,14,13,8
11,4,14,1,0,0,4,24,101,11
1,1,19,1,3,0,1,45,128,11
8,3,18,1,6,1,3,77,91,11
11,4,20,1,0,0,4,79,101,11
9,4,21,0,1,0,3,8,89,11
5,2,17,1,5,1,2,59,101,11
11,4,0,0,0,0,4,36,128,11
2,1,6,0,0,0,1,59,110,11
5,2,9,1,5,1,2,36,89,11
6,3,21,0,0,0,2,25,91,11
7,3,16,1,2,0,3,13,95,11
9,4,20,1,1,0,3,41,91,11
4,2,16,1,2,0,2,39,91,11
9,4,10,1,2,0,3,8,101,11
9,4,12,1,2,0,3,15,20,11
10,4,1,0,4,0,4,44,89,11
10,4,6,0,4,0,4,9,96,11
6,3,13,1,0,0,2,42,25,9
10,4,7,1,4,0,4,14,91,11
2,1,21,0,0,0,1,3,7,11
12,1,12,1,2,0,4,49,101,11
1,1,18,1,3,0,1,50,101,11
8,3,13,1,6,1,3,74,20,11
12,1,4,0,1,0,4,58,20,11
1,1,23,0,3,0,1,49,123,11
1,1,19,1,3,0,1,44,128,11
9,4,15,1,1,0,3,84,91,11
9,4,19,1,1,0,3,41,91,11
12,1,17,1,1,0,4,56,23,11
3,2,13,1,6,1,1,15,101,11
12,1,23,0,1,0,4,21,125,11
1,1,17,1,3,0,1,40,25,11
2,1,12,1,6,1,1,88,77,11
7,3,18,1,2,0,3,25,55,11
7,3,14,1,2,0,3,44,91,9
7,3,8,1,4,0,3,42,91,11
11,4,19,1,0,0,4,87,91,11
8,3,14,1,5,1,3,25,101,11
12,1,18,1,3,0,4,77,91,11
2,1,11,1,1,0,1,5,20,11
4,2,23,0,4,0,2,37,77,11
5,2,0,0,6,1,2,54,91,11
3,2,16,1,1,0,1,74,101,11
3,2,22,0,1,0,1,7,91,11
6,3,6,0,2,0,2,59,101,11
8,3,9,1,0,0,3,54,12,9
11,4,13,1,1,0,4,30,106,9
12,1,17,1,2,0,4,72,101,11
4,2,20,1,4,0,2,22,101,11
11,4,18,1,1,0,4,2,128,11
8,3,2,0,0,0,3,14,128,11
11,4,17,1,0,0,4,52,78,8
12,1,9,1,3,0,4,3,125,11
12,1,17,1,3,0,4,14,91,11
2,1,5,0,1,0,1,17,106,9
9,4,14,1,3,0,3,16,91,11
4,2,12,1,4,0,2,44,106,11
9,4,11,1,1,0,3,14,91,11
10,4,9,1,5,1,4,17,67,11
2,1,20,1,1,0,1,25,96,11
10,4,21,0,5,1,4,49,101,11
9,4,20,1,3,0,3,49,128,11
1,1,5,0,5,1,1,36,20,11
3,2,18,1,1,0,1,40,77,9
1,1,5,0,5,1,1,11,20,11
11,4,6,0,6,1,4,77,91,11
1,1,15,1,5,1,1,49,77,11
4,2,7,1,4,0,2,69,20,11
7,3,19,1,4,0,3,2,101,11
10,4,13,1,6,1,4,55,89,11
1,1,7,1,6,1,1,17,77,11
5,2,14,1,6,1,2,25,128,11
12,1,12,1,4,0,4,8,128,11
3,2,18,1,2,0,1,88,101,11
1,1,19,1,6,1,1,8,45,11
7,3,18,1,5,1,3,25,128,11
12,1,8,1,4,0,4,44,128,11
12,1,19,1,4,0,4,8,116,11
6,3,19,1,0,0,2,84,25,11
1,1,16,1,5,1,1,14,101,11
2,1,15,1,2,0,1,36,96,11
6,3,18,1,2,0,2,8,91,11
5,2,21,0,0,0,2,54,128,11
7,3,18,1,5,1,3,13,20,11
3,2,13,1,2,0,1,11,128,11
1,1,18,1,6,1,1,21,77,11
6,3,12,1,3,0,2,3,101,11
10,4,7,1,6,1,4,25,101,11
11,4,14,1,2,0,4,22,91,11
3,2,1,0,2,0,1,11,128,11
11,4,11,1,2,0,4,3,40,11
11,4,12,1,2,0,4,30,20,9
3,2,11,1,2,0,1,20,40,11
11,4,13,1,2,0,4,59,128,11
7,3,5,0,5,1,3,44,57,11
10,4,15,1,6,1,4,47,16,11
2,1,11,1,2,0,1,8,101,11
4,2,21,0,5,1,2,36,128,11
5,2,19,1,0,0,2,9,67,11
8,3,4,0,1,0,3,37,78,9
5,2,9,1,3,0,2,55,96,11
9,4,20,1,4,0,3,58,67,11
11,4,22,0,2,0,4,87,59,11
11,4,12,1,2,0,4,40,91,11
2,1,5,0,5,1,1,14,91,11
3,2,9,1,2,0,1,45,77,11
7,3,11,1,1,0,3,14,91,11
11,4,20,1,1,0,4,3,128,11
8,3,15,1,1,0,3,62,20,11
10,4,0,0,2,0,4,77,91,11
8,3,16,1,1,0,3,14,91,11
6,3,4,0,5,1,2,36,57,11
2,1,22,0,0,0,1,77,54,9
7,3,17,1,4,0,3,14,91,11
7,3,23,0,2,0,3,13,101,11
1,1,19,1,6,1,1,77,91,9
7,3,8,1,2,0,3,14,91,11
12,1,15,1,0,0,4,87,125,11
6,3,23,0,5,1,2,14,91,11
4,2,2,0,6,1,2,36,40,11
6,3,13,1,3,0,2,88,128,11
9,4,20,1,0,0,3,15,128,11
6,3,14,1,6,1,2,3,128,11
11,4,19,1,5,1,4,41,91,11
2,1,19,1,5,1,1,56,13,11
8,3,21,0,4,0,3,6,20,11
6,3,3,0,6,1,2,16,77,11
4,2,19,1,1,0,2,59,128,11
6,3,15,1,6,1,2,29,128,11
11,4,15,1,5,1,4,39,101,11
5,2,15,1,3,0,2,9,89,11
1,1,1,0,3,0,1,15,128,11
9,4,18,1,0,0,3,3,7,11
2,1,21,0,5,1,1,11,29,11
1,1,0,0,3,0,1,5,128,11
1,1,22,0,3,0,1,16,128,11
8,3,17,1,4,0,3,8,91,11
7,3,21,0,1,0,3,13,128,11
10,4,22,0,2,0,4,73,77,9
2,1,5,0,6,1,1,17,20,11
4,2,23,0,1,0,2,15,77,11
12,1,19,1,0,0,4,19,91,11
4,2,15,1,1,0,2,87,55,11
1,1,23,0,3,0,1,41,67,11
3,2,21,0,5,1,1,29,128,11
2,1,17,1,5,1,1,72,101,11
2,1,15,1,6,1,1,25,101,11
11,4,16,1,5,1,4,56,101,11
8,3,20,1,4,0,3,38,20,11
2,1,12,1,6,1,1,22,101,11
4,2,18,1,1,0,2,79,101,11
7,3,20,1,2,0,3,3,91,11
4,2,2,0,2,0,2,21,1,9
5,2,3,0,4,0,2,77,20,8
4,2,11,1,2,0,2,14,77,11
2,1,23,0,6,1,1,9,68,11
4,2,23,0,2,0,2,36,57,8
7,3,12,1,2,0,3,74,81,11
7,3,17,1,2,0,3,53,91,11
5,2,22,0,4,0,2,61,67,11
7,3,18,1,2,0,3,7,101,11
7,3,17,1,2,0,3,2,101,11
2,1,21,0,6,1,1,25,91,11
5,2,6,0,4,0,2,58,89,9
4,2,20,1,2,0,2,3,91,11
4,2,5,0,2,0,2,11,78,11
10,4,21,0,3,0,4,62,77,11
8,3,8,1,5,1,3,49,128,11
10,4,8,1,3,0,4,25,128,11
9,4,4,0,1,0,3,9,128,11
12,1,4,0,1,0,4,85,77,9
12,1,17,1,1,0,4,8,128,11
8,3,8,1,5,1,3,8,77,11
8,3,1,0,5,1,3,61,101,11
9,4,14,1,1,0,3,25,101,11
9,4,11,1,1,0,3,17,40,11
9,4,16,1,1,0,3,61,128,11
8,3,15,1,5,1,3,50,128,11
9,4,19,1,1,0,3,55,128,11
12,1,10,1,1,0,4,87,20,11
7,3,0,0,1,0,3,3,77,8
8,3,20,1,5,1,3,88,128,11
12,1,12,1,1,0,4,49,20,9
8,3,18,1,5,1,3,87,101,11
8,3,9,1,5,1,3,15,128,11
6,3,17,1,6,1,2,8,77,11
11,4,11,1,6,1,4,49,110,11
8,3,11,1,5,1,3,79,128,11
10,4,16,1,3,0,4,39,101,11
7,3,10,1,2,0,3,54,91,11
11,4,16,1,6,1,4,14,91,11
8,3,16,1,5,1,3,56,101,11
1,1,3,0,4,0,1,44,128,11
2,1,11,1,0,0,1,52,91,11
1,1,19,1,4,0,1,41,91,11
3,2,23,0,0,0,1,36,67,11
1,1,19,1,4,0,1,61,77,11
3,2,14,1,0,0,1,74,91,11
3,2,19,1,0,0,1,56,101,11
2,1,0,0,0,0,1,32,77,11
1,1,21,0,4,0,1,36,67,11
3,2,14,1,0,0,1,61,40,11
3,2,1,0,0,0,1,36,20,9
3,2,20,1,0,0,1,76,101,11
3,2,19,1,0,0,1,34,101,11
1,1,18,1,4,0,1,79,101,11
11,4,16,1,0,0,4,74,101,11
4,2,21,0,3,0,2,68,128,11
7,3,15,1,3,0,3,11,128,11
9,4,21,0,2,0,3,14,128,11
7,3,9,1,3,0,3,29,128,11
9,4,17,1,2,0,3,8,91,11
11,4,16,1,0,0,4,74,101,11
11,4,13,1,0,0,4,2,101,11
11,4,20,1,0,0,4,59,101,11
10,4,1,0,4,0,4,59,101,11
6,3,17,1,1,0,2,29,128,11
11,4,19,1,0,0,4,49,91,11
7,3,16,1,3,0,3,17,101,11
7,3,14,1,3,0,3,3,25,11
5,2,22,0,5,1,2,40,101,11
7,3,9,1,3,0,3,34,101,11
4,2,4,0,3,0,2,20,20,11
7,3,12,1,3,0,3,25,101,11
8,3,17,1,6,1,3,79,101,11
4,2,16,1,3,0,2,74,101,11
5,2,13,1,5,1,2,2,128,11
8,3,15,1,6,1,3,74,101,11
10,4,18,1,4,0,4,86,20,11
10,4,4,0,4,0,4,59,77,11
10,4,12,1,4,0,4,79,25,11
9,4,17,1,2,0,3,59,91,11
8,3,3,0,6,1,3,36,128,11
11,4,17,1,0,0,4,3,101,11
12,1,13,1,2,0,4,32,101,11
12,1,14,1,2,0,4,75,91,11
6,3,0,0,1,0,2,36,128,11
12,1,17,1,2,0,4,25,101,11
12,1,19,1,2,0,4,7,101,11
9,4,23,0,2,0,3,25,101,11
12,1,21,0,3,0,4,34,40,11
5,2,10,1,6,1,2,68,67,11
12,1,13,1,3,0,4,83,101,11
4,2,10,1,4,0,2,12,40,11
6,3,13,1,2,0,2,17,128,11
1,1,13,1,5,1,1,14,91,11
3,2,19,1,1,0,1,5,110,11
10,4,20,1,5,1,4,29,101,11
1,1,17,1,5,1,1,36,13,11
7,3,8,1,4,0,3,84,81,11
12,1,22,0,3,0,4,54,89,11
7,3,17,1,4,0,3,41,101,11
7,3,18,1,4,0,3,10,13,11
3,2,14,1,1,0,1,34,40,11
3,2,12,1,1,0,1,8,91,11
9,4,12,1,2,0,3,85,101,11
2,1,0,0,5,1,1,3,128,11
6,3,1,0,2,0,2,25,128,11
6,3,20,1,2,0,2,75,91,11
6,3,14,1,3,0,2,79,101,11
3,2,11,1,2,0,1,8,101,11
3,2,23,0,2,0,1,3,91,11
3,2,23,0,2,0,1,25,96,11
3,2,8,1,2,0,1,2,101,11
6,3,16,1,3,0,2,25,101,11
5,2,13,1,0,0,2,86,101,11
4,2,2,0,5,1,2,25,128,11
6,3,17,1,3,0,2,87,91,11
3,2,3,0,2,0,1,17,90,11
3,2,13,1,2,0,1,59,101,11
3,2,18,1,2,0,1,20,20,11
4,2,2,0,5,1,2,36,128,11
2,1,20,1,2,0,1,72,67,11
10,4,3,0,6,1,4,36,91,11
11,4,12,1,2,0,4,84,25,11
9,4,16,1,4,0,3,61,47,11
7,3,23,0,5,1,3,22,101,9
1,1,14,1,6,1,1,14,77,11
7,3,10,1,5,1,3,87,91,11
8,3,1,0,1,0,3,3,77,9
7,3,10,1,5,1,3,36,23,11
7,3,8,1,5,1,3,6,88,11
9,4,0,0,4,0,3,74,101,11
8,3,21,0,1,0,3,61,89,11
7,3,14,1,5,1,3,77,74,11
11,4,12,1,2,0,4,41,101,11
7,3,11,1,5,1,3,25,89,11
9,4,23,0,4,0,3,6,77,11
11,4,20,1,2,0,4,3,91,11
11,4,23,0,2,0,4,8,91,11
10,4,0,0,6,1,4,36,89,11
12,1,18,1,4,0,4,44,57,11
11,4,20,1,2,0,4,50,68,11
6,3,15,1,3,0,2,14,91,11
2,1,17,1,3,0,1,3,91,11
3,2,14,1,3,0,1,10,101,11
2,1,8,1,3,0,1,25,123,11
3,2,13,1,3,0,1,74,101,11
2,1,13,1,3,0,1,2,91,11
5,2,9,1,1,0,2,36,67,11
4,2,16,1,6,1,2,15,77,11
4,2,7,1,6,1,2,14,91,11
4,2,4,0,6,1,2,55,89,11
4,2,3,0,6,1,2,55,128,11
6,3,0,0,4,0,2,8,91,11
6,3,2,0,4,0,2,41,91,11
5,2,11,1,1,0,2,25,13,11
7,3,17,1,6,1,3,29,128,11
7,3,18,1,6,1,3,32,101,11
7,3,8,1,6,1,3,8,77,11
6,3,17,1,4,0,2,11,20,11
7,3,11,1,6,1,3,43,21,11
7,3,13,1,6,1,3,3,20,11
8,3,0,0,2,0,3,14,91,11
8,3,5,0,2,0,3,36,67,9
9,4,10,1,5,1,3,25,101,11
8,3,23,0,2,0,3,14,91,11
7,3,15,1,6,1,3,3,89,11
9,4,20,1,5,1,3,36,67,11
3,2,20,1,3,0,1,25,125,11
10,4,16,1,0,0,4,21,101,11
11,4,19,1,3,0,4,77,67,11
3,2,20,1,3,0,1,44,101,11
11,4,2,0,3,0,4,59,101,11
4,2,1,0,5,1,2,14,13,9
12,1,13,1,5,1,4,59,20,11
1,1,0,0,2,0,1,16,96,11
9,4,21,0,6,1,3,79,101,11
8,3,9,1,3,0,3,44,101,8
4,2,17,1,0,0,2,6,128,11
6,3,15,1,5,1,2,49,25,11
8,3,17,1,3,0,3,11,91,11
2,1,17,1,4,0,1,2,101,11
8,3,1,0,3,0,3,3,91,11
10,4,23,0,1,0,4,14,91,11
8,3,17,1,3,0,3,3,101,11
12,1,13,1,6,1,4,13,45,11
11,4,16,1,4,0,4,73,125,9
10,4,22,0,1,0,4,59,101,11
12,1,0,0,6,1,4,14,101,11
11,4,11,1,4,0,4,74,32,9
5,2,11,1,2,0,2,14,91,9
5,2,16,1,2,0,2,21,101,11
10,4,3,0,1,0,4,58,20,9
8,3,17,1,3,0,3,44,25,11
3,2,0,0,4,0,1,85,101,11
8,3,13,1,3,0,3,17,101,11
3,2,10,1,4,0,1,79,101,11
3,2,9,1,4,0,1,11,110,11
9,4,15,1,6,1,3,22,20,11
6,3,13,1,5,1,2,68,77,11
7,3,14,1,6,1,3,25,101,11
1,1,15,1,1,0,1,36,91,9
11,4,8,1,4,0,4,58,128,11
8,3,2,0,2,0,3,36,89,11
6,3,5,0,5,1,2,55,89,9
4,2,6,0,0,0,2,36,89,11
7,3,15,1,0,0,3,58,128,11
5,2,20,1,2,0,2,79,101,11
6,3,10,1,5,1,2,24,101,11
3,2,18,1,4,0,1,29,89,9
5,2,22,0,2,0,2,16,91,11
3,2,10,1,4,0,1,79,101,11
3,2,17,1,4,0,1,16,101,11
1,1,14,1,1,0,1,44,24,11
12,1,14,1,6,1,4,22,128,11
3,2,14,1,4,0,1,58,128,11
11,4,19,1,4,0,4,49,91,11
2,1,0,0,4,0,1,36,96,11
5,2,20,1,2,0,2,36,125,11
3,2,9,1,4,0,1,24,101,11
6,3,11,1,5,1,2,36,57,11
8,3,22,0,3,0,3,16,91,11
5,2,21,0,2,0,2,14,91,11
8,3,2,0,3,0,3,40,89,8
7,3,16,1,0,0,3,44,24,11
2,1,8,1,5,1,1,25,101,11
7,3,23,0,6,1,3,35,20,11
1,1,16,1,2,0,1,2,101,11
10,4,18,1,0,0,4,25,101,11
4,2,16,1,1,0,2,3,101,11
6,3,3,0,4,0,2,14,91,11
7,3,22,0,1,0,3,75,101,11
11,4,12,1,5,1,4,49,47,9
7,3,18,1,1,0,3,25,25,11
10,4,17,1,2,0,4,44,91,11
7,3,9,1,1,0,3,55,20,11
10,4,17,1,2,0,4,49,91,11
10,4,12,1,2,0,4,84,101,11
8,3,14,1,4,0,3,44,91,11
11,4,12,1,5,1,4,14,91,11
7,3,19,1,1,0,3,17,91,11
5,2,0,0,3,0,2,36,8,11
6,3,20,1,6,1,2,25,89,9
1,1,18,1,2,0,1,49,91,11
7,3,14,1,1,0,3,19,101,11
4,2,23,0,1,0,2,3,94,9
1,1,10,1,2,0,1,3,20,11
1,1,20,1,2,0,1,25,101,11
12,1,19,1,0,0,4,32,91,11
12,1,15,1,0,0,4,3,91,11
9,4,16,1,0,0,3,49,101,11
4,2,1,0,1,0,2,36,128,11
5,2,16,1,3,0,2,30,101,11
3,2,21,0,5,1,1,49,128,11
3,2,12,1,5,1,1,3,1,11
12,1,13,1,6,1,4,25,77,11
10,4,14,1,2,0,4,24,55,11
4,2,14,1,1,0,2,68,43,9
1,1,19,1,2,0,1,59,101,11
12,1,19,1,0,0,4,14,7,11
2,1,1,0,5,1,1,36,78,11
11,4,22,0,0,0,4,36,7,9
7,3,16,1,3,0,3,58,20,11
5,2,5,0,4,0,2,36,40,11
5,2,14,1,4,0,2,72,40,11
7,3,17,1,2,0,3,44,101,11
12,1,2,0,1,0,4,8,77,11
5,2,20,1,4,0,2,34,101,11
5,2,16,1,4,0,2,19,101,11
5,2,19,1,5,1,2,30,67,9
11,4,12,1,0,0,4,24,101,11
10,4,9,1,4,0,4,29,101,11
4,2,20,1,1,0,2,14,91,11
11,4,19,1,0,0,4,17,91,11
4,2,13,1,2,0,2,27,7,11
4,2,20,1,3,0,2,19,128,11
6,3,2,0,0,0,2,69,128,11
11,4,20,1,0,0,4,19,91,11
2,1,21,0,3,0,1,14,91,11
6,3,9,1,0,0,2,44,25,11
3,2,13,1,0,0,1,49,101,11
9,4,4,0,2,0,3,36,128,11
9,4,21,0,2,0,3,50,91,11
12,1,13,1,0,0,4,29,101,11
8,3,17,1,5,1,3,84,23,11
12,1,12,1,2,0,4,25,77,11
2,1,13,1,0,0,1,3,23,11
2,1,17,1,0,0,1,2,91,9
10,4,20,1,3,0,4,2,25,11
11,4,17,1,0,0,4,80,91,11
2,1,16,1,0,0,1,30,110,11
10,4,12,1,4,0,4,75,101,11
7,3,1,0,2,0,3,79,101,11
3,2,4,0,6,1,1,88,124,11
5,2,22,0,4,0,2,77,91,9
8,3,16,1,5,1,3,11,57,11
11,4,6,0,0,0,4,49,78,11
12,1,7,1,2,0,4,55,67,11
6,3,21,0,0,0,2,36,7,11
10,4,11,1,4,0,4,49,91,11
10,4,23,0,3,0,4,5,128,11
2,1,13,1,0,0,1,3,91,11
12,1,12,1,2,0,4,32,101,11
4,2,15,1,3,0,2,44,89,11
6,3,12,1,0,0,2,76,101,11
4,2,12,1,3,0,2,55,20,11
9,4,11,1,1,0,3,21,101,11
7,3,23,0,3,0,3,61,128,11
6,3,16,1,0,0,2,59,101,11
4,2,11,1,2,0,2,25,7,11
9,4,9,1,1,0,3,59,57,11
11,4,11,1,6,1,4,21,101,11
4,2,0,0,2,0,2,3,91,11
4,2,19,1,2,0,2,2,101,11
2,1,23,0,0,0,1,16,110,11
9,4,2,0,2,0,3,55,20,11
8,3,3,0,5,1,3,36,128,11
8,3,1,0,6,1,3,22,91,11
10,4,22,0,3,0,4,25,68,11
11,4,1,0,6,1,4,73,20,11
3,2,3,0,6,1,1,3,96,11
12,1,22,0,2,0,4,17,20,11
12,1,12,1,2,0,4,59,101,11
9,4,18,1,1,0,3,14,91,11
7,3,17,1,2,0,3,74,101,11
5,2,14,1,4,0,2,21,128,11
6,3,5,0,0,0,2,76,110,11
1,1,14,1,4,0,1,8,101,11
12,1,17,1,1,0,4,44,91,11
9,4,16,1,1,0,3,41,101,11
1,1,8,1,3,0,1,34,20,11
2,1,16,1,0,0,1,22,123,11
9,4,16,1,1,0,3,29,101,11
7,3,19,1,1,0,3,15,91,11
2,1,13,1,6,1,1,11,57,11
10,4,14,1,3,0,4,6,112,11
4,2,2,0,2,0,2,44,101,11
9,4,10,1,3,0,3,7,106,11
6,3,1,0,2,0,2,16,128,11
5,2,14,1,6,1,2,59,101,11
3,2,21,0,1,0,1,14,101,11
4,2,16,1,4,0,2,16,12,9
6,3,15,1,2,0,2,17,90,11
1,1,4,0,5,1,1,54,32,11
6,3,23,0,4,0,2,14,91,11
1,1,1,0,5,1,1,68,68,11
4,2,12,1,4,0,2,50,20,11
9,4,10,1,4,0,3,14,91,11
10,4,15,1,5,1,4,22,101,9
3,2,17,1,1,0,1,49,101,11
4,2,19,1,6,1,2,44,35,11
7,3,18,1,4,0,3,80,91,11
10,4,4,0,5,1,4,36,77,11
7,3,3,0,4,0,3,14,101,11
11,4,12,1,1,0,4,56,128,11
3,2,17,1,1,0,1,87,40,9
10,4,20,1,5,1,4,20,77,11
6,3,0,0,2,0,2,20,128,11
4,2,13,1,4,0,2,21,101,11
4,2,16,1,4,0,2,36,128,11
1,1,14,1,6,1,1,2,67,11
11,4,17,1,2,0,4,3,91,11
8,3,13,1,1,0,3,15,89,11
5,2,9,1,0,0,2,88,110,11
5,2,23,0,1,0,2,36,128,11
10,4,11,1,3,0,4,8,101,11
4,2,8,1,5,1,2,3,7,11
6,3,5,0,3,0,2,36,77,11
6,3,9,1,3,0,2,77,91,11
1,1,1,0,3,0,1,8,89,11
3,2,23,0,2,0,1,19,91,11
5,2,6,0,4,0,2,25,128,11
10,4,7,1,6,1,4,3,7,11
2,1,12,1,2,0,1,3,125,11
8,3,22,0,1,0,3,87,91,11
4,2,1,0,5,1,2,36,128,11
3,2,20,1,2,0,1,17,91,11
7,3,12,1,5,1,3,58,67,9
6,3,20,1,3,0,2,55,89,11
6,3,16,1,2,0,2,11,77,11
2,1,22,0,2,0,1,15,77,11
10,4,17,1,6,1,4,54,91,11
11,4,2,0,3,0,4,25,20,11
12,1,18,1,4,0,4,77,91,11
8,3,19,1,6,1,3,84,125,11
2,1,19,1,2,0,1,49,101,11
5,2,12,1,3,0,2,15,128,11
9,4,21,0,4,0,3,2,101,11
12,1,18,1,1,0,4,8,91,11
11,4,21,0,2,0,4,43,77,11
7,3,11,1,0,0,3,14,91,11
8,3,7,1,5,1,3,14,91,11
4,2,4,0,0,0,2,14,91,11
11,4,23,0,1,0,4,14,91,11
5,2,0,0,2,0,2,14,91,11
10,4,12,1,3,0,4,14,91,11
11,4,9,1,5,1,4,14,91,11
5,2,11,1,3,0,2,14,91,11
6,3,22,0,6,1,2,14,91,11
4,2,0,0,6,1,2,14,91,11
12,1,18,1,5,1,4,14,91,11
11,4,4,0,1,0,4,14,91,11
5,2,22,0,5,1,2,45,91,11
6,3,20,1,5,1,2,14,91,11
6,3,20,1,5,1,2,14,91,11
8,3,16,1,4,0,3,14,91,11
1,1,22,0,2,0,1,88,20,11
2,1,11,1,0,0,1,14,91,11
4,2,10,1,0,0,2,84,91,11
9,4,1,0,6,1,3,36,104,11
4,2,14,1,5,1,2,14,23,11
10,4,12,1,2,0,4,85,128,11
5,2,18,1,3,0,2,13,77,11
6,3,9,1,6,1,2,86,101,11
3,2,23,0,5,1,1,88,20,11
1,1,12,1,2,0,1,41,40,8
12,1,22,0,0,0,4,50,40,11
7,3,12,1,1,0,3,58,39,11
5,2,13,1,3,0,2,29,101,11
11,4,20,1,5,1,4,76,89,11
8,3,16,1,4,0,3,3,77,11
11,4,21,0,5,1,4,20,40,11
10,4,13,1,2,0,4,44,67,11
7,3,12,1,1,0,3,49,20,8
11,4,22,0,5,1,4,50,128,11
5,2,11,1,3,0,2,2,128,11
2,1,8,1,6,1,1,25,67,9
5,2,20,1,3,0,2,55,128,11
10,4,21,0,2,0,4,7,47,9
9,4,9,1,0,0,3,8,89,11
2,1,17,1,6,1,1,20,101,11
4,2,12,1,1,0,2,63,40,11
5,2,18,1,3,0,2,29,128,11
7,3,20,1,1,0,3,23,128,11
1,1,10,1,2,0,1,63,128,11
9,4,12,1,0,0,3,84,91,11
1,1,23,0,3,0,1,44,89,11
3,2,11,1,5,1,1,8,91,11
1,1,23,0,3,0,1,24,68,11
7,3,12,1,1,0,3,36,40,11
7,3,19,1,1,0,3,86,67,11
9,4,3,0,0,0,3,9,89,9
6,3,0,0,0,0,2,79,101,11
4,2,19,1,2,0,2,24,128,11
6,3,18,1,0,0,2,8,96,11
3,2,12,1,6,1,1,55,67,11
6,3,23,0,0,0,2,36,67,11
4,2,3,0,2,0,2,72,20,11
6,3,10,1,0,0,2,16,123,11
5,2,15,1,4,0,2,34,40,11
7,3,12,1,2,0,3,15,128,11
4,2,17,1,2,0,2,46,101,11
6,3,3,0,0,0,2,59,77,11
6,3,20,1,0,0,2,79,101,11
12,1,10,1,1,0,4,40,101,11
8,3,21,0,5,1,3,73,40,8
11,4,1,0,6,1,4,29,128,11
10,4,17,1,3,0,4,12,77,9
9,4,19,1,1,0,3,15,128,11
9,4,15,1,1,0,3,7,55,11
9,4,16,1,1,0,3,20,91,11
10,4,2,0,3,0,4,66,98,11
9,4,20,1,1,0,3,85,77,11
12,1,18,1,1,0,4,2,101,11
8,3,12,1,5,1,3,38,101,11
11,4,17,1,6,1,4,59,128,11
8,3,10,1,5,1,3,29,128,11
8,3,17,1,5,1,3,79,101,11
11,4,13,1,6,1,4,25,101,11
8,3,0,0,5,1,3,37,128,11
12,1,15,1,1,0,4,53,91,11
11,4,16,1,6,1,4,25,101,11
8,3,15,1,5,1,3,2,77,11
1,1,18,1,4,0,1,59,128,11
4,2,9,1,3,0,2,45,67,9
4,2,13,1,3,0,2,24,101,11
1,1,19,1,4,0,1,36,128,11
4,2,7,1,3,0,2,37,67,11
3,2,16,1,0,0,1,59,101,11
3,2,21,0,0,0,1,83,128,11
3,2,15,1,0,0,1,6,109,11
1,1,7,1,4,0,1,15,128,11
8,3,13,1,6,1,3,21,101,11
9,4,9,1,2,0,3,21,101,11
9,4,12,1,2,0,3,83,101,9
7,3,14,1,3,0,3,25,101,11
7,3,21,0,3,0,3,36,68,11
9,4,5,0,2,0,3,9,78,11
11,4,18,1,0,0,4,84,40,11
8,3,15,1,6,1,3,25,25,11
9,4,17,1,2,0,3,21,101,11
11,4,20,1,0,0,4,20,122,11
8,3,19,1,6,1,3,29,67,11
11,4,17,1,0,0,4,34,101,11
10,4,19,1,4,0,4,25,101,11
7,3,17,1,3,0,3,16,101,11
9,4,2,0,2,0,3,55,128,11
5,2,19,1,5,1,2,36,67,11
4,2,0,0,3,0,2,25,77,11
7,3,19,1,3,0,3,72,89,11
6,3,19,1,1,0,2,40,101,11
7,3,15,1,3,0,3,39,29,11
7,3,18,1,3,0,3,79,101,11
5,2,17,1,5,1,2,69,40,11
4,2,19,1,3,0,2,34,67,11
8,3,13,1,6,1,3,79,101,11
10,4,18,1,4,0,4,13,101,11
10,4,13,1,4,0,4,17,101,11
9,4,18,1,2,0,3,2,101,11
7,3,12,1,3,0,3,49,91,11
7,3,13,1,3,0,3,72,20,11
7,3,23,0,3,0,3,56,40,11
8,3,17,1,6,1,3,16,91,11
8,3,13,1,6,1,3,3,77,11
12,1,16,1,2,0,4,3,91,11
12,1,16,1,2,0,4,40,101,11
10,4,0,0,4,0,4,3,128,11
12,1,12,1,2,0,4,54,91,11
11,4,14,1,0,0,4,40,125,11
4,2,0,0,4,0,2,25,20,11
10,4,16,1,5,1,4,36,77,11
2,1,6,0,1,0,1,50,20,11
11,4,20,1,1,0,4,24,55,11
12,1,10,1,3,0,4,55,8,11
10,4,17,1,5,1,4,44,101,11
1,1,9,1,5,1,1,88,101,11
3,2,18,1,1,0,1,25,91,11
7,3,19,1,4,0,3,20,91,11
12,1,18,1,3,0,4,6,91,11
8,3,14,1,0,0,3,3,20,9
7,3,2,0,4,0,3,23,110,11
4,2,23,0,4,0,2,56,77,9
10,4,15,1,5,1,4,44,101,11
11,4,18,1,1,0,4,3,67,11
12,1,21,0,3,0,4,73,77,11
8,3,15,1,0,0,3,3,91,11
5,2,13,1,6,1,2,28,20,11
11,4,13,1,1,0,4,25,55,11
1,1,16,1,6,1,1,55,128,11
2,1,0,0,2,0,1,3,77,11
1,1,22,0,6,1,1,68,67,11
2,1,3,0,2,0,1,25,89,11
1,1,16,1,6,1,1,74,101,11
6,3,14,1,3,0,2,54,91,11
3,2,11,1,2,0,1,66,89,11
1,1,0,0,2,0,1,25,20,11
6,3,0,0,3,0,2,83,88,9
4,2,12,1,5,1,2,87,91,11
3,2,12,1,2,0,1,59,101,11
6,3,10,1,3,0,2,25,74,11
6,3,16,1,3,0,2,25,128,11
2,1,19,1,2,0,1,59,25,11
2,1,13,1,2,0,1,2,55,11
5,2,23,0,0,0,2,16,91,11
4,2,19,1,5,1,2,41,101,11
2,1,20,1,2,0,1,79,101,11
6,3,2,0,3,0,2,55,96,11
3,2,3,0,2,0,1,68,128,11
10,4,12,1,6,1,4,68,67,11
10,4,15,1,6,1,4,3,91,11
6,3,20,1,3,0,2,10,91,11
10,4,4,0,6,1,4,14,91,11
11,4,1,0,2,0,4,38,91,9
8,3,14,1,1,0,3,59,24,11
10,4,21,0,6,1,4,29,128,11
8,3,23,0,1,0,3,49,91,11
9,4,13,1,4,0,3,21,77,11
10,4,19,1,6,1,4,25,67,11
9,4,15,1,4,0,3,25,57,11
6,3,20,1,3,0,2,41,101,11
7,3,9,1,5,1,3,74,20,11
11,4,10,1,2,0,4,22,101,11
10,4,1,0,6,1,4,14,91,11
12,1,5,0,4,0,4,36,128,11
12,1,11,1,0,0,4,61,25,11
10,4,17,1,6,1,4,54,128,11
12,1,21,0,4,0,4,25,101,11
12,1,19,1,4,0,4,44,90,11
5,2,10,1,3,0,2,20,77,9
11,4,13,1,1,0,4,25,55,11
9,4,11,1,4,0,3,69,101,11
3,2,12,1,3,0,1,3,91,11
2,1,14,1,3,0,1,34,101,11
1,1,20,1,0,0,1,50,101,11
6,3,16,1,3,0,2,3,91,11
2,1,21,0,3,0,1,15,128,11
2,1,20,1,3,0,1,22,68,11
2,1,17,1,2,0,1,25,25,11
9,4,17,1,4,0,3,22,101,11
5,2,13,1,1,0,2,15,89,11
3,2,14,1,3,0,1,75,91,11
6,3,14,1,4,0,2,21,101,11
10,4,4,0,0,0,4,21,101,11
10,4,10,1,0,0,4,56,101,11
7,3,13,1,6,1,3,11,91,11
9,4,21,0,5,1,3,32,25,11
5,2,7,1,1,0,2,16,91,11
10,4,8,1,0,0,4,40,101,11
6,3,11,1,4,0,2,79,67,11
8,3,0,0,2,0,3,3,91,11
5,2,8,1,1,0,2,14,101,11
7,3,17,1,6,1,3,56,101,11
5,2,20,1,1,0,2,25,8,11
5,2,13,1,1,0,2,5,67,11
9,4,7,1,5,1,3,3,91,11
7,3,13,1,6,1,3,88,20,11
11,4,14,1,3,0,4,25,91,9
12,1,12,1,5,1,4,36,67,11
12,1,14,1,5,1,4,7,128,11
12,1,1,0,5,1,4,14,128,11
12,1,5,0,5,1,4,14,91,11
11,4,16,1,3,0,4,56,101,11
9,4,18,1,5,1,3,20,20,9
10,4,23,0,0,0,4,2,91,11
11,4,2,0,3,0,4,8,128,11
5,2,12,1,3,0,2,25,57,11
7,3,10,1,0,0,3,48,91,11
2,1,14,1,4,0,1,17,101,11
8,3,23,0,3,0,3,68,101,11
6,3,21,0,5,1,2,22,101,11
6,3,9,1,5,1,2,57,91,11
8,3,14,1,3,0,3,16,24,11
12,1,1,0,6,1,4,55,128,11
7,3,15,1,0,0,3,10,25,11
10,4,22,0,1,0,4,3,91,11
9,4,14,1,6,1,3,53,20,11
9,4,17,1,6,1,3,57,13,11
9,4,21,0,6,1,3,44,101,11
9,4,0,0,6,1,3,3,91,11
12,1,23,0,6,1,4,14,91,11
8,3,13,1,3,0,3,3,77,11
12,1,17,1,6,1,4,10,101,11
5,2,21,0,2,0,2,32,101,11
3,2,20,1,4,0,1,7,101,11
5,2,12,1,2,0,2,14,91,11
7,3,18,1,0,0,3,41,91,11
2,1,12,1,4,0,1,59,24,11
4,2,21,0,0,0,2,2,91,11
3,2,20,1,4,0,1,32,55,11
4,2,10,1,0,0,2,36,128,11
4,2,19,1,0,0,2,59,101,11
6,3,10,1,5,1,2,14,77,11
10,4,12,1,1,0,4,59,101,11
3,2,13,1,4,0,1,49,101,11
6,3,15,1,5,1,2,25,20,11
10,4,18,1,1,0,4,16,25,11
10,4,17,1,1,0,4,74,101,11
3,2,20,1,4,0,1,3,91,11
6,3,23,0,5,1,2,44,101,11
9,4,18,1,6,1,3,25,20,11
6,3,19,1,5,1,2,37,20,9
10,4,9,1,1,0,4,55,67,11
9,4,6,0,6,1,3,3,91,11
1,1,15,1,1,0,1,21,20,11
12,1,23,0,6,1,4,14,91,11
8,3,0,0,3,0,3,29,68,11
11,4,21,0,4,0,4,25,101,11
1,1,20,1,1,0,1,75,25,11
3,2,12,1,4,0,1,36,39,11
5,2,16,1,2,0,2,14,91,11
7,3,9,1,0,0,3,44,101,11
5,2,5,0,2,0,2,87,101,11
5,2,11,1,2,0,2,32,8,11
7,3,3,0,1,0,3,25,7,11
1,1,14,1,2,0,1,20,20,11
4,2,11,1,3,0,2,3,91,11
5,2,0,0,3,0,2,49,101,11
3,2,12,1,5,1,1,8,91,11
10,4,13,1,2,0,4,86,91,11
9,4,17,1,0,0,3,44,91,11
11,4,23,0,4,0,4,56,101,11
1,1,18,1,1,0,1,14,91,11
11,4,2,0,5,1,4,68,67,11
11,4,6,0,5,1,4,56,89,11
11,4,12,1,5,1,4,8,101,11
9,4,1,0,0,0,3,16,91,9
6,3,22,0,4,0,2,14,91,11
5,2,20,1,3,0,2,3,91,11
11,4,16,1,5,1,4,87,25,11
1,1,10,1,2,0,1,7,20,9
6,3,12,1,5,1,2,14,128,11
6,3,8,1,6,1,2,2,91,11
9,4,15,1,0,0,3,77,91,9
1,1,1,0,2,0,1,36,17,11
3,2,19,1,5,1,1,44,91,11
12,1,17,1,0,0,4,22,89,11
8,3,18,1,4,0,3,36,67,11
3,2,19,1,5,1,1,41,91,11
2,1,0,0,5,1,1,85,128,11
8,3,14,1,4,0,3,7,25,11
12,1,11,1,0,0,4,7,101,11
6,3,11,1,6,1,2,79,101,11
9,4,2,0,0,0,3,39,45,11
12,1,13,1,0,0,4,25,128,11
12,1,13,1,0,0,4,8,91,11
11,4,16,1,5,1,4,79,101,11
9,4,22,0,0,0,3,79,101,11
7,3,23,0,1,0,3,2,101,11
7,3,17,1,1,0,3,32,101,9
5,2,10,1,3,0,2,30,101,11
3,2,0,0,5,1,1,76,101,11
11,4,10,1,5,1,4,14,89,11
12,1,18,1,0,0,4,41,91,11
7,3,22,0,1,0,3,25,128,11
9,4,16,1,0,0,3,19,101,11
1,1,20,1,2,0,1,8,91,11
10,4,4,0,2,0,4,36,128,11
8,3,0,0,5,1,3,41,123,11
11,4,11,1,5,1,4,29,89,11
7,3,13,1,2,0,3,41,91,9
2,1,22,0,0,0,1,44,101,11
1,1,1,0,3,0,1,88,123,11
11,4,21,0,0,0,4,25,8,11
4,2,15,1,3,0,2,14,91,11
7,3,18,1,2,0,3,59,101,11
1,1,20,1,4,0,1,21,101,11
1,1,18,1,4,0,1,8,91,11
12,1,11,1,2,0,4,25,25,11
9,4,16,1,1,0,3,83,101,11
5,2,15,1,5,1,2,84,106,11
7,3,18,1,3,0,3,8,27,11
6,3,10,1,6,1,2,25,91,9
12,1,0,0,2,0,4,44,91,11
7,3,12,1,2,0,3,16,101,11
4,2,17,1,2,0,2,41,91,11
12,1,23,0,1,0,4,44,59,9
11,4,0,0,5,1,4,40,101,11
8,3,21,0,2,0,3,14,91,11
9,4,12,1,2,0,3,3,91,11
2,1,13,1,6,1,1,22,20,8
11,4,21,0,0,0,4,88,128,11
7,3,14,1,2,0,3,34,89,11
11,4,23,0,5,1,4,14,91,11
5,2,0,0,5,1,2,44,89,11
8,3,15,1,5,1,3,21,77,8
11,4,13,1,0,0,4,8,13,9
12,1,15,1,1,0,4,69,101,11
6,3,15,1,0,0,2,25,67,11
11,4,12,1,0,0,4,5,67,9
1,1,4,0,3,0,1,16,23,11
6,3,22,0,1,0,2,22,67,11
11,4,12,1,0,0,4,49,101,11
10,4,12,1,4,0,4,10,91,11
1,1,13,1,2,0,1,14,91,11
9,4,13,1,1,0,3,22,91,11
4,2,16,1,3,0,2,25,91,11
10,4,2,0,3,0,4,14,32,11
2,1,5,0,6,1,1,17,20,11
8,3,8,1,5,1,3,21,101,11
6,3,17,1,0,0,2,32,101,11
10,4,16,1,4,0,4,79,101,11
7,3,18,1,3,0,3,85,128,9
4,2,3,0,5,1,2,43,78,11
3,2,14,1,6,1,1,3,128,11
3,2,21,0,6,1,1,73,101,11
3,2,16,1,0,0,1,8,40,11
8,3,17,1,6,1,3,40,101,11
6,3,19,1,0,0,2,58,125,11
2,1,2,0,4,0,1,3,25,8
7,3,19,1,2,0,3,2,32,11
10,4,10,1,3,0,4,54,40,9
3,2,17,1,0,0,1,20,20,9
4,2,20,1,2,0,2,10,101,11
2,1,0,0,6,1,1,3,91,11
10,4,4,0,3,0,4,25,101,11
12,1,17,1,2,0,4,8,128,11
12,1,19,1,2,0,4,2,91,11
12,1,22,0,2,0,4,12,13,9
5,2,7,1,4,0,2,36,96,11
4,2,13,1,2,0,2,44,67,11
7,3,9,1,3,0,3,40,83,11
7,3,11,1,2,0,3,85,101,11
1,1,16,1,3,0,1,79,25,11
9,4,17,1,1,0,3,76,101,11
3,2,8,1,6,1,1,14,89,11
1,1,23,0,3,0,1,3,20,11
2,1,21,0,0,0,1,13,89,11
11,4,16,1,1,0,4,58,40,11
1,1,20,1,5,1,1,50,20,9
6,3,14,1,2,0,2,55,91,9
12,1,18,1,3,0,4,41,20,11
6,3,19,1,2,0,2,59,101,11
9,4,8,1,3,0,3,25,91,11
8,3,12,1,0,0,3,53,25,11
10,4,3,0,0,0,4,14,20,11
10,4,16,1,5,1,4,36,91,11
12,1,21,0,3,0,4,73,95,9
6,3,0,0,5,1,2,77,91,11
12,1,16,1,3,0,4,49,67,9
9,4,13,1,2,0,3,40,91,11
8,3,19,1,0,0,3,8,91,11
11,4,6,0,6,1,4,25,91,11
6,3,14,1,2,0,2,25,8,11
5,2,13,1,6,1,2,14,125,11
2,1,17,1,1,0,1,22,128,11
11,4,10,1,5,1,4,14,58,11
2,1,22,0,1,0,1,8,91,11
1,1,10,1,5,1,1,20,20,11
3,2,10,1,1,0,1,13,91,11
2,1,18,1,1,0,1,3,128,11
5,2,7,1,6,1,2,75,20,8
5,2,14,1,6,1,2,20,20,11
2,1,20,1,1,0,1,25,91,11
7,3,14,1,4,0,3,55,67,8
12,1,19,1,2,0,4,25,128,9
1,1,0,0,2,0,1,38,77,11
9,4,18,1,3,0,3,75,128,9
6,3,17,1,3,0,2,57,77,11
2,1,20,1,2,0,1,29,128,11
4,2,22,0,2,0,2,14,91,9
5,2,20,1,4,0,2,14,91,11
11,4,11,1,5,1,4,84,32,11
12,1,16,1,5,1,4,25,101,11
9,4,16,1,4,0,3,17,101,11
1,1,20,1,1,0,1,84,128,11
5,2,5,0,3,0,2,11,47,9
4,2,21,0,5,1,2,25,20,11
1,1,13,1,6,1,1,8,91,11
6,3,4,0,0,0,2,36,128,11
2,1,10,1,2,0,1,58,128,11
11,4,9,1,2,0,4,49,77,11
6,3,18,1,3,0,2,6,128,11
2,1,10,1,2,0,1,36,67,11
2,1,20,1,2,0,1,25,91,11
4,2,19,1,5,1,2,36,20,11
5,2,12,1,0,0,2,49,12,11
8,3,15,1,1,0,3,88,77,11
4,2,2,0,3,0,2,36,67,11
2,1,14,1,2,0,1,22,25,11
4,2,23,0,1,0,2,6,25,11
8,3,5,0,1,0,3,56,40,9
3,2,10,1,2,0,1,50,91,11
9,4,10,1,4,0,3,3,20,9
1,1,21,0,5,1,1,25,77,9
12,1,17,1,4,0,4,55,91,11
12,1,8,1,5,1,4,14,91,9
12,1,4,0,3,0,4,14,91,11
4,2,13,1,2,0,2,2,128,11
5,2,5,0,0,0,2,55,91,11
11,4,23,0,6,1,4,14,91,11
12,1,4,0,3,0,4,14,91,11
2,1,13,1,0,0,1,3,91,11
12,1,6,0,2,0,4,14,91,11
4,2,7,1,4,0,2,14,7,11
3,2,21,0,5,1,1,14,91,11
7,3,0,0,0,0,3,14,91,9
3,2,1,0,5,1,1,14,91,11
5,2,14,1,2,0,2,55,89,11
4,2,3,0,0,0,2,14,91,11
11,4,8,1,5,1,4,14,91,11
4,2,23,0,4,0,2,14,91,11
4,2,21,0,2,0,2,14,91,11
12,1,0,0,0,0,4,36,7,9
12,1,17,1,0,0,4,40,101,11
4,2,2,0,0,0,2,14,91,11
12,1,23,0,5,1,4,55,89,11
8,3,13,1,4,0,3,19,91,11
2,1,19,1,6,1,1,84,25,11
10,4,19,1,2,0,4,84,91,11
3,2,5,0,2,0,1,36,89,11
4,2,17,1,6,1,2,84,25,11
7,3,21,0,2,0,3,14,91,11
1,1,23,0,2,0,1,73,67,11
8,3,13,1,4,0,3,84,101,11
5,2,17,1,3,0,2,61,89,11
10,4,18,1,2,0,4,49,128,11
8,3,11,1,4,0,3,20,91,11
2,1,14,1,5,1,1,7,20,11
6,3,20,1,6,1,2,37,7,9
12,1,18,1,0,0,4,16,40,11
1,1,0,0,2,0,1,2,40,11
2,1,18,1,5,1,1,81,67,8
8,3,12,1,4,0,3,49,67,11
8,3,17,1,4,0,3,61,7,11
5,2,20,1,3,0,2,49,40,11
6,3,23,0,6,1,2,56,101,11
9,4,18,1,0,0,3,77,98,11
3,2,13,1,5,1,1,61,67,9
3,2,15,1,5,1,1,41,128,11
7,3,20,1,1,0,3,55,67,11
1,1,12,1,2,0,1,58,7,11
5,2,11,1,3,0,2,73,101,11
8,3,12,1,4,0,3,25,128,11
2,1,13,1,6,1,1,77,91,11
1,1,18,1,3,0,1,44,101,9
2,1,18,1,6,1,1,11,91,11
9,4,11,1,0,0,3,61,128,11
1,1,21,0,3,0,1,34,101,11
2,1,8,1,5,1,1,55,128,11
7,3,23,0,1,0,3,2,101,11
9,4,18,1,0,0,3,14,91,11
12,1,9,1,0,0,4,2,12,8
3,2,14,1,6,1,1,29,40,9
7,3,11,1,2,0,3,86,128,11
6,3,18,1,0,0,2,73,101,11
5,2,15,1,4,0,2,59,101,11
6,3,16,1,0,0,2,58,101,11
4,2,23,0,2,0,2,88,91,11
2,1,18,1,6,1,1,20,128,11
6,3,15,1,0,0,2,61,128,11
5,2,15,1,4,0,2,72,128,11
6,3,19,1,0,0,2,3,128,11
7,3,12,1,2,0,3,22,91,11
2,1,7,1,6,1,1,25,20,11
3,2,11,1,6,1,1,50,20,11
5,2,23,0,4,0,2,3,128,11
2,1,21,0,6,1,1,22,91,11
5,2,15,1,4,0,2,3,91,11
6,3,9,1,0,0,2,8,128,11
6,3,0,0,0,0,2,61,77,11
12,1,17,1,1,0,4,11,128,11
6,3,12,1,0,0,2,75,77,11
12,1,15,1,1,0,4,9,128,11
11,4,2,0,6,1,4,25,128,11
9,4,16,1,1,0,3,25,101,11
8,3,17,1,5,1,3,36,47,11
10,4,10,1,3,0,4,30,77,11
10,4,23,0,3,0,4,25,20,11
10,4,12,1,3,0,4,41,91,11
8,3,11,1,5,1,3,50,128,11
9,4,17,1,1,0,3,44,101,11
10,4,14,1,3,0,4,20,91,11
12,1,17,1,1,0,4,60,101,11
10,4,15,1,3,0,4,85,12,8
10,4,20,1,3,0,4,8,77,11
12,1,15,1,1,0,4,50,77,11
8,3,19,1,5,1,3,30,101,11
12,1,16,1,1,0,4,41,89,11
11,4,0,0,6,1,4,49,119,11
10,4,12,1,3,0,4,59,101,11
8,3,13,1,5,1,3,3,91,11
12,1,14,1,1,0,4,79,101,11
12,1,12,1,1,0,4,2,40,9
3,2,12,1,0,0,1,29,91,11
4,2,11,1,3,0,2,41,128,11
3,2,17,1,0,0,1,83,128,11
4,2,13,1,3,0,2,25,67,11
1,1,13,1,4,0,1,25,67,9
1,1,15,1,4,0,1,41,91,11
1,1,20,1,4,0,1,41,71,11
1,1,1,0,4,0,1,71,101,11
1,1,2,0,4,0,1,49,128,11
1,1,15,1,4,0,1,50,40,11
3,2,14,1,0,0,1,36,67,11
3,2,15,1,0,0,1,77,55,11
7,3,18,1,3,0,3,34,101,11
11,4,13,1,0,0,4,16,101,11
6,3,18,1,1,0,2,40,101,11
11,4,10,1,0,0,4,55,91,11
10,4,18,1,4,0,4,59,101,11
11,4,14,1,0,0,4,8,20,11
5,2,21,0,5,1,2,13,67,11
10,4,11,1,4,0,4,3,40,11
9,4,9,1,2,0,3,84,128,11
11,4,20,1,0,0,4,16,91,11
10,4,19,1,4,0,4,79,101,11
11,4,21,0,0,0,4,8,23,11
7,3,18,1,3,0,3,74,101,11
7,3,16,1,3,0,3,79,101,11
9,4,0,0,2,0,3,15,20,11
9,4,2,0,2,0,3,13,47,11
7,3,15,1,3,0,3,16,91,9
6,3,13,1,1,0,2,89,128,11
1,1,13,1,3,0,1,25,101,11
4,2,20,1,3,0,2,8,77,11
4,2,21,0,3,0,2,65,128,11
7,3,15,1,3,0,3,32,101,11
8,3,9,1,6,1,3,3,91,11
8,3,22,0,6,1,3,22,128,11
6,3,8,1,1,0,2,3,77,9
7,3,18,1,3,0,3,50,128,11
8,3,14,1,6,1,3,24,25,11
8,3,9,1,6,1,3,22,91,9
9,4,13,1,2,0,3,79,101,11
7,3,20,1,3,0,3,32,125,11
9,4,13,1,2,0,3,59,101,11
8,3,13,1,6,1,3,21,101,11
8,3,17,1,6,1,3,11,128,11
12,1,11,1,2,0,4,2,101,11
12,1,14,1,2,0,4,25,55,11
12,1,16,1,2,0,4,64,101,11
12,1,18,1,2,0,4,29,101,11
12,1,21,0,2,0,4,50,128,11
12,1,6,0,2,0,4,17,110,11
12,1,23,0,2,0,4,7,101,11
12,1,13,1,2,0,4,68,67,11
9,4,15,1,2,0,3,85,101,11
5,2,20,1,6,1,2,61,91,11
10,4,17,1,5,1,4,65,101,11
7,3,17,1,4,0,3,64,77,11
4,2,3,0,4,0,2,11,110,11
4,2,18,1,4,0,2,20,101,11
8,3,6,0,0,0,3,20,13,8
3,2,23,0,1,0,1,3,91,11
7,3,0,0,4,0,3,16,96,11
11,4,20,1,1,0,4,88,25,11
6,3,22,0,2,0,2,8,128,11
12,1,11,1,3,0,4,55,20,11
12,1,21,0,3,0,4,59,101,11
6,3,20,1,2,0,2,29,40,9
7,3,21,0,4,0,3,25,20,11
10,4,14,1,5,1,4,25,89,11
8,3,16,1,0,0,3,36,96,11
12,1,14,1,3,0,4,74,101,11
12,1,10,1,3,0,4,8,91,11
12,1,12,1,3,0,4,25,101,11
6,3,4,0,2,0,2,44,128,11
4,2,10,1,4,0,2,3,91,11
7,3,18,1,4,0,3,12,67,11
2,1,21,0,1,0,1,39,101,11
5,2,13,1,6,1,2,68,40,11
10,4,20,1,5,1,4,22,91,11
7,3,22,0,4,0,3,36,20,11
1,1,17,1,6,1,1,8,91,11
1,1,20,1,6,1,1,25,20,11
1,1,7,1,6,1,1,3,40,11
1,1,4,0,6,1,1,14,91,11
6,3,15,1,3,0,2,87,91,11
3,2,23,0,2,0,1,49,37,11
6,3,14,1,3,0,2,16,20,11
5,2,21,0,0,0,2,47,91,11
4,2,15,1,5,1,2,2,101,11
3,2,19,1,2,0,1,25,91,9
5,2,13,1,0,0,2,3,91,11
3,2,12,1,2,0,1,3,128,11
2,1,12,1,2,0,1,25,67,11
9,4,23,0,4,0,3,25,110,11
8,3,19,1,1,0,3,30,101,11
7,3,20,1,5,1,3,25,91,11
11,4,15,1,2,0,4,3,91,11
10,4,22,0,6,1,4,87,128,11
8,3,7,1,1,0,3,3,91,11
7,3,9,1,5,1,3,22,101,11
9,4,18,1,4,0,3,24,101,11
8,3,12,1,1,0,3,84,77,11
8,3,21,0,1,0,3,41,91,11
7,3,14,1,5,1,3,25,128,11
5,2,19,1,0,0,2,49,91,11
10,4,19,1,6,1,4,36,89,11
8,3,20,1,1,0,3,61,67,11
3,2,13,1,0,0,1,84,128,11
11,4,22,0,2,0,4,25,128,11
5,2,3,0,5,1,2,25,128,11
11,4,13,1,2,0,4,2,101,11
11,4,20,1,2,0,4,36,91,9
11,4,21,0,2,0,4,39,128,11
12,1,19,1,4,0,4,76,110,11
5,2,15,1,0,0,2,44,24,11
6,3,23,0,3,0,2,14,91,11
12,1,8,1,4,0,4,2,101,11
1,1,21,0,6,1,1,3,128,8
10,4,6,0,6,1,4,25,101,11
1,1,20,1,0,0,1,5,77,9
2,1,15,1,3,0,1,54,7,11
2,1,21,0,3,0,1,29,101,11
1,1,14,1,0,0,1,3,91,11
2,1,18,1,2,0,1,25,25,9
4,2,4,0,6,1,2,3,91,11
4,2,21,0,6,1,2,14,91,11
4,2,0,0,6,1,2,3,96,11
4,2,15,1,6,1,2,10,101,11
6,3,12,1,4,0,2,3,91,11
1,1,10,1,6,1,1,14,91,11
5,2,20,1,1,0,2,59,101,11
4,2,5,0,6,1,2,11,128,11
4,2,0,0,6,1,2,14,91,11
6,3,14,1,4,0,2,44,91,11
3,2,21,0,3,0,1,55,86,11
8,3,5,0,2,0,3,79,57,11
6,3,19,1,4,0,2,41,101,11
4,2,2,0,6,1,2,16,128,11
9,4,3,0,5,1,3,16,128,11
8,3,15,1,2,0,3,59,101,11
6,3,7,1,4,0,2,73,101,11
8,3,22,0,2,0,3,15,67,11
8,3,13,1,2,0,3,14,91,11
7,3,10,1,6,1,3,84,25,11
6,3,20,1,4,0,2,41,128,11
4,2,18,1,6,1,2,25,109,11
8,3,12,1,2,0,3,59,101,11
10,4,8,1,0,0,4,29,20,11
10,4,17,1,0,0,4,14,91,11
11,4,18,1,3,0,4,31,13,9
5,2,0,0,1,0,2,14,91,11
10,4,22,0,0,0,4,79,77,11
11,4,16,1,3,0,4,58,125,11
11,4,11,1,3,0,4,24,101,11
12,1,19,1,5,1,4,3,91,11
12,1,20,1,5,1,4,21,101,11
1,1,16,1,2,0,1,25,96,11
6,3,11,1,5,1,2,25,57,8
11,4,10,1,4,0,4,15,89,11
7,3,11,1,2,0,3,74,101,11
8,3,16,1,3,0,3,17,91,11
12,1,17,1,6,1,4,55,67,11
9,4,20,1,6,1,3,56,101,11
5,2,17,1,2,0,2,56,20,11
4,2,9,1,0,0,2,3,91,11
10,4,21,0,1,0,4,8,101,11
9,4,3,0,6,1,3,25,91,11
4,2,13,1,0,0,2,42,47,11
4,2,10,1,0,0,2,44,32,9
8,3,12,1,3,0,3,20,91,9
11,4,20,1,4,0,4,41,101,11
2,1,3,0,4,0,1,14,128,9
4,2,2,0,0,0,2,16,101,11
3,2,14,1,4,0,1,58,67,11
3,2,11,1,4,0,1,15,101,11
4,2,21,0,0,0,2,14,91,11
1,1,6,0,1,0,1,25,20,11
2,1,22,0,4,0,1,25,77,9
10,4,16,1,1,0,4,44,128,11
9,4,17,1,6,1,3,36,91,11
10,4,13,1,1,0,4,79,101,11
10,4,21,0,1,0,4,32,25,11
5,2,10,1,2,0,2,77,98,11
8,3,20,1,3,0,3,36,77,11
3,2,20,1,4,0,1,70,27,11
7,3,22,0,0,0,3,11,20,11
2,1,21,0,4,0,1,25,78,11
7,3,0,0,0,0,3,10,40,11
6,3,18,1,5,1,2,40,91,11
9,4,20,1,6,1,3,30,20,11
1,1,15,1,1,0,1,79,110,11
5,2,22,0,2,0,2,56,101,11
5,2,19,1,2,0,2,21,20,11
2,1,17,1,4,0,1,2,128,11
1,1,1,0,1,0,1,75,128,11
12,1,4,0,6,1,4,87,86,8
1,1,15,1,1,0,1,25,35,11
7,3,5,0,0,0,3,55,130,9
3,2,15,1,4,0,1,8,91,11
5,2,19,1,3,0,2,73,57,9
6,3,19,1,6,1,2,36,128,11
6,3,18,1,6,1,2,43,110,11
3,2,2,0,5,1,1,41,57,8
3,2,4,0,5,1,1,88,20,11
4,2,17,1,1,0,2,16,67,11
4,2,15,1,1,0,2,59,91,11
10,4,4,0,2,0,4,87,128,11
11,4,10,1,5,1,4,13,77,11
2,1,11,1,5,1,1,2,91,11
2,1,5,0,5,1,1,36,58,9
10,4,15,1,2,0,4,25,101,11
8,3,22,0,4,0,3,14,91,11
3,2,12,1,3,0,1,51,91,11
9,4,13,1,0,0,3,24,91,11
3,2,3,0,5,1,1,36,128,11
1,1,23,0,2,0,1,3,40,11
1,1,18,1,2,0,1,25,25,11
9,4,3,0,0,0,3,3,125,9
7,3,16,1,1,0,3,22,101,11
11,4,15,1,5,1,4,41,91,11
6,3,16,1,6,1,2,58,67,11
12,1,17,1,0,0,4,44,128,11
5,2,22,0,2,0,2,22,91,11
8,3,9,1,3,0,3,14,91,11
8,3,2,0,4,0,3,44,128,11
4,2,20,1,1,0,2,44,98,11
10,4,13,1,1,0,4,25,96,11
10,4,11,1,2,0,4,37,91,11
7,3,1,0,1,0,3,56,89,11
12,1,18,1,0,0,4,77,20,11
7,3,16,1,2,0,3,22,23,11
11,4,8,1,6,1,4,16,25,11
9,4,20,1,2,0,3,30,89,11
12,1,12,1,1,0,4,21,101,11
8,3,4,0,5,1,3,3,91,11
5,2,17,1,4,0,2,59,101,11
3,2,1,0,0,0,1,32,101,11
11,4,0,0,0,0,4,2,128,11
9,4,12,1,2,0,3,43,25,11
6,3,17,1,1,0,2,15,20,9
3,2,13,1,0,0,1,69,40,11
9,4,3,0,2,0,3,59,101,11
4,2,22,0,5,1,2,14,101,11
4,2,13,1,1,0,2,14,91,11
8,3,23,0,6,1,3,44,101,11
6,3,3,0,0,0,2,49,128,11
12,1,19,1,2,0,4,40,101,11
7,3,1,0,3,0,3,36,128,11
1,1,18,1,3,0,1,88,67,11
10,4,18,1,4,0,4,2,91,11
11,4,13,1,6,1,4,80,101,11
3,2,17,1,6,1,1,20,77,11
10,4,2,0,3,0,4,64,101,11
10,4,2,0,4,0,4,55,128,11
12,1,13,1,2,0,4,10,101,11
5,2,14,1,4,0,2,21,101,11
2,1,13,1,6,1,1,75,101,11
9,4,18,1,0,0,3,2,89,11
4,2,18,1,3,0,2,74,40,9
11,4,20,1,6,1,4,59,101,11
8,3,6,0,5,1,3,56,20,11
12,1,19,1,1,0,4,17,101,11
7,3,12,1,2,0,3,59,101,11
1,1,22,0,4,0,1,32,122,11
1,1,14,1,4,0,1,32,25,11
3,2,19,1,6,1,1,20,101,11
1,1,9,1,4,0,1,3,91,11
11,4,15,1,0,0,4,32,89,11
12,1,11,1,2,0,4,3,91,11
12,1,17,1,1,0,4,21,91,11
2,1,18,1,0,0,1,13,89,11
8,3,15,1,6,1,3,25,20,11
8,3,9,1,6,1,3,87,20,8
5,2,11,1,4,0,2,6,101,11
12,1,4,0,1,0,4,25,128,11
8,3,10,1,5,1,3,24,55,11
9,4,6,0,3,0,3,25,128,11
2,1,16,1,0,0,1,30,110,11
10,4,15,1,3,0,4,77,84,11
3,2,10,1,0,0,1,80,89,11
8,3,17,1,6,1,3,3,91,11
8,3,10,1,6,1,3,73,101,11
4,2,11,1,4,0,2,14,91,11
4,2,16,1,3,0,2,83,67,11
11,4,13,1,5,1,4,85,20,9
8,3,12,1,5,1,3,8,20,11
6,3,18,1,0,0,2,76,91,11
6,3,18,1,6,1,2,39,101,11
5,2,16,1,4,0,2,30,20,9
5,2,18,1,4,0,2,79,101,11
5,2,7,1,4,0,2,36,40,8
10,4,17,1,3,0,4,54,128,9
7,3,0,0,2,0,3,14,91,11
11,4,16,1,6,1,4,44,91,11
7,3,11,1,2,0,3,39,101,11
7,3,1,0,2,0,3,13,20,11
12,1,11,1,1,0,4,3,55,11
12,1,19,1,1,0,4,87,101,11
3,2,20,1,1,0,1,14,91,11
8,3,21,0,3,0,3,22,91,11
8,3,7,1,6,1,3,44,101,11
11,4,19,1,4,0,4,44,101,11
11,4,19,1,0,0,4,84,101,11
8,3,20,1,0,0,3,8,91,11
8,3,14,1,0,0,3,14,91,11
3,2,14,1,1,0,1,79,101,11
3,2,18,1,1,0,1,36,67,11
12,1,23,0,6,1,4,77,25,11
9,4,18,1,3,0,3,3,91,9
10,4,2,0,5,1,4,44,101,11
4,2,21,0,4,0,2,25,77,11
9,4,15,1,4,0,3,14,91,11
6,3,18,1,2,0,2,59,101,11
6,3,13,1,2,0,2,59,101,11
6,3,4,0,2,0,2,69,110,11
2,1,15,1,1,0,1,14,91,11
4,2,18,1,3,0,2,77,101,11
7,3,12,1,4,0,3,6,43,9
7,3,20,1,4,0,3,56,20,11
6,3,7,1,2,0,2,8,7,11
8,3,23,0,0,0,3,2,101,11
10,4,23,0,5,1,4,44,23,11
6,3,2,0,2,0,2,87,77,8
9,4,15,1,6,1,3,25,91,11
4,2,3,0,4,0,2,14,123,11
2,1,12,1,1,0,1,54,69,11
12,1,1,0,2,0,4,14,68,11
10,4,9,1,6,1,4,14,91,11
8,3,20,1,0,0,3,49,128,11
11,4,3,0,1,0,4,25,35,11
12,1,1,0,3,0,4,36,128,11
12,1,11,1,1,0,4,15,128,11
2,1,18,1,1,0,1,8,91,11
3,2,7,1,1,0,1,22,91,8
6,3,20,1,2,0,2,89,128,11
10,4,4,0,2,0,4,87,77,11
10,4,13,1,6,1,4,19,77,9
6,3,17,1,3,0,2,25,101,11
12,1,0,0,4,0,4,69,80,11
1,1,11,1,6,1,1,25,111,9
1,1,1,0,6,1,1,25,40,8
6,3,6,0,5,1,2,40,77,9
8,3,22,0,0,0,3,84,123,11
1,1,18,1,6,1,1,16,77,9
1,1,16,1,1,0,1,3,89,11
11,4,13,1,2,0,4,25,101,11
9,4,5,0,4,0,3,17,20,11
6,3,18,1,0,0,2,55,89,11
5,2,22,0,0,0,2,50,77,11
9,4,9,1,4,0,3,50,128,11
10,4,21,0,6,1,4,2,128,11
1,1,13,1,6,1,1,8,89,11
3,2,0,0,2,0,1,3,91,11
7,3,6,0,5,1,3,58,20,9
4,2,12,1,5,1,2,3,128,11
7,3,20,1,5,1,3,44,128,11
3,2,5,0,2,0,1,25,10,11
8,3,23,0,1,0,3,8,101,11
10,4,23,0,2,0,4,25,40,11
7,3,19,1,5,1,3,14,128,11
6,3,20,1,3,0,2,36,128,11
5,2,14,1,0,0,2,84,77,11
5,2,9,1,0,0,2,61,20,11
10,4,23,0,6,1,4,13,40,9
4,2,16,1,5,1,2,25,77,11
3,2,21,0,6,1,1,14,91,11
8,3,15,1,2,0,3,36,77,11
4,2,10,1,0,0,2,14,91,11
8,3,6,0,3,0,3,14,91,11
10,4,3,0,6,1,4,46,20,11
4,2,18,1,1,0,2,14,91,11
11,4,17,1,5,1,4,14,91,11
7,3,21,0,6,1,3,14,91,11
3,2,12,1,6,1,1,14,91,11
1,1,17,1,6,1,1,14,91,11
4,2,15,1,0,0,2,14,91,11
3,2,23,0,4,0,1,14,91,11
4,2,22,0,0,0,2,14,91,11
12,1,18,1,0,0,4,14,91,11
1,1,7,1,5,1,1,14,91,11
9,4,2,0,0,0,3,87,77,11
4,2,13,1,0,0,2,3,55,11
12,1,2,0,1,0,4,14,91,11
4,2,16,1,6,1,2,58,89,11
3,2,20,1,3,0,1,36,128,11
4,2,7,1,4,0,2,14,40,9
3,2,20,1,4,0,1,14,91,11
9,4,10,1,6,1,3,14,91,11
1,1,11,1,2,0,1,11,40,11
7,3,22,0,5,1,3,77,91,11
9,4,15,1,1,0,3,84,128,11
8,3,23,0,1,0,3,15,20,11
8,3,13,1,1,0,3,15,89,11
12,1,20,1,2,0,4,14,91,11
5,2,9,1,3,0,2,2,128,11
5,2,18,1,3,0,2,14,101,11
2,1,11,1,5,1,1,50,67,11
8,3,9,1,4,0,3,8,128,11
6,3,18,1,6,1,2,9,128,11
12,1,18,1,0,0,4,88,91,11
2,1,17,1,5,1,1,20,77,11
6,3,12,1,6,1,2,34,101,11
12,1,16,1,0,0,4,8,91,9
11,4,10,1,5,1,4,39,45,9
1,1,1,0,2,0,1,88,101,11
1,1,16,1,3,0,1,8,67,11
5,2,21,0,3,0,2,15,40,11
1,1,16,1,3,0,1,2,101,11
10,4,1,0,2,0,4,79,12,9
10,4,11,1,2,0,4,17,20,11
5,2,21,0,3,0,2,59,101,11
11,4,19,1,5,1,4,63,101,11
4,2,2,0,1,0,2,61,128,11
1,1,0,0,2,0,1,68,101,11
2,1,5,0,6,1,1,11,128,11
7,3,2,0,1,0,3,9,128,11
2,1,16,1,6,1,1,58,128,11
9,4,17,1,0,0,3,75,101,11
3,2,15,1,6,1,1,37,7,11
6,3,5,0,0,0,2,69,13,11
7,3,0,0,2,0,3,69,128,11
3,2,14,1,6,1,1,2,20,11
4,2,20,1,2,0,2,81,110,11
7,3,2,0,2,0,3,38,101,11
5,2,20,1,4,0,2,30,91,11
2,1,21,0,6,1,1,22,91,11
4,2,15,1,1,0,2,3,91,11
7,3,23,0,2,0,3,14,20,11
2,1,9,1,6,1,1,11,89,11
3,2,14,1,6,1,1,88,40,8
4,2,18,1,1,0,2,68,20,11
8,3,14,1,5,1,3,79,101,11
9,4,17,1,1,0,3,71,101,11
11,4,9,1,6,1,4,22,89,11
11,4,17,1,6,1,4,87,101,11
8,3,15,1,5,1,3,41,128,11
10,4,17,1,3,0,4,59,40,11
9,4,10,1,1,0,3,40,77,9
8,3,15,1,5,1,3,2,101,11
9,4,22,0,1,0,3,49,128,11
11,4,17,1,6,1,4,59,101,11
9,4,20,1,1,0,3,62,128,11
9,4,20,1,1,0,3,8,89,11
9,4,10,1,1,0,3,9,128,11
9,4,7,1,1,0,3,46,77,8
10,4,20,1,3,0,4,8,128,11
11,4,15,1,6,1,4,14,91,11
8,3,8,1,5,1,3,3,128,11
3,2,13,1,0,0,1,29,89,11
4,2,17,1,3,0,2,7,25,11
1,1,3,0,4,0,1,3,89,11
1,1,0,0,4,0,1,14,89,11
2,1,18,1,0,0,1,74,101,11
1,1,23,0,4,0,1,61,128,11
4,2,13,1,3,0,2,7,101,11
1,1,0,0,4,0,1,15,20,9
1,1,15,1,4,0,1,31,40,11
1,1,15,1,4,0,1,18,128,11
4,2,11,1,3,0,2,58,67,11
2,1,22,0,0,0,1,44,89,11
2,1,1,0,0,0,1,63,128,11
4,2,1,0,3,0,2,38,77,11
1,1,7,1,4,0,1,3,128,11
8,3,15,1,6,1,3,40,101,11
9,4,20,1,2,0,3,50,77,9
9,4,22,0,2,0,3,30,125,11
4,2,19,1,3,0,2,25,77,9
8,3,22,0,6,1,3,29,128,11
5,2,23,0,5,1,2,77,89,11
11,4,20,1,0,0,4,13,101,11
5,2,14,1,5,1,2,74,101,11
11,4,2,0,0,0,4,68,20,11
11,4,22,0,0,0,4,87,8,11
5,2,8,1,5,1,2,55,23,9
11,4,20,1,0,0,4,7,101,11
7,3,12,1,3,0,3,16,16,11
6,3,14,1,1,0,2,32,101,11
8,3,14,1,6,1,3,3,91,9
4,2,18,1,3,0,2,7,101,11
6,3,18,1,1,0,2,41,20,11
5,2,0,0,5,1,2,43,89,11
4,2,3,0,3,0,2,56,14,11
5,2,16,1,5,1,2,39,55,11
3,2,15,1,0,0,1,32,77,11
4,2,19,1,3,0,2,85,40,11
7,3,15,1,3,0,3,22,91,11
5,2,4,0,5,1,2,73,78,11
5,2,19,1,5,1,2,58,7,11
8,3,19,1,6,1,3,14,128,11
7,3,15,1,3,0,3,40,125,11
8,3,18,1,6,1,3,21,101,11
10,4,18,1,4,0,4,59,101,11
9,4,12,1,2,0,3,40,101,11
5,2,16,1,5,1,2,44,101,11
6,3,16,1,1,0,2,13,101,11
9,4,20,1,2,0,3,2,101,11
5,2,17,1,5,1,2,21,125,11
8,3,11,1,6,1,3,30,77,11
9,4,22,0,2,0,3,11,67,11
8,3,12,1,6,1,3,40,101,11
9,4,17,1,0,0,3,8,101,11
9,4,23,0,2,0,3,36,128,11
6,3,13,1,1,0,2,25,91,8
1,1,1,0,2,0,1,56,67,11
5,2,18,1,5,1,2,7,101,11
4,2,10,1,4,0,2,36,91,11
10,4,17,1,4,0,4,59,101,11
5,2,3,0,6,1,2,25,57,11
8,3,6,0,0,0,3,32,20,11
9,4,15,1,3,0,3,49,50,9
7,3,21,0,4,0,3,40,14,11
4,2,4,0,4,0,2,6,110,11
6,3,16,1,1,0,2,25,55,8
12,1,12,1,3,0,4,25,67,11
4,2,0,0,4,0,2,13,91,11
9,4,14,1,3,0,3,3,20,11
4,2,18,1,4,0,2,14,45,11
6,3,15,1,1,0,2,25,55,11
4,2,23,0,4,0,2,84,20,9
7,3,4,0,4,0,3,25,20,11
7,3,22,0,4,0,3,7,89,11
10,4,21,0,5,1,4,34,108,11
11,4,20,1,1,0,4,88,25,9
12,1,0,0,3,0,4,3,20,11
11,4,21,0,1,0,4,70,67,11
11,4,14,1,1,0,4,74,101,11
6,3,22,0,2,0,2,75,128,11
12,1,23,0,3,0,4,5,101,11
11,4,18,1,1,0,4,40,91,11
11,4,20,1,1,0,4,21,101,11
11,4,21,0,1,0,4,21,101,11
2,1,6,0,1,0,1,82,88,8
12,1,14,1,3,0,4,3,128,11
1,1,10,1,6,1,1,3,128,11
1,1,23,0,6,1,1,2,101,11
3,2,5,0,2,0,1,38,20,11
4,2,0,0,5,1,2,15,128,11
4,2,16,1,5,1,2,14,91,11
3,2,15,1,2,0,1,74,101,11
3,2,17,1,2,0,1,25,91,11
4,2,21,0,5,1,2,3,91,11
4,2,18,1,5,1,2,83,101,11
3,2,20,1,2,0,1,13,106,11
1,1,20,1,6,1,1,84,91,8
5,2,14,1,0,0,2,41,89,11
3,2,6,0,2,0,1,25,101,11
4,2,9,1,5,1,2,3,91,11
3,2,14,1,2,0,1,62,40,8
3,2,12,1,2,0,1,76,91,11
4,2,21,0,5,1,2,14,91,11
8,3,20,1,1,0,3,3,91,11
8,3,21,0,1,0,3,49,68,11
11,4,13,1,2,0,4,14,91,11
7,3,22,0,5,1,3,40,101,11
8,3,14,1,1,0,3,11,89,11
8,3,19,1,1,0,3,3,91,11
8,3,21,0,1,0,3,30,101,11
10,4,12,1,6,1,4,50,20,11
8,3,20,1,1,0,3,3,91,11
7,3,13,1,5,1,3,84,20,11
9,4,12,1,4,0,3,59,101,11
2,1,17,1,0,0,1,3,91,11
8,3,12,1,4,0,3,61,77,9
5,2,18,1,4,0,2,69,67,11
12,1,4,0,4,0,4,9,20,11
11,4,23,0,2,0,4,17,91,11
9,4,14,1,4,0,3,30,101,11
12,1,23,0,4,0,4,53,101,11
6,3,17,1,3,0,2,14,91,9
2,1,17,1,2,0,1,25,101,11
2,1,12,1,3,0,1,87,25,11
2,1,13,1,3,0,1,3,77,11
2,1,18,1,3,0,1,14,91,11
1,1,11,1,0,0,1,3,128,11
2,1,20,1,3,0,1,3,91,11
1,1,0,0,0,0,1,19,7,11
11,4,14,1,2,0,4,25,101,11
4,2,12,1,1,0,2,14,91,11
1,1,11,1,0,0,1,22,128,11
2,1,0,0,3,0,1,25,126,11
2,1,21,0,3,0,1,14,91,11
6,3,13,1,4,0,2,22,45,11
6,3,14,1,4,0,2,25,128,11
3,2,15,1,3,0,1,10,101,11
4,2,15,1,6,1,2,59,101,11
5,2,18,1,1,0,2,79,101,11
10,4,3,0,0,0,4,41,101,11
6,3,17,1,4,0,2,14,91,11
10,4,19,1,0,0,4,73,125,11
9,4,22,0,5,1,3,58,78,11
10,4,16,1,0,0,4,29,101,11
9,4,19,1,5,1,3,41,91,11
3,2,15,1,3,0,1,25,20,9
7,3,18,1,6,1,3,25,125,9
7,3,21,0,6,1,3,20,101,11
8,3,15,1,2,0,3,79,101,11
7,3,10,1,6,1,3,14,91,11
7,3,18,1,6,1,3,2,3,11
9,4,17,1,5,1,3,58,101,11
10,4,14,1,0,0,4,55,128,11
6,3,12,1,4,0,2,58,68,11
6,3,23,0,4,0,2,17,20,11
10,4,11,1,0,0,4,41,91,11
11,4,16,1,3,0,4,44,25,11
11,4,14,1,3,0,4,22,20,11
12,1,23,0,5,1,4,14,91,11
12,1,17,1,5,1,4,41,91,11
11,4,17,1,3,0,4,2,101,11
3,2,10,1,3,0,1,25,25,9
11,4,14,1,3,0,4,3,91,11
11,4,20,1,3,0,4,49,91,9
11,4,14,1,3,0,4,79,101,11
12,1,20,1,5,1,4,2,101,11
12,1,21,0,5,1,4,36,128,11
6,3,8,1,5,1,2,59,101,11
2,1,8,1,4,0,1,79,101,11
10,4,21,0,1,0,4,58,7,11
12,1,0,0,6,1,4,71,48,9
10,4,19,1,1,0,4,2,101,11
10,4,12,1,1,0,4,3,20,11
10,4,4,0,1,0,4,79,20,11
12,1,16,1,6,1,4,44,89,11
8,3,0,0,3,0,3,36,57,11
9,4,10,1,6,1,3,7,101,11
11,4,12,1,4,0,4,11,20,11
12,1,5,0,6,1,4,3,91,11
7,3,20,1,0,0,3,3,91,11
11,4,18,1,4,0,4,11,7,11
5,2,15,1,2,0,2,8,91,11
3,2,4,0,4,0,1,36,7,11
10,4,13,1,1,0,4,79,101,11
11,4,7,1,4,0,4,41,91,11
11,4,15,1,4,0,4,77,128,11
10,4,7,1,1,0,4,22,91,11
4,2,10,1,0,0,2,25,101,11
4,2,17,1,0,0,2,39,101,11
3,2,10,1,4,0,1,8,91,11
3,2,11,1,4,0,1,7,91,11
3,2,16,1,4,0,1,7,91,11
3,2,20,1,3,0,1,25,125,11
10,4,0,0,0,0,4,73,113,9
2,1,10,1,4,0,1,40,101,11
5,2,13,1,2,0,2,42,89,11
11,4,1,0,4,0,4,79,101,11
1,1,7,1,1,0,1,7,91,11
12,1,22,0,6,1,4,76,20,9
5,2,18,1,2,0,2,9,96,11
5,2,9,1,2,0,2,25,91,11
5,2,16,1,2,0,2,3,91,11
9,4,10,1,2,0,3,74,91,9
12,1,16,1,6,1,4,19,101,11
3,2,6,0,4,0,1,14,91,11
6,3,11,1,5,1,2,73,91,11
5,2,14,1,3,0,2,87,91,11
6,3,5,0,5,1,2,36,77,11
10,4,15,1,1,0,4,2,101,11
3,2,15,1,4,0,1,79,101,11
4,2,21,0,0,0,2,2,101,11
6,3,19,1,5,1,2,25,128,11
2,1,20,1,4,0,1,25,96,11
4,2,14,1,0,0,2,79,101,11
4,2,14,1,0,0,2,7,91,11
6,3,16,1,6,1,2,37,55,11
4,2,19,1,1,0,2,74,89,11
5,2,3,0,3,0,2,73,101,11
6,3,21,0,6,1,2,2,101,11
4,2,19,1,1,0,2,58,107,9
1,1,7,1,2,0,1,25,101,9
10,4,9,1,1,0,4,29,77,9
5,2,4,0,3,0,2,79,25,9
6,3,20,1,6,1,2,79,77,11
3,2,15,1,5,1,1,49,25,11
11,4,23,0,3,0,4,14,91,11
5,2,2,0,3,0,2,18,110,11
10,4,12,1,2,0,4,8,101,11
7,3,14,1,1,0,3,11,81,11
10,4,4,0,2,0,4,15,8,11
12,1,8,1,6,1,4,17,23,8
6,3,15,1,6,1,2,58,67,9
6,3,11,1,6,1,2,8,45,11
2,1,16,1,5,1,1,22,91,11
12,1,13,1,0,0,4,77,101,11
9,4,18,1,0,0,3,32,101,11
3,2,21,0,5,1,1,37,89,11
7,3,20,1,1,0,3,29,101,11
12,1,18,1,0,0,4,49,91,11
12,1,17,1,0,0,4,40,13,9
3,2,21,0,5,1,1,68,20,11
5,2,18,1,3,0,2,3,89,11
12,1,5,0,0,0,4,16,23,11
8,3,9,1,4,0,3,41,101,11
2,1,0,0,5,1,1,40,101,11
7,3,22,0,2,0,3,3,91,11
11,4,17,1,6,1,4,25,67,11
3,2,18,1,0,0,1,22,101,11
1,1,14,1,3,0,1,55,13,11
11,4,18,1,6,1,4,21,128,11
4,2,20,1,3,0,2,25,25,11
7,3,22,0,3,0,3,3,77,9
8,3,18,1,5,1,3,14,91,11
11,4,17,1,5,1,4,2,89,11
5,2,23,0,4,0,2,25,23,11
10,4,1,0,4,0,4,44,20,11
1,1,16,1,3,0,1,34,101,11
10,4,16,1,4,0,4,41,101,11
6,3,7,1,1,0,2,30,77,11
7,3,2,0,3,0,3,44,24,11
11,4,13,1,6,1,4,2,91,11
10,4,21,0,2,0,4,7,101,11
3,2,9,1,0,0,1,25,13,11
11,4,17,1,5,1,4,10,101,11
2,1,11,1,6,1,1,13,101,11
7,3,13,1,2,0,3,22,91,9
9,4,5,0,1,0,3,59,101,11
5,2,22,0,5,1,2,2,128,11
7,3,15,1,2,0,3,8,125,11
11,4,14,1,0,0,4,39,101,11
1,1,15,1,3,0,1,2,91,11
9,4,13,1,2,0,3,35,91,11
8,3,17,1,6,1,3,44,123,9
12,1,12,1,2,0,4,79,101,11
12,1,16,1,1,0,4,25,91,9
7,3,11,1,3,0,3,8,101,11
10,4,0,0,3,0,4,25,91,11
1,1,14,1,3,0,1,2,91,11
4,2,16,1,2,0,2,87,25,9
2,1,17,1,6,1,1,11,20,9
8,3,15,1,5,1,3,17,101,11
11,4,15,1,6,1,4,58,110,11
5,2,2,0,5,1,2,61,128,11
10,4,9,1,3,0,4,10,101,11
10,4,18,1,4,0,4,74,101,11
1,1,12,1,3,0,1,41,91,11
2,1,1,0,6,1,1,14,91,11
4,2,11,1,3,0,2,3,64,11
6,3,14,1,1,0,2,55,67,9
10,4,12,1,4,0,4,44,101,11
9,4,21,0,2,0,3,8,91,11
5,2,0,0,3,0,2,14,91,11
10,4,1,0,3,0,4,14,91,11
6,3,5,0,1,0,2,5,128,11
12,1,11,1,5,1,4,14,91,11
6,3,16,1,0,0,2,44,101,11
6,3,17,1,0,0,2,22,89,11
12,1,22,0,2,0,4,50,101,11
4,2,3,0,3,0,2,15,128,9
11,4,14,1,0,0,4,41,91,11
3,2,17,1,6,1,1,25,91,9
9,4,11,1,2,0,3,52,91,11
10,4,5,0,2,0,4,5,91,11
10,4,10,1,3,0,4,87,67,11
9,4,10,1,0,0,3,9,20,11
9,4,1,0,1,0,3,3,20,8
10,4,14,1,2,0,4,74,101,11
9,4,13,1,2,0,3,79,101,11
5,2,16,1,4,0,2,56,12,9
8,3,13,1,6,1,3,25,67,11
3,2,5,0,6,1,1,86,128,11
12,1,19,1,2,0,4,59,101,11
12,1,16,1,2,0,4,13,20,11
1,1,18,1,3,0,1,25,25,11
3,2,10,1,6,1,1,61,77,9
3,2,5,0,0,0,1,75,110,11
10,4,18,1,3,0,4,43,91,11
1,1,10,1,3,0,1,2,128,11
12,1,2,0,0,0,4,50,128,11
3,2,19,1,5,1,1,25,128,11
11,4,0,0,1,0,4,73,101,11
11,4,9,1,5,1,4,74,101,11
8,3,16,1,3,0,3,84,128,11
10,4,22,0,5,1,4,16,101,11
10,4,0,0,5,1,4,85,47,11
3,2,14,1,1,0,1,14,91,11
4,2,15,1,4,0,2,49,20,9
4,2,16,1,3,0,2,3,91,11
11,4,21,0,1,0,4,22,25,11
12,1,11,1,3,0,4,3,121,11
9,4,17,1,3,0,3,49,91,11
12,1,2,0,3,0,4,36,77,11
12,1,20,1,3,0,4,14,91,11
5,2,22,0,6,1,2,3,128,11
10,4,23,0,5,1,4,54,91,11
1,1,20,1,5,1,1,25,128,11
4,2,15,1,3,0,2,37,128,11
1,1,20,1,4,0,1,25,101,11
11,4,20,1,1,0,4,25,96,11
3,2,7,1,1,0,1,47,20,11
3,2,22,0,1,0,1,69,67,11
5,2,10,1,6,1,2,59,128,11
1,1,5,0,5,1,1,14,20,11
10,4,5,0,5,1,4,3,91,11
10,4,19,1,6,1,4,14,91,11
1,1,5,0,6,1,1,15,128,11
9,4,17,1,5,1,3,46,91,9
1,1,16,1,6,1,1,87,128,11
2,1,16,1,2,0,1,54,91,11
12,1,11,1,5,1,4,14,91,11
2,1,18,1,2,0,1,61,80,11
3,2,2,0,2,0,1,58,128,9
3,2,12,1,2,0,1,54,77,11
9,4,13,1,4,0,3,25,78,11
2,1,21,0,2,0,1,8,40,11
7,3,1,0,0,0,3,14,91,11
1,1,21,0,2,0,1,77,91,11
1,1,2,0,6,1,1,55,128,11
10,4,23,0,6,1,4,30,20,8
4,2,9,1,5,1,2,25,128,11
5,2,1,0,0,0,2,5,77,11
3,2,9,1,2,0,1,8,101,11
4,2,17,1,5,1,2,25,20,11
4,2,15,1,5,1,2,8,67,11
7,3,20,1,5,1,3,8,89,11
2,1,5,0,2,0,1,36,91,11
11,4,13,1,2,0,4,3,32,11
12,1,21,0,4,0,4,25,128,11
10,4,12,1,6,1,4,25,128,11
1,1,2,0,6,1,1,15,128,11
7,3,6,0,5,1,3,68,40,11
7,3,23,0,5,1,3,3,128,11
7,3,0,0,5,1,3,36,67,9
5,2,16,1,2,0,2,25,91,9
8,3,22,0,1,0,3,36,128,11
6,3,8,1,3,0,2,84,91,11
8,3,0,0,1,0,3,3,128,11
9,4,3,0,1,0,3,36,128,11
11,4,16,1,2,0,4,25,128,9
2,1,20,1,2,0,1,58,68,11
12,1,16,1,0,0,4,3,91,11
11,4,17,1,0,0,4,46,101,11
4,2,7,1,1,0,2,14,91,11
4,2,0,0,1,0,2,14,91,11
5,2,21,0,4,0,2,14,91,11
6,3,8,1,3,0,2,77,77,9
7,3,18,1,2,0,3,25,20,11
8,3,9,1,4,0,3,14,91,11
6,3,21,0,5,1,2,14,91,11
3,2,16,1,6,1,1,14,91,11
10,4,16,1,6,1,4,25,101,11
4,2,17,1,4,0,2,77,20,11
2,1,4,0,2,0,1,25,101,11
8,3,13,1,6,1,3,45,25,11
3,2,11,1,4,0,1,14,91,11
8,3,18,1,4,0,3,14,91,11
3,2,20,1,6,1,1,84,91,11
9,4,17,1,1,0,3,3,128,11
12,1,22,0,1,0,4,58,91,9
2,1,7,1,1,0,1,77,91,11
1,1,12,1,6,1,1,77,91,11
5,2,6,0,0,0,2,36,67,11
12,1,16,1,0,0,4,19,91,11
6,3,12,1,0,0,2,84,25,11
8,3,2,0,3,0,3,14,91,11
