@Relation urban_new_2016_fold2_train

@ATTRIBUTE f1_minas          NUMERIC  % Μήνας (1-12)
@ATTRIBUTE f2_epochi         NUMERIC  % Εποχή (1=Χειμ 2=Άνοιξ 3=Καλοκ 4=Φθιν)
@ATTRIBUTE f3_ora            NUMERIC  % Ώρα ημέρας (0-23)
@ATTRIBUTE f4_mera_nyxta     NUMERIC  % Μέρα=1 Νύχτα=0
@ATTRIBUTE f5_imera_evdom    NUMERIC  % Ημέρα εβδομάδας (0=Δευτ 6=Κυρ)
@ATTRIBUTE f6_savvatokyriako NUMERIC  % Σαββ/κο=1 Καθημ=0
@ATTRIBUTE f7_trimino        NUMERIC  % Τρίμηνο (1-4)
@ATTRIBUTE f8_nomos          NUMERIC  % Κωδικός Νομού
@ATTRIBUTE f9_typos_xorou    NUMERIC  % Κωδικός τύπου χώρου
@ATTRIBUTE class             {8,9,11} % 8=Μεγάλη 9=Μεσαία 11=Μικρή

@DATA
3,2,12,1,6,1,1,5,74,11
4,2,15,1,1,0,2,5,4,11
6,3,12,1,4,0,2,5,21,11
7,3,6,0,0,0,3,5,90,11
8,3,15,1,3,0,3,5,22,11
10,4,8,1,2,0,4,5,21,11
11,4,19,1,3,0,4,5,109,11
12,1,10,1,5,1,4,5,32,11
1,1,2,0,4,0,1,5,30,11
1,1,2,0,4,0,1,5,30,11
1,1,16,1,4,0,1,5,67,11
1,1,13,1,4,0,1,5,67,11
1,1,2,0,5,1,1,5,90,11
1,1,1,0,5,1,1,5,100,11
1,1,16,1,5,1,1,5,100,11
1,1,2,0,5,1,1,5,90,11
1,1,4,0,6,1,1,5,90,11
1,1,5,0,0,0,1,5,90,11
1,1,4,0,1,0,1,5,90,11
1,1,2,0,2,0,1,5,90,11
1,1,13,1,3,0,1,5,67,11
1,1,22,0,5,1,1,5,90,11
1,1,2,0,5,1,1,5,79,11
1,1,18,1,6,1,1,5,90,11
1,1,1,0,6,1,1,5,100,11
1,1,3,0,0,0,1,5,90,11
1,1,2,0,0,0,1,5,90,11
1,1,22,0,0,0,1,5,67,11
1,1,21,0,0,0,1,5,67,11
1,1,17,1,1,0,1,5,90,9
1,1,1,0,2,0,1,5,67,11
1,1,4,0,2,0,1,5,109,11
1,1,17,1,2,0,1,5,90,11
1,1,10,1,3,0,1,5,108,11
1,1,18,1,4,0,1,5,90,11
1,1,16,1,4,0,1,5,90,11
1,1,16,1,5,1,1,5,67,11
1,1,19,1,5,1,1,5,9,11
1,1,9,1,5,1,1,5,59,11
1,1,0,0,5,1,1,5,100,11
1,1,18,1,6,1,1,5,9,11
1,1,13,1,6,1,1,5,67,11
1,1,6,0,0,0,1,5,9,11
1,1,3,0,1,0,1,5,59,11
1,1,21,0,1,0,1,5,90,11
1,1,8,1,1,0,1,5,9,11
1,1,13,1,1,0,1,5,67,11
1,1,15,1,2,0,1,5,67,11
1,1,20,1,2,0,1,5,67,11
1,1,18,1,2,0,1,5,69,11
1,1,23,0,3,0,1,5,90,11
1,1,8,1,3,0,1,5,9,11
1,1,14,1,3,0,1,5,67,11
1,1,22,0,3,0,1,5,90,11
1,1,23,0,3,0,1,5,74,11
1,1,6,0,5,1,1,5,90,11
1,1,7,1,5,1,1,5,90,11
1,1,6,0,5,1,1,5,100,11
1,1,7,1,5,1,1,5,90,11
1,1,9,1,5,1,1,5,67,11
1,1,16,1,5,1,1,5,67,11
1,1,23,0,5,1,1,5,33,11
1,1,5,0,6,1,1,5,90,11
1,1,6,0,6,1,1,5,100,11
1,1,18,1,6,1,1,5,67,11
1,1,7,1,6,1,1,5,90,11
1,1,14,1,0,0,1,5,67,11
1,1,11,1,1,0,1,5,67,11
1,1,17,1,1,0,1,5,90,11
1,1,5,0,2,0,1,5,100,11
1,1,23,0,2,0,1,5,100,11
1,1,21,0,2,0,1,5,9,11
1,1,0,0,3,0,1,5,100,11
1,1,2,0,3,0,1,5,100,11
1,1,12,1,3,0,1,5,40,11
1,1,11,1,3,0,1,5,67,11
1,1,11,1,4,0,1,5,59,11
1,1,23,0,4,0,1,5,21,11
1,1,19,1,5,1,1,5,90,11
1,1,3,0,6,1,1,5,90,11
1,1,6,0,6,1,1,5,90,11
2,1,23,0,0,0,1,5,67,11
2,1,3,0,3,0,1,5,90,11
2,1,2,0,3,0,1,5,100,11
2,1,15,1,3,0,1,5,90,8
2,1,3,0,3,0,1,5,100,11
2,1,15,1,3,0,1,5,22,11
2,1,20,1,3,0,1,5,90,11
2,1,19,1,3,0,1,5,90,11
2,1,22,0,3,0,1,5,90,11
2,1,17,1,4,0,1,5,90,11
2,1,16,1,4,0,1,5,9,11
2,1,11,1,5,1,1,5,67,11
2,1,13,1,5,1,1,5,67,11
2,1,23,0,5,1,1,5,21,11
2,1,22,0,6,1,1,5,67,11
2,1,1,0,0,0,1,5,100,11
2,1,1,0,0,0,1,5,90,11
2,1,2,0,0,0,1,5,90,11
2,1,16,1,0,0,1,5,67,11
2,1,4,0,1,0,1,5,90,11
2,1,11,1,1,0,1,5,49,11
2,1,7,1,3,0,1,5,67,11
2,1,19,1,3,0,1,5,121,11
2,1,19,1,3,0,1,5,100,11
2,1,21,0,3,0,1,5,67,11
2,1,23,0,3,0,1,5,90,11
2,1,13,1,5,1,1,5,67,11
2,1,15,1,5,1,1,5,67,11
2,1,20,1,5,1,1,5,102,11
2,1,2,0,5,1,1,5,67,11
2,1,7,1,5,1,1,5,90,11
2,1,2,0,6,1,1,5,90,11
2,1,2,0,6,1,1,5,90,11
2,1,4,0,6,1,1,5,67,11
2,1,10,1,6,1,1,5,67,11
2,1,9,1,6,1,1,5,67,11
2,1,19,1,0,0,1,5,31,11
2,1,2,0,2,0,1,5,21,11
2,1,20,1,3,0,1,5,90,11
2,1,16,1,4,0,1,5,49,11
2,1,13,1,4,0,1,5,8,11
2,1,22,0,4,0,1,5,90,11
2,1,16,1,5,1,1,5,67,11
2,1,20,1,5,1,1,5,67,11
2,1,21,0,5,1,1,5,90,11
2,1,17,1,6,1,1,5,78,11
2,1,1,0,0,0,1,5,90,11
2,1,1,0,0,0,1,5,78,11
2,1,0,0,1,0,1,5,90,11
2,1,10,1,1,0,1,5,8,11
2,1,8,1,1,0,1,5,8,11
2,1,14,1,1,0,1,5,77,11
2,1,9,1,3,0,1,5,8,11
2,1,0,0,4,0,1,5,90,11
2,1,5,0,4,0,1,5,67,9
2,1,13,1,4,0,1,5,8,11
2,1,13,1,6,1,1,5,67,11
2,1,23,0,6,1,1,5,90,11
2,1,3,0,0,0,1,5,100,11
2,1,14,1,0,0,1,5,67,11
3,2,11,1,2,0,1,5,67,11
3,2,14,1,3,0,1,5,67,11
3,2,1,0,4,0,1,5,90,11
3,2,21,0,4,0,1,5,67,11
3,2,1,0,5,1,1,5,14,11
3,2,6,0,5,1,1,5,8,8
3,2,4,0,5,1,1,5,21,9
3,2,20,1,5,1,1,5,90,11
3,2,0,0,6,1,1,5,67,8
3,2,5,0,6,1,1,5,90,11
3,2,0,0,6,1,1,5,100,11
3,2,10,1,2,0,1,5,80,11
3,2,21,0,2,0,1,5,59,11
3,2,16,1,2,0,1,5,67,11
3,2,8,1,3,0,1,5,32,11
3,2,13,1,4,0,1,5,78,11
3,2,1,0,5,1,1,5,100,11
3,2,18,1,0,0,1,5,8,9
3,2,7,1,1,0,1,5,8,11
3,2,4,0,2,0,1,5,67,8
3,2,20,1,2,0,1,5,67,11
3,2,18,1,4,0,1,5,30,11
3,2,0,0,6,1,1,5,21,11
3,2,19,1,6,1,1,5,9,11
3,2,8,1,6,1,1,5,90,11
3,2,11,1,6,1,1,5,77,11
3,2,3,0,1,0,1,5,59,11
3,2,5,0,1,0,1,5,21,11
3,2,15,1,1,0,1,5,40,11
3,2,20,1,1,0,1,5,90,11
3,2,12,1,1,0,1,5,77,11
3,2,7,1,2,0,1,5,59,11
3,2,10,1,2,0,1,5,9,11
3,2,3,0,3,0,1,5,90,9
3,2,23,0,3,0,1,5,21,11
3,2,23,0,3,0,1,5,90,11
3,2,18,1,4,0,1,5,9,11
3,2,12,1,5,1,1,5,67,11
3,2,5,0,6,1,1,5,90,11
3,2,2,0,6,1,1,5,100,11
3,2,23,0,0,0,1,5,90,11
3,2,3,0,1,0,1,5,90,9
3,2,12,1,2,0,1,5,77,11
3,2,23,0,3,0,1,5,90,11
3,2,2,0,3,0,1,5,102,11
3,2,7,1,3,0,1,5,67,11
4,2,2,0,5,1,2,5,21,11
4,2,0,0,5,1,2,5,21,11
4,2,7,1,5,1,2,5,9,11
4,2,6,0,5,1,2,5,90,11
4,2,3,0,6,1,2,5,101,11
4,2,14,1,1,0,2,5,90,11
4,2,3,0,2,0,2,5,67,11
4,2,18,1,2,0,2,5,67,11
4,2,6,0,3,0,2,5,21,11
4,2,15,1,3,0,2,5,90,11
4,2,10,1,4,0,2,5,9,11
4,2,5,0,5,1,2,5,67,9
4,2,3,0,5,1,2,5,90,11
4,2,13,1,6,1,2,5,100,11
4,2,8,1,0,0,2,5,90,11
4,2,18,1,0,0,2,5,77,8
4,2,3,0,1,0,2,5,90,11
4,2,3,0,1,0,2,5,100,11
4,2,3,0,1,0,2,5,90,11
4,2,13,1,2,0,2,5,90,11
4,2,4,0,3,0,2,5,67,11
4,2,23,0,3,0,2,5,67,11
4,2,18,1,4,0,2,5,67,11
4,2,18,1,4,0,2,5,67,11
4,2,23,0,5,1,2,5,30,11
4,2,19,1,6,1,2,5,90,11
4,2,4,0,6,1,2,5,90,11
4,2,0,0,6,1,2,5,90,11
4,2,15,1,0,0,2,5,67,11
4,2,23,0,0,0,2,5,104,11
4,2,23,0,0,0,2,5,90,11
4,2,5,0,1,0,2,5,49,11
4,2,10,1,1,0,2,5,32,11
4,2,10,1,1,0,2,5,9,11
4,2,15,1,1,0,2,5,90,11
4,2,12,1,2,0,2,5,90,11
4,2,13,1,2,0,2,5,67,11
4,2,12,1,3,0,2,5,90,11
4,2,14,1,3,0,2,5,9,11
4,2,3,0,3,0,2,5,67,11
4,2,20,1,4,0,2,5,67,11
4,2,22,0,4,0,2,5,90,11
4,2,17,1,4,0,2,5,90,11
4,2,11,1,5,1,2,5,67,11
4,2,12,1,5,1,2,5,90,11
4,2,2,0,6,1,2,5,90,11
4,2,15,1,6,1,2,5,90,11
4,2,23,0,0,0,2,5,90,11
4,2,23,0,0,0,2,5,90,11
4,2,21,0,1,0,2,5,90,11
4,2,2,0,1,0,2,5,90,11
4,2,10,1,1,0,2,5,67,11
4,2,4,0,1,0,2,5,90,11
4,2,13,1,2,0,2,5,61,11
4,2,14,1,2,0,2,5,90,11
4,2,19,1,2,0,2,5,90,11
4,2,4,0,3,0,2,5,67,11
4,2,1,0,4,0,2,5,90,11
4,2,2,0,4,0,2,5,90,11
4,2,11,1,4,0,2,5,67,11
4,2,22,0,4,0,2,5,67,11
4,2,17,1,5,1,2,5,90,11
4,2,21,0,5,1,2,5,90,11
4,2,11,1,5,1,2,5,90,11
4,2,11,1,5,1,2,5,90,11
5,2,3,0,6,1,2,5,100,11
5,2,6,0,6,1,2,5,100,11
5,2,21,0,6,1,2,5,67,11
5,2,23,0,6,1,2,5,100,11
5,2,2,0,1,0,2,5,100,11
5,2,2,0,1,0,2,5,100,11
5,2,8,1,1,0,2,5,9,11
5,2,4,0,2,0,2,5,90,11
5,2,15,1,2,0,2,5,90,11
5,2,15,1,2,0,2,5,67,11
5,2,22,0,2,0,2,5,81,11
5,2,3,0,3,0,2,5,90,11
5,2,3,0,3,0,2,5,90,11
5,2,3,0,3,0,2,5,90,11
5,2,8,1,3,0,2,5,67,11
5,2,15,1,3,0,2,5,67,11
5,2,6,0,4,0,2,5,90,11
5,2,4,0,5,1,2,5,90,11
5,2,6,0,5,1,2,5,90,11
5,2,7,1,5,1,2,5,90,11
5,2,17,1,5,1,2,5,90,11
5,2,17,1,5,1,2,5,90,11
5,2,16,1,5,1,2,5,21,11
5,2,5,0,6,1,2,5,67,11
5,2,7,1,0,0,2,5,9,11
5,2,14,1,0,0,2,5,130,11
5,2,5,0,1,0,2,5,90,11
5,2,20,1,2,0,2,5,90,11
5,2,19,1,3,0,2,5,101,11
5,2,4,0,4,0,2,5,133,11
5,2,23,0,4,0,2,5,32,11
5,2,2,0,6,1,2,5,67,11
5,2,0,0,0,0,2,5,90,11
5,2,23,0,0,0,2,5,90,11
5,2,0,0,3,0,2,5,59,11
5,2,22,0,3,0,2,5,9,11
5,2,5,0,4,0,2,5,8,11
5,2,5,0,4,0,2,5,90,11
5,2,5,0,4,0,2,5,90,11
5,2,6,0,4,0,2,5,90,11
5,2,14,1,4,0,2,5,67,11
5,2,23,0,4,0,2,5,90,11
5,2,13,1,5,1,2,5,67,11
5,2,14,1,5,1,2,5,67,11
5,2,22,0,5,1,2,5,90,11
5,2,0,0,6,1,2,5,90,11
5,2,3,0,6,1,2,5,67,11
5,2,12,1,6,1,2,5,9,11
5,2,12,1,1,0,2,5,67,11
5,2,13,1,1,0,2,5,67,11
5,2,10,1,3,0,2,5,67,11
5,2,5,0,3,0,2,5,90,11
5,2,20,1,4,0,2,5,31,11
5,2,23,0,4,0,2,5,90,11
5,2,21,0,4,0,2,5,90,11
5,2,2,0,5,1,2,5,90,11
5,2,8,1,6,1,2,5,90,8
5,2,1,0,6,1,2,5,90,8
5,2,2,0,6,1,2,5,90,11
5,2,6,0,0,0,2,5,90,11
5,2,19,1,1,0,2,5,49,11
6,3,17,1,2,0,2,5,62,11
6,3,14,1,4,0,2,5,67,11
6,3,12,1,5,1,2,5,90,11
6,3,13,1,5,1,2,5,67,11
6,3,2,0,6,1,2,5,100,11
6,3,3,0,0,0,2,5,67,11
6,3,13,1,0,0,2,5,67,11
6,3,10,1,0,0,2,5,90,11
6,3,14,1,0,0,2,5,32,11
6,3,15,1,0,0,2,5,109,11
6,3,0,0,1,0,2,5,66,11
6,3,21,0,2,0,2,5,90,11
6,3,4,0,3,0,2,5,77,11
6,3,2,0,3,0,2,5,90,11
6,3,3,0,3,0,2,5,90,11
6,3,20,1,3,0,2,5,9,11
6,3,2,0,3,0,2,5,90,11
6,3,1,0,5,1,2,5,67,11
6,3,1,0,5,1,2,5,67,11
6,3,9,1,5,1,2,5,90,11
6,3,16,1,5,1,2,5,67,11
6,3,15,1,5,1,2,5,67,11
6,3,22,0,5,1,2,5,90,11
6,3,19,1,6,1,2,5,67,11
6,3,3,0,0,0,2,5,90,11
6,3,3,0,1,0,2,5,90,11
6,3,10,1,1,0,2,5,90,11
6,3,3,0,2,0,2,5,90,11
6,3,0,0,3,0,2,5,90,8
6,3,23,0,3,0,2,5,90,11
6,3,22,0,4,0,2,5,59,11
6,3,18,1,5,1,2,5,90,11
6,3,1,0,0,0,2,5,90,11
6,3,18,1,0,0,2,5,90,11
6,3,23,0,0,0,2,5,90,11
6,3,21,0,2,0,2,5,86,11
6,3,13,1,2,0,2,5,90,11
6,3,16,1,2,0,2,5,6,11
6,3,23,0,2,0,2,5,67,11
6,3,21,0,4,0,2,5,90,11
6,3,18,1,5,1,2,5,107,11
6,3,14,1,5,1,2,5,90,11
6,3,14,1,5,1,2,5,67,11
6,3,1,0,6,1,2,5,90,11
6,3,21,0,1,0,2,5,67,11
6,3,5,0,1,0,2,5,90,11
6,3,11,1,2,0,2,5,67,11
6,3,17,1,3,0,2,5,67,11
7,3,13,1,4,0,3,5,121,11
7,3,19,1,4,0,3,5,67,11
7,3,23,0,4,0,3,5,90,11
7,3,6,0,4,0,3,5,90,11
7,3,7,1,5,1,3,5,90,11
7,3,8,1,6,1,3,5,90,11
7,3,1,0,0,0,3,5,90,11
7,3,17,1,0,0,3,5,90,11
7,3,10,1,1,0,3,5,90,11
7,3,12,1,1,0,3,5,49,11
7,3,10,1,2,0,3,5,67,11
7,3,18,1,2,0,3,5,67,11
7,3,17,1,2,0,3,5,90,11
7,3,0,0,2,0,3,5,90,11
7,3,15,1,2,0,3,5,67,11
7,3,5,0,3,0,3,5,90,11
7,3,11,1,3,0,3,5,9,11
7,3,0,0,3,0,3,5,90,11
7,3,0,0,3,0,3,5,90,11
7,3,5,0,5,1,3,5,90,11
7,3,5,0,5,1,3,5,90,11
7,3,6,0,5,1,3,5,67,11
7,3,3,0,6,1,3,5,90,11
7,3,15,1,0,0,3,5,67,11
7,3,20,1,1,0,3,5,90,11
7,3,16,1,1,0,3,5,90,11
7,3,3,0,1,0,3,5,90,11
7,3,3,0,2,0,3,5,67,11
7,3,4,0,2,0,3,5,77,11
7,3,2,0,3,0,3,5,90,11
7,3,17,1,5,1,3,5,67,11
7,3,1,0,6,1,3,5,101,11
7,3,17,1,6,1,3,5,90,11
7,3,17,1,1,0,3,5,90,11
7,3,18,1,1,0,3,5,67,11
7,3,15,1,1,0,3,5,90,11
7,3,6,0,3,0,3,5,90,11
7,3,3,0,4,0,3,5,90,11
7,3,13,1,5,1,3,5,81,11
7,3,1,0,6,1,3,5,31,11
7,3,2,0,6,1,3,5,74,11
7,3,21,0,6,1,3,5,67,11
7,3,12,1,6,1,3,5,90,11
7,3,6,0,6,1,3,5,90,11
7,3,14,1,1,0,3,5,90,11
7,3,12,1,2,0,3,5,67,11
7,3,2,0,3,0,3,5,90,11
7,3,1,0,3,0,3,5,90,11
7,3,6,0,4,0,3,5,90,11
7,3,21,0,5,1,3,5,19,11
7,3,11,1,5,1,3,5,90,11
7,3,3,0,6,1,3,5,104,11
7,3,3,0,6,1,3,5,104,11
7,3,2,0,6,1,3,5,21,11
7,3,2,0,6,1,3,5,90,11
7,3,1,0,6,1,3,5,90,11
8,3,21,0,0,0,3,5,90,11
8,3,1,0,1,0,3,5,74,11
8,3,0,0,2,0,3,5,90,11
8,3,13,1,3,0,3,5,67,11
8,3,23,0,4,0,3,5,9,11
8,3,4,0,5,1,3,5,74,11
8,3,18,1,0,0,3,5,9,11
8,3,1,0,1,0,3,5,90,11
8,3,12,1,1,0,3,5,67,11
8,3,12,1,2,0,3,5,90,11
8,3,20,1,2,0,3,5,59,11
8,3,6,0,3,0,3,5,74,11
8,3,22,0,4,0,3,5,67,11
8,3,15,1,5,1,3,5,90,11
8,3,2,0,5,1,3,5,90,11
8,3,7,1,6,1,3,5,81,11
8,3,11,1,6,1,3,5,90,11
8,3,2,0,6,1,3,5,74,11
8,3,23,0,1,0,3,5,90,11
8,3,4,0,1,0,3,5,90,11
8,3,3,0,1,0,3,5,67,11
8,3,23,0,2,0,3,5,74,11
8,3,18,1,2,0,3,5,90,11
8,3,5,0,2,0,3,5,90,11
8,3,5,0,2,0,3,5,74,11
8,3,3,0,2,0,3,5,90,11
8,3,23,0,3,0,3,5,74,11
8,3,16,1,4,0,3,5,67,11
8,3,2,0,6,1,3,5,74,11
8,3,0,0,6,1,3,5,90,11
8,3,2,0,6,1,3,5,74,11
8,3,11,1,0,0,3,5,67,11
8,3,16,1,0,0,3,5,90,11
8,3,14,1,1,0,3,5,67,11
8,3,12,1,1,0,3,5,67,11
8,3,22,0,2,0,3,5,90,11
8,3,4,0,2,0,3,5,67,11
8,3,7,1,2,0,3,5,90,11
8,3,1,0,3,0,3,5,67,11
8,3,5,0,4,0,3,5,90,11
8,3,21,0,5,1,3,5,67,11
8,3,3,0,5,1,3,5,90,11
8,3,15,1,5,1,3,5,67,11
8,3,19,1,5,1,3,5,67,11
8,3,2,0,5,1,3,5,74,11
8,3,3,0,6,1,3,5,90,11
8,3,17,1,0,0,3,5,67,11
8,3,4,0,1,0,3,5,90,11
8,3,12,1,2,0,3,5,90,11
8,3,12,1,2,0,3,5,90,11
9,4,12,1,3,0,3,5,90,11
9,4,0,0,4,0,3,5,90,11
9,4,5,0,4,0,3,5,90,11
9,4,12,1,5,1,3,5,67,11
9,4,11,1,5,1,3,5,49,11
9,4,2,0,5,1,3,5,90,11
9,4,4,0,5,1,3,5,90,11
9,4,11,1,5,1,3,5,100,11
9,4,12,1,6,1,3,5,14,11
9,4,2,0,6,1,3,5,100,11
9,4,4,0,6,1,3,5,100,11
9,4,3,0,6,1,3,5,100,11
9,4,14,1,2,0,3,5,67,11
9,4,15,1,4,0,3,5,21,11
9,4,18,1,4,0,3,5,67,11
9,4,19,1,5,1,3,5,67,11
9,4,4,0,5,1,3,5,21,11
9,4,1,0,6,1,3,5,90,11
9,4,6,0,6,1,3,5,90,11
9,4,14,1,0,0,3,5,67,11
9,4,19,1,0,0,3,5,90,11
9,4,15,1,0,0,3,5,67,11
9,4,5,0,1,0,3,5,90,11
9,4,23,0,1,0,3,5,67,11
9,4,9,1,1,0,3,5,109,11
9,4,13,1,2,0,3,5,67,11
9,4,17,1,2,0,3,5,67,11
9,4,23,0,2,0,3,5,90,11
9,4,4,0,4,0,3,5,90,11
9,4,6,0,4,0,3,5,9,11
9,4,11,1,4,0,3,5,49,11
9,4,2,0,4,0,3,5,67,11
9,4,20,1,5,1,3,5,59,11
9,4,5,0,6,1,3,5,90,11
9,4,5,0,6,1,3,5,90,11
9,4,6,0,6,1,3,5,90,11
9,4,6,0,6,1,3,5,90,11
9,4,4,0,6,1,3,5,90,11
9,4,1,0,6,1,3,5,90,11
9,4,17,1,0,0,3,5,9,11
9,4,17,1,0,0,3,5,67,11
9,4,3,0,1,0,3,5,90,11
9,4,12,1,1,0,3,5,67,11
9,4,15,1,2,0,3,5,9,11
9,4,4,0,3,0,3,5,100,11
9,4,23,0,3,0,3,5,67,11
9,4,22,0,3,0,3,5,67,11
9,4,10,1,4,0,3,5,67,11
9,4,17,1,5,1,3,5,90,11
9,4,11,1,2,0,3,5,67,11
9,4,11,1,4,0,3,5,74,11
10,4,4,0,5,1,4,5,49,8
10,4,4,0,6,1,4,5,90,11
10,4,2,0,6,1,4,5,74,11
10,4,2,0,6,1,4,5,78,11
10,4,18,1,2,0,4,5,67,11
10,4,3,0,4,0,4,5,67,9
10,4,15,1,4,0,4,5,67,11
10,4,23,0,5,1,4,5,90,11
10,4,19,1,6,1,4,5,67,11
10,4,4,0,0,0,4,5,90,11
10,4,16,1,0,0,4,5,67,11
10,4,15,1,0,0,4,5,90,11
10,4,14,1,0,0,4,5,67,11
10,4,1,0,2,0,4,5,90,11
10,4,13,1,3,0,4,5,67,11
10,4,8,1,5,1,4,5,90,11
10,4,2,0,6,1,4,5,90,11
10,4,0,0,1,0,4,5,90,11
10,4,0,0,2,0,4,5,90,11
10,4,1,0,2,0,4,5,90,11
10,4,1,0,2,0,4,5,90,11
10,4,1,0,2,0,4,5,90,11
10,4,15,1,2,0,4,5,67,11
10,4,1,0,3,0,4,5,90,11
10,4,2,0,3,0,4,5,59,11
10,4,2,0,3,0,4,5,90,11
10,4,22,0,3,0,4,5,90,11
10,4,21,0,4,0,4,5,67,11
10,4,14,1,5,1,4,5,90,11
10,4,22,0,6,1,4,5,67,11
10,4,12,1,6,1,4,5,67,11
10,4,16,1,6,1,4,5,67,11
10,4,4,0,2,0,4,5,90,11
10,4,16,1,2,0,4,5,121,11
10,4,22,0,2,0,4,5,59,11
10,4,20,1,2,0,4,5,90,11
10,4,5,0,3,0,4,5,9,11
10,4,0,0,4,0,4,5,90,11
10,4,16,1,4,0,4,5,90,11
10,4,20,1,5,1,4,5,90,11
10,4,6,0,6,1,4,5,90,11
10,4,19,1,6,1,4,5,90,11
10,4,0,0,0,0,4,5,90,11
11,4,20,1,2,0,4,5,90,11
11,4,1,0,2,0,4,5,32,11
11,4,3,0,3,0,4,5,90,11
11,4,12,1,3,0,4,5,67,11
11,4,0,0,6,1,4,5,90,11
11,4,18,1,2,0,4,5,67,11
11,4,18,1,2,0,4,5,90,11
11,4,15,1,3,0,4,5,67,11
11,4,2,0,4,0,4,5,90,11
11,4,2,0,4,0,4,5,90,11
11,4,2,0,4,0,4,5,90,11
11,4,3,0,4,0,4,5,90,11
11,4,6,0,5,1,4,5,90,11
11,4,3,0,5,1,4,5,90,11
11,4,6,0,5,1,4,5,90,11
11,4,1,0,5,1,4,5,90,11
11,4,4,0,6,1,4,5,90,11
11,4,4,0,6,1,4,5,90,11
11,4,2,0,6,1,4,5,90,11
11,4,4,0,0,0,4,5,90,11
11,4,19,1,0,0,4,5,67,11
11,4,18,1,0,0,4,5,77,11
11,4,23,0,0,0,4,5,90,11
11,4,4,0,1,0,4,5,90,11
11,4,11,1,1,0,4,5,67,11
11,4,12,1,1,0,4,5,90,11
11,4,20,1,1,0,4,5,90,11
11,4,6,0,2,0,4,5,9,11
11,4,9,1,3,0,4,5,90,11
11,4,21,0,3,0,4,5,90,11
11,4,1,0,4,0,4,5,101,9
11,4,5,0,5,1,4,5,90,11
11,4,0,0,5,1,4,5,67,11
11,4,0,0,6,1,4,5,90,11
11,4,4,0,6,1,4,5,90,11
11,4,4,0,6,1,4,5,90,11
11,4,22,0,1,0,4,5,67,11
11,4,22,0,1,0,4,5,67,11
11,4,23,0,2,0,4,5,67,11
11,4,22,0,2,0,4,5,67,11
11,4,22,0,3,0,4,5,67,11
11,4,19,1,4,0,4,5,90,11
11,4,17,1,4,0,4,5,67,11
11,4,4,0,4,0,4,5,90,9
11,4,3,0,5,1,4,5,90,11
11,4,3,0,5,1,4,5,90,11
11,4,21,0,6,1,4,5,109,11
11,4,7,1,6,1,4,5,90,11
11,4,16,1,6,1,4,5,67,11
11,4,18,1,0,0,4,5,67,11
11,4,18,1,1,0,4,5,90,11
11,4,15,1,1,0,4,5,67,11
12,1,1,0,3,0,4,5,90,11
12,1,21,0,3,0,4,5,67,11
12,1,3,0,4,0,4,5,90,11
12,1,0,0,4,0,4,5,90,11
12,1,15,1,4,0,4,5,9,11
12,1,22,0,5,1,4,5,90,11
12,1,17,1,6,1,4,5,90,11
12,1,22,0,6,1,4,5,67,11
12,1,22,0,0,0,4,5,90,11
12,1,21,0,0,0,4,5,90,11
12,1,14,1,0,0,4,5,90,11
12,1,17,1,0,0,4,5,67,11
12,1,2,0,1,0,4,5,90,11
12,1,20,1,1,0,4,5,67,11
12,1,21,0,1,0,4,5,30,11
12,1,20,1,1,0,4,5,90,11
12,1,1,0,1,0,4,5,67,11
12,1,20,1,1,0,4,5,90,11
12,1,18,1,2,0,4,5,90,11
12,1,21,0,2,0,4,5,90,11
12,1,2,0,3,0,4,5,90,11
12,1,20,1,3,0,4,5,90,11
12,1,22,0,4,0,4,5,90,11
12,1,0,0,4,0,4,5,90,11
12,1,12,1,4,0,4,5,67,11
12,1,1,0,4,0,4,5,90,11
12,1,1,0,4,0,4,5,90,11
12,1,7,1,4,0,4,5,90,11
12,1,1,0,5,1,4,5,90,11
12,1,23,0,5,1,4,5,32,11
12,1,20,1,5,1,4,5,52,11
12,1,13,1,5,1,4,5,67,11
12,1,1,0,6,1,4,5,90,11
12,1,1,0,0,0,4,5,90,11
12,1,12,1,0,0,4,5,67,11
12,1,0,0,0,0,4,5,90,11
12,1,15,1,0,0,4,5,90,11
12,1,11,1,1,0,4,5,67,11
12,1,0,0,4,0,4,5,90,11
12,1,19,1,4,0,4,5,121,11
12,1,0,0,4,0,4,5,67,11
12,1,18,1,5,1,4,5,101,11
12,1,14,1,5,1,4,5,67,11
12,1,5,0,5,1,4,5,90,11
12,1,0,0,6,1,4,5,90,11
12,1,4,0,6,1,4,5,90,11
12,1,5,0,6,1,4,5,90,11
12,1,12,1,6,1,4,5,67,11
12,1,7,1,6,1,4,5,90,11
12,1,18,1,6,1,4,5,35,11
12,1,22,0,0,0,4,5,90,9
12,1,19,1,1,0,4,5,90,11
12,1,0,0,2,0,4,5,90,11
12,1,18,1,2,0,4,5,90,11
12,1,22,0,2,0,4,5,67,11
12,1,18,1,4,0,4,5,32,11
12,1,17,1,5,1,4,5,67,11
12,1,22,0,5,1,4,5,90,11
12,1,12,1,6,1,4,5,67,11
12,1,17,1,0,0,4,5,90,11
12,1,11,1,0,0,4,5,107,11
12,1,20,1,0,0,4,5,67,11
12,1,19,1,0,0,4,5,90,11
12,1,1,0,1,0,4,5,90,11
12,1,2,0,1,0,4,5,90,11
12,1,2,0,1,0,4,5,90,11
12,1,8,1,1,0,4,5,90,11
12,1,11,1,1,0,4,5,90,11
12,1,16,1,2,0,4,5,9,11
12,1,10,1,3,0,4,5,67,11
12,1,11,1,3,0,4,5,90,11
12,1,3,0,4,0,4,5,90,11
12,1,18,1,4,0,4,5,67,11
12,1,21,0,5,1,4,5,90,11
12,1,20,1,5,1,4,5,90,11
1,1,16,1,4,0,1,5,100,11
1,1,20,1,5,1,1,5,100,11
1,1,19,1,5,1,1,5,77,11
1,1,20,1,5,1,1,5,77,11
1,1,2,0,0,0,1,5,74,11
1,1,21,0,0,0,1,5,90,11
1,1,21,0,0,0,1,5,67,11
1,1,21,0,4,0,1,5,100,11
1,1,20,1,5,1,1,5,90,11
1,1,18,1,6,1,1,5,1,11
1,1,14,1,6,1,1,5,67,11
1,1,10,1,6,1,1,5,1,11
1,1,14,1,0,0,1,5,74,11
1,1,5,0,2,0,1,5,100,11
1,1,1,0,4,0,1,5,90,11
1,1,0,0,4,0,1,5,90,11
1,1,22,0,4,0,1,5,100,11
1,1,21,0,4,0,1,5,100,9
1,1,3,0,5,1,1,5,100,11
1,1,22,0,5,1,1,5,67,11
1,1,23,0,5,1,1,5,14,11
1,1,2,0,1,0,1,5,90,11
1,1,10,1,1,0,1,5,90,11
1,1,16,1,1,0,1,5,1,11
1,1,23,0,2,0,1,5,90,11
1,1,21,0,3,0,1,5,104,11
1,1,2,0,4,0,1,5,1,11
1,1,14,1,4,0,1,5,90,11
1,1,23,0,5,1,1,5,1,11
1,1,18,1,6,1,1,5,1,11
1,1,1,0,0,0,1,5,90,11
1,1,2,0,0,0,1,5,115,8
1,1,22,0,1,0,1,5,104,11
1,1,13,1,1,0,1,5,67,11
1,1,0,0,2,0,1,5,104,11
1,1,1,0,2,0,1,5,104,11
1,1,4,0,2,0,1,5,104,11
1,1,7,1,5,1,1,5,132,11
1,1,7,1,6,1,1,5,104,11
2,1,14,1,1,0,1,5,90,11
2,1,1,0,1,0,1,5,90,11
2,1,1,0,1,0,1,5,104,11
2,1,5,0,2,0,1,5,104,11
2,1,4,0,2,0,1,5,104,11
2,1,5,0,2,0,1,5,104,11
2,1,0,0,2,0,1,5,67,9
2,1,2,0,2,0,1,5,74,11
2,1,14,1,2,0,1,5,77,11
2,1,21,0,2,0,1,5,1,11
2,1,3,0,3,0,1,5,67,11
2,1,20,1,3,0,1,5,67,9
2,1,12,1,5,1,1,5,40,9
2,1,7,1,6,1,1,5,104,11
2,1,3,0,6,1,1,5,67,11
2,1,9,1,0,0,1,5,40,11
2,1,13,1,2,0,1,5,67,11
2,1,6,0,6,1,1,5,132,11
2,1,7,1,6,1,1,5,132,11
2,1,3,0,0,0,1,5,90,11
2,1,1,0,0,0,1,5,132,11
2,1,1,0,0,0,1,5,132,11
2,1,0,0,0,0,1,5,132,11
2,1,5,0,0,0,1,5,132,11
2,1,5,0,2,0,1,5,132,11
2,1,0,0,2,0,1,5,74,11
2,1,13,1,3,0,1,5,1,11
2,1,1,0,4,0,1,5,67,9
2,1,1,0,4,0,1,5,104,11
2,1,15,1,6,1,1,5,93,11
2,1,0,0,0,0,1,5,102,11
2,1,4,0,1,0,1,5,59,11
2,1,2,0,1,0,1,5,21,11
2,1,2,0,2,0,1,5,132,11
2,1,0,0,2,0,1,5,90,11
2,1,19,1,2,0,1,5,67,11
2,1,7,1,2,0,1,5,90,11
2,1,0,0,3,0,1,5,90,11
2,1,16,1,5,1,1,5,67,11
2,1,15,1,5,1,1,5,40,8
2,1,2,0,5,1,1,5,100,11
2,1,2,0,5,1,1,5,100,11
2,1,4,0,6,1,1,5,77,11
2,1,20,1,0,0,1,5,60,11
2,1,16,1,0,0,1,5,67,11
3,2,6,0,1,0,1,5,104,11
3,2,4,0,1,0,1,5,90,11
3,2,5,0,1,0,1,5,90,11
3,2,22,0,1,0,1,5,67,11
3,2,14,1,1,0,1,5,67,11
3,2,1,0,2,0,1,5,67,11
3,2,20,1,2,0,1,5,90,11
3,2,8,1,2,0,1,5,74,11
3,2,5,0,3,0,1,5,14,11
3,2,13,1,4,0,1,5,24,11
3,2,5,0,5,1,1,5,90,11
3,2,20,1,5,1,1,5,90,11
3,2,0,0,6,1,1,5,40,11
3,2,21,0,6,1,1,5,90,11
3,2,2,0,0,0,1,5,90,11
3,2,2,0,1,0,1,5,90,11
3,2,13,1,1,0,1,5,67,11
3,2,17,1,2,0,1,5,90,11
3,2,0,0,3,0,1,5,59,11
3,2,19,1,3,0,1,5,90,11
3,2,1,0,5,1,1,5,90,11
3,2,9,1,5,1,1,5,40,11
3,2,10,1,6,1,1,5,67,11
3,2,6,0,6,1,1,5,90,11
3,2,2,0,6,1,1,5,90,11
3,2,13,1,0,0,1,5,67,11
3,2,21,0,1,0,1,5,81,11
3,2,22,0,1,0,1,5,77,11
3,2,2,0,2,0,1,5,132,11
3,2,19,1,2,0,1,5,67,11
3,2,3,0,3,0,1,5,59,11
3,2,3,0,4,0,1,5,90,11
3,2,7,1,4,0,1,5,21,11
3,2,15,1,5,1,1,5,67,11
3,2,0,0,6,1,1,5,90,11
3,2,0,0,0,0,1,5,90,11
3,2,10,1,0,0,1,5,90,11
3,2,3,0,1,0,1,5,104,11
3,2,3,0,1,0,1,5,104,11
3,2,11,1,1,0,1,5,93,11
3,2,8,1,1,0,1,5,67,11
3,2,15,1,1,0,1,5,100,11
3,2,12,1,1,0,1,5,67,11
3,2,1,0,2,0,1,5,104,11
3,2,23,0,2,0,1,5,132,11
3,2,23,0,3,0,1,5,74,11
3,2,23,0,4,0,1,5,90,11
3,2,21,0,4,0,1,5,90,11
3,2,17,1,6,1,1,5,67,11
3,2,5,0,6,1,1,5,102,11
3,2,1,0,0,0,1,5,121,11
3,2,22,0,0,0,1,5,90,11
3,2,15,1,0,0,1,5,21,11
3,2,5,0,1,0,1,5,21,11
3,2,1,0,1,0,1,5,90,11
3,2,0,0,1,0,1,5,90,11
3,2,1,0,1,0,1,5,100,11
3,2,0,0,1,0,1,5,100,11
3,2,1,0,2,0,1,5,104,11
3,2,20,1,3,0,1,5,100,11
4,2,3,0,4,0,2,5,14,11
4,2,2,0,4,0,2,5,132,11
4,2,3,0,5,1,2,5,132,11
4,2,4,0,6,1,2,5,132,11
4,2,6,0,6,1,2,5,100,11
4,2,6,0,6,1,2,5,132,11
4,2,4,0,6,1,2,5,90,11
4,2,2,0,0,0,2,5,132,11
4,2,2,0,1,0,2,5,90,11
4,2,2,0,1,0,2,5,90,11
4,2,9,1,1,0,2,5,90,11
4,2,23,0,2,0,2,5,1,11
4,2,4,0,3,0,2,5,104,11
4,2,18,1,3,0,2,5,90,11
4,2,21,0,4,0,2,5,90,11
4,2,6,0,5,1,2,5,90,11
4,2,5,0,6,1,2,5,90,11
4,2,2,0,6,1,2,5,90,11
4,2,7,1,0,0,2,5,67,11
4,2,19,1,0,0,2,5,100,11
4,2,4,0,1,0,2,5,100,11
4,2,23,0,1,0,2,5,67,11
4,2,16,1,1,0,2,5,49,11
4,2,2,0,4,0,2,5,67,11
4,2,5,0,5,1,2,5,109,11
4,2,3,0,6,1,2,5,90,11
4,2,1,0,1,0,2,5,67,11
4,2,23,0,1,0,2,5,121,11
4,2,19,1,2,0,2,5,90,11
4,2,16,1,4,0,2,5,67,11
4,2,15,1,4,0,2,5,59,11
4,2,16,1,5,1,2,5,67,11
4,2,15,1,5,1,2,5,67,11
4,2,2,0,0,0,2,5,90,11
4,2,17,1,0,0,2,5,66,9
4,2,9,1,0,0,2,5,59,11
4,2,9,1,0,0,2,5,1,11
4,2,2,0,1,0,2,5,132,11
4,2,22,0,1,0,2,5,100,11
4,2,13,1,1,0,2,5,93,8
4,2,8,1,2,0,2,5,93,11
4,2,10,1,3,0,2,5,108,11
4,2,1,0,3,0,2,5,100,11
4,2,1,0,4,0,2,5,90,11
4,2,0,0,4,0,2,5,67,9
4,2,22,0,5,1,2,5,66,11
4,2,7,1,5,1,2,5,78,11
4,2,3,0,5,1,2,5,90,11
4,2,4,0,5,1,2,5,59,8
5,2,17,1,6,1,2,5,90,11
5,2,18,1,6,1,2,5,90,11
5,2,12,1,6,1,2,5,1,11
5,2,10,1,6,1,2,5,67,11
5,2,6,0,6,1,2,5,67,11
5,2,2,0,6,1,2,5,104,11
5,2,1,0,6,1,2,5,104,11
5,2,0,0,6,1,2,5,104,11
5,2,1,0,6,1,2,5,104,11
5,2,0,0,6,1,2,5,104,11
5,2,0,0,6,1,2,5,104,11
5,2,0,0,6,1,2,5,104,11
5,2,15,1,1,0,2,5,132,11
5,2,16,1,1,0,2,5,104,11
5,2,12,1,1,0,2,5,21,11
5,2,2,0,2,0,2,5,90,11
5,2,1,0,2,0,2,5,74,11
5,2,2,0,3,0,2,5,40,9
5,2,20,1,3,0,2,5,81,11
5,2,5,0,4,0,2,5,90,11
5,2,7,1,4,0,2,5,90,11
5,2,3,0,5,1,2,5,132,11
5,2,5,0,5,1,2,5,132,11
5,2,4,0,6,1,2,5,132,11
5,2,2,0,6,1,2,5,132,11
5,2,14,1,6,1,2,5,67,11
5,2,16,1,6,1,2,5,67,11
5,2,5,0,0,0,2,5,132,11
5,2,8,1,0,0,2,5,21,11
5,2,13,1,1,0,2,5,67,11
5,2,16,1,2,0,2,5,104,11
5,2,11,1,3,0,2,5,67,11
5,2,15,1,6,1,2,5,93,11
5,2,18,1,6,1,2,5,67,11
5,2,17,1,6,1,2,5,90,11
5,2,13,1,6,1,2,5,90,11
5,2,20,1,6,1,2,5,90,11
5,2,21,0,0,0,2,5,59,11
5,2,20,1,0,0,2,5,40,9
5,2,13,1,0,0,2,5,77,11
5,2,1,0,1,0,2,5,67,11
5,2,22,0,1,0,2,5,100,11
5,2,2,0,3,0,2,5,93,11
5,2,15,1,4,0,2,5,49,11
5,2,20,1,5,1,2,5,67,11
5,2,11,1,5,1,2,5,67,11
5,2,7,1,5,1,2,5,90,11
5,2,13,1,6,1,2,5,90,11
5,2,6,0,6,1,2,5,77,11
5,2,2,0,1,0,2,5,104,11
5,2,1,0,2,0,2,5,90,11
5,2,2,0,2,0,2,5,104,11
5,2,12,1,3,0,2,5,90,11
5,2,14,1,3,0,2,5,104,11
5,2,16,1,3,0,2,5,59,9
5,2,5,0,4,0,2,5,90,11
5,2,19,1,4,0,2,5,104,11
5,2,23,0,6,1,2,5,121,11
5,2,14,1,0,0,2,5,77,11
5,2,23,0,1,0,2,5,67,11
6,3,2,0,2,0,2,5,90,11
6,3,18,1,2,0,2,5,90,11
6,3,18,1,2,0,2,5,90,11
6,3,0,0,3,0,2,5,90,11
6,3,18,1,3,0,2,5,77,11
6,3,0,0,4,0,2,5,102,11
6,3,1,0,4,0,2,5,77,11
6,3,16,1,4,0,2,5,104,11
6,3,22,0,4,0,2,5,90,11
6,3,23,0,4,0,2,5,66,11
6,3,9,1,5,1,2,5,67,11
6,3,18,1,5,1,2,5,90,11
6,3,3,0,5,1,2,5,90,11
6,3,2,0,5,1,2,5,90,11
6,3,3,0,6,1,2,5,90,11
6,3,17,1,6,1,2,5,74,11
6,3,22,0,0,0,2,5,67,11
6,3,7,1,0,0,2,5,104,11
6,3,1,0,1,0,2,5,90,11
6,3,20,1,1,0,2,5,102,11
6,3,9,1,1,0,2,5,74,11
6,3,2,0,3,0,2,5,90,11
6,3,16,1,3,0,2,5,67,11
6,3,13,1,3,0,2,5,90,11
6,3,22,0,4,0,2,5,104,11
6,3,16,1,5,1,2,5,67,11
6,3,7,1,5,1,2,5,67,11
6,3,12,1,5,1,2,5,104,11
6,3,20,1,6,1,2,5,93,11
6,3,19,1,0,0,2,5,90,11
6,3,14,1,1,0,2,5,67,11
6,3,18,1,1,0,2,5,50,11
6,3,0,0,2,0,2,5,77,11
6,3,14,1,2,0,2,5,67,11
6,3,9,1,3,0,2,5,30,11
6,3,14,1,3,0,2,5,90,11
6,3,14,1,3,0,2,5,90,11
6,3,18,1,3,0,2,5,67,11
6,3,16,1,5,1,2,5,67,11
6,3,6,0,5,1,2,5,77,11
6,3,7,1,0,0,2,5,104,11
6,3,4,0,1,0,2,5,100,11
6,3,23,0,1,0,2,5,132,11
6,3,10,1,1,0,2,5,67,11
6,3,3,0,2,0,2,5,100,11
6,3,15,1,2,0,2,5,93,11
6,3,6,0,3,0,2,5,90,11
6,3,7,1,3,0,2,5,31,11
6,3,9,1,3,0,2,5,90,11
6,3,19,1,5,1,2,5,93,11
6,3,5,0,6,1,2,5,100,11
6,3,15,1,0,0,2,5,67,11
6,3,11,1,0,0,2,5,93,11
6,3,23,0,1,0,2,5,67,11
6,3,17,1,2,0,2,5,21,11
7,3,3,0,4,0,3,5,100,11
7,3,16,1,5,1,3,5,93,11
7,3,5,0,6,1,3,5,100,11
7,3,5,0,6,1,3,5,90,11
7,3,5,0,6,1,3,5,90,11
7,3,17,1,0,0,3,5,67,11
7,3,11,1,0,0,3,5,77,11
7,3,7,1,0,0,3,5,21,11
7,3,2,0,1,0,3,5,104,11
7,3,14,1,1,0,3,5,90,9
7,3,9,1,1,0,3,5,59,8
7,3,2,0,2,0,3,5,100,11
7,3,11,1,2,0,3,5,90,8
7,3,5,0,3,0,3,5,59,11
7,3,0,0,4,0,3,5,100,11
7,3,12,1,4,0,3,5,49,11
7,3,12,1,4,0,3,5,104,11
7,3,15,1,5,1,3,5,67,11
7,3,4,0,5,1,3,5,100,11
7,3,1,0,5,1,3,5,100,11
7,3,19,1,6,1,3,5,90,11
7,3,19,1,6,1,3,5,50,11
7,3,17,1,6,1,3,5,93,11
7,3,0,0,6,1,3,5,90,11
7,3,2,0,0,0,3,5,90,11
7,3,23,0,0,0,3,5,90,11
7,3,15,1,0,0,3,5,67,11
7,3,2,0,1,0,3,5,104,11
7,3,1,0,2,0,3,5,100,11
7,3,20,1,2,0,3,5,67,11
7,3,10,1,2,0,3,5,49,11
7,3,11,1,2,0,3,5,67,11
7,3,9,1,2,0,3,5,21,11
7,3,23,0,3,0,3,5,93,11
7,3,2,0,4,0,3,5,104,11
7,3,20,1,5,1,3,5,93,11
7,3,0,0,6,1,3,5,100,11
7,3,6,0,0,0,3,5,93,11
7,3,10,1,0,0,3,5,74,11
7,3,2,0,0,0,3,5,90,11
7,3,3,0,1,0,3,5,132,11
7,3,17,1,1,0,3,5,104,11
7,3,23,0,3,0,3,5,74,11
7,3,21,0,6,1,3,5,78,11
7,3,1,0,6,1,3,5,90,11
7,3,12,1,1,0,3,5,90,11
7,3,2,0,2,0,3,5,40,8
7,3,17,1,5,1,3,5,40,11
7,3,0,0,6,1,3,5,67,11
7,3,19,1,6,1,3,5,93,11
8,3,20,1,1,0,3,5,93,11
8,3,21,0,2,0,3,5,100,11
8,3,14,1,2,0,3,5,67,11
8,3,11,1,2,0,3,5,77,8
8,3,14,1,3,0,3,5,90,11
8,3,20,1,6,1,3,5,49,11
8,3,6,0,0,0,3,5,74,8
8,3,11,1,1,0,3,5,104,11
8,3,19,1,0,0,3,5,93,11
8,3,4,0,0,0,3,5,132,11
8,3,0,0,5,1,3,5,132,11
8,3,15,1,5,1,3,5,67,11
8,3,17,1,6,1,3,5,130,11
8,3,15,1,6,1,3,5,132,11
8,3,5,0,0,0,3,5,67,11
8,3,22,0,1,0,3,5,132,11
8,3,3,0,2,0,3,5,100,11
8,3,18,1,2,0,3,5,67,11
8,3,17,1,2,0,3,5,90,11
8,3,18,1,5,1,3,5,100,11
8,3,21,0,6,1,3,5,1,11
8,3,16,1,0,0,3,5,100,11
8,3,12,1,0,0,3,5,77,9
8,3,2,0,0,0,3,5,104,11
8,3,4,0,2,0,3,5,100,11
8,3,9,1,2,0,3,5,67,11
9,4,0,0,3,0,3,5,132,11
9,4,6,0,3,0,3,5,40,11
9,4,20,1,3,0,3,5,93,11
9,4,15,1,3,0,3,5,90,11
9,4,14,1,3,0,3,5,67,9
9,4,10,1,3,0,3,5,92,11
9,4,2,0,4,0,3,5,90,11
9,4,7,1,4,0,3,5,100,11
9,4,4,0,4,0,3,5,100,11
9,4,11,1,5,1,3,5,1,11
9,4,15,1,5,1,3,5,67,11
9,4,3,0,6,1,3,5,90,11
9,4,3,0,0,0,3,5,90,11
9,4,20,1,0,0,3,5,100,11
9,4,15,1,0,0,3,5,104,9
9,4,11,1,1,0,3,5,93,11
9,4,23,0,2,0,3,5,90,11
9,4,2,0,3,0,3,5,59,11
9,4,20,1,4,0,3,5,93,11
9,4,1,0,5,1,3,5,93,11
9,4,6,0,6,1,3,5,101,11
9,4,17,1,1,0,3,5,21,11
9,4,18,1,3,0,3,5,104,11
9,4,5,0,4,0,3,5,90,11
9,4,21,0,5,1,3,5,21,11
9,4,18,1,5,1,3,5,90,11
9,4,17,1,0,0,3,5,90,11
9,4,12,1,1,0,3,5,90,11
9,4,11,1,3,0,3,5,31,11
9,4,2,0,4,0,3,5,104,11
9,4,14,1,4,0,3,5,104,11
9,4,17,1,5,1,3,5,104,11
9,4,3,0,5,1,3,5,90,11
9,4,0,0,5,1,3,5,90,11
9,4,2,0,6,1,3,5,90,11
9,4,3,0,6,1,3,5,90,11
9,4,3,0,6,1,3,5,67,11
9,4,3,0,6,1,3,5,74,11
9,4,12,1,6,1,3,5,47,11
9,4,15,1,6,1,3,5,9,9
9,4,22,0,6,1,3,5,14,11
9,4,21,0,6,1,3,5,93,11
9,4,16,1,1,0,3,5,24,11
9,4,5,0,3,0,3,5,90,11
9,4,1,0,4,0,3,5,67,11
9,4,4,0,4,0,3,5,104,11
9,4,1,0,4,0,3,5,104,11
9,4,21,0,4,0,3,5,77,11
9,4,11,1,4,0,3,5,32,11
9,4,16,1,4,0,3,5,90,11
10,4,2,0,5,1,4,5,104,11
10,4,23,0,5,1,4,5,90,11
10,4,4,0,6,1,4,5,104,11
10,4,4,0,0,0,4,5,90,11
10,4,4,0,1,0,4,5,132,11
10,4,23,0,1,0,4,5,90,11
10,4,17,1,2,0,4,5,93,11
10,4,3,0,3,0,4,5,104,11
10,4,4,0,4,0,4,5,90,11
10,4,2,0,5,1,4,5,67,11
10,4,5,0,5,1,4,5,107,11
10,4,21,0,6,1,4,5,104,11
10,4,19,1,6,1,4,5,47,11
10,4,18,1,6,1,4,5,77,11
10,4,10,1,6,1,4,5,67,11
10,4,3,0,6,1,4,5,104,11
10,4,2,0,6,1,4,5,104,11
10,4,1,0,6,1,4,5,104,11
10,4,4,0,0,0,4,5,74,11
10,4,0,0,0,0,4,5,100,11
10,4,23,0,1,0,4,5,90,11
10,4,6,0,2,0,4,5,40,11
10,4,12,1,3,0,4,5,123,9
10,4,1,0,4,0,4,5,90,11
10,4,21,0,4,0,4,5,67,11
10,4,20,1,4,0,4,5,67,11
10,4,17,1,5,1,4,5,90,11
10,4,3,0,5,1,4,5,100,11
10,4,22,0,6,1,4,5,90,11
10,4,7,1,6,1,4,5,100,11
10,4,0,0,0,0,4,5,90,11
10,4,0,0,1,0,4,5,90,11
10,4,18,1,1,0,4,5,77,11
10,4,1,0,2,0,4,5,90,11
10,4,0,0,2,0,4,5,90,11
10,4,20,1,2,0,4,5,67,11
10,4,17,1,2,0,4,5,67,11
10,4,20,1,3,0,4,5,90,11
10,4,9,1,4,0,4,5,67,11
10,4,23,0,4,0,4,5,100,11
10,4,6,0,5,1,4,5,100,11
10,4,10,1,0,0,4,5,67,11
10,4,22,0,1,0,4,5,44,11
10,4,15,1,4,0,4,5,77,11
10,4,18,1,4,0,4,5,90,11
10,4,19,1,4,0,4,5,90,11
10,4,23,0,5,1,4,5,93,11
10,4,2,0,5,1,4,5,67,11
10,4,4,0,5,1,4,5,104,11
10,4,11,1,6,1,4,5,67,11
10,4,16,1,6,1,4,5,67,11
10,4,21,0,0,0,4,5,19,11
11,4,6,0,1,0,4,5,104,11
11,4,11,1,1,0,4,5,104,11
11,4,16,1,1,0,4,5,100,11
11,4,0,0,2,0,4,5,104,11
11,4,11,1,2,0,4,5,90,11
11,4,19,1,2,0,4,5,77,11
11,4,8,1,3,0,4,5,67,11
11,4,6,0,3,0,4,5,90,11
11,4,1,0,3,0,4,5,67,8
11,4,18,1,3,0,4,5,132,11
11,4,19,1,4,0,4,5,67,11
11,4,22,0,6,1,4,5,132,11
11,4,14,1,0,0,4,5,77,11
11,4,20,1,1,0,4,5,67,11
11,4,15,1,2,0,4,5,77,11
11,4,8,1,3,0,4,5,1,11
11,4,1,0,4,0,4,5,90,11
11,4,18,1,4,0,4,5,67,11
11,4,14,1,5,1,4,5,40,11
11,4,20,1,5,1,4,5,90,11
11,4,23,0,5,1,4,5,104,11
11,4,1,0,6,1,4,5,104,11
11,4,2,0,6,1,4,5,104,11
11,4,2,0,6,1,4,5,104,11
11,4,1,0,6,1,4,5,104,11
11,4,1,0,6,1,4,5,104,11
11,4,1,0,6,1,4,5,104,11
11,4,3,0,6,1,4,5,67,11
11,4,20,1,6,1,4,5,66,11
11,4,4,0,0,0,4,5,104,11
11,4,2,0,0,0,4,5,90,11
11,4,2,0,0,0,4,5,90,11
11,4,22,0,0,0,4,5,93,11
11,4,8,1,0,0,4,5,67,11
11,4,18,1,0,0,4,5,93,11
11,4,3,0,1,0,4,5,67,9
11,4,20,1,2,0,4,5,90,11
11,4,2,0,3,0,4,5,90,11
11,4,21,0,3,0,4,5,132,11
11,4,21,0,3,0,4,5,132,11
11,4,16,1,4,0,4,5,67,11
11,4,14,1,4,0,4,5,67,11
11,4,0,0,5,1,4,5,104,11
11,4,6,0,6,1,4,5,104,11
11,4,5,0,6,1,4,5,104,11
11,4,3,0,6,1,4,5,104,11
11,4,3,0,6,1,4,5,104,11
11,4,6,0,6,1,4,5,104,11
11,4,6,0,6,1,4,5,104,11
11,4,13,1,6,1,4,5,67,11
11,4,4,0,0,0,4,5,90,11
11,4,2,0,0,0,4,5,90,11
11,4,23,0,0,0,4,5,67,11
11,4,12,1,0,0,4,5,67,11
11,4,6,0,1,0,4,5,67,11
11,4,0,0,2,0,4,5,67,9
11,4,10,1,4,0,4,5,90,11
11,4,10,1,5,1,4,5,67,11
11,4,3,0,5,1,4,5,104,11
11,4,23,0,5,1,4,5,100,11
11,4,16,1,6,1,4,5,67,11
11,4,23,0,1,0,4,5,67,11
12,1,4,0,3,0,4,5,67,11
12,1,9,1,3,0,4,5,49,8
12,1,2,0,4,0,4,5,90,11
12,1,20,1,4,0,4,5,67,11
12,1,19,1,5,1,4,5,90,11
12,1,18,1,5,1,4,5,90,11
12,1,16,1,5,1,4,5,90,11
12,1,3,0,5,1,4,5,90,11
12,1,15,1,0,0,4,5,90,11
12,1,21,0,0,0,4,5,90,11
12,1,13,1,1,0,4,5,131,11
12,1,2,0,4,0,4,5,90,11
12,1,3,0,4,0,4,5,90,11
12,1,12,1,4,0,4,5,67,11
12,1,19,1,4,0,4,5,59,9
12,1,23,0,4,0,4,5,104,11
12,1,22,0,6,1,4,5,90,11
12,1,11,1,6,1,4,5,67,11
12,1,0,0,0,0,4,5,90,11
12,1,3,0,0,0,4,5,90,11
12,1,2,0,0,0,4,5,90,11
12,1,2,0,0,0,4,5,90,11
12,1,14,1,0,0,4,5,40,11
12,1,18,1,1,0,4,5,109,11
12,1,16,1,1,0,4,5,67,11
12,1,14,1,2,0,4,5,67,11
12,1,3,0,4,0,4,5,60,11
12,1,15,1,4,0,4,5,67,11
12,1,13,1,6,1,4,5,93,11
12,1,4,0,6,1,4,5,100,11
12,1,2,0,0,0,4,5,21,11
12,1,15,1,0,0,4,5,67,11
12,1,13,1,0,0,4,5,67,11
12,1,11,1,0,0,4,5,67,11
12,1,16,1,0,0,4,5,67,11
12,1,0,0,1,0,4,5,90,11
12,1,8,1,1,0,4,5,104,11
12,1,23,0,1,0,4,5,90,11
12,1,1,0,2,0,4,5,90,11
12,1,18,1,2,0,4,5,104,11
12,1,18,1,2,0,4,5,93,11
12,1,21,0,2,0,4,5,102,11
12,1,18,1,3,0,4,5,67,11
12,1,13,1,4,0,4,5,67,11
12,1,23,0,5,1,4,5,102,11
12,1,13,1,6,1,4,5,67,11
12,1,3,0,0,0,4,5,90,11
12,1,3,0,0,0,4,5,90,11
12,1,15,1,0,0,4,5,67,11
12,1,19,1,0,0,4,5,90,11
12,1,19,1,0,0,4,5,90,11
12,1,4,0,1,0,4,5,67,11
12,1,1,0,1,0,4,5,100,11
12,1,20,1,1,0,4,5,1,11
12,1,19,1,2,0,4,5,90,11
12,1,16,1,2,0,4,5,40,11
12,1,16,1,2,0,4,5,67,11
12,1,3,0,4,0,4,5,90,11
12,1,20,1,4,0,4,5,67,11
12,1,10,1,5,1,4,5,60,11
12,1,20,1,5,1,4,5,90,11
1,1,13,1,4,0,1,5,90,11
1,1,18,1,4,0,1,5,69,11
1,1,12,1,5,1,1,5,90,11
1,1,1,0,5,1,1,5,90,11
1,1,1,0,5,1,1,5,90,11
1,1,15,1,6,1,1,5,67,11
1,1,13,1,0,0,1,5,67,11
1,1,22,0,2,0,1,5,90,11
1,1,12,1,3,0,1,5,67,11
1,1,14,1,3,0,1,5,21,11
1,1,23,0,3,0,1,5,67,11
1,1,1,0,3,0,1,5,104,11
1,1,6,0,4,0,1,5,67,9
1,1,23,0,0,0,1,5,74,11
1,1,3,0,0,0,1,5,67,11
1,1,16,1,2,0,1,5,67,11
1,1,12,1,2,0,1,5,67,11
1,1,7,1,2,0,1,5,67,11
1,1,16,1,3,0,1,5,90,11
1,1,12,1,4,0,1,5,90,11
1,1,2,0,6,1,1,5,21,11
1,1,21,0,6,1,1,5,90,11
1,1,23,0,2,0,1,5,90,11
1,1,2,0,2,0,1,5,130,11
1,1,19,1,4,0,1,5,67,11
1,1,10,1,6,1,1,5,90,11
1,1,16,1,0,0,1,5,114,11
1,1,8,1,1,0,1,5,90,11
1,1,14,1,2,0,1,5,67,11
1,1,14,1,2,0,1,5,90,11
1,1,2,0,3,0,1,5,90,11
1,1,3,0,3,0,1,5,90,11
1,1,12,1,3,0,1,5,21,11
1,1,16,1,6,1,1,5,67,11
2,1,17,1,0,0,1,5,9,11
2,1,2,0,1,0,1,5,90,11
2,1,14,1,2,0,1,5,67,11
2,1,4,0,3,0,1,5,90,11
2,1,4,0,3,0,1,5,90,11
2,1,4,0,3,0,1,5,90,11
2,1,22,0,3,0,1,5,21,11
2,1,15,1,4,0,1,5,67,11
2,1,22,0,5,1,1,5,90,11
2,1,1,0,5,1,1,5,67,9
2,1,2,0,0,0,1,5,90,11
2,1,3,0,1,0,1,5,104,11
2,1,7,1,1,0,1,5,9,11
2,1,7,1,2,0,1,5,67,11
2,1,2,0,2,0,1,5,90,11
2,1,2,0,2,0,1,5,90,11
2,1,23,0,4,0,1,5,108,11
2,1,1,0,5,1,1,5,90,11
2,1,2,0,6,1,1,5,69,11
2,1,3,0,0,0,1,5,104,11
2,1,3,0,1,0,1,5,81,11
2,1,3,0,1,0,1,5,67,11
2,1,15,1,2,0,1,5,112,11
2,1,2,0,3,0,1,5,104,11
2,1,19,1,5,1,1,5,132,11
2,1,15,1,0,0,1,5,90,11
2,1,23,0,1,0,1,5,104,11
2,1,18,1,2,0,1,5,93,11
2,1,2,0,2,0,1,5,104,11
2,1,3,0,2,0,1,5,104,11
2,1,3,0,2,0,1,5,104,11
2,1,11,1,3,0,1,5,93,11
2,1,10,1,4,0,1,5,104,11
2,1,2,0,5,1,1,5,104,11
2,1,20,1,5,1,1,5,67,11
2,1,20,1,5,1,1,5,67,11
2,1,21,0,5,1,1,5,67,11
2,1,4,0,6,1,1,5,104,11
2,1,4,0,6,1,1,5,104,11
2,1,18,1,0,0,1,5,67,11
3,2,20,1,5,1,1,5,100,11
3,2,2,0,5,1,1,5,90,11
3,2,4,0,6,1,1,5,90,11
3,2,12,1,6,1,1,5,67,11
3,2,1,0,0,0,1,5,132,11
3,2,2,0,2,0,1,5,100,11
3,2,13,1,3,0,1,5,90,11
3,2,20,1,6,1,1,5,67,11
3,2,17,1,0,0,1,5,67,11
3,2,13,1,1,0,1,5,77,11
3,2,1,0,3,0,1,5,67,11
3,2,19,1,6,1,1,5,40,11
3,2,11,1,1,0,1,5,78,11
3,2,2,0,2,0,1,5,78,11
3,2,7,1,4,0,1,5,9,11
3,2,2,0,4,0,1,5,9,11
3,2,1,0,4,0,1,5,104,11
3,2,2,0,6,1,1,5,104,11
3,2,20,1,2,0,1,5,40,11
3,2,0,0,3,0,1,5,132,11
4,2,2,0,0,0,2,5,100,11
4,2,2,0,0,0,2,5,100,11
4,2,15,1,1,0,2,5,67,11
4,2,18,1,2,0,2,5,100,11
4,2,14,1,2,0,2,5,67,11
4,2,2,0,4,0,2,5,90,11
4,2,1,0,6,1,2,5,90,11
4,2,2,0,6,1,2,5,21,11
4,2,10,1,0,0,2,5,67,11
4,2,17,1,3,0,2,5,67,11
4,2,6,0,3,0,2,5,90,11
4,2,5,0,3,0,2,5,90,11
4,2,14,1,4,0,2,5,21,11
4,2,1,0,6,1,2,5,67,11
4,2,5,0,6,1,2,5,21,11
4,2,19,1,4,0,2,5,67,11
4,2,4,0,3,0,2,5,74,11
4,2,3,0,4,0,2,5,101,11
4,2,3,0,4,0,2,5,90,11
4,2,2,0,4,0,2,5,90,11
5,2,6,0,6,1,2,5,90,11
5,2,22,0,6,1,2,5,85,11
5,2,23,0,6,1,2,5,67,11
5,2,21,0,1,0,2,5,67,11
5,2,2,0,1,0,2,5,21,11
5,2,21,0,3,0,2,5,93,11
5,2,8,1,6,1,2,5,77,11
5,2,2,0,5,1,2,5,100,11
5,2,4,0,0,0,2,5,93,11
5,2,21,0,0,0,2,5,67,11
5,2,21,0,0,0,2,5,67,11
5,2,13,1,3,0,2,5,93,11
5,2,15,1,3,0,2,5,40,11
5,2,2,0,4,0,2,5,90,11
5,2,2,0,4,0,2,5,90,11
5,2,19,1,4,0,2,5,90,11
5,2,23,0,4,0,2,5,67,11
5,2,23,0,4,0,2,5,90,11
5,2,4,0,6,1,2,5,100,11
5,2,3,0,6,1,2,5,100,11
5,2,10,1,2,0,2,5,112,11
5,2,13,1,2,0,2,5,9,11
5,2,4,0,2,0,2,5,90,11
5,2,4,0,2,0,2,5,90,11
5,2,23,0,0,0,2,5,67,11
6,3,15,1,2,0,2,5,78,11
6,3,2,0,3,0,2,5,67,11
6,3,15,1,3,0,2,5,67,11
6,3,15,1,4,0,2,5,9,11
6,3,22,0,5,1,2,5,67,11
6,3,22,0,6,1,2,5,67,11
6,3,2,0,6,1,2,5,78,11
6,3,3,0,6,1,2,5,104,11
6,3,16,1,0,0,2,5,67,11
6,3,0,0,3,0,2,5,67,11
6,3,2,0,3,0,2,5,44,11
6,3,21,0,3,0,2,5,40,11
6,3,13,1,4,0,2,5,9,11
6,3,5,0,4,0,2,5,49,11
6,3,2,0,1,0,2,5,100,11
6,3,21,0,2,0,2,5,9,11
6,3,19,1,4,0,2,5,21,11
6,3,11,1,4,0,2,5,9,11
6,3,7,1,5,1,2,5,104,11
6,3,11,1,5,1,2,5,67,11
6,3,19,1,6,1,2,5,102,11
6,3,2,0,6,1,2,5,21,11
6,3,3,0,2,0,2,5,67,11
6,3,20,1,2,0,2,5,40,11
6,3,23,0,2,0,2,5,112,11
6,3,16,1,0,0,2,5,78,11
6,3,16,1,0,0,2,5,30,11
6,3,6,0,1,0,2,5,67,11
6,3,19,1,1,0,2,5,67,11
6,3,2,0,3,0,2,5,90,11
7,3,8,1,5,1,3,5,101,11
7,3,21,0,5,1,3,5,77,11
7,3,13,1,0,0,3,5,74,11
7,3,21,0,1,0,3,5,100,11
7,3,22,0,3,0,3,5,67,11
7,3,10,1,4,0,3,5,67,11
7,3,13,1,4,0,3,5,59,11
7,3,20,1,4,0,3,5,67,11
7,3,6,0,5,1,3,5,90,11
7,3,3,0,5,1,3,5,93,11
7,3,5,0,5,1,3,5,77,11
7,3,4,0,5,1,3,5,67,11
7,3,14,1,5,1,3,5,59,11
7,3,12,1,5,1,3,5,93,9
7,3,15,1,0,0,3,5,104,11
7,3,20,1,1,0,3,5,9,11
7,3,1,0,2,0,3,5,93,11
7,3,19,1,2,0,3,5,67,11
7,3,1,0,3,0,3,5,100,11
7,3,2,0,5,1,3,5,67,11
7,3,21,0,5,1,3,5,40,11
7,3,2,0,6,1,3,5,30,9
7,3,23,0,6,1,3,5,67,11
7,3,1,0,0,0,3,5,67,11
7,3,12,1,0,0,3,5,93,11
7,3,21,0,0,0,3,5,84,11
7,3,21,0,1,0,3,5,77,11
7,3,6,0,2,0,3,5,76,11
7,3,1,0,2,0,3,5,77,11
7,3,4,0,4,0,3,5,100,11
7,3,14,1,5,1,3,5,67,11
8,3,4,0,0,0,3,5,93,11
8,3,14,1,1,0,3,5,77,11
8,3,20,1,2,0,3,5,49,11
8,3,13,1,3,0,3,5,67,11
8,3,16,1,6,1,3,5,100,11
8,3,21,0,0,0,3,5,66,11
8,3,16,1,0,0,3,5,67,11
8,3,23,0,1,0,3,5,100,11
8,3,13,1,4,0,3,5,67,11
8,3,20,1,5,1,3,5,100,11
8,3,4,0,6,1,3,5,21,11
8,3,23,0,2,0,3,5,67,11
8,3,20,1,3,0,3,5,132,11
8,3,12,1,4,0,3,5,30,11
8,3,14,1,2,0,3,5,67,11
8,3,23,0,4,0,3,5,90,11
8,3,1,0,4,0,3,5,90,11
8,3,12,1,5,1,3,5,104,11
8,3,21,0,6,1,3,5,100,11
8,3,19,1,0,0,3,5,93,11
8,3,20,1,1,0,3,5,67,11
8,3,0,0,1,0,3,5,67,11
9,4,4,0,4,0,3,5,21,11
9,4,2,0,4,0,3,5,100,11
9,4,16,1,4,0,3,5,90,11
9,4,22,0,0,0,3,5,77,11
9,4,12,1,3,0,3,5,93,11
9,4,12,1,4,0,3,5,93,11
9,4,16,1,1,0,3,5,30,11
9,4,22,0,2,0,3,5,67,11
9,4,3,0,3,0,3,5,132,11
9,4,3,0,3,0,3,5,132,11
9,4,3,0,3,0,3,5,100,11
9,4,2,0,3,0,3,5,100,11
9,4,23,0,1,0,3,5,67,11
9,4,16,1,4,0,3,5,102,11
9,4,16,1,5,1,3,5,67,11
9,4,3,0,6,1,3,5,21,11
9,4,21,0,2,0,3,5,77,11
9,4,18,1,4,0,3,5,67,11
10,4,0,0,5,1,4,5,131,11
10,4,1,0,5,1,4,5,90,11
10,4,1,0,5,1,4,5,90,11
10,4,1,0,5,1,4,5,90,11
10,4,14,1,6,1,4,5,67,11
10,4,14,1,0,0,4,5,90,11
10,4,15,1,0,0,4,5,67,11
10,4,15,1,3,0,4,5,30,11
10,4,14,1,4,0,4,5,67,11
10,4,18,1,5,1,4,5,104,11
10,4,19,1,0,0,4,5,102,11
10,4,21,0,3,0,4,5,9,11
10,4,15,1,4,0,4,5,77,11
10,4,20,1,0,0,4,5,67,11
10,4,1,0,0,0,4,5,90,11
10,4,10,1,1,0,4,5,67,11
10,4,23,0,2,0,4,5,21,11
10,4,4,0,3,0,4,5,104,11
10,4,23,0,3,0,4,5,90,11
10,4,5,0,5,1,4,5,100,11
10,4,3,0,6,1,4,5,104,11
10,4,3,0,6,1,4,5,104,11
10,4,3,0,6,1,4,5,104,11
10,4,4,0,6,1,4,5,67,11
10,4,16,1,0,0,4,5,90,11
10,4,21,0,0,0,4,5,90,11
11,4,8,1,1,0,4,5,93,11
11,4,11,1,1,0,4,5,67,11
11,4,18,1,2,0,4,5,112,11
11,4,16,1,2,0,4,5,21,11
11,4,15,1,3,0,4,5,67,11
11,4,14,1,3,0,4,5,67,9
11,4,23,0,3,0,4,5,67,11
11,4,6,0,5,1,4,5,132,11
11,4,16,1,5,1,4,5,49,11
11,4,16,1,2,0,4,5,67,11
11,4,8,1,4,0,4,5,21,11
11,4,0,0,4,0,4,5,107,11
11,4,16,1,5,1,4,5,67,11
11,4,13,1,5,1,4,5,9,11
11,4,14,1,6,1,4,5,67,11
11,4,23,0,1,0,4,5,21,11
11,4,11,1,3,0,4,5,67,11
11,4,20,1,3,0,4,5,21,11
11,4,21,0,4,0,4,5,90,11
11,4,16,1,4,0,4,5,67,11
11,4,4,0,4,0,4,5,132,11
11,4,13,1,1,0,4,5,67,11
11,4,11,1,2,0,4,5,67,11
11,4,21,0,3,0,4,5,67,11
11,4,1,0,5,1,4,5,21,11
11,4,1,0,5,1,4,5,67,11
11,4,6,0,6,1,4,5,59,11
11,4,6,0,6,1,4,5,59,11
11,4,2,0,2,0,4,5,59,11
12,1,18,1,3,0,4,5,132,11
12,1,20,1,4,0,4,5,67,11
12,1,23,0,5,1,4,5,132,11
12,1,4,0,5,1,4,5,100,11
12,1,6,0,5,1,4,5,100,11
12,1,21,0,6,1,4,5,132,11
12,1,18,1,6,1,4,5,67,11
12,1,21,0,0,0,4,5,67,11
12,1,10,1,2,0,4,5,74,11
12,1,2,0,2,0,4,5,132,11
12,1,21,0,2,0,4,5,67,11
12,1,4,0,4,0,4,5,90,11
12,1,7,1,5,1,4,5,77,11
12,1,1,0,3,0,4,5,90,11
12,1,2,0,3,0,4,5,90,11
12,1,2,0,3,0,4,5,100,11
12,1,2,0,3,0,4,5,100,11
12,1,19,1,3,0,4,5,77,11
12,1,16,1,3,0,4,5,67,11
12,1,20,1,4,0,4,5,40,9
12,1,15,1,5,1,4,5,67,11
12,1,22,0,5,1,4,5,67,9
12,1,1,0,0,0,4,5,90,11
12,1,16,1,0,0,4,5,67,11
12,1,20,1,0,0,4,5,67,11
12,1,22,0,1,0,4,5,100,11
12,1,11,1,3,0,4,5,14,11
12,1,6,0,4,0,4,5,132,11
12,1,19,1,4,0,4,5,102,11
12,1,0,0,5,1,4,5,100,11
12,1,22,0,6,1,4,5,21,11
12,1,5,0,6,1,4,5,90,11
12,1,4,0,6,1,4,5,132,11
12,1,5,0,6,1,4,5,90,11
12,1,20,1,0,0,4,5,67,11
12,1,13,1,1,0,4,5,67,11
12,1,4,0,1,0,4,5,21,11
12,1,22,0,1,0,4,5,130,11
12,1,1,0,3,0,4,5,100,11
12,1,22,0,5,1,4,5,104,11
12,1,19,1,5,1,4,5,40,11
12,1,0,0,4,0,4,5,90,11
12,1,20,1,4,0,4,5,93,11
1,1,23,0,4,0,1,5,90,11
1,1,1,0,4,0,1,5,100,11
1,1,6,0,5,1,1,5,67,11
1,1,19,1,5,1,1,5,67,11
1,1,1,0,1,0,1,5,90,11
1,1,3,0,1,0,1,5,90,11
1,1,12,1,5,1,1,5,67,11
1,1,18,1,5,1,1,5,93,11
1,1,23,0,4,0,1,5,90,11
1,1,0,0,5,1,1,5,100,11
1,1,17,1,0,0,1,5,67,11
1,1,23,0,1,0,1,5,67,11
1,1,20,1,1,0,1,5,67,11
1,1,20,1,1,0,1,5,102,11
1,1,17,1,2,0,1,5,14,11
1,1,2,0,4,0,1,5,100,11
1,1,1,0,5,1,1,5,74,11
1,1,8,1,5,1,1,5,15,11
1,1,5,0,5,1,1,5,74,11
1,1,13,1,6,1,1,5,77,11
2,1,18,1,2,0,1,5,74,11
2,1,14,1,3,0,1,5,100,11
2,1,9,1,4,0,1,5,130,11
2,1,19,1,4,0,1,5,90,11
2,1,15,1,4,0,1,5,67,11
2,1,15,1,1,0,1,5,100,11
2,1,1,0,1,0,1,5,100,11
2,1,3,0,2,0,1,5,100,11
2,1,20,1,2,0,1,5,67,11
2,1,2,0,4,0,1,5,100,11
2,1,13,1,5,1,1,5,67,11
2,1,3,0,5,1,1,5,67,11
2,1,4,0,0,0,1,5,100,11
3,2,18,1,1,0,1,5,67,11
3,2,14,1,3,0,1,5,100,11
3,2,12,1,4,0,1,5,100,11
3,2,23,0,5,1,1,5,40,11
3,2,6,0,6,1,1,5,100,11
3,2,10,1,2,0,1,5,67,11
3,2,14,1,4,0,1,5,93,11
3,2,0,0,6,1,1,5,132,11
3,2,4,0,6,1,1,5,59,11
3,2,20,1,0,0,1,5,67,11
3,2,3,0,1,0,1,5,117,11
3,2,21,0,5,1,1,5,100,11
3,2,21,0,5,1,1,5,100,11
3,2,2,0,6,1,1,5,100,11
3,2,4,0,1,0,1,5,81,11
3,2,0,0,1,0,1,5,21,11
3,2,3,0,3,0,1,5,90,11
3,2,17,1,4,0,1,5,67,11
3,2,15,1,5,1,1,5,67,8
3,2,17,1,2,0,1,5,67,11
4,2,3,0,4,0,2,5,40,11
4,2,6,0,6,1,2,5,100,11
4,2,8,1,0,0,2,5,67,11
4,2,0,0,2,0,2,5,90,11
4,2,20,1,2,0,2,5,93,11
4,2,20,1,2,0,2,5,100,11
4,2,10,1,5,1,2,5,104,11
4,2,7,1,2,0,2,5,100,11
4,2,8,1,3,0,2,5,74,11
4,2,22,0,4,0,2,5,100,11
4,2,1,0,6,1,2,5,100,11
4,2,1,0,3,0,2,5,90,11
4,2,14,1,4,0,2,5,100,11
4,2,4,0,6,1,2,5,100,11
4,2,23,0,0,0,2,5,90,11
4,2,9,1,1,0,2,5,74,11
4,2,17,1,1,0,2,5,21,11
4,2,18,1,2,0,2,5,90,11
4,2,19,1,3,0,2,5,100,11
4,2,3,0,4,0,2,5,90,11
4,2,3,0,4,0,2,5,90,11
4,2,4,0,4,0,2,5,90,11
4,2,19,1,5,1,2,5,67,11
5,2,1,0,6,1,2,5,100,11
5,2,13,1,6,1,2,5,93,11
5,2,3,0,6,1,2,5,67,11
5,2,17,1,0,0,2,5,100,11
5,2,4,0,0,0,2,5,90,11
5,2,12,1,2,0,2,5,40,11
5,2,4,0,4,0,2,5,21,11
5,2,4,0,5,1,2,5,100,11
5,2,23,0,2,0,2,5,93,11
5,2,1,0,4,0,2,5,100,11
5,2,2,0,5,1,2,5,90,11
5,2,3,0,0,0,2,5,104,11
5,2,13,1,1,0,2,5,74,11
5,2,13,1,2,0,2,5,66,11
5,2,7,1,4,0,2,5,98,11
5,2,18,1,0,0,2,5,67,11
5,2,7,1,4,0,2,5,67,11
5,2,22,0,4,0,2,5,67,8
5,2,17,1,6,1,2,5,34,11
6,3,17,1,2,0,2,5,24,11
6,3,23,0,4,0,2,5,40,9
6,3,4,0,6,1,2,5,67,11
6,3,21,0,6,1,2,5,67,11
6,3,1,0,0,0,2,5,104,11
6,3,21,0,2,0,2,5,67,11
6,3,20,1,6,1,2,5,67,11
6,3,14,1,3,0,2,5,104,11
6,3,14,1,4,0,2,5,24,11
6,3,18,1,2,0,2,5,100,11
6,3,13,1,3,0,2,5,77,11
6,3,1,0,4,0,2,5,90,11
6,3,6,0,4,0,2,5,90,11
6,3,21,0,4,0,2,5,90,11
6,3,3,0,5,1,2,5,90,11
6,3,3,0,1,0,2,5,90,11
6,3,13,1,1,0,2,5,67,11
6,3,4,0,3,0,2,5,74,11
6,3,20,1,3,0,2,5,93,11
7,3,16,1,4,0,3,5,67,11
7,3,13,1,5,1,3,5,77,11
7,3,2,0,0,0,3,5,40,11
7,3,0,0,1,0,3,5,102,11
7,3,22,0,2,0,3,5,66,11
7,3,10,1,3,0,3,5,67,11
7,3,17,1,6,1,3,5,90,11
7,3,23,0,6,1,3,5,67,11
7,3,1,0,0,0,3,5,67,11
7,3,4,0,1,0,3,5,100,11
7,3,16,1,2,0,3,5,90,11
7,3,11,1,3,0,3,5,67,11
7,3,15,1,3,0,3,5,21,11
7,3,13,1,4,0,3,5,100,11
7,3,4,0,5,1,3,5,100,11
7,3,20,1,5,1,3,5,67,11
7,3,21,0,0,0,3,5,67,11
7,3,15,1,0,0,3,5,100,11
8,3,23,0,5,1,3,5,93,11
8,3,14,1,5,1,3,5,107,11
8,3,10,1,3,0,3,5,40,11
8,3,15,1,1,0,3,5,67,11
8,3,17,1,2,0,3,5,67,11
8,3,0,0,4,0,3,5,90,11
8,3,2,0,1,0,3,5,90,11
8,3,11,1,2,0,3,5,67,11
8,3,1,0,6,1,3,5,90,11
8,3,4,0,1,0,3,5,100,11
8,3,19,1,2,0,3,5,67,11
9,4,22,0,0,0,3,5,102,11
9,4,17,1,4,0,3,5,59,11
9,4,3,0,2,0,3,5,90,11
9,4,3,0,2,0,3,5,90,11
9,4,14,1,1,0,3,5,104,11
9,4,3,0,2,0,3,5,100,11
9,4,14,1,3,0,3,5,67,11
9,4,11,1,4,0,3,5,104,11
9,4,2,0,2,0,3,5,21,11
9,4,14,1,3,0,3,5,93,11
9,4,19,1,3,0,3,5,74,11
9,4,4,0,4,0,3,5,67,11
10,4,14,1,6,1,4,5,67,9
10,4,18,1,6,1,4,5,90,11
10,4,16,1,3,0,4,5,67,11
10,4,17,1,3,0,4,5,104,11
10,4,22,0,5,1,4,5,21,11
10,4,1,0,2,0,4,5,33,11
10,4,21,0,4,0,4,5,66,11
10,4,13,1,3,0,4,5,67,11
10,4,15,1,4,0,4,5,67,11
10,4,16,1,4,0,4,5,90,11
10,4,10,1,4,0,4,5,67,11
10,4,22,0,5,1,4,5,67,11
10,4,8,1,6,1,4,5,90,11
10,4,6,0,6,1,4,5,90,11
10,4,23,0,0,0,4,5,90,11
10,4,23,0,0,0,4,5,90,11
10,4,23,0,0,0,4,5,90,11
11,4,0,0,4,0,4,5,90,11
11,4,23,0,4,0,4,5,100,11
11,4,20,1,4,0,4,5,100,11
11,4,19,1,5,1,4,5,100,11
11,4,21,0,6,1,4,5,67,11
11,4,11,1,1,0,4,5,67,11
11,4,8,1,2,0,4,5,90,11
11,4,6,0,3,0,4,5,100,11
11,4,17,1,3,0,4,5,49,11
11,4,1,0,5,1,4,5,104,11
11,4,1,0,5,1,4,5,100,11
11,4,2,0,2,0,4,5,90,11
12,1,20,1,3,0,4,5,90,11
12,1,9,1,1,0,4,5,90,11
12,1,11,1,1,0,4,5,90,11
12,1,18,1,5,1,4,5,49,11
12,1,15,1,0,0,4,5,40,11
12,1,2,0,1,0,4,5,74,11
12,1,17,1,1,0,4,5,93,11
12,1,23,0,5,1,4,5,100,11
12,1,2,0,5,1,4,5,100,11
12,1,23,0,6,1,4,5,93,11
12,1,21,0,2,0,4,5,131,11
12,1,19,1,2,0,4,5,100,11
12,1,21,0,5,1,4,5,90,11
12,1,2,0,5,1,4,5,100,11
12,1,19,1,5,1,4,5,67,11
12,1,14,1,6,1,4,5,67,11
12,1,17,1,6,1,4,5,104,11
12,1,0,0,1,0,4,5,67,11
12,1,21,0,4,0,4,5,67,11
12,1,0,0,4,0,4,5,100,11
12,1,3,0,5,1,4,5,90,11
1,1,6,0,5,1,1,5,93,11
1,1,12,1,5,1,1,5,93,9
1,1,14,1,6,1,1,5,93,11
1,1,12,1,1,0,1,5,67,11
1,1,21,0,2,0,1,5,93,11
1,1,1,0,3,0,1,5,67,11
1,1,13,1,3,0,1,5,47,11
1,1,8,1,3,0,1,5,93,9
1,1,14,1,3,0,1,5,93,11
1,1,1,0,5,1,1,5,104,11
1,1,23,0,0,0,1,5,93,11
1,1,14,1,0,0,1,5,93,11
1,1,9,1,1,0,1,5,93,11
1,1,16,1,1,0,1,5,93,11
1,1,11,1,1,0,1,5,104,11
1,1,11,1,3,0,1,5,93,11
1,1,17,1,5,1,1,5,93,11
1,1,21,0,2,0,1,5,40,11
1,1,12,1,4,0,1,5,21,11
1,1,18,1,5,1,1,5,40,11
1,1,18,1,6,1,1,5,77,11
1,1,13,1,6,1,1,5,93,11
1,1,6,0,1,0,1,5,67,11
1,1,18,1,2,0,1,5,64,11
2,1,8,1,1,0,1,5,93,11
2,1,16,1,3,0,1,5,93,11
2,1,17,1,3,0,1,5,104,11
2,1,20,1,4,0,1,5,77,11
2,1,23,0,2,0,1,5,93,11
2,1,4,0,4,0,1,5,14,11
2,1,17,1,5,1,1,5,40,11
2,1,21,0,5,1,1,5,21,11
2,1,0,0,1,0,1,5,93,11
2,1,19,1,2,0,1,5,122,11
2,1,14,1,3,0,1,5,93,11
2,1,20,1,5,1,1,5,90,11
2,1,18,1,2,0,1,5,21,11
2,1,17,1,2,0,1,5,66,11
2,1,13,1,2,0,1,5,40,11
2,1,0,0,4,0,1,5,130,9
2,1,19,1,4,0,1,5,93,11
2,1,12,1,5,1,1,5,21,11
2,1,19,1,5,1,1,5,21,11
2,1,3,0,0,0,1,5,21,9
2,1,23,0,0,0,1,5,93,11
3,2,5,0,1,0,1,5,21,11
3,2,16,1,2,0,1,5,90,11
3,2,19,1,3,0,1,5,93,11
3,2,19,1,3,0,1,5,93,11
3,2,12,1,5,1,1,5,77,9
3,2,0,0,5,1,1,5,21,11
3,2,0,0,6,1,1,5,90,11
3,2,8,1,0,0,1,5,90,11
3,2,22,0,5,1,1,5,21,11
3,2,14,1,5,1,1,5,21,11
3,2,21,0,6,1,1,5,77,11
3,2,9,1,6,1,1,5,90,11
3,2,12,1,2,0,1,5,40,11
3,2,11,1,3,0,1,5,93,11
3,2,13,1,6,1,1,5,90,11
3,2,3,0,1,0,1,5,100,11
3,2,3,0,1,0,1,5,100,11
3,2,1,0,1,0,1,5,93,11
3,2,17,1,1,0,1,5,93,11
4,2,20,1,4,0,2,5,58,11
4,2,23,0,4,0,2,5,66,11
4,2,20,1,5,1,2,5,90,11
4,2,23,0,0,0,2,5,90,11
4,2,22,0,2,0,2,5,58,11
4,2,22,0,3,0,2,5,21,11
4,2,12,1,3,0,2,5,93,11
4,2,14,1,4,0,2,5,93,11
4,2,20,1,4,0,2,5,93,11
4,2,21,0,5,1,2,5,90,11
4,2,23,0,5,1,2,5,21,11
4,2,20,1,6,1,2,5,21,11
4,2,17,1,6,1,2,5,90,11
4,2,1,0,0,0,2,5,77,11
4,2,1,0,0,0,2,5,90,11
4,2,20,1,2,0,2,5,58,11
4,2,12,1,5,1,2,5,93,11
4,2,22,0,6,1,2,5,58,11
4,2,11,1,1,0,2,5,93,11
4,2,12,1,1,0,2,5,93,11
4,2,19,1,1,0,2,5,93,11
4,2,11,1,1,0,2,5,93,11
4,2,0,0,2,0,2,5,93,11
4,2,6,0,2,0,2,5,93,11
4,2,11,1,4,0,2,5,93,11
4,2,21,0,4,0,2,5,93,11
4,2,13,1,5,1,2,5,93,11
4,2,15,1,6,1,2,5,93,11
4,2,20,1,6,1,2,5,93,11
4,2,0,0,0,0,2,5,21,11
4,2,5,0,0,0,2,5,90,11
4,2,23,0,0,0,2,5,90,11
4,2,17,1,1,0,2,5,104,11
4,2,15,1,2,0,2,5,9,11
4,2,10,1,2,0,2,5,104,11
4,2,9,1,2,0,2,5,93,11
4,2,21,0,3,0,2,5,93,11
4,2,15,1,3,0,2,5,93,11
4,2,17,1,3,0,2,5,93,11
4,2,11,1,4,0,2,5,104,11
4,2,15,1,4,0,2,5,93,11
4,2,22,0,4,0,2,5,93,11
4,2,13,1,5,1,2,5,93,11
4,2,17,1,5,1,2,5,93,11
5,2,14,1,6,1,2,5,104,11
5,2,15,1,6,1,2,5,93,9
5,2,23,0,6,1,2,5,90,11
5,2,18,1,1,0,2,5,77,11
5,2,19,1,1,0,2,5,21,11
5,2,18,1,3,0,2,5,90,11
5,2,21,0,3,0,2,5,90,11
5,2,12,1,4,0,2,5,67,11
5,2,19,1,4,0,2,5,93,11
5,2,5,0,6,1,2,5,21,11
5,2,0,0,6,1,2,5,104,11
5,2,15,1,6,1,2,5,93,11
5,2,13,1,6,1,2,5,93,11
5,2,13,1,6,1,2,5,93,11
5,2,6,0,6,1,2,5,93,11
5,2,1,0,0,0,2,5,104,11
5,2,12,1,0,0,2,5,58,11
5,2,14,1,0,0,2,5,104,11
5,2,14,1,1,0,2,5,93,11
5,2,13,1,1,0,2,5,104,11
5,2,14,1,2,0,2,5,93,11
5,2,16,1,2,0,2,5,93,11
5,2,19,1,2,0,2,5,93,11
5,2,20,1,2,0,2,5,93,11
5,2,19,1,3,0,2,5,93,11
5,2,10,1,4,0,2,5,93,11
5,2,15,1,4,0,2,5,77,9
5,2,22,0,4,0,2,5,104,11
5,2,0,0,5,1,2,5,58,11
5,2,21,0,5,1,2,5,104,11
5,2,16,1,5,1,2,5,93,9
5,2,12,1,5,1,2,5,93,11
5,2,13,1,6,1,2,5,93,9
5,2,19,1,0,0,2,5,93,9
5,2,13,1,0,0,2,5,102,9
5,2,16,1,0,0,2,5,93,9
5,2,21,0,0,0,2,5,93,11
5,2,21,0,0,0,2,5,93,11
5,2,9,1,1,0,2,5,104,11
5,2,15,1,1,0,2,5,93,11
5,2,21,0,1,0,2,5,93,11
5,2,1,0,2,0,2,5,21,11
5,2,19,1,2,0,2,5,93,11
5,2,12,1,2,0,2,5,21,11
5,2,15,1,3,0,2,5,93,9
5,2,14,1,3,0,2,5,93,11
5,2,19,1,3,0,2,5,93,11
5,2,16,1,3,0,2,5,93,11
5,2,18,1,3,0,2,5,104,11
5,2,3,0,3,0,2,5,21,11
5,2,7,1,4,0,2,5,93,11
5,2,14,1,1,0,2,5,93,9
5,2,0,0,2,0,2,5,93,11
5,2,4,0,2,0,2,5,21,11
5,2,11,1,3,0,2,5,93,11
5,2,17,1,4,0,2,5,93,11
5,2,16,1,4,0,2,5,93,11
5,2,17,1,4,0,2,5,93,11
5,2,13,1,5,1,2,5,93,11
5,2,6,0,6,1,2,5,93,11
5,2,21,0,6,1,2,5,40,9
5,2,2,0,6,1,2,5,90,11
5,2,14,1,0,0,2,5,93,9
5,2,18,1,0,0,2,5,93,11
5,2,0,0,1,0,2,5,104,11
5,2,0,0,1,0,2,5,2,11
5,2,14,1,1,0,2,5,93,11
6,3,22,0,2,0,2,5,93,11
6,3,5,0,2,0,2,5,21,11
6,3,0,0,2,0,2,5,14,11
6,3,0,0,4,0,2,5,93,11
6,3,22,0,4,0,2,5,93,11
6,3,23,0,4,0,2,5,104,11
6,3,23,0,4,0,2,5,93,11
6,3,17,1,4,0,2,5,93,11
6,3,0,0,1,0,2,5,104,11
6,3,14,1,1,0,2,5,93,11
6,3,17,1,2,0,2,5,104,11
6,3,18,1,2,0,2,5,93,11
6,3,18,1,2,0,2,5,93,11
6,3,19,1,2,0,2,5,93,11
6,3,12,1,3,0,2,5,93,11
6,3,22,0,4,0,2,5,104,11
6,3,1,0,4,0,2,5,93,11
6,3,4,0,5,1,2,5,21,11
6,3,20,1,5,1,2,5,93,11
6,3,19,1,5,1,2,5,93,11
6,3,14,1,5,1,2,5,93,11
6,3,7,1,0,0,2,5,90,11
6,3,11,1,0,0,2,5,93,11
6,3,5,0,1,0,2,5,77,11
6,3,11,1,2,0,2,5,93,11
6,3,22,0,3,0,2,5,93,11
6,3,19,1,3,0,2,5,104,11
6,3,21,0,3,0,2,5,93,11
6,3,4,0,4,0,2,5,93,11
6,3,11,1,5,1,2,5,104,11
6,3,10,1,6,1,2,5,93,11
6,3,23,0,6,1,2,5,93,11
6,3,21,0,6,1,2,5,104,11
6,3,7,1,1,0,2,5,93,11
6,3,20,1,1,0,2,5,93,11
6,3,14,1,1,0,2,5,104,11
6,3,10,1,2,0,2,5,93,11
6,3,2,0,2,0,2,5,93,11
6,3,21,0,2,0,2,5,93,11
6,3,16,1,3,0,2,5,93,11
6,3,20,1,3,0,2,5,93,11
6,3,23,0,3,0,2,5,93,11
6,3,23,0,3,0,2,5,93,11
6,3,18,1,4,0,2,5,93,11
6,3,18,1,4,0,2,5,93,11
6,3,13,1,4,0,2,5,93,11
6,3,23,0,5,1,2,5,93,11
6,3,18,1,5,1,2,5,104,11
6,3,18,1,5,1,2,5,104,11
6,3,19,1,6,1,2,5,77,11
6,3,20,1,6,1,2,5,93,11
6,3,3,0,6,1,2,5,93,11
6,3,3,0,6,1,2,5,93,11
6,3,20,1,0,0,2,5,93,11
6,3,13,1,1,0,2,5,93,11
6,3,21,0,3,0,2,5,104,11
7,3,19,1,4,0,3,5,93,11
7,3,16,1,6,1,3,5,93,11
7,3,11,1,0,0,3,5,93,11
7,3,16,1,0,0,3,5,104,11
7,3,4,0,1,0,3,5,93,11
7,3,18,1,2,0,3,5,93,11
7,3,5,0,3,0,3,5,90,11
7,3,21,0,3,0,3,5,93,11
7,3,18,1,4,0,3,5,93,11
7,3,14,1,4,0,3,5,93,11
7,3,21,0,4,0,3,5,104,11
7,3,13,1,5,1,3,5,93,11
7,3,16,1,5,1,3,5,93,11
7,3,20,1,5,1,3,5,93,11
7,3,21,0,5,1,3,5,93,11
7,3,21,0,5,1,3,5,104,11
7,3,17,1,5,1,3,5,104,11
7,3,22,0,6,1,3,5,104,11
7,3,12,1,0,0,3,5,93,11
7,3,1,0,1,0,3,5,93,11
7,3,18,1,1,0,3,5,93,11
7,3,0,0,4,0,3,5,44,11
7,3,7,1,4,0,3,5,74,11
7,3,5,0,5,1,3,5,93,11
7,3,0,0,6,1,3,5,93,11
7,3,4,0,6,1,3,5,44,11
7,3,1,0,0,0,3,5,93,11
7,3,16,1,0,0,3,5,93,11
7,3,5,0,1,0,3,5,74,11
7,3,8,1,1,0,3,5,40,11
7,3,21,0,2,0,3,5,9,11
7,3,3,0,4,0,3,5,21,11
7,3,1,0,4,0,3,5,104,11
7,3,21,0,5,1,3,5,104,11
7,3,23,0,6,1,3,5,90,11
7,3,3,0,6,1,3,5,104,11
7,3,22,0,0,0,3,5,104,11
7,3,6,0,0,0,3,5,77,11
7,3,8,1,3,0,3,5,104,11
7,3,11,1,3,0,3,5,104,11
7,3,4,0,4,0,3,5,90,11
7,3,0,0,6,1,3,5,93,11
8,3,14,1,1,0,3,5,91,11
8,3,19,1,1,0,3,5,100,11
8,3,17,1,2,0,3,5,104,11
8,3,18,1,2,0,3,5,93,11
8,3,17,1,2,0,3,5,93,11
8,3,4,0,3,0,3,5,21,11
8,3,12,1,3,0,3,5,93,11
8,3,4,0,3,0,3,5,21,11
8,3,14,1,3,0,3,5,77,11
8,3,8,1,5,1,3,5,104,11
8,3,6,0,5,1,3,5,21,11
8,3,11,1,5,1,3,5,93,11
8,3,11,1,5,1,3,5,104,11
8,3,18,1,6,1,3,5,93,11
8,3,0,0,6,1,3,5,93,11
8,3,6,0,0,0,3,5,90,11
8,3,20,1,0,0,3,5,93,9
8,3,19,1,1,0,3,5,93,11
8,3,14,1,1,0,3,5,93,11
8,3,18,1,1,0,3,5,93,11
8,3,20,1,2,0,3,5,104,11
8,3,23,0,3,0,3,5,104,11
8,3,1,0,4,0,3,5,93,11
8,3,18,1,4,0,3,5,66,11
8,3,15,1,4,0,3,5,93,9
8,3,21,0,4,0,3,5,93,11
8,3,7,1,5,1,3,5,104,11
8,3,11,1,5,1,3,5,93,11
8,3,15,1,5,1,3,5,104,11
8,3,20,1,6,1,3,5,9,11
8,3,18,1,6,1,3,5,53,9
8,3,4,0,1,0,3,5,77,11
8,3,15,1,1,0,3,5,104,11
8,3,22,0,2,0,3,5,93,11
8,3,15,1,2,0,3,5,104,9
8,3,11,1,2,0,3,5,93,11
8,3,4,0,3,0,3,5,21,9
8,3,15,1,3,0,3,5,89,11
8,3,19,1,4,0,3,5,93,11
8,3,19,1,5,1,3,5,93,11
8,3,7,1,5,1,3,5,93,11
8,3,20,1,5,1,3,5,93,11
8,3,16,1,5,1,3,5,104,11
8,3,10,1,6,1,3,5,49,11
8,3,15,1,0,0,3,5,93,11
8,3,23,0,0,0,3,5,93,11
8,3,15,1,1,0,3,5,93,11
8,3,4,0,3,0,3,5,93,11
8,3,15,1,4,0,3,5,67,9
8,3,11,1,4,0,3,5,93,9
8,3,18,1,4,0,3,5,104,11
8,3,14,1,5,1,3,5,50,11
8,3,16,1,6,1,3,5,93,11
8,3,11,1,0,0,3,5,93,11
8,3,3,0,1,0,3,5,14,11
8,3,17,1,1,0,3,5,14,11
8,3,16,1,1,0,3,5,14,11
8,3,15,1,2,0,3,5,93,11
9,4,4,0,3,0,3,5,21,11
9,4,17,1,3,0,3,5,40,11
9,4,22,0,3,0,3,5,104,11
9,4,23,0,5,1,3,5,93,9
9,4,1,0,6,1,3,5,93,11
9,4,0,0,6,1,3,5,93,11
9,4,18,1,6,1,3,5,93,11
9,4,14,1,6,1,3,5,93,11
9,4,22,0,6,1,3,5,93,11
9,4,11,1,0,0,3,5,93,11
9,4,18,1,0,0,3,5,93,11
9,4,2,0,0,0,3,5,93,11
9,4,21,0,1,0,3,5,93,11
9,4,4,0,2,0,3,5,90,11
9,4,20,1,2,0,3,5,93,11
9,4,23,0,2,0,3,5,93,11
9,4,15,1,3,0,3,5,93,11
9,4,20,1,3,0,3,5,104,11
9,4,4,0,4,0,3,5,93,11
9,4,20,1,4,0,3,5,93,11
9,4,20,1,0,0,3,5,93,11
9,4,14,1,0,0,3,5,104,11
9,4,19,1,1,0,3,5,28,11
9,4,3,0,2,0,3,5,104,11
9,4,5,0,3,0,3,5,67,8
9,4,13,1,3,0,3,5,93,11
9,4,14,1,5,1,3,5,104,11
9,4,2,0,6,1,3,5,93,11
9,4,3,0,6,1,3,5,104,11
9,4,21,0,1,0,3,5,132,11
9,4,19,1,1,0,3,5,21,11
9,4,2,0,3,0,3,5,14,11
9,4,17,1,4,0,3,5,93,11
9,4,21,0,4,0,3,5,58,11
9,4,21,0,4,0,3,5,21,11
9,4,8,1,4,0,3,5,24,8
9,4,18,1,5,1,3,5,93,11
9,4,1,0,0,0,3,5,58,11
9,4,15,1,1,0,3,5,93,11
9,4,22,0,1,0,3,5,21,11
9,4,17,1,2,0,3,5,104,11
9,4,16,1,3,0,3,5,78,11
9,4,22,0,3,0,3,5,93,11
9,4,20,1,4,0,3,5,104,11
9,4,23,0,4,0,3,5,93,11
9,4,21,0,4,0,3,5,104,11
10,4,17,1,5,1,4,5,93,11
10,4,1,0,5,1,4,5,21,11
10,4,14,1,6,1,4,5,93,11
10,4,18,1,6,1,4,5,93,11
10,4,12,1,1,0,4,5,93,11
10,4,16,1,3,0,4,5,93,11
10,4,12,1,4,0,4,5,24,11
10,4,1,0,4,0,4,5,104,11
10,4,21,0,4,0,4,5,90,11
10,4,9,1,4,0,4,5,93,11
10,4,4,0,5,1,4,5,104,11
10,4,7,1,6,1,4,5,93,11
10,4,13,1,6,1,4,5,104,11
10,4,19,1,0,0,4,5,77,11
10,4,15,1,0,0,4,5,93,11
10,4,17,1,2,0,4,5,93,11
10,4,16,1,2,0,4,5,93,11
10,4,23,0,2,0,4,5,93,11
10,4,14,1,4,0,4,5,58,11
10,4,10,1,6,1,4,5,93,11
10,4,16,1,1,0,4,5,58,11
10,4,0,0,2,0,4,5,90,11
10,4,23,0,3,0,4,5,93,11
10,4,16,1,5,1,4,5,93,11
10,4,12,1,6,1,4,5,132,11
11,4,5,0,4,0,4,5,104,11
11,4,6,0,5,1,4,5,21,11
11,4,22,0,5,1,4,5,132,11
11,4,1,0,6,1,4,5,132,11
11,4,2,0,6,1,4,5,132,11
11,4,6,0,6,1,4,5,104,11
11,4,9,1,1,0,4,5,93,11
11,4,14,1,1,0,4,5,48,11
11,4,6,0,2,0,4,5,93,11
11,4,21,0,2,0,4,5,77,11
11,4,4,0,0,0,4,5,21,11
11,4,11,1,2,0,4,5,93,11
11,4,17,1,3,0,4,5,90,11
11,4,5,0,4,0,4,5,21,11
11,4,23,0,4,0,4,5,104,11
11,4,21,0,6,1,4,5,93,11
11,4,16,1,2,0,4,5,93,11
11,4,13,1,3,0,4,5,93,11
11,4,11,1,3,0,4,5,104,11
11,4,15,1,4,0,4,5,90,11
11,4,3,0,4,0,4,5,21,11
11,4,4,0,5,1,4,5,21,11
11,4,11,1,5,1,4,5,93,11
11,4,11,1,5,1,4,5,104,11
11,4,16,1,5,1,4,5,58,11
11,4,21,0,0,0,4,5,93,11
12,1,9,1,3,0,4,5,77,11
12,1,8,1,3,0,4,5,77,11
12,1,19,1,4,0,4,5,77,11
12,1,22,0,6,1,4,5,93,11
12,1,22,0,6,1,4,5,93,11
12,1,23,0,0,0,4,5,104,11
12,1,18,1,0,0,4,5,21,11
12,1,5,0,1,0,4,5,21,11
12,1,11,1,1,0,4,5,104,11
12,1,14,1,1,0,4,5,104,11
12,1,11,1,2,0,4,5,93,11
12,1,5,0,5,1,4,5,100,11
12,1,18,1,5,1,4,5,104,11
12,1,9,1,6,1,4,5,115,9
12,1,15,1,2,0,4,5,21,11
12,1,17,1,3,0,4,5,64,11
12,1,6,0,4,0,4,5,21,11
12,1,19,1,5,1,4,5,104,11
12,1,7,1,5,1,4,5,104,11
12,1,0,0,2,0,4,5,21,11
12,1,20,1,3,0,4,5,13,11
12,1,10,1,3,0,4,5,77,11
12,1,22,0,4,0,4,5,40,11
12,1,23,0,5,1,4,5,104,11
12,1,20,1,6,1,4,5,104,11
12,1,19,1,6,1,4,5,66,11
12,1,13,1,0,0,4,5,40,9
12,1,23,0,1,0,4,5,21,11
12,1,1,0,2,0,4,5,21,11
12,1,13,1,5,1,4,5,77,11
12,1,19,1,5,1,4,5,104,11
1,1,5,0,4,0,1,5,90,11
1,1,14,1,4,0,1,5,67,11
1,1,21,0,2,0,1,5,67,11
1,1,20,1,2,0,1,5,67,11
1,1,7,1,5,1,1,5,90,11
1,1,19,1,5,1,1,5,66,11
1,1,19,1,6,1,1,5,90,11
1,1,3,0,1,0,1,5,59,11
1,1,2,0,1,0,1,5,90,11
1,1,7,1,2,0,1,5,67,11
1,1,4,0,3,0,1,5,90,11
1,1,15,1,5,1,1,5,90,11
1,1,8,1,5,1,1,5,90,11
1,1,0,0,6,1,1,5,67,11
1,1,1,0,0,0,1,5,90,11
1,1,5,0,1,0,1,5,67,11
1,1,11,1,2,0,1,5,90,11
1,1,21,0,5,1,1,5,67,11
1,1,7,1,5,1,1,5,90,11
2,1,18,1,1,0,1,5,60,11
2,1,13,1,3,0,1,5,90,11
2,1,21,0,5,1,1,5,67,11
2,1,1,0,0,0,1,5,104,11
2,1,23,0,4,0,1,5,40,11
2,1,5,0,5,1,1,5,24,8
2,1,13,1,5,1,1,5,100,11
2,1,21,0,5,1,1,5,100,11
2,1,20,1,1,0,1,5,81,11
2,1,1,0,4,0,1,5,90,11
3,2,19,1,1,0,1,5,90,11
3,2,0,0,2,0,1,5,90,11
3,2,20,1,2,0,1,5,100,11
3,2,13,1,3,0,1,5,67,11
3,2,21,0,3,0,1,5,67,11
3,2,15,1,3,0,1,5,104,11
3,2,0,0,4,0,1,5,100,11
3,2,4,0,5,1,1,5,90,11
3,2,19,1,0,0,1,5,90,11
3,2,21,0,2,0,1,5,67,11
3,2,17,1,3,0,1,5,67,11
3,2,8,1,3,0,1,5,67,11
3,2,15,1,4,0,1,5,100,11
3,2,17,1,5,1,1,5,90,11
3,2,13,1,6,1,1,5,93,11
3,2,18,1,3,0,1,5,90,11
3,2,21,0,3,0,1,5,66,11
3,2,13,1,3,0,1,5,67,11
4,2,2,0,4,0,2,5,90,11
4,2,23,0,4,0,2,5,100,11
4,2,20,1,5,1,2,5,66,11
4,2,16,1,1,0,2,5,67,11
4,2,14,1,2,0,2,5,90,11
4,2,3,0,5,1,2,5,49,11
4,2,19,1,0,0,2,5,49,11
4,2,0,0,1,0,2,5,90,11
4,2,2,0,1,0,2,5,90,11
4,2,1,0,2,0,2,5,90,11
4,2,22,0,2,0,2,5,90,11
4,2,18,1,2,0,2,5,67,11
4,2,11,1,4,0,2,5,21,11
4,2,19,1,5,1,2,5,93,11
4,2,13,1,5,1,2,5,67,11
4,2,0,0,0,0,2,5,9,11
4,2,23,0,1,0,2,5,110,11
4,2,16,1,2,0,2,5,67,11
4,2,2,0,3,0,2,5,90,11
4,2,2,0,3,0,2,5,100,11
4,2,2,0,3,0,2,5,90,11
4,2,21,0,3,0,2,5,90,11
4,2,0,0,4,0,2,5,90,11
4,2,22,0,4,0,2,5,90,11
4,2,4,0,4,0,2,5,67,11
4,2,1,0,5,1,2,5,90,11
4,2,1,0,5,1,2,5,90,11
4,2,1,0,5,1,2,5,90,11
4,2,1,0,5,1,2,5,90,11
4,2,0,0,6,1,2,5,21,11
4,2,2,0,6,1,2,5,100,11
4,2,2,0,0,0,2,5,90,11
4,2,13,1,0,0,2,5,21,11
4,2,3,0,1,0,2,5,90,11
4,2,9,1,3,0,2,5,90,11
4,2,15,1,3,0,2,5,90,11
4,2,20,1,5,1,2,5,104,11
5,2,0,0,6,1,2,5,93,11
5,2,0,0,6,1,2,5,104,11
5,2,8,1,6,1,2,5,67,8
5,2,9,1,6,1,2,5,83,11
5,2,1,0,0,0,2,5,90,11
5,2,12,1,0,0,2,5,104,11
5,2,0,0,2,0,2,5,100,11
5,2,3,0,5,1,2,5,90,11
5,2,5,0,6,1,2,5,90,11
5,2,1,0,0,0,2,5,100,11
5,2,3,0,1,0,2,5,93,11
5,2,22,0,1,0,2,5,90,11
5,2,22,0,3,0,2,5,100,11
5,2,18,1,3,0,2,5,90,11
5,2,18,1,3,0,2,5,84,11
5,2,23,0,3,0,2,5,90,11
5,2,17,1,4,0,2,5,59,11
5,2,23,0,5,1,2,5,100,11
5,2,21,0,5,1,2,5,93,11
5,2,0,0,1,0,2,5,90,11
5,2,9,1,1,0,2,5,67,11
5,2,1,0,2,0,2,5,89,11
5,2,0,0,3,0,2,5,90,11
5,2,0,0,3,0,2,5,90,11
5,2,3,0,3,0,2,5,90,11
5,2,22,0,5,1,2,5,90,11
5,2,2,0,6,1,2,5,90,11
5,2,22,0,6,1,2,5,93,11
5,2,0,0,2,0,2,5,90,11
5,2,0,0,4,0,2,5,90,11
5,2,18,1,5,1,2,5,90,11
6,3,4,0,2,0,2,5,67,11
6,3,18,1,2,0,2,5,90,11
6,3,14,1,3,0,2,5,104,11
6,3,14,1,3,0,2,5,67,8
6,3,14,1,4,0,2,5,90,11
6,3,15,1,4,0,2,5,49,11
6,3,22,0,4,0,2,5,67,11
6,3,10,1,0,0,2,5,67,11
6,3,16,1,0,0,2,5,67,11
6,3,17,1,0,0,2,5,67,11
6,3,19,1,2,0,2,5,40,11
6,3,0,0,5,1,2,5,93,11
6,3,12,1,6,1,2,5,67,11
6,3,3,0,0,0,2,5,104,11
6,3,13,1,0,0,2,5,100,11
6,3,0,0,6,1,2,5,100,11
6,3,21,0,6,1,2,5,67,11
6,3,11,1,2,0,2,5,93,11
6,3,18,1,3,0,2,5,66,11
7,3,3,0,4,0,3,5,90,11
7,3,14,1,4,0,3,5,90,11
7,3,4,0,0,0,3,5,67,11
7,3,2,0,0,0,3,5,100,11
7,3,21,0,0,0,3,5,67,11
7,3,2,0,2,0,3,5,102,11
7,3,0,0,0,0,3,5,93,11
7,3,12,1,0,0,3,5,130,11
7,3,2,0,1,0,3,5,67,11
7,3,10,1,2,0,3,5,112,11
7,3,18,1,3,0,3,5,90,11
7,3,23,0,4,0,3,5,90,11
7,3,2,0,5,1,3,5,90,11
7,3,5,0,5,1,3,5,100,11
7,3,5,0,5,1,3,5,100,11
7,3,18,1,5,1,3,5,93,11
7,3,17,1,3,0,3,5,67,11
7,3,13,1,3,0,3,5,67,11
7,3,0,0,4,0,3,5,90,11
7,3,0,0,6,1,3,5,67,11
8,3,13,1,0,0,3,5,40,11
8,3,16,1,1,0,3,5,67,11
8,3,3,0,2,0,3,5,90,11
8,3,15,1,3,0,3,5,67,11
8,3,15,1,4,0,3,5,104,11
8,3,4,0,0,0,3,5,90,11
8,3,19,1,0,0,3,5,67,11
8,3,1,0,3,0,3,5,9,11
8,3,3,0,4,0,3,5,67,11
8,3,14,1,2,0,3,5,67,11
8,3,18,1,2,0,3,5,100,11
8,3,18,1,3,0,3,5,93,11
8,3,3,0,3,0,3,5,21,11
9,4,16,1,4,0,3,5,100,11
9,4,4,0,0,0,3,5,90,11
9,4,8,1,1,0,3,5,104,11
9,4,2,0,4,0,3,5,100,11
9,4,2,0,0,0,3,5,73,8
9,4,3,0,1,0,3,5,100,11
9,4,22,0,1,0,3,5,77,11
9,4,15,1,1,0,3,5,90,11
9,4,22,0,5,1,3,5,67,11
10,4,23,0,0,0,4,5,90,11
10,4,22,0,3,0,4,5,61,11
10,4,20,1,6,1,4,5,93,11
10,4,10,1,1,0,4,5,67,11
10,4,2,0,2,0,4,5,100,11
10,4,15,1,4,0,4,5,59,11
10,4,13,1,0,0,4,5,82,11
10,4,0,0,1,0,4,5,100,11
10,4,1,0,1,0,4,5,70,11
10,4,5,0,2,0,4,5,90,11
10,4,18,1,2,0,4,5,77,11
10,4,22,0,6,1,4,5,130,11
10,4,5,0,0,0,4,5,100,11
10,4,2,0,3,0,4,5,100,11
10,4,2,0,3,0,4,5,100,11
10,4,3,0,4,0,4,5,104,11
10,4,3,0,6,1,4,5,90,11
10,4,3,0,6,1,4,5,90,11
10,4,4,0,0,0,4,5,67,11
11,4,14,1,3,0,4,5,67,11
11,4,13,1,4,0,4,5,67,11
11,4,8,1,0,0,4,5,90,11
11,4,13,1,2,0,4,5,67,11
11,4,21,0,4,0,4,5,90,11
11,4,3,0,5,1,4,5,90,11
11,4,1,0,0,0,4,5,21,11
11,4,1,0,1,0,4,5,2,11
11,4,6,0,2,0,4,5,100,11
11,4,13,1,2,0,4,5,40,11
11,4,3,0,0,0,4,5,40,11
12,1,1,0,3,0,4,5,90,11
12,1,13,1,3,0,4,5,100,11
12,1,21,0,3,0,4,5,112,11
12,1,5,0,4,0,4,5,90,11
12,1,17,1,4,0,4,5,90,11
12,1,21,0,6,1,4,5,90,11
12,1,22,0,6,1,4,5,90,11
12,1,1,0,5,1,4,5,90,11
12,1,12,1,3,0,4,5,67,11
12,1,0,0,5,1,4,5,40,11
12,1,21,0,6,1,4,5,40,11
12,1,2,0,0,0,4,5,90,11
12,1,15,1,4,0,4,5,40,11
12,1,21,0,5,1,4,5,104,11
12,1,12,1,6,1,4,5,100,11
12,1,0,0,0,0,4,5,100,11
12,1,18,1,0,0,4,5,100,11
12,1,17,1,2,0,4,5,100,11
12,1,1,0,4,0,4,5,104,11
12,1,1,0,4,0,4,5,67,8
12,1,6,0,4,0,4,5,104,11
12,1,6,0,4,0,4,5,104,11
12,1,21,0,5,1,4,5,67,11
1,1,21,0,4,0,1,5,67,11
1,1,14,1,4,0,1,5,104,11
1,1,10,1,4,0,1,5,77,11
1,1,23,0,5,1,1,5,67,11
1,1,10,1,5,1,1,5,67,11
1,1,19,1,5,1,1,5,132,11
1,1,11,1,6,1,1,5,77,11
1,1,17,1,1,0,1,5,51,11
1,1,13,1,0,0,1,5,67,11
1,1,19,1,1,0,1,5,67,11
1,1,4,0,1,0,1,5,132,11
1,1,1,0,2,0,1,5,108,11
1,1,11,1,2,0,1,5,132,11
1,1,4,0,3,0,1,5,40,11
1,1,13,1,4,0,1,5,132,11
1,1,7,1,4,0,1,5,132,11
1,1,13,1,6,1,1,5,40,11
2,1,18,1,1,0,1,5,4,11
2,1,4,0,1,0,1,5,107,11
2,1,17,1,1,0,1,5,104,11
2,1,14,1,3,0,1,5,119,11
2,1,14,1,0,0,1,5,132,11
2,1,18,1,0,0,1,5,40,11
2,1,14,1,2,0,1,5,132,11
2,1,16,1,4,0,1,5,67,11
2,1,18,1,4,0,1,5,40,11
2,1,3,0,5,1,1,5,21,11
2,1,6,0,1,0,1,5,104,11
2,1,12,1,4,0,1,5,49,11
2,1,0,0,5,1,1,5,132,11
2,1,23,0,6,1,1,5,21,9
2,1,14,1,6,1,1,5,77,11
2,1,4,0,6,1,1,5,132,11
2,1,4,0,6,1,1,5,95,9
2,1,5,0,6,1,1,5,132,11
2,1,5,0,6,1,1,5,132,11
2,1,4,0,1,0,1,5,59,8
2,1,10,1,4,0,1,5,111,11
2,1,16,1,5,1,1,5,132,11
3,2,17,1,3,0,1,5,93,11
3,2,9,1,5,1,1,5,67,11
3,2,3,0,0,0,1,5,132,11
3,2,18,1,4,0,1,5,77,11
3,2,10,1,6,1,1,5,40,11
3,2,2,0,1,0,1,5,67,9
3,2,1,0,3,0,1,5,78,11
3,2,15,1,6,1,1,5,67,11
3,2,17,1,6,1,1,5,67,11
3,2,14,1,1,0,1,5,67,11
3,2,8,1,4,0,1,5,104,11
3,2,3,0,4,0,1,5,132,11
3,2,15,1,0,0,1,5,93,8
3,2,12,1,2,0,1,5,86,11
3,2,3,0,2,0,1,5,132,11
4,2,0,0,6,1,2,5,104,11
4,2,10,1,0,0,2,5,59,11
4,2,22,0,1,0,2,5,132,11
4,2,18,1,2,0,2,5,67,11
4,2,22,0,4,0,2,5,132,11
4,2,13,1,4,0,2,5,32,11
4,2,19,1,3,0,2,5,130,11
4,2,14,1,4,0,2,5,93,11
4,2,4,0,5,1,2,5,49,11
4,2,14,1,0,0,2,5,93,11
4,2,19,1,0,0,2,5,104,11
4,2,13,1,1,0,2,5,104,11
4,2,11,1,5,1,2,5,67,11
4,2,17,1,0,0,2,5,104,11
4,2,0,0,1,0,2,5,21,11
4,2,12,1,1,0,2,5,4,11
4,2,9,1,1,0,2,5,132,11
4,2,1,0,1,0,2,5,132,11
4,2,23,0,5,1,2,5,93,11
5,2,0,0,6,1,2,5,93,11
5,2,3,0,6,1,2,5,67,11
5,2,5,0,6,1,2,5,21,11
5,2,5,0,6,1,2,5,132,11
5,2,13,1,6,1,2,5,93,11
5,2,16,1,0,0,2,5,132,11
5,2,15,1,1,0,2,5,21,11
5,2,21,0,1,0,2,5,51,11
5,2,22,0,5,1,2,5,132,11
5,2,23,0,6,1,2,5,104,11
5,2,6,0,1,0,2,5,132,11
5,2,12,1,1,0,2,5,93,11
5,2,5,0,2,0,2,5,104,11
5,2,12,1,4,0,2,5,67,11
5,2,19,1,2,0,2,5,40,11
5,2,22,0,3,0,2,5,21,11
5,2,20,1,1,0,2,5,102,11
5,2,5,0,2,0,2,5,21,11
5,2,4,0,2,0,2,5,132,11
5,2,4,0,2,0,2,5,132,11
5,2,4,0,2,0,2,5,132,11
5,2,20,1,3,0,2,5,93,11
5,2,2,0,3,0,2,5,21,11
5,2,15,1,4,0,2,5,67,11
5,2,12,1,6,1,2,5,40,11
5,2,18,1,0,0,2,5,93,11
5,2,9,1,0,0,2,5,67,11
5,2,13,1,0,0,2,5,67,11
5,2,5,0,1,0,2,5,132,11
6,3,23,0,3,0,2,5,21,11
6,3,17,1,3,0,2,5,104,11
6,3,8,1,4,0,2,5,21,11
6,3,13,1,5,1,2,5,93,11
6,3,15,1,6,1,2,5,93,11
6,3,18,1,2,0,2,5,4,11
6,3,13,1,4,0,2,5,9,11
6,3,3,0,4,0,2,5,93,11
6,3,0,0,0,0,2,5,86,11
6,3,5,0,1,0,2,5,104,11
6,3,15,1,2,0,2,5,104,11
6,3,21,0,3,0,2,5,100,11
6,3,9,1,0,0,2,5,21,11
6,3,22,0,1,0,2,5,104,11
6,3,22,0,1,0,2,5,67,11
6,3,15,1,2,0,2,5,21,11
7,3,20,1,4,0,3,5,93,11
7,3,13,1,6,1,3,5,67,11
7,3,22,0,0,0,3,5,40,11
7,3,1,0,0,0,3,5,100,11
7,3,16,1,4,0,3,5,100,11
7,3,15,1,4,0,3,5,132,11
7,3,16,1,5,1,3,5,104,11
7,3,22,0,5,1,3,5,104,11
7,3,6,0,5,1,3,5,21,11
7,3,18,1,0,0,3,5,49,11
7,3,17,1,3,0,3,5,93,11
7,3,22,0,3,0,3,5,132,11
7,3,11,1,0,0,3,5,9,9
7,3,14,1,1,0,3,5,90,11
7,3,9,1,1,0,3,5,67,11
7,3,14,1,5,1,3,5,9,11
7,3,21,0,6,1,3,5,104,11
7,3,11,1,0,0,3,5,9,11
7,3,10,1,1,0,3,5,40,11
7,3,20,1,2,0,3,5,67,11
7,3,11,1,3,0,3,5,93,11
7,3,13,1,3,0,3,5,93,9
7,3,21,0,4,0,3,5,67,11
8,3,16,1,0,0,3,5,93,9
8,3,20,1,1,0,3,5,67,11
8,3,19,1,3,0,3,5,93,11
8,3,18,1,3,0,3,5,109,11
8,3,14,1,4,0,3,5,93,11
8,3,2,0,1,0,3,5,67,11
8,3,15,1,4,0,3,5,40,11
8,3,23,0,6,1,3,5,93,11
8,3,11,1,6,1,3,5,93,11
8,3,15,1,2,0,3,5,67,11
8,3,19,1,6,1,3,5,49,11
8,3,10,1,2,0,3,5,104,11
9,4,0,0,3,0,3,5,93,11
9,4,7,1,3,0,3,5,67,11
9,4,21,0,5,1,3,5,93,11
9,4,13,1,5,1,3,5,49,11
9,4,18,1,1,0,3,5,49,11
9,4,3,0,2,0,3,5,104,11
9,4,23,0,4,0,3,5,132,11
9,4,4,0,4,0,3,5,21,11
9,4,8,1,0,0,3,5,21,11
9,4,16,1,1,0,3,5,67,11
9,4,14,1,2,0,3,5,93,11
9,4,23,0,4,0,3,5,67,11
9,4,11,1,5,1,3,5,21,11
9,4,1,0,1,0,3,5,67,11
9,4,22,0,2,0,3,5,21,11
9,4,9,1,2,0,3,5,93,11
9,4,15,1,3,0,3,5,104,11
9,4,2,0,1,0,3,5,1,11
9,4,10,1,2,0,3,5,21,11
9,4,22,0,2,0,3,5,132,11
9,4,11,1,4,0,3,5,39,11
10,4,18,1,5,1,4,5,132,11
10,4,4,0,6,1,4,5,59,11
10,4,12,1,0,0,4,5,51,11
10,4,14,1,0,0,4,5,132,11
10,4,1,0,2,0,4,5,21,11
10,4,16,1,5,1,4,5,93,11
10,4,12,1,1,0,4,5,40,11
10,4,22,0,2,0,4,5,132,11
10,4,0,0,2,0,4,5,21,11
10,4,19,1,4,0,4,5,93,11
10,4,17,1,5,1,4,5,90,11
10,4,19,1,5,1,4,5,93,11
10,4,18,1,0,0,4,5,77,11
11,4,19,1,2,0,4,5,132,11
11,4,1,0,3,0,4,5,132,11
11,4,19,1,6,1,4,5,67,11
11,4,22,0,6,1,4,5,104,11
11,4,17,1,1,0,4,5,49,11
11,4,10,1,1,0,4,5,67,11
11,4,13,1,3,0,4,5,21,11
11,4,21,0,4,0,4,5,40,11
11,4,2,0,4,0,4,5,21,11
11,4,19,1,4,0,4,5,132,11
11,4,10,1,0,0,4,5,67,11
11,4,18,1,2,0,4,5,132,11
11,4,1,0,3,0,4,5,132,11
11,4,23,0,1,0,4,5,132,11
11,4,22,0,4,0,4,5,132,11
11,4,21,0,6,1,4,5,67,11
11,4,14,1,6,1,4,5,104,11
12,1,18,1,6,1,4,5,40,11
12,1,12,1,0,0,4,5,132,11
12,1,1,0,0,0,4,5,67,11
12,1,1,0,2,0,4,5,67,11
12,1,0,0,3,0,4,5,132,11
12,1,21,0,5,1,4,5,132,11
12,1,21,0,6,1,4,5,132,11
12,1,17,1,6,1,4,5,40,11
12,1,1,0,6,1,4,5,132,11
12,1,21,0,1,0,4,5,40,11
12,1,23,0,1,0,4,5,77,11
12,1,12,1,3,0,4,5,132,11
12,1,18,1,5,1,4,5,67,11
12,1,8,1,5,1,4,5,132,11
12,1,8,1,5,1,4,5,40,11
12,1,16,1,2,0,4,5,132,11
12,1,22,0,5,1,4,5,132,11
12,1,22,0,5,1,4,5,132,11
12,1,17,1,5,1,4,5,67,11
12,1,22,0,6,1,4,5,132,11
12,1,13,1,0,0,4,5,132,11
12,1,15,1,0,0,4,5,132,11
12,1,10,1,3,0,4,5,67,11
12,1,21,0,5,1,4,5,132,11
1,1,1,0,4,0,1,5,90,11
1,1,1,0,4,0,1,5,90,11
1,1,14,1,5,1,1,5,67,11
1,1,16,1,6,1,1,5,67,11
1,1,23,0,6,1,1,5,67,11
1,1,18,1,6,1,1,5,90,11
1,1,2,0,0,0,1,5,104,11
1,1,21,0,1,0,1,5,104,11
1,1,9,1,1,0,1,5,93,11
1,1,18,1,1,0,1,5,67,11
1,1,0,0,2,0,1,5,90,11
1,1,12,1,2,0,1,5,67,11
1,1,9,1,3,0,1,5,21,11
1,1,2,0,3,0,1,5,21,11
1,1,10,1,4,0,1,5,67,9
1,1,23,0,5,1,1,5,67,11
1,1,0,0,5,1,1,5,67,11
1,1,2,0,6,1,1,5,90,11
1,1,3,0,1,0,1,5,90,11
1,1,18,1,1,0,1,5,21,11
1,1,9,1,2,0,1,5,90,11
1,1,13,1,3,0,1,5,90,11
1,1,18,1,3,0,1,5,77,9
1,1,20,1,4,0,1,5,67,11
1,1,3,0,5,1,1,5,131,11
1,1,12,1,5,1,1,5,67,11
1,1,21,0,5,1,1,5,90,11
1,1,22,0,0,0,1,5,67,11
1,1,7,1,0,0,1,5,32,11
1,1,0,0,1,0,1,5,67,11
1,1,16,1,1,0,1,5,90,11
1,1,0,0,2,0,1,5,90,11
1,1,15,1,3,0,1,5,77,11
1,1,22,0,3,0,1,5,90,11
1,1,6,0,3,0,1,5,21,9
1,1,11,1,5,1,1,5,104,11
1,1,19,1,6,1,1,5,67,11
1,1,16,1,0,0,1,5,100,11
1,1,12,1,0,0,1,5,90,11
1,1,14,1,0,0,1,5,67,11
1,1,14,1,2,0,1,5,67,11
1,1,22,0,5,1,1,5,21,11
1,1,23,0,5,1,1,5,90,11
1,1,7,1,6,1,1,5,90,11
1,1,18,1,6,1,1,5,90,11
2,1,8,1,0,0,1,5,21,11
2,1,1,0,6,1,1,5,85,11
2,1,1,0,1,0,1,5,49,11
2,1,17,1,1,0,1,5,67,11
2,1,5,0,2,0,1,5,90,11
2,1,20,1,2,0,1,5,90,11
2,1,16,1,6,1,1,5,90,11
2,1,2,0,6,1,1,5,90,11
2,1,12,1,6,1,1,5,75,11
2,1,5,0,3,0,1,5,90,11
2,1,9,1,5,1,1,5,83,11
2,1,19,1,6,1,1,5,90,11
2,1,8,1,1,0,1,5,8,11
2,1,5,0,2,0,1,5,21,11
2,1,23,0,2,0,1,5,21,11
2,1,20,1,2,0,1,5,67,11
2,1,13,1,2,0,1,5,93,11
2,1,4,0,2,0,1,5,90,11
2,1,12,1,3,0,1,5,34,11
2,1,12,1,3,0,1,5,67,11
2,1,20,1,5,1,1,5,67,11
2,1,12,1,6,1,1,5,40,11
2,1,8,1,6,1,1,5,44,11
2,1,3,0,6,1,1,5,90,11
2,1,3,0,6,1,1,5,90,9
2,1,5,0,6,1,1,5,90,11
2,1,4,0,6,1,1,5,90,11
2,1,19,1,0,0,1,5,104,11
3,2,3,0,3,0,1,5,90,11
3,2,6,0,4,0,1,5,98,9
3,2,0,0,2,0,1,5,90,11
3,2,6,0,2,0,1,5,90,11
3,2,1,0,5,1,1,5,100,11
3,2,17,1,5,1,1,5,90,11
3,2,18,1,0,0,1,5,67,11
3,2,9,1,0,0,1,5,67,11
3,2,21,0,0,0,1,5,67,11
3,2,16,1,1,0,1,5,32,11
3,2,15,1,1,0,1,5,77,11
3,2,18,1,2,0,1,5,67,11
3,2,18,1,2,0,1,5,67,11
3,2,17,1,3,0,1,5,74,11
3,2,19,1,3,0,1,5,67,11
3,2,19,1,3,0,1,5,21,11
3,2,4,0,6,1,1,5,21,11
3,2,19,1,0,0,1,5,67,11
3,2,12,1,1,0,1,5,93,11
3,2,11,1,2,0,1,5,93,11
3,2,13,1,3,0,1,5,74,11
3,2,17,1,5,1,1,5,132,11
3,2,10,1,5,1,1,5,67,11
3,2,1,0,6,1,1,5,90,11
3,2,1,0,6,1,1,5,74,11
3,2,19,1,1,0,1,5,90,11
3,2,3,0,1,0,1,5,67,11
3,2,23,0,2,0,1,5,90,11
4,2,20,1,6,1,2,5,14,9
4,2,15,1,3,0,2,5,104,11
4,2,3,0,5,1,2,5,104,11
4,2,6,0,5,1,2,5,93,11
4,2,19,1,6,1,2,5,67,11
4,2,12,1,6,1,2,5,100,11
4,2,18,1,2,0,2,5,100,11
4,2,3,0,4,0,2,5,90,11
4,2,12,1,4,0,2,5,93,11
4,2,5,0,4,0,2,5,93,11
4,2,14,1,5,1,2,5,90,11
4,2,14,1,5,1,2,5,90,11
4,2,1,0,6,1,2,5,90,11
4,2,4,0,6,1,2,5,90,11
4,2,1,0,0,0,2,5,67,11
4,2,20,1,1,0,2,5,93,11
4,2,16,1,4,0,2,5,77,11
4,2,3,0,5,1,2,5,90,11
4,2,14,1,5,1,2,5,93,11
4,2,2,0,5,1,2,5,90,11
4,2,14,1,6,1,2,5,93,11
4,2,18,1,6,1,2,5,100,11
4,2,12,1,6,1,2,5,125,8
4,2,13,1,1,0,2,5,104,11
4,2,16,1,1,0,2,5,93,11
4,2,14,1,1,0,2,5,93,11
4,2,1,0,3,0,2,5,21,11
4,2,5,0,4,0,2,5,104,11
4,2,21,0,4,0,2,5,93,11
4,2,16,1,5,1,2,5,67,11
4,2,23,0,5,1,2,5,90,11
4,2,21,0,5,1,2,5,90,11
5,2,5,0,6,1,2,5,21,11
5,2,3,0,6,1,2,5,90,11
5,2,1,0,6,1,2,5,125,11
5,2,14,1,0,0,2,5,90,11
5,2,10,1,0,0,2,5,100,11
5,2,11,1,0,0,2,5,9,11
5,2,18,1,1,0,2,5,93,11
5,2,14,1,5,1,2,5,90,11
5,2,7,1,5,1,2,5,67,11
5,2,23,0,5,1,2,5,9,11
5,2,13,1,6,1,2,5,93,11
5,2,3,0,6,1,2,5,90,11
5,2,0,0,0,0,2,5,90,11
5,2,19,1,1,0,2,5,93,11
5,2,11,1,2,0,2,5,104,11
5,2,18,1,4,0,2,5,90,11
5,2,16,1,4,0,2,5,14,11
5,2,1,0,5,1,2,5,90,11
5,2,19,1,6,1,2,5,100,11
5,2,22,0,6,1,2,5,90,11
5,2,16,1,1,0,2,5,90,11
5,2,8,1,1,0,2,5,90,11
5,2,10,1,1,0,2,5,108,11
5,2,4,0,1,0,2,5,104,11
5,2,13,1,4,0,2,5,93,9
5,2,14,1,4,0,2,5,68,11
5,2,15,1,6,1,2,5,93,11
5,2,11,1,1,0,2,5,67,11
5,2,15,1,2,0,2,5,93,11
5,2,21,0,3,0,2,5,63,9
5,2,3,0,0,0,2,5,100,11
5,2,2,0,1,0,2,5,90,11
5,2,0,0,1,0,2,5,78,11
5,2,10,1,1,0,2,5,21,11
5,2,18,1,1,0,2,5,93,11
6,3,4,0,2,0,2,5,90,11
6,3,10,1,3,0,2,5,93,11
6,3,18,1,5,1,2,5,67,11
6,3,5,0,5,1,2,5,90,9
6,3,10,1,6,1,2,5,67,11
6,3,12,1,0,0,2,5,15,9
6,3,23,0,0,0,2,5,67,11
6,3,15,1,0,0,2,5,90,11
6,3,12,1,0,0,2,5,77,11
6,3,14,1,2,0,2,5,90,11
6,3,14,1,3,0,2,5,21,11
6,3,18,1,4,0,2,5,32,11
6,3,10,1,4,0,2,5,67,11
6,3,17,1,5,1,2,5,93,11
6,3,0,0,6,1,2,5,9,11
6,3,9,1,1,0,2,5,21,11
6,3,5,0,1,0,2,5,66,11
6,3,11,1,2,0,2,5,90,11
6,3,21,0,2,0,2,5,109,11
6,3,13,1,3,0,2,5,40,11
6,3,13,1,3,0,2,5,104,11
6,3,4,0,4,0,2,5,90,11
6,3,16,1,4,0,2,5,104,11
6,3,13,1,0,0,2,5,21,11
6,3,14,1,1,0,2,5,93,11
6,3,17,1,1,0,2,5,32,11
6,3,8,1,1,0,2,5,21,11
6,3,13,1,2,0,2,5,93,9
6,3,15,1,2,0,2,5,90,11
6,3,18,1,3,0,2,5,67,11
6,3,18,1,3,0,2,5,112,11
6,3,10,1,3,0,2,5,112,11
6,3,18,1,4,0,2,5,93,11
6,3,13,1,4,0,2,5,49,11
6,3,18,1,5,1,2,5,77,11
6,3,2,0,5,1,2,5,9,11
6,3,14,1,5,1,2,5,104,9
6,3,15,1,5,1,2,5,104,11
6,3,4,0,6,1,2,5,66,11
6,3,1,0,3,0,2,5,90,11
6,3,17,1,3,0,2,5,90,11
7,3,21,0,4,0,3,5,90,11
7,3,13,1,5,1,3,5,40,11
7,3,9,1,5,1,3,5,93,11
7,3,23,0,5,1,3,5,49,11
7,3,9,1,5,1,3,5,67,11
7,3,18,1,6,1,3,5,93,9
7,3,2,0,6,1,3,5,102,11
7,3,13,1,0,0,3,5,21,11
7,3,16,1,2,0,3,5,104,11
7,3,21,0,3,0,3,5,66,11
7,3,17,1,4,0,3,5,67,11
7,3,17,1,5,1,3,5,8,11
7,3,12,1,6,1,3,5,90,11
7,3,18,1,6,1,3,5,90,11
7,3,1,0,0,0,3,5,104,11
7,3,15,1,0,0,3,5,67,11
7,3,1,0,1,0,3,5,91,11
7,3,13,1,1,0,3,5,100,11
7,3,20,1,1,0,3,5,104,11
7,3,1,0,2,0,3,5,90,11
7,3,2,0,5,1,3,5,100,11
7,3,13,1,5,1,3,5,93,11
7,3,13,1,5,1,3,5,104,11
7,3,21,0,5,1,3,5,93,11
7,3,13,1,6,1,3,5,93,9
7,3,11,1,0,0,3,5,108,11
7,3,18,1,0,0,3,5,90,11
7,3,13,1,2,0,3,5,90,11
7,3,9,1,3,0,3,5,93,11
7,3,16,1,4,0,3,5,104,11
7,3,21,0,6,1,3,5,67,9
7,3,1,0,0,0,3,5,90,11
7,3,14,1,1,0,3,5,49,11
7,3,8,1,2,0,3,5,67,11
7,3,23,0,4,0,3,5,90,11
7,3,19,1,4,0,3,5,90,11
7,3,14,1,4,0,3,5,91,11
7,3,13,1,5,1,3,5,93,11
8,3,13,1,0,0,3,5,115,11
8,3,12,1,1,0,3,5,77,11
8,3,10,1,1,0,3,5,107,11
8,3,15,1,2,0,3,5,93,11
8,3,13,1,2,0,3,5,104,11
8,3,19,1,2,0,3,5,104,11
8,3,15,1,3,0,3,5,67,11
8,3,15,1,5,1,3,5,77,11
8,3,20,1,5,1,3,5,100,11
8,3,1,0,6,1,3,5,93,8
8,3,23,0,6,1,3,5,93,9
8,3,15,1,1,0,3,5,32,11
8,3,6,0,2,0,3,5,77,11
8,3,2,0,2,0,3,5,93,11
8,3,17,1,3,0,3,5,93,8
8,3,10,1,3,0,3,5,89,11
8,3,10,1,5,1,3,5,93,11
8,3,3,0,6,1,3,5,93,9
8,3,20,1,6,1,3,5,21,11
8,3,22,0,0,0,3,5,104,11
8,3,23,0,0,0,3,5,9,11
8,3,0,0,0,0,3,5,40,11
8,3,21,0,3,0,3,5,93,11
8,3,3,0,6,1,3,5,104,11
8,3,13,1,6,1,3,5,104,11
8,3,14,1,1,0,3,5,14,9
8,3,20,1,2,0,3,5,9,11
8,3,0,0,2,0,3,5,67,11
8,3,17,1,3,0,3,5,115,9
8,3,2,0,4,0,3,5,104,11
8,3,6,0,5,1,3,5,85,11
8,3,11,1,1,0,3,5,77,11
8,3,6,0,2,0,3,5,90,11
9,4,21,0,3,0,3,5,67,11
9,4,4,0,4,0,3,5,100,11
9,4,19,1,4,0,3,5,104,11
9,4,12,1,4,0,3,5,93,11
9,4,11,1,4,0,3,5,49,11
9,4,1,0,6,1,3,5,90,11
9,4,12,1,6,1,3,5,93,11
9,4,15,1,6,1,3,5,104,11
9,4,9,1,0,0,3,5,67,11
9,4,14,1,0,0,3,5,93,11
9,4,15,1,0,0,3,5,67,11
9,4,14,1,1,0,3,5,93,8
9,4,12,1,2,0,3,5,49,11
9,4,15,1,2,0,3,5,93,11
9,4,22,0,2,0,3,5,77,11
9,4,15,1,3,0,3,5,104,11
9,4,15,1,4,0,3,5,90,11
9,4,13,1,4,0,3,5,67,11
9,4,9,1,5,1,3,5,93,11
9,4,22,0,6,1,3,5,101,9
9,4,14,1,0,0,3,5,133,11
9,4,9,1,1,0,3,5,67,11
9,4,18,1,2,0,3,5,93,11
9,4,14,1,2,0,3,5,93,11
9,4,23,0,3,0,3,5,40,9
9,4,20,1,3,0,3,5,93,11
9,4,11,1,4,0,3,5,93,11
9,4,18,1,6,1,3,5,24,11
9,4,12,1,6,1,3,5,67,11
9,4,1,0,1,0,3,5,90,11
9,4,17,1,1,0,3,5,67,11
9,4,11,1,3,0,3,5,67,11
9,4,13,1,3,0,3,5,67,11
9,4,12,1,5,1,3,5,21,11
9,4,22,0,6,1,3,5,67,9
9,4,20,1,6,1,3,5,67,9
9,4,13,1,0,0,3,5,93,11
9,4,5,0,1,0,3,5,104,11
9,4,7,1,1,0,3,5,93,11
9,4,19,1,2,0,3,5,49,11
9,4,16,1,2,0,3,5,67,11
9,4,13,1,2,0,3,5,104,11
9,4,13,1,3,0,3,5,93,11
9,4,18,1,4,0,3,5,93,11
9,4,13,1,4,0,3,5,59,11
10,4,12,1,5,1,4,5,21,11
10,4,23,0,5,1,4,5,67,11
10,4,11,1,6,1,4,5,93,11
10,4,11,1,1,0,4,5,40,11
10,4,12,1,1,0,4,5,104,11
10,4,8,1,2,0,4,5,67,11
10,4,15,1,2,0,4,5,93,11
10,4,18,1,2,0,4,5,93,11
10,4,19,1,2,0,4,5,77,11
10,4,12,1,3,0,4,5,77,11
10,4,5,0,4,0,4,5,21,11
10,4,14,1,4,0,4,5,93,11
10,4,13,1,4,0,4,5,40,11
10,4,13,1,5,1,4,5,67,11
10,4,17,1,5,1,4,5,93,11
10,4,8,1,6,1,4,5,77,11
10,4,13,1,0,0,4,5,49,11
10,4,3,0,2,0,4,5,90,11
10,4,4,0,2,0,4,5,67,11
10,4,23,0,3,0,4,5,104,11
10,4,18,1,3,0,4,5,90,11
10,4,14,1,3,0,4,5,93,11
10,4,17,1,4,0,4,5,67,11
10,4,23,0,5,1,4,5,90,11
10,4,1,0,6,1,4,5,108,9
10,4,23,0,6,1,4,5,104,11
10,4,3,0,0,0,4,5,33,11
10,4,13,1,1,0,4,5,90,11
10,4,7,1,1,0,4,5,67,11
10,4,18,1,2,0,4,5,93,9
10,4,10,1,3,0,4,5,67,11
10,4,11,1,3,0,4,5,93,11
10,4,21,0,4,0,4,5,104,11
10,4,8,1,5,1,4,5,59,11
10,4,22,0,5,1,4,5,109,11
10,4,21,0,6,1,4,5,91,11
10,4,6,0,6,1,4,5,67,11
10,4,8,1,3,0,4,5,93,11
10,4,19,1,3,0,4,5,40,11
10,4,20,1,4,0,4,5,21,11
10,4,22,0,5,1,4,5,9,11
10,4,11,1,5,1,4,5,93,11
10,4,1,0,5,1,4,5,90,11
10,4,17,1,6,1,4,5,93,11
11,4,0,0,1,0,4,5,67,9
11,4,19,1,1,0,4,5,67,11
11,4,17,1,2,0,4,5,77,11
11,4,22,0,4,0,4,5,21,11
11,4,14,1,4,0,4,5,93,11
11,4,8,1,5,1,4,5,40,11
11,4,4,0,6,1,4,5,104,11
11,4,12,1,6,1,4,5,67,11
11,4,3,0,0,0,4,5,67,11
11,4,14,1,1,0,4,5,93,11
11,4,21,0,2,0,4,5,67,11
11,4,3,0,4,0,4,5,90,11
11,4,17,1,4,0,4,5,93,11
11,4,3,0,6,1,4,5,90,11
11,4,22,0,0,0,4,5,59,11
11,4,15,1,0,0,4,5,93,11
11,4,18,1,0,0,4,5,93,11
11,4,18,1,2,0,4,5,32,9
11,4,14,1,3,0,4,5,67,11
11,4,5,0,5,1,4,5,90,11
11,4,10,1,6,1,4,5,104,11
11,4,9,1,6,1,4,5,21,11
11,4,10,1,0,0,4,5,90,11
11,4,18,1,1,0,4,5,90,11
11,4,19,1,1,0,4,5,59,11
11,4,17,1,2,0,4,5,67,11
11,4,19,1,3,0,4,5,104,11
11,4,18,1,3,0,4,5,21,11
11,4,7,1,4,0,4,5,67,11
11,4,13,1,4,0,4,5,104,11
11,4,17,1,1,0,4,5,100,11
11,4,0,0,2,0,4,5,104,11
11,4,9,1,2,0,4,5,21,11
11,4,18,1,2,0,4,5,77,11
11,4,18,1,2,0,4,5,40,11
12,1,22,0,3,0,4,5,91,11
12,1,17,1,3,0,4,5,90,11
12,1,18,1,4,0,4,5,21,11
12,1,5,0,5,1,4,5,90,11
12,1,17,1,0,0,4,5,77,9
12,1,19,1,0,0,4,5,90,11
12,1,20,1,0,0,4,5,67,11
12,1,8,1,0,0,4,5,32,11
12,1,16,1,2,0,4,5,104,11
12,1,17,1,3,0,4,5,89,11
12,1,14,1,4,0,4,5,77,11
12,1,8,1,5,1,4,5,104,11
12,1,14,1,6,1,4,5,104,11
12,1,15,1,0,0,4,5,67,11
12,1,20,1,2,0,4,5,67,11
12,1,2,0,2,0,4,5,90,11
12,1,21,0,2,0,4,5,90,11
12,1,21,0,2,0,4,5,90,11
12,1,14,1,5,1,4,5,90,11
12,1,19,1,5,1,4,5,22,11
12,1,14,1,6,1,4,5,90,11
12,1,17,1,6,1,4,5,91,11
12,1,12,1,0,0,4,5,90,11
12,1,14,1,0,0,4,5,77,11
12,1,15,1,1,0,4,5,104,11
12,1,13,1,1,0,4,5,67,11
12,1,5,0,1,0,4,5,90,11
12,1,10,1,2,0,4,5,77,11
12,1,12,1,2,0,4,5,67,11
12,1,16,1,3,0,4,5,85,11
12,1,22,0,3,0,4,5,49,11
12,1,19,1,3,0,4,5,67,11
12,1,21,0,3,0,4,5,67,11
12,1,11,1,3,0,4,5,67,11
12,1,18,1,4,0,4,5,90,11
12,1,14,1,6,1,4,5,67,11
12,1,20,1,6,1,4,5,67,11
12,1,11,1,0,0,4,5,90,11
12,1,10,1,0,0,4,5,90,11
12,1,14,1,0,0,4,5,90,11
12,1,18,1,0,0,4,5,67,11
12,1,20,1,1,0,4,5,90,11
12,1,14,1,2,0,4,5,67,11
12,1,15,1,3,0,4,5,90,11
12,1,19,1,3,0,4,5,67,11
12,1,10,1,3,0,4,5,67,11
12,1,22,0,3,0,4,5,77,11
12,1,10,1,3,0,4,5,21,11
12,1,7,1,4,0,4,5,66,11
12,1,22,0,4,0,4,5,21,11
12,1,7,1,5,1,4,5,49,9
12,1,0,0,5,1,4,5,90,11
1,1,17,1,4,0,1,5,67,11
1,1,16,1,4,0,1,5,67,11
1,1,16,1,4,0,1,5,77,11
1,1,11,1,4,0,1,5,67,11
1,1,9,1,4,0,1,5,112,11
1,1,10,1,5,1,1,5,67,11
1,1,22,0,6,1,1,5,67,11
1,1,13,1,6,1,1,5,90,11
1,1,22,0,0,0,1,5,112,11
1,1,13,1,0,0,1,5,77,11
1,1,9,1,2,0,1,5,93,11
1,1,9,1,3,0,1,5,91,11
1,1,18,1,4,0,1,5,74,11
1,1,7,1,4,0,1,5,74,11
1,1,2,0,5,1,1,5,67,11
1,1,15,1,5,1,1,5,93,11
1,1,22,0,5,1,1,5,90,11
1,1,10,1,6,1,1,5,93,11
1,1,17,1,1,0,1,5,93,11
1,1,20,1,1,0,1,5,93,11
1,1,20,1,3,0,1,5,67,11
1,1,17,1,3,0,1,5,93,11
1,1,21,0,4,0,1,5,132,11
1,1,21,0,0,0,1,5,132,8
1,1,16,1,0,0,1,5,132,8
1,1,22,0,1,0,1,5,77,11
1,1,15,1,1,0,1,5,77,11
1,1,23,0,3,0,1,5,1,9
1,1,15,1,3,0,1,5,130,11
1,1,21,0,4,0,1,5,100,11
1,1,17,1,5,1,1,5,132,11
1,1,17,1,6,1,1,5,93,11
1,1,13,1,6,1,1,5,100,11
1,1,19,1,0,0,1,5,90,11
1,1,14,1,0,0,1,5,104,11
1,1,8,1,0,0,1,5,90,11
1,1,19,1,2,0,1,5,90,11
1,1,1,0,4,0,1,5,100,11
1,1,15,1,5,1,1,5,67,11
1,1,18,1,6,1,1,5,100,11
2,1,12,1,5,1,1,5,90,11
2,1,5,0,6,1,1,5,74,11
2,1,4,0,6,1,1,5,40,11
2,1,11,1,0,0,1,5,74,11
2,1,19,1,4,0,1,5,80,11
2,1,19,1,6,1,1,5,66,11
2,1,15,1,6,1,1,5,93,11
2,1,13,1,6,1,1,5,93,9
2,1,22,0,0,0,1,5,100,11
2,1,19,1,0,0,1,5,67,11
2,1,17,1,3,0,1,5,115,11
2,1,13,1,4,0,1,5,67,11
2,1,5,0,4,0,1,5,100,11
2,1,4,0,4,0,1,5,100,11
2,1,0,0,4,0,1,5,90,11
2,1,10,1,5,1,1,5,77,11
2,1,23,0,6,1,1,5,90,11
2,1,23,0,0,0,1,5,74,11
2,1,0,0,0,0,1,5,93,11
2,1,7,1,1,0,1,5,93,11
2,1,19,1,1,0,1,5,66,11
2,1,9,1,2,0,1,5,67,11
2,1,22,0,4,0,1,5,67,11
2,1,21,0,4,0,1,5,90,11
2,1,13,1,5,1,1,5,90,11
2,1,0,0,6,1,1,5,74,11
2,1,6,0,6,1,1,5,90,11
3,2,13,1,1,0,1,5,93,11
3,2,1,0,2,0,1,5,74,11
3,2,21,0,3,0,1,5,67,11
3,2,17,1,3,0,1,5,93,11
3,2,9,1,3,0,1,5,93,11
3,2,0,0,2,0,1,5,132,11
3,2,18,1,4,0,1,5,74,11
3,2,22,0,5,1,1,5,67,11
3,2,16,1,5,1,1,5,67,11
3,2,6,0,5,1,1,5,67,11
3,2,15,1,6,1,1,5,90,11
3,2,2,0,6,1,1,5,90,11
3,2,19,1,0,0,1,5,67,11
3,2,23,0,1,0,1,5,74,11
3,2,22,0,1,0,1,5,67,11
3,2,23,0,1,0,1,5,66,11
3,2,2,0,3,0,1,5,74,11
3,2,0,0,5,1,1,5,77,11
3,2,19,1,5,1,1,5,100,11
3,2,19,1,5,1,1,5,100,11
3,2,18,1,6,1,1,5,93,11
3,2,17,1,1,0,1,5,93,11
3,2,6,0,2,0,1,5,90,11
3,2,22,0,2,0,1,5,93,11
3,2,22,0,3,0,1,5,93,11
3,2,11,1,4,0,1,5,8,11
3,2,20,1,4,0,1,5,67,11
3,2,18,1,5,1,1,5,90,11
3,2,7,1,6,1,1,5,67,11
3,2,11,1,6,1,1,5,67,11
3,2,13,1,0,0,1,5,112,11
3,2,14,1,1,0,1,5,100,11
3,2,21,0,2,0,1,5,74,11
4,2,15,1,4,0,2,5,67,11
4,2,22,0,5,1,2,5,90,11
4,2,19,1,6,1,2,5,93,11
4,2,21,0,6,1,2,5,74,11
4,2,15,1,0,0,2,5,59,8
4,2,1,0,2,0,2,5,74,11
4,2,15,1,2,0,2,5,93,11
4,2,16,1,2,0,2,5,93,11
4,2,11,1,2,0,2,5,74,11
4,2,11,1,2,0,2,5,93,11
4,2,0,0,3,0,2,5,74,11
4,2,15,1,3,0,2,5,74,11
4,2,14,1,3,0,2,5,74,11
4,2,23,0,4,0,2,5,74,11
4,2,20,1,4,0,2,5,90,11
4,2,2,0,5,1,2,5,74,11
4,2,1,0,5,1,2,5,74,11
4,2,16,1,1,0,2,5,67,11
4,2,15,1,1,0,2,5,93,11
4,2,20,1,2,0,2,5,93,11
4,2,13,1,3,0,2,5,93,11
4,2,22,0,4,0,2,5,74,11
4,2,23,0,4,0,2,5,112,11
4,2,14,1,4,0,2,5,67,8
4,2,1,0,4,0,2,5,132,11
4,2,18,1,5,1,2,5,93,11
4,2,15,1,5,1,2,5,93,11
4,2,19,1,6,1,2,5,90,11
4,2,22,0,6,1,2,5,93,11
4,2,22,0,0,0,2,5,74,11
4,2,3,0,1,0,2,5,132,11
4,2,21,0,1,0,2,5,90,11
4,2,23,0,2,0,2,5,93,11
4,2,1,0,3,0,2,5,93,11
4,2,21,0,3,0,2,5,90,11
4,2,18,1,4,0,2,5,90,11
4,2,14,1,4,0,2,5,93,11
4,2,18,1,5,1,2,5,9,11
4,2,17,1,5,1,2,5,93,11
4,2,23,0,5,1,2,5,93,11
4,2,16,1,0,0,2,5,93,11
4,2,14,1,1,0,2,5,74,11
4,2,11,1,1,0,2,5,77,11
4,2,3,0,1,0,2,5,74,8
4,2,19,1,2,0,2,5,93,11
4,2,21,0,2,0,2,5,93,11
4,2,16,1,2,0,2,5,93,11
4,2,8,1,2,0,2,5,93,11
4,2,18,1,3,0,2,5,93,11
4,2,16,1,3,0,2,5,93,11
4,2,7,1,3,0,2,5,93,11
4,2,22,0,4,0,2,5,67,11
4,2,17,1,4,0,2,5,90,11
4,2,16,1,4,0,2,5,90,11
4,2,18,1,4,0,2,5,104,11
4,2,14,1,4,0,2,5,74,11
4,2,13,1,4,0,2,5,91,9
4,2,12,1,4,0,2,5,93,11
4,2,12,1,4,0,2,5,93,11
4,2,2,0,4,0,2,5,93,11
4,2,0,0,4,0,2,5,90,11
4,2,20,1,5,1,2,5,93,11
4,2,16,1,5,1,2,5,77,11
5,2,18,1,6,1,2,5,93,11
5,2,16,1,6,1,2,5,93,11
5,2,4,0,6,1,2,5,90,11
5,2,12,1,6,1,2,5,93,11
5,2,4,0,6,1,2,5,90,11
5,2,3,0,6,1,2,5,90,11
5,2,12,1,0,0,2,5,93,11
5,2,15,1,0,0,2,5,91,11
5,2,13,1,0,0,2,5,67,11
5,2,19,1,1,0,2,5,93,11
5,2,21,0,1,0,2,5,93,11
5,2,22,0,3,0,2,5,74,11
5,2,22,0,4,0,2,5,93,11
5,2,17,1,4,0,2,5,93,11
5,2,16,1,4,0,2,5,93,11
5,2,10,1,4,0,2,5,130,11
5,2,23,0,6,1,2,5,90,11
5,2,13,1,6,1,2,5,93,11
5,2,10,1,6,1,2,5,93,11
5,2,13,1,6,1,2,5,93,11
5,2,20,1,6,1,2,5,90,11
5,2,15,1,6,1,2,5,90,11
5,2,5,0,6,1,2,5,74,11
5,2,3,0,0,0,2,5,90,11
5,2,11,1,1,0,2,5,93,11
5,2,17,1,1,0,2,5,74,11
5,2,21,0,2,0,2,5,93,11
5,2,10,1,2,0,2,5,90,11
5,2,11,1,2,0,2,5,93,11
5,2,14,1,3,0,2,5,93,11
5,2,13,1,3,0,2,5,93,11
5,2,12,1,3,0,2,5,93,11
5,2,2,0,4,0,2,5,90,11
5,2,18,1,4,0,2,5,74,11
5,2,12,1,5,1,2,5,93,11
5,2,14,1,5,1,2,5,93,11
5,2,22,0,6,1,2,5,90,11
5,2,13,1,6,1,2,5,8,9
5,2,5,0,6,1,2,5,90,11
5,2,4,0,6,1,2,5,90,11
5,2,19,1,0,0,2,5,93,11
5,2,14,1,0,0,2,5,93,11
5,2,16,1,0,0,2,5,104,11
5,2,14,1,0,0,2,5,74,11
5,2,19,1,1,0,2,5,93,11
5,2,20,1,1,0,2,5,93,11
5,2,17,1,1,0,2,5,93,11
5,2,22,0,2,0,2,5,90,11
5,2,19,1,2,0,2,5,93,11
5,2,19,1,2,0,2,5,90,11
5,2,18,1,2,0,2,5,93,11
5,2,12,1,2,0,2,5,93,11
5,2,4,0,2,0,2,5,74,11
5,2,16,1,4,0,2,5,93,11
5,2,14,1,4,0,2,5,93,11
5,2,22,0,6,1,2,5,90,11
5,2,3,0,6,1,2,5,122,11
5,2,16,1,0,0,2,5,93,11
5,2,20,1,1,0,2,5,93,9
5,2,19,1,1,0,2,5,93,11
5,2,15,1,2,0,2,5,93,11
5,2,20,1,2,0,2,5,90,11
5,2,19,1,3,0,2,5,93,11
5,2,20,1,3,0,2,5,93,11
5,2,20,1,3,0,2,5,93,11
5,2,13,1,3,0,2,5,93,11
5,2,20,1,4,0,2,5,93,11
5,2,13,1,4,0,2,5,93,11
5,2,18,1,4,0,2,5,90,11
5,2,14,1,4,0,2,5,100,11
5,2,3,0,4,0,2,5,74,11
5,2,16,1,5,1,2,5,93,11
5,2,19,1,5,1,2,5,90,11
5,2,23,0,5,1,2,5,93,11
5,2,17,1,6,1,2,5,93,11
5,2,0,0,0,0,2,5,90,11
5,2,22,0,0,0,2,5,93,11
5,2,16,1,0,0,2,5,90,11
5,2,20,1,0,0,2,5,93,11
5,2,20,1,0,0,2,5,104,11
5,2,20,1,0,0,2,5,102,11
5,2,17,1,0,0,2,5,123,11
5,2,16,1,0,0,2,5,74,11
5,2,20,1,1,0,2,5,93,11
5,2,19,1,1,0,2,5,59,8
5,2,15,1,1,0,2,5,93,11
5,2,5,0,1,0,2,5,93,11
6,3,3,0,2,0,2,5,90,11
6,3,2,0,2,0,2,5,90,11
6,3,1,0,2,0,2,5,93,11
6,3,9,1,2,0,2,5,93,11
6,3,12,1,2,0,2,5,90,11
6,3,9,1,2,0,2,5,93,11
6,3,0,0,3,0,2,5,8,11
6,3,19,1,3,0,2,5,93,11
6,3,10,1,3,0,2,5,8,11
6,3,13,1,4,0,2,5,93,11
6,3,6,0,4,0,2,5,93,11
6,3,23,0,5,1,2,5,30,11
6,3,22,0,5,1,2,5,93,11
6,3,10,1,5,1,2,5,93,11
6,3,20,1,6,1,2,5,93,11
6,3,13,1,6,1,2,5,93,11
6,3,16,1,6,1,2,5,93,11
6,3,21,0,6,1,2,5,93,11
6,3,23,0,6,1,2,5,90,11
6,3,9,1,0,0,2,5,93,8
6,3,18,1,0,0,2,5,93,11
6,3,12,1,1,0,2,5,74,11
6,3,4,0,2,0,2,5,74,11
6,3,17,1,3,0,2,5,15,11
6,3,6,0,3,0,2,5,74,11
6,3,12,1,3,0,2,5,104,11
6,3,0,0,5,1,2,5,74,11
6,3,19,1,6,1,2,5,93,11
6,3,21,0,6,1,2,5,93,11
6,3,11,1,6,1,2,5,40,8
6,3,20,1,0,0,2,5,74,11
6,3,21,0,1,0,2,5,93,11
6,3,15,1,1,0,2,5,93,11
6,3,12,1,1,0,2,5,93,11
6,3,14,1,1,0,2,5,93,11
6,3,15,1,1,0,2,5,90,11
6,3,22,0,2,0,2,5,93,11
6,3,22,0,2,0,2,5,93,11
6,3,20,1,2,0,2,5,93,11
6,3,11,1,2,0,2,5,93,11
6,3,9,1,2,0,2,5,93,11
6,3,15,1,2,0,2,5,90,11
6,3,12,1,3,0,2,5,15,11
6,3,19,1,3,0,2,5,40,11
6,3,15,1,3,0,2,5,67,11
6,3,14,1,3,0,2,5,104,11
6,3,18,1,3,0,2,5,93,11
6,3,16,1,3,0,2,5,93,11
6,3,19,1,4,0,2,5,1,11
6,3,18,1,4,0,2,5,93,11
6,3,22,0,5,1,2,5,93,11
6,3,19,1,6,1,2,5,93,11
6,3,1,0,0,0,2,5,93,11
6,3,4,0,1,0,2,5,74,11
6,3,20,1,1,0,2,5,93,11
6,3,16,1,1,0,2,5,93,11
6,3,10,1,2,0,2,5,93,11
6,3,22,0,3,0,2,5,77,11
6,3,19,1,3,0,2,5,114,11
6,3,10,1,4,0,2,5,74,11
6,3,11,1,4,0,2,5,9,11
6,3,18,1,5,1,2,5,104,11
6,3,14,1,5,1,2,5,93,11
6,3,16,1,5,1,2,5,93,11
6,3,11,1,6,1,2,5,93,11
6,3,11,1,6,1,2,5,93,11
6,3,21,0,6,1,2,5,93,11
6,3,0,0,6,1,2,5,93,11
6,3,11,1,0,0,2,5,93,11
6,3,17,1,0,0,2,5,93,11
6,3,20,1,1,0,2,5,100,11
6,3,18,1,3,0,2,5,9,11
6,3,20,1,3,0,2,5,93,8
6,3,13,1,3,0,2,5,93,11
6,3,5,0,3,0,2,5,93,9
6,3,14,1,3,0,2,5,9,11
6,3,11,1,3,0,2,5,9,11
7,3,4,0,4,0,3,5,100,11
7,3,4,0,4,0,3,5,100,11
7,3,18,1,5,1,3,5,100,11
7,3,7,1,5,1,3,5,93,11
7,3,18,1,5,1,3,5,93,11
7,3,16,1,6,1,3,5,93,11
7,3,19,1,6,1,3,5,93,11
7,3,17,1,0,0,3,5,74,9
7,3,13,1,0,0,3,5,67,9
7,3,14,1,0,0,3,5,93,11
7,3,22,0,0,0,3,5,74,11
7,3,12,1,1,0,3,5,93,11
7,3,13,1,1,0,3,5,93,11
7,3,21,0,1,0,3,5,93,11
7,3,20,1,2,0,3,5,93,11
7,3,14,1,2,0,3,5,67,11
7,3,21,0,3,0,3,5,93,11
7,3,16,1,0,0,3,5,29,11
7,3,9,1,1,0,3,5,67,11
7,3,18,1,1,0,3,5,93,11
7,3,9,1,2,0,3,5,90,11
7,3,16,1,3,0,3,5,74,8
7,3,17,1,5,1,3,5,93,11
7,3,10,1,6,1,3,5,93,11
7,3,11,1,6,1,3,5,90,11
7,3,18,1,6,1,3,5,93,11
7,3,1,0,0,0,3,5,74,11
7,3,20,1,0,0,3,5,8,11
7,3,14,1,1,0,3,5,36,11
7,3,23,0,2,0,3,5,67,11
7,3,23,0,3,0,3,5,93,11
7,3,18,1,4,0,3,5,93,11
7,3,22,0,6,1,3,5,93,11
7,3,14,1,0,0,3,5,93,11
7,3,16,1,0,0,3,5,93,11
7,3,8,1,0,0,3,5,93,11
7,3,2,0,2,0,3,5,93,11
7,3,21,0,3,0,3,5,93,11
7,3,16,1,4,0,3,5,100,11
7,3,15,1,4,0,3,5,93,11
7,3,10,1,4,0,3,5,9,11
8,3,3,0,0,0,3,5,100,11
8,3,21,0,0,0,3,5,93,11
8,3,6,0,1,0,3,5,93,11
8,3,12,1,1,0,3,5,93,11
8,3,21,0,1,0,3,5,74,11
8,3,6,0,2,0,3,5,93,11
8,3,21,0,2,0,3,5,93,11
8,3,22,0,2,0,3,5,93,11
8,3,19,1,3,0,3,5,93,11
8,3,4,0,3,0,3,5,77,11
8,3,11,1,3,0,3,5,67,11
8,3,23,0,3,0,3,5,93,11
8,3,12,1,4,0,3,5,93,11
8,3,20,1,4,0,3,5,66,11
8,3,14,1,4,0,3,5,67,11
8,3,20,1,5,1,3,5,100,11
8,3,1,0,6,1,3,5,90,11
8,3,21,0,6,1,3,5,93,11
8,3,14,1,6,1,3,5,93,11
8,3,9,1,0,0,3,5,74,11
8,3,19,1,2,0,3,5,93,11
8,3,1,0,2,0,3,5,93,11
8,3,20,1,2,0,3,5,67,11
8,3,11,1,2,0,3,5,90,11
8,3,6,0,4,0,3,5,93,9
8,3,18,1,5,1,3,5,104,11
8,3,16,1,5,1,3,5,67,11
8,3,14,1,6,1,3,5,93,9
8,3,7,1,6,1,3,5,67,11
8,3,22,0,0,0,3,5,74,11
8,3,12,1,0,0,3,5,93,11
8,3,18,1,1,0,3,5,93,11
8,3,21,0,1,0,3,5,93,11
8,3,15,1,1,0,3,5,100,11
8,3,7,1,2,0,3,5,77,11
8,3,22,0,3,0,3,5,90,11
8,3,15,1,3,0,3,5,40,11
8,3,19,1,4,0,3,5,93,11
8,3,20,1,4,0,3,5,93,11
8,3,17,1,4,0,3,5,90,11
8,3,11,1,4,0,3,5,66,11
8,3,20,1,5,1,3,5,67,11
8,3,3,0,5,1,3,5,77,9
8,3,23,0,6,1,3,5,93,11
8,3,7,1,6,1,3,5,93,11
8,3,13,1,0,0,3,5,93,11
8,3,16,1,0,0,3,5,93,11
8,3,23,0,0,0,3,5,68,11
8,3,13,1,1,0,3,5,40,11
8,3,0,0,1,0,3,5,93,11
8,3,18,1,4,0,3,5,93,9
8,3,3,0,4,0,3,5,93,11
8,3,13,1,6,1,3,5,130,9
8,3,14,1,0,0,3,5,67,9
8,3,19,1,1,0,3,5,90,11
8,3,12,1,1,0,3,5,9,11
8,3,16,1,1,0,3,5,9,9
8,3,2,0,2,0,3,5,74,11
9,4,10,1,3,0,3,5,93,11
9,4,21,0,4,0,3,5,93,11
9,4,22,0,4,0,3,5,93,11
9,4,20,1,4,0,3,5,100,11
9,4,16,1,4,0,3,5,90,9
9,4,21,0,5,1,3,5,93,11
9,4,19,1,5,1,3,5,40,9
9,4,14,1,5,1,3,5,93,11
9,4,9,1,6,1,3,5,93,11
9,4,23,0,0,0,3,5,93,11
9,4,0,0,0,0,3,5,93,11
9,4,22,0,0,0,3,5,90,11
9,4,11,1,0,0,3,5,74,11
9,4,12,1,0,0,3,5,93,11
9,4,17,1,0,0,3,5,93,11
9,4,1,0,1,0,3,5,9,11
9,4,20,1,1,0,3,5,67,11
9,4,19,1,1,0,3,5,67,11
9,4,8,1,1,0,3,5,93,11
9,4,17,1,1,0,3,5,8,11
9,4,18,1,3,0,3,5,74,11
9,4,20,1,4,0,3,5,8,11
9,4,0,0,4,0,3,5,81,9
9,4,16,1,0,0,3,5,93,11
9,4,22,0,0,0,3,5,93,11
9,4,21,0,1,0,3,5,93,11
9,4,19,1,1,0,3,5,93,11
9,4,14,1,1,0,3,5,67,11
9,4,0,0,2,0,3,5,100,11
9,4,22,0,3,0,3,5,74,11
9,4,19,1,3,0,3,5,93,11
9,4,1,0,4,0,3,5,74,11
9,4,0,0,4,0,3,5,104,11
9,4,12,1,4,0,3,5,93,11
9,4,20,1,5,1,3,5,9,11
9,4,12,1,5,1,3,5,93,11
9,4,16,1,5,1,3,5,74,11
9,4,10,1,5,1,3,5,29,11
9,4,19,1,5,1,3,5,93,11
9,4,23,0,6,1,3,5,74,11
9,4,17,1,6,1,3,5,93,9
9,4,0,0,6,1,3,5,93,11
9,4,13,1,6,1,3,5,93,11
9,4,2,0,0,0,3,5,74,9
9,4,2,0,0,0,3,5,90,11
9,4,2,0,0,0,3,5,90,11
9,4,2,0,0,0,3,5,90,11
9,4,13,1,0,0,3,5,93,11
9,4,10,1,0,0,3,5,40,11
9,4,15,1,1,0,3,5,93,11
9,4,14,1,2,0,3,5,93,11
9,4,13,1,4,0,3,5,93,11
9,4,9,1,4,0,3,5,23,11
9,4,15,1,5,1,3,5,93,9
9,4,11,1,6,1,3,5,93,11
9,4,11,1,6,1,3,5,74,11
9,4,16,1,0,0,3,5,67,11
9,4,12,1,0,0,3,5,91,11
9,4,22,0,0,0,3,5,93,11
9,4,16,1,1,0,3,5,93,11
9,4,11,1,1,0,3,5,93,11
9,4,3,0,3,0,3,5,93,11
9,4,4,0,4,0,3,5,90,11
9,4,2,0,4,0,3,5,74,11
10,4,22,0,5,1,4,5,66,11
10,4,17,1,5,1,4,5,67,11
10,4,15,1,6,1,4,5,93,11
10,4,5,0,6,1,4,5,90,11
10,4,5,0,6,1,4,5,90,11
10,4,14,1,0,0,4,5,93,11
10,4,6,0,0,0,4,5,93,11
10,4,4,0,0,0,4,5,90,11
10,4,19,1,0,0,4,5,90,11
10,4,4,0,1,0,4,5,66,11
10,4,11,1,1,0,4,5,93,11
10,4,13,1,2,0,4,5,67,9
10,4,13,1,3,0,4,5,90,11
10,4,4,0,4,0,4,5,90,11
10,4,11,1,4,0,4,5,93,11
10,4,19,1,5,1,4,5,77,11
10,4,8,1,6,1,4,5,93,11
10,4,21,0,6,1,4,5,104,11
10,4,19,1,6,1,4,5,90,11
10,4,5,0,6,1,4,5,90,11
10,4,5,0,0,0,4,5,90,11
10,4,1,0,0,0,4,5,74,11
10,4,21,0,0,0,4,5,90,11
10,4,14,1,0,0,4,5,93,11
10,4,3,0,2,0,4,5,100,11
10,4,23,0,2,0,4,5,90,11
10,4,23,0,2,0,4,5,90,11
10,4,23,0,3,0,4,5,74,9
10,4,14,1,3,0,4,5,93,11
10,4,7,1,3,0,4,5,74,11
10,4,23,0,4,0,4,5,100,11
10,4,12,1,4,0,4,5,77,11
10,4,23,0,5,1,4,5,90,11
10,4,22,0,5,1,4,5,90,11
10,4,19,1,5,1,4,5,90,11
10,4,9,1,5,1,4,5,90,11
10,4,0,0,0,0,4,5,93,11
10,4,5,0,1,0,4,5,74,11
10,4,15,1,1,0,4,5,93,11
10,4,14,1,1,0,4,5,90,11
10,4,22,0,2,0,4,5,90,11
10,4,15,1,2,0,4,5,93,11
10,4,18,1,2,0,4,5,93,11
10,4,5,0,2,0,4,5,9,11
10,4,22,0,2,0,4,5,90,11
10,4,22,0,2,0,4,5,90,11
10,4,22,0,2,0,4,5,90,11
10,4,22,0,2,0,4,5,90,11
10,4,22,0,2,0,4,5,90,11
10,4,22,0,2,0,4,5,90,11
10,4,15,1,3,0,4,5,93,11
10,4,0,0,4,0,4,5,74,11
10,4,3,0,4,0,4,5,90,11
10,4,14,1,6,1,4,5,90,11
10,4,23,0,2,0,4,5,90,11
10,4,8,1,2,0,4,5,90,11
10,4,22,0,3,0,4,5,67,9
10,4,21,0,3,0,4,5,90,11
10,4,23,0,4,0,4,5,40,9
10,4,4,0,4,0,4,5,74,11
10,4,5,0,5,1,4,5,90,11
10,4,17,1,6,1,4,5,8,11
10,4,5,0,0,0,4,5,74,11
11,4,21,0,1,0,4,5,67,11
11,4,14,1,2,0,4,5,93,11
11,4,16,1,2,0,4,5,93,11
11,4,21,0,3,0,4,5,74,11
11,4,4,0,3,0,4,5,77,11
11,4,4,0,5,1,4,5,100,11
11,4,3,0,0,0,4,5,63,9
11,4,18,1,0,0,4,5,93,11
11,4,16,1,0,0,4,5,74,11
11,4,22,0,0,0,4,5,93,11
11,4,22,0,1,0,4,5,90,11
11,4,13,1,1,0,4,5,74,11
11,4,17,1,4,0,4,5,40,11
11,4,18,1,4,0,4,5,74,11
11,4,0,0,5,1,4,5,14,11
11,4,19,1,5,1,4,5,40,11
11,4,12,1,6,1,4,5,90,11
11,4,3,0,0,0,4,5,90,11
11,4,23,0,0,0,4,5,8,11
11,4,21,0,0,0,4,5,54,11
11,4,15,1,3,0,4,5,90,11
11,4,20,1,4,0,4,5,67,11
11,4,14,1,5,1,4,5,24,11
11,4,22,0,5,1,4,5,90,11
11,4,20,1,6,1,4,5,90,11
11,4,17,1,6,1,4,5,74,11
11,4,2,0,6,1,4,5,90,11
11,4,22,0,1,0,4,5,93,11
11,4,23,0,1,0,4,5,93,11
11,4,0,0,3,0,4,5,90,11
11,4,16,1,3,0,4,5,93,11
11,4,18,1,4,0,4,5,104,11
11,4,16,1,4,0,4,5,93,11
11,4,14,1,4,0,4,5,90,11
11,4,23,0,5,1,4,5,90,11
11,4,14,1,5,1,4,5,93,11
11,4,14,1,5,1,4,5,93,9
11,4,15,1,5,1,4,5,67,11
11,4,2,0,6,1,4,5,74,11
11,4,10,1,6,1,4,5,74,11
11,4,16,1,0,0,4,5,93,11
12,1,19,1,3,0,4,5,74,11
12,1,19,1,4,0,4,5,74,11
12,1,23,0,6,1,4,5,93,11
12,1,19,1,6,1,4,5,100,11
12,1,23,0,6,1,4,5,93,11
12,1,22,0,0,0,4,5,74,11
12,1,7,1,1,0,4,5,132,11
12,1,14,1,2,0,4,5,67,11
12,1,12,1,2,0,4,5,9,11
12,1,2,0,3,0,4,5,74,11
12,1,19,1,5,1,4,5,107,11
12,1,11,1,6,1,4,5,100,11
12,1,16,1,6,1,4,5,93,11
12,1,0,0,0,0,4,5,100,11
12,1,21,0,1,0,4,5,74,11
12,1,10,1,1,0,4,5,132,11
12,1,15,1,1,0,4,5,77,11
12,1,10,1,1,0,4,5,132,11
12,1,5,0,2,0,4,5,90,11
12,1,16,1,2,0,4,5,74,11
12,1,22,0,2,0,4,5,40,11
12,1,5,0,3,0,4,5,74,11
12,1,21,0,4,0,4,5,104,11
12,1,4,0,4,0,4,5,48,11
12,1,22,0,6,1,4,5,90,11
12,1,0,0,0,0,4,5,90,11
12,1,14,1,0,0,4,5,8,9
12,1,11,1,1,0,4,5,100,11
12,1,8,1,2,0,4,5,74,9
12,1,2,0,2,0,4,5,90,11
12,1,1,0,2,0,4,5,90,11
12,1,17,1,4,0,4,5,93,11
12,1,14,1,4,0,4,5,67,11
12,1,7,1,4,0,4,5,67,11
12,1,22,0,0,0,4,5,74,11
12,1,17,1,1,0,4,5,67,11
12,1,5,0,2,0,4,5,90,11
12,1,13,1,3,0,4,5,67,11
12,1,7,1,3,0,4,5,104,11
12,1,16,1,5,1,4,5,90,11
1,1,14,1,4,0,1,5,90,11
1,1,16,1,4,0,1,5,90,11
1,1,18,1,4,0,1,5,67,11
1,1,20,1,4,0,1,5,67,11
1,1,21,0,4,0,1,5,90,11
1,1,22,0,5,1,1,5,93,11
1,1,18,1,0,0,1,5,93,11
1,1,22,0,2,0,1,5,40,11
1,1,19,1,5,1,1,5,67,11
1,1,17,1,5,1,1,5,93,11
1,1,7,1,6,1,1,5,90,11
1,1,23,0,0,0,1,5,93,11
1,1,16,1,1,0,1,5,67,11
1,1,12,1,5,1,1,5,93,11
1,1,6,0,0,0,1,5,93,11
1,1,22,0,2,0,1,5,90,11
1,1,22,0,4,0,1,5,67,11
1,1,7,1,4,0,1,5,93,11
1,1,11,1,5,1,1,5,90,11
1,1,13,1,6,1,1,5,90,11
1,1,12,1,6,1,1,5,90,11
1,1,17,1,6,1,1,5,90,11
1,1,10,1,2,0,1,5,67,11
1,1,17,1,3,0,1,5,93,11
1,1,0,0,5,1,1,5,90,11
2,1,15,1,1,0,1,5,93,11
2,1,15,1,2,0,1,5,67,11
2,1,12,1,3,0,1,5,93,11
2,1,23,0,5,1,1,5,59,11
2,1,19,1,6,1,1,5,67,11
2,1,22,0,5,1,1,5,90,11
2,1,17,1,3,0,1,5,93,11
2,1,11,1,3,0,1,5,93,11
2,1,12,1,4,0,1,5,67,8
2,1,7,1,0,0,1,5,93,11
2,1,11,1,1,0,1,5,93,11
2,1,15,1,1,0,1,5,93,11
2,1,19,1,2,0,1,5,93,11
2,1,17,1,2,0,1,5,93,11
2,1,11,1,2,0,1,5,67,11
2,1,12,1,4,0,1,5,93,11
2,1,21,0,5,1,1,5,67,11
3,2,20,1,2,0,1,5,67,11
3,2,15,1,2,0,1,5,93,11
3,2,2,0,5,1,1,5,90,11
3,2,23,0,6,1,1,5,90,11
3,2,11,1,6,1,1,5,93,11
3,2,8,1,6,1,1,5,93,11
3,2,14,1,0,0,1,5,81,8
3,2,18,1,1,0,1,5,93,11
3,2,20,1,3,0,1,5,67,11
3,2,17,1,4,0,1,5,93,11
3,2,16,1,6,1,1,5,90,11
3,2,3,0,5,1,1,5,49,11
3,2,2,0,6,1,1,5,90,11
3,2,2,0,6,1,1,5,90,11
3,2,2,0,6,1,1,5,90,11
3,2,2,0,6,1,1,5,90,11
3,2,0,0,0,0,1,5,90,11
3,2,13,1,0,0,1,5,90,11
3,2,20,1,1,0,1,5,93,11
4,2,4,0,5,1,2,5,74,11
4,2,0,0,0,0,2,5,67,11
4,2,14,1,1,0,2,5,90,11
4,2,18,1,4,0,2,5,93,11
4,2,13,1,6,1,2,5,93,11
4,2,19,1,2,0,2,5,93,11
4,2,13,1,6,1,2,5,93,11
4,2,18,1,6,1,2,5,93,11
4,2,16,1,2,0,2,5,67,11
4,2,18,1,2,0,2,5,90,11
4,2,12,1,1,0,2,5,90,11
4,2,19,1,1,0,2,5,93,11
4,2,18,1,1,0,2,5,40,11
4,2,18,1,2,0,2,5,93,11
5,2,0,0,6,1,2,5,91,11
5,2,2,0,6,1,2,5,77,11
5,2,10,1,6,1,2,5,93,11
5,2,19,1,6,1,2,5,1,11
5,2,22,0,6,1,2,5,100,11
5,2,17,1,6,1,2,5,93,11
5,2,3,0,1,0,2,5,90,11
5,2,16,1,4,0,2,5,67,11
5,2,17,1,6,1,2,5,93,11
5,2,21,0,0,0,2,5,67,11
5,2,12,1,1,0,2,5,90,11
5,2,19,1,3,0,2,5,93,11
5,2,17,1,2,0,2,5,104,11
5,2,3,0,4,0,2,5,93,11
5,2,19,1,4,0,2,5,67,11
5,2,17,1,5,1,2,5,104,11
5,2,18,1,5,1,2,5,93,11
5,2,14,1,1,0,2,5,93,11
5,2,15,1,2,0,2,5,104,11
5,2,22,0,5,1,2,5,67,11
5,2,17,1,0,0,2,5,93,8
5,2,20,1,1,0,2,5,93,11
6,3,17,1,2,0,2,5,93,11
6,3,9,1,0,0,2,5,21,11
6,3,0,0,3,0,2,5,104,11
6,3,6,0,4,0,2,5,21,8
6,3,13,1,5,1,2,5,77,11
6,3,10,1,3,0,2,5,93,11
6,3,14,1,4,0,2,5,39,11
6,3,23,0,5,1,2,5,77,11
6,3,18,1,6,1,2,5,21,11
6,3,20,1,3,0,2,5,131,11
6,3,18,1,4,0,2,5,93,11
6,3,2,0,6,1,2,5,100,11
6,3,17,1,6,1,2,5,93,11
6,3,20,1,0,0,2,5,93,11
7,3,11,1,4,0,3,5,21,11
7,3,17,1,5,1,3,5,93,11
7,3,13,1,6,1,3,5,93,11
7,3,11,1,3,0,3,5,93,11
7,3,1,0,4,0,3,5,98,11
7,3,13,1,1,0,3,5,93,11
7,3,9,1,2,0,3,5,93,8
7,3,18,1,2,0,3,5,93,11
7,3,12,1,3,0,3,5,93,9
7,3,20,1,5,1,3,5,77,11
7,3,10,1,3,0,3,5,93,11
7,3,0,0,4,0,3,5,1,11
7,3,0,0,6,1,3,5,93,11
7,3,13,1,6,1,3,5,90,11
8,3,10,1,2,0,3,5,21,11
8,3,22,0,3,0,3,5,90,11
8,3,18,1,5,1,3,5,93,11
8,3,15,1,1,0,3,5,90,11
8,3,22,0,3,0,3,5,93,11
8,3,18,1,4,0,3,5,93,11
8,3,7,1,4,0,3,5,93,11
8,3,1,0,4,0,3,5,93,11
8,3,5,0,4,0,3,5,93,11
8,3,17,1,4,0,3,5,93,8
8,3,18,1,0,0,3,5,21,11
8,3,11,1,2,0,3,5,93,11
8,3,15,1,2,0,3,5,104,11
8,3,3,0,4,0,3,5,93,11
8,3,7,1,4,0,3,5,93,11
8,3,20,1,0,0,3,5,77,11
8,3,16,1,1,0,3,5,93,11
8,3,4,0,1,0,3,5,93,11
8,3,13,1,2,0,3,5,93,11
9,4,14,1,4,0,3,5,90,11
9,4,13,1,2,0,3,5,90,11
9,4,0,0,2,0,3,5,90,11
9,4,23,0,0,0,3,5,67,11
9,4,9,1,1,0,3,5,93,11
9,4,1,0,3,0,3,5,105,11
9,4,13,1,1,0,3,5,90,11
9,4,13,1,2,0,3,5,93,11
9,4,7,1,5,1,3,5,93,11
9,4,23,0,6,1,3,5,102,11
9,4,0,0,1,0,3,5,90,11
9,4,0,0,1,0,3,5,90,11
9,4,1,0,2,0,3,5,104,11
10,4,9,1,6,1,4,5,93,11
10,4,9,1,0,0,4,5,93,11
10,4,10,1,0,0,4,5,67,11
10,4,11,1,2,0,4,5,93,11
10,4,11,1,4,0,4,5,90,11
10,4,15,1,5,1,4,5,93,11
10,4,14,1,5,1,4,5,93,11
10,4,14,1,6,1,4,5,93,8
10,4,13,1,2,0,4,5,93,11
10,4,19,1,4,0,4,5,93,11
10,4,14,1,2,0,4,5,93,11
10,4,5,0,2,0,4,5,77,11
10,4,19,1,6,1,4,5,77,11
10,4,12,1,2,0,4,5,93,11
10,4,23,0,2,0,4,5,77,11
10,4,22,0,3,0,4,5,100,11
10,4,22,0,3,0,4,5,100,11
10,4,19,1,3,0,4,5,93,11
10,4,12,1,4,0,4,5,90,11
10,4,23,0,4,0,4,5,100,11
10,4,23,0,4,0,4,5,100,11
10,4,20,1,5,1,4,5,100,11
10,4,18,1,5,1,4,5,67,11
10,4,19,1,6,1,4,5,67,11
11,4,19,1,1,0,4,5,77,11
11,4,12,1,2,0,4,5,125,11
11,4,18,1,2,0,4,5,93,11
11,4,20,1,5,1,4,5,77,11
11,4,17,1,5,1,4,5,67,11
11,4,15,1,5,1,4,5,77,11
11,4,14,1,5,1,4,5,59,11
11,4,23,0,6,1,4,5,90,11
11,4,18,1,0,0,4,5,93,11
11,4,2,0,1,0,4,5,93,11
11,4,9,1,2,0,4,5,93,11
11,4,3,0,5,1,4,5,100,11
11,4,20,1,5,1,4,5,93,11
11,4,10,1,6,1,4,5,93,11
11,4,16,1,1,0,4,5,21,11
11,4,20,1,3,0,4,5,77,11
11,4,3,0,4,0,4,5,100,11
11,4,18,1,4,0,4,5,90,11
11,4,15,1,2,0,4,5,77,11
11,4,3,0,2,0,4,5,90,11
11,4,15,1,3,0,4,5,93,11
11,4,9,1,5,1,4,5,90,11
11,4,8,1,6,1,4,5,1,11
12,1,20,1,4,0,4,5,100,11
12,1,20,1,0,0,4,5,67,11
12,1,21,0,0,0,4,5,67,11
12,1,8,1,4,0,4,5,90,11
12,1,3,0,6,1,4,5,59,11
12,1,2,0,6,1,4,5,66,11
12,1,14,1,0,0,4,5,40,11
12,1,13,1,1,0,4,5,77,11
12,1,15,1,1,0,4,5,97,11
12,1,20,1,1,0,4,5,40,11
12,1,22,0,2,0,4,5,104,11
12,1,17,1,2,0,4,5,104,11
12,1,11,1,6,1,4,5,104,11
12,1,22,0,0,0,4,5,90,11
12,1,11,1,0,0,4,5,67,11
12,1,1,0,4,0,4,5,77,11
12,1,20,1,4,0,4,5,67,11
12,1,14,1,5,1,4,5,40,8
12,1,22,0,5,1,4,5,21,11
12,1,12,1,6,1,4,5,77,11
12,1,20,1,0,0,4,5,93,11
12,1,17,1,1,0,4,5,93,11
12,1,18,1,3,0,4,5,67,11
12,1,15,1,3,0,4,5,67,11
1,1,19,1,4,0,1,5,77,11
1,1,16,1,4,0,1,5,132,11
1,1,19,1,4,0,1,5,40,11
1,1,17,1,2,0,1,5,93,11
1,1,13,1,5,1,1,5,93,11
1,1,18,1,5,1,1,5,21,11
2,1,21,0,2,0,1,5,132,11
2,1,22,0,2,0,1,5,104,11
2,1,17,1,2,0,1,5,104,11
2,1,21,0,4,0,1,5,21,11
2,1,17,1,0,0,1,5,132,11
2,1,16,1,1,0,1,5,93,11
2,1,13,1,4,0,1,5,93,11
2,1,18,1,6,1,1,5,93,11
3,2,11,1,6,1,1,5,93,11
3,2,9,1,0,0,1,5,132,11
3,2,0,0,1,0,1,5,132,11
3,2,17,1,2,0,1,5,104,11
3,2,0,0,6,1,1,5,77,9
3,2,20,1,5,1,1,5,77,9
3,2,14,1,2,0,1,5,132,11
3,2,13,1,6,1,1,5,132,11
3,2,19,1,2,0,1,5,93,11
4,2,5,0,5,1,2,5,21,11
4,2,16,1,2,0,2,5,93,11
4,2,18,1,4,0,2,5,77,11
4,2,13,1,4,0,2,5,93,11
4,2,12,1,5,1,2,5,93,11
4,2,12,1,5,1,2,5,93,11
4,2,17,1,5,1,2,5,93,11
4,2,5,0,5,1,2,5,93,11
4,2,13,1,0,0,2,5,77,11
4,2,8,1,2,0,2,5,93,11
4,2,23,0,3,0,2,5,93,11
4,2,8,1,3,0,2,5,132,11
4,2,22,0,4,0,2,5,93,11
4,2,22,0,5,1,2,5,132,11
4,2,13,1,2,0,2,5,93,11
4,2,18,1,3,0,2,5,93,11
4,2,2,0,4,0,2,5,93,11
4,2,23,0,5,1,2,5,93,11
4,2,23,0,5,1,2,5,93,11
5,2,3,0,6,1,2,5,93,11
5,2,10,1,6,1,2,5,93,11
5,2,21,0,0,0,2,5,104,11
5,2,14,1,0,0,2,5,93,11
5,2,14,1,0,0,2,5,93,11
5,2,14,1,1,0,2,5,93,11
5,2,23,0,1,0,2,5,93,11
5,2,19,1,2,0,2,5,93,11
5,2,22,0,0,0,2,5,100,11
5,2,8,1,2,0,2,5,93,11
5,2,23,0,1,0,2,5,93,11
5,2,23,0,2,0,2,5,93,11
5,2,15,1,5,1,2,5,93,11
6,3,6,0,0,0,2,5,93,11
6,3,8,1,1,0,2,5,3,11
6,3,20,1,5,1,2,5,93,11
6,3,12,1,4,0,2,5,93,11
6,3,1,0,5,1,2,5,93,11
6,3,1,0,5,1,2,5,21,11
7,3,0,0,2,0,3,5,77,11
7,3,23,0,3,0,3,5,77,9
7,3,16,1,6,1,3,5,93,11
7,3,19,1,1,0,3,5,93,11
7,3,10,1,3,0,3,5,93,11
7,3,10,1,2,0,3,5,93,11
7,3,0,0,2,0,3,5,93,11
7,3,21,0,4,0,3,5,93,11
7,3,7,1,5,1,3,5,93,11
7,3,7,1,2,0,3,5,93,11
8,3,19,1,2,0,3,5,93,11
8,3,8,1,3,0,3,5,104,11
8,3,22,0,4,0,3,5,21,11
8,3,2,0,6,1,3,5,21,11
8,3,14,1,0,0,3,5,93,11
8,3,11,1,0,0,3,5,93,11
8,3,2,0,5,1,3,5,104,11
8,3,16,1,6,1,3,5,132,11
8,3,17,1,3,0,3,5,104,11
8,3,9,1,5,1,3,5,132,11
8,3,5,0,6,1,3,5,51,11
8,3,16,1,1,0,3,5,93,11
8,3,19,1,2,0,3,5,104,11
9,4,17,1,1,0,3,5,93,11
9,4,2,0,3,0,3,5,21,11
9,4,17,1,6,1,3,5,93,11
9,4,15,1,0,0,3,5,93,11
10,4,9,1,0,0,4,5,93,11
10,4,9,1,3,0,4,5,93,11
10,4,10,1,3,0,4,5,93,11
11,4,17,1,2,0,4,5,93,11
11,4,13,1,3,0,4,5,65,11
11,4,10,1,5,1,4,5,21,11
11,4,12,1,1,0,4,5,104,11
11,4,2,0,1,0,4,5,51,11
11,4,14,1,4,0,4,5,104,11
11,4,5,0,5,1,4,5,121,11
12,1,1,0,3,0,4,5,21,11
12,1,13,1,2,0,4,5,93,11
12,1,18,1,2,0,4,5,93,11
12,1,13,1,0,0,4,5,104,11
12,1,14,1,0,0,4,5,77,11
12,1,0,0,2,0,4,5,104,11
12,1,13,1,4,0,4,5,102,11
12,1,17,1,5,1,4,5,77,11
1,1,17,1,5,1,1,5,93,11
1,1,0,0,3,0,1,5,93,11
1,1,19,1,5,1,1,5,104,11
1,1,11,1,1,0,1,5,104,11
2,1,7,1,0,0,1,5,77,11
2,1,17,1,6,1,1,5,93,11
2,1,14,1,5,1,1,5,93,11
2,1,14,1,3,0,1,5,93,11
3,2,11,1,4,0,1,5,77,11
3,2,12,1,2,0,1,5,93,11
3,2,14,1,3,0,1,5,59,11
4,2,0,0,4,0,2,5,104,11
4,2,23,0,0,0,2,5,104,11
4,2,14,1,3,0,2,5,104,11
4,2,14,1,1,0,2,5,104,11
4,2,19,1,3,0,2,5,104,11
5,2,20,1,3,0,2,5,67,11
5,2,12,1,4,0,2,5,93,11
5,2,2,0,0,0,2,5,21,11
5,2,15,1,5,1,2,5,93,11
7,3,14,1,4,0,3,5,93,11
7,3,23,0,3,0,3,5,77,11
7,3,10,1,6,1,3,5,77,9
7,3,12,1,6,1,3,5,93,11
8,3,23,0,2,0,3,5,74,11
8,3,1,0,4,0,3,5,107,11
8,3,2,0,5,1,3,5,21,11
8,3,5,0,5,1,3,5,59,11
8,3,4,0,1,0,3,5,90,11
9,4,10,1,2,0,3,5,112,11
9,4,22,0,5,1,3,5,93,11
10,4,19,1,4,0,4,5,90,11
10,4,5,0,4,0,4,5,40,11
10,4,11,1,4,0,4,5,93,11
11,4,13,1,3,0,4,5,93,11
12,1,10,1,3,0,4,5,104,11
12,1,15,1,4,0,4,5,104,11
1,1,3,0,4,0,1,5,90,11
1,1,20,1,5,1,1,5,90,11
1,1,19,1,5,1,1,5,90,11
1,1,19,1,6,1,1,5,67,11
1,1,22,0,3,0,1,5,90,11
1,1,22,0,1,0,1,5,67,11
1,1,15,1,4,0,1,5,67,11
1,1,13,1,1,0,1,5,67,11
1,1,9,1,3,0,1,5,90,11
2,1,2,0,0,0,1,5,90,11
2,1,22,0,0,0,1,5,90,11
2,1,2,0,2,0,1,5,90,11
2,1,1,0,2,0,1,5,90,11
2,1,2,0,4,0,1,5,90,11
2,1,12,1,4,0,1,5,67,11
2,1,11,1,4,0,1,5,24,11
2,1,23,0,5,1,1,5,102,11
2,1,1,0,5,1,1,5,105,8
2,1,21,0,6,1,1,5,90,11
2,1,10,1,6,1,1,5,40,11
2,1,2,0,6,1,1,5,24,11
2,1,17,1,3,0,1,5,90,11
2,1,12,1,4,0,1,5,104,11
2,1,22,0,4,0,1,5,90,11
2,1,18,1,5,1,1,5,90,11
2,1,0,0,6,1,1,5,90,11
3,2,4,0,2,0,1,5,59,11
3,2,14,1,6,1,1,5,67,11
3,2,22,0,0,0,1,5,90,11
3,2,20,1,1,0,1,5,21,11
3,2,19,1,3,0,1,5,90,11
3,2,10,1,4,0,1,5,130,11
3,2,13,1,5,1,1,5,67,11
3,2,12,1,6,1,1,5,90,11
3,2,12,1,1,0,1,5,104,11
3,2,13,1,2,0,1,5,90,11
3,2,22,0,5,1,1,5,90,11
3,2,3,0,6,1,1,5,90,11
3,2,3,0,6,1,1,5,90,11
3,2,3,0,6,1,1,5,90,11
3,2,22,0,2,0,1,5,104,11
3,2,12,1,3,0,1,5,2,11
4,2,14,1,4,0,2,5,21,11
4,2,20,1,2,0,2,5,21,11
4,2,0,0,5,1,2,5,90,11
4,2,13,1,6,1,2,5,14,11
4,2,22,0,0,0,2,5,93,9
4,2,17,1,0,0,2,5,93,9
4,2,15,1,0,0,2,5,93,11
4,2,7,1,1,0,2,5,93,11
4,2,1,0,3,0,2,5,93,11
4,2,17,1,6,1,2,5,93,11
4,2,14,1,2,0,2,5,67,11
4,2,21,0,6,1,2,5,90,11
4,2,2,0,1,0,2,5,93,11
4,2,14,1,2,0,2,5,90,11
4,2,19,1,3,0,2,5,127,11
4,2,17,1,4,0,2,5,93,11
4,2,2,0,5,1,2,5,90,11
4,2,0,0,5,1,2,5,90,11
5,2,10,1,6,1,2,5,59,11
5,2,11,1,0,0,2,5,67,11
5,2,16,1,2,0,2,5,67,11
5,2,12,1,2,0,2,5,67,11
5,2,22,0,2,0,2,5,90,11
5,2,11,1,5,1,2,5,93,11
5,2,0,0,6,1,2,5,67,11
5,2,13,1,1,0,2,5,67,11
6,3,4,0,6,1,2,5,90,11
6,3,14,1,0,0,2,5,104,11
6,3,21,0,2,0,2,5,2,11
6,3,19,1,3,0,2,5,67,11
6,3,8,1,3,0,2,5,93,11
6,3,3,0,1,0,2,5,90,11
7,3,20,1,4,0,3,5,67,11
7,3,18,1,5,1,3,5,93,11
7,3,12,1,1,0,3,5,90,11
7,3,20,1,6,1,3,5,77,11
7,3,16,1,3,0,3,5,104,11
8,3,22,0,0,0,3,5,77,11
8,3,13,1,1,0,3,5,67,11
8,3,20,1,6,1,3,5,14,8
8,3,18,1,0,0,3,5,14,11
9,4,9,1,1,0,3,5,83,9
9,4,21,0,2,0,3,5,91,11
9,4,16,1,5,1,3,5,93,11
9,4,18,1,6,1,3,5,93,11
9,4,5,0,1,0,3,5,59,11
9,4,18,1,1,0,3,5,60,11
9,4,17,1,4,0,3,5,90,11
10,4,15,1,1,0,4,5,90,11
10,4,19,1,6,1,4,5,102,11
10,4,12,1,5,1,4,5,90,11
10,4,23,0,2,0,4,5,90,11
10,4,23,0,4,0,4,5,102,11
10,4,22,0,5,1,4,5,90,11
10,4,12,1,0,0,4,5,77,11
11,4,21,0,6,1,4,5,67,11
11,4,18,1,0,0,4,5,90,11
11,4,8,1,4,0,4,5,24,11
11,4,16,1,6,1,4,5,90,11
12,1,17,1,6,1,4,5,90,11
12,1,20,1,0,0,4,5,90,11
12,1,8,1,1,0,4,5,14,8
12,1,17,1,6,1,4,5,90,11
12,1,9,1,2,0,4,5,93,11
12,1,8,1,4,0,4,5,90,11
12,1,3,0,4,0,4,5,90,11
12,1,12,1,5,1,4,5,90,11
12,1,0,0,5,1,4,5,90,11
12,1,21,0,1,0,4,5,90,11
12,1,23,0,3,0,4,5,90,11
12,1,13,1,4,0,4,5,90,9
12,1,1,0,6,1,4,5,90,11
12,1,23,0,0,0,4,5,67,11
12,1,16,1,3,0,4,5,90,11
1,1,18,1,4,0,1,5,90,11
1,1,19,1,2,0,1,5,67,11
1,1,20,1,3,0,1,5,59,11
1,1,19,1,6,1,1,5,67,11
1,1,3,0,2,0,1,5,100,11
1,1,19,1,4,0,1,5,67,11
1,1,18,1,6,1,1,5,21,11
1,1,11,1,0,0,1,5,67,9
1,1,11,1,0,0,1,5,67,9
1,1,22,0,3,0,1,5,104,11
1,1,13,1,0,0,1,5,130,11
1,1,18,1,1,0,1,5,90,11
1,1,1,0,5,1,1,5,130,11
1,1,20,1,5,1,1,5,40,9
1,1,23,0,5,1,1,5,90,11
2,1,4,0,1,0,1,5,90,11
2,1,18,1,2,0,1,5,67,11
2,1,8,1,0,0,1,5,67,11
2,1,20,1,3,0,1,5,67,11
2,1,15,1,6,1,1,5,24,11
2,1,10,1,0,0,1,5,90,11
3,2,8,1,3,0,1,5,49,11
3,2,3,0,4,0,1,5,49,11
3,2,3,0,5,1,1,5,60,11
3,2,12,1,6,1,1,5,67,11
3,2,0,0,4,0,1,5,104,11
3,2,12,1,4,0,1,5,59,11
3,2,20,1,5,1,1,5,79,11
3,2,15,1,1,0,1,5,119,11
3,2,22,0,5,1,1,5,47,11
3,2,10,1,6,1,1,5,47,11
4,2,20,1,1,0,2,5,93,11
4,2,22,0,2,0,2,5,132,11
4,2,20,1,2,0,2,5,132,11
4,2,8,1,4,0,2,5,8,9
4,2,3,0,0,0,2,5,99,11
4,2,18,1,2,0,2,5,64,11
4,2,12,1,4,0,2,5,67,11
4,2,7,1,6,1,2,5,21,11
4,2,23,0,1,0,2,5,67,11
5,2,20,1,6,1,2,5,102,11
5,2,13,1,6,1,2,5,102,11
5,2,6,0,6,1,2,5,40,11
5,2,21,0,1,0,2,5,104,11
5,2,14,1,1,0,2,5,21,11
5,2,16,1,1,0,2,5,93,11
5,2,14,1,3,0,2,5,132,11
5,2,14,1,5,1,2,5,8,11
5,2,22,0,6,1,2,5,67,11
5,2,16,1,1,0,2,5,67,11
5,2,3,0,1,0,2,5,104,11
5,2,4,0,2,0,2,5,67,11
5,2,3,0,2,0,2,5,104,11
5,2,21,0,5,1,2,5,67,11
5,2,13,1,5,1,2,5,67,11
6,3,14,1,2,0,2,5,67,11
6,3,13,1,2,0,2,5,49,11
6,3,17,1,5,1,2,5,132,11
6,3,16,1,4,0,2,5,90,11
6,3,22,0,4,0,2,5,100,11
6,3,19,1,0,0,2,5,90,9
6,3,12,1,4,0,2,5,77,11
7,3,4,0,2,0,3,5,21,11
7,3,22,0,3,0,3,5,132,11
7,3,18,1,4,0,3,5,104,11
7,3,5,0,5,1,3,5,90,11
7,3,21,0,1,0,3,5,102,11
7,3,20,1,2,0,3,5,3,11
7,3,20,1,2,0,3,5,90,11
7,3,20,1,2,0,3,5,90,11
7,3,14,1,6,1,3,5,39,11
7,3,15,1,6,1,3,5,39,11
7,3,8,1,0,0,3,5,67,11
7,3,21,0,0,0,3,5,67,11
7,3,0,0,2,0,3,5,90,11
7,3,17,1,2,0,3,5,67,8
7,3,17,1,4,0,3,5,67,11
7,3,15,1,5,1,3,5,67,11
7,3,1,0,5,1,3,5,67,11
7,3,4,0,0,0,3,5,90,11
7,3,22,0,3,0,3,5,67,11
8,3,8,1,6,1,3,5,67,11
8,3,4,0,0,0,3,5,90,11
8,3,11,1,1,0,3,5,14,11
8,3,15,1,0,0,3,5,90,11
8,3,13,1,2,0,3,5,90,11
8,3,14,1,0,0,3,5,67,8
8,3,23,0,0,0,3,5,90,11
9,4,20,1,5,1,3,5,2,8
9,4,21,0,3,0,3,5,21,9
9,4,20,1,3,0,3,5,90,11
9,4,4,0,2,0,3,5,90,9
9,4,18,1,2,0,3,5,67,11
9,4,9,1,3,0,3,5,67,11
10,4,6,0,0,0,4,5,80,11
10,4,20,1,1,0,4,5,90,11
10,4,3,0,6,1,4,5,90,11
10,4,23,0,3,0,4,5,90,11
10,4,9,1,4,0,4,5,52,9
10,4,21,0,6,1,4,5,100,9
10,4,6,0,1,0,4,5,32,11
11,4,15,1,2,0,4,5,40,9
11,4,19,1,6,1,4,5,90,11
11,4,20,1,4,0,4,5,90,11
11,4,20,1,4,0,4,5,90,11
11,4,1,0,5,1,4,5,90,11
11,4,23,0,6,1,4,5,90,11
11,4,3,0,1,0,4,5,90,9
11,4,13,1,2,0,4,5,90,11
11,4,19,1,2,0,4,5,90,11
11,4,2,0,3,0,4,5,90,11
11,4,3,0,6,1,4,5,90,11
11,4,18,1,6,1,4,5,90,11
11,4,22,0,1,0,4,5,90,11
11,4,1,0,2,0,4,5,90,11
11,4,5,0,3,0,4,5,90,9
11,4,19,1,3,0,4,5,90,11
11,4,15,1,4,0,4,5,90,11
12,1,3,0,5,1,4,5,50,11
12,1,1,0,0,0,4,5,90,11
12,1,21,0,2,0,4,5,90,11
12,1,15,1,5,1,4,5,67,11
12,1,23,0,0,0,4,5,74,11
12,1,11,1,0,0,4,5,102,11
12,1,20,1,1,0,4,5,29,11
12,1,17,1,4,0,4,5,90,11
12,1,11,1,5,1,4,5,132,11
12,1,1,0,5,1,4,5,102,9
12,1,0,0,2,0,4,5,90,11
12,1,8,1,2,0,4,5,100,11
12,1,21,0,3,0,4,5,90,11
12,1,21,0,4,0,4,5,21,11
12,1,1,0,4,0,4,5,90,11
12,1,13,1,4,0,4,5,90,11
12,1,19,1,6,1,4,5,67,11
12,1,12,1,6,1,4,5,90,11
12,1,21,0,6,1,4,5,108,11
12,1,8,1,3,0,4,5,90,11
12,1,12,1,3,0,4,5,104,11
1,1,16,1,4,0,1,5,98,11
1,1,15,1,4,0,1,5,100,11
1,1,5,0,6,1,1,5,90,11
1,1,3,0,3,0,1,5,90,11
1,1,23,0,1,0,1,5,90,11
1,1,16,1,1,0,1,5,40,11
1,1,16,1,5,1,1,5,100,11
2,1,22,0,1,0,1,5,90,11
2,1,15,1,1,0,1,5,93,11
2,1,5,0,4,0,1,5,132,11
2,1,1,0,2,0,1,5,80,11
2,1,3,0,5,1,1,5,21,11
2,1,14,1,6,1,1,5,90,11
3,2,2,0,2,0,1,5,67,11
3,2,10,1,4,0,1,5,21,11
3,2,13,1,4,0,1,5,90,11
3,2,10,1,2,0,1,5,67,11
3,2,22,0,3,0,1,5,100,11
3,2,20,1,5,1,1,5,132,11
3,2,20,1,6,1,1,5,102,11
3,2,20,1,0,0,1,5,100,11
3,2,20,1,2,0,1,5,77,11
3,2,20,1,3,0,1,5,40,11
3,2,18,1,3,0,1,5,100,11
3,2,23,0,3,0,1,5,93,11
4,2,3,0,0,0,2,5,101,11
4,2,22,0,2,0,2,5,9,11
4,2,14,1,3,0,2,5,21,11
4,2,10,1,5,1,2,5,21,11
4,2,19,1,5,1,2,5,67,11
4,2,2,0,3,0,2,5,100,11
4,2,19,1,2,0,2,5,93,11
4,2,18,1,6,1,2,5,90,11
4,2,22,0,5,1,2,5,100,11
4,2,23,0,5,1,2,5,100,11
5,2,1,0,6,1,2,5,100,11
5,2,0,0,6,1,2,5,90,11
5,2,0,0,6,1,2,5,90,11
5,2,17,1,6,1,2,5,90,11
5,2,12,1,0,0,2,5,67,9
5,2,0,0,0,0,2,5,90,11
5,2,0,0,1,0,2,5,90,11
5,2,1,0,2,0,2,5,90,9
5,2,20,1,5,1,2,5,72,11
5,2,11,1,6,1,2,5,93,11
5,2,3,0,2,0,2,5,91,11
5,2,0,0,6,1,2,5,21,11
5,2,16,1,2,0,2,5,48,11
5,2,13,1,3,0,2,5,23,11
5,2,12,1,4,0,2,5,77,9
5,2,10,1,3,0,2,5,40,11
5,2,4,0,1,0,2,5,101,11
6,3,16,1,2,0,2,5,36,11
6,3,4,0,3,0,2,5,101,11
6,3,18,1,5,1,2,5,77,8
6,3,22,0,6,1,2,5,90,11
6,3,22,0,3,0,2,5,90,11
6,3,13,1,0,0,2,5,3,11
6,3,17,1,1,0,2,5,93,11
6,3,22,0,2,0,2,5,90,11
6,3,18,1,2,0,2,5,19,11
7,3,18,1,4,0,3,5,93,11
7,3,13,1,0,0,3,5,90,11
7,3,13,1,3,0,3,5,93,11
7,3,18,1,5,1,3,5,132,11
8,3,13,1,0,0,3,5,100,11
8,3,13,1,5,1,3,5,104,11
8,3,9,1,0,0,3,5,67,11
8,3,20,1,0,0,3,5,93,11
8,3,23,0,2,0,3,5,67,11
8,3,3,0,1,0,3,5,90,11
8,3,1,0,4,0,3,5,40,11
8,3,0,0,5,1,3,5,67,11
8,3,15,1,1,0,3,5,104,11
8,3,23,0,6,1,3,5,100,11
9,4,22,0,3,0,3,5,93,11
9,4,19,1,5,1,3,5,104,11
9,4,1,0,4,0,3,5,90,11
9,4,12,1,3,0,3,5,67,11
9,4,12,1,2,0,3,5,19,11
9,4,16,1,2,0,3,5,9,11
9,4,0,0,3,0,3,5,90,11
10,4,16,1,1,0,4,5,90,11
10,4,12,1,2,0,4,5,90,11
10,4,18,1,2,0,4,5,90,11
10,4,12,1,0,0,4,5,40,11
10,4,0,0,4,0,4,5,100,11
11,4,20,1,1,0,4,5,40,9
11,4,13,1,0,0,4,5,40,9
11,4,16,1,4,0,4,5,100,11
11,4,8,1,4,0,4,5,77,11
11,4,3,0,1,0,4,5,90,11
11,4,0,0,2,0,4,5,77,8
11,4,13,1,2,0,4,5,77,11
12,1,10,1,3,0,4,5,90,11
12,1,0,0,2,0,4,5,90,11
12,1,16,1,2,0,4,5,77,11
12,1,17,1,1,0,4,5,21,11
12,1,16,1,6,1,4,5,100,11
12,1,16,1,6,1,4,5,21,11
12,1,3,0,2,0,4,5,40,11
12,1,11,1,5,1,4,5,100,11
12,1,19,1,5,1,4,5,100,11
1,1,21,0,2,0,1,5,132,11
2,1,21,0,0,0,1,5,21,11
2,1,19,1,1,0,1,5,77,11
2,1,21,0,5,1,1,5,67,11
2,1,18,1,3,0,1,5,104,11
3,2,19,1,4,0,1,5,8,9
3,2,17,1,0,0,1,5,67,11
3,2,5,0,2,0,1,5,100,11
3,2,11,1,3,0,1,5,104,11
3,2,16,1,2,0,1,5,104,11
4,2,23,0,1,0,2,5,21,11
4,2,20,1,3,0,2,5,21,11
4,2,19,1,3,0,2,5,90,11
4,2,16,1,5,1,2,5,90,11
4,2,14,1,4,0,2,5,83,8
4,2,15,1,5,1,2,5,90,11
4,2,13,1,5,1,2,5,90,11
4,2,21,0,5,1,2,5,66,11
5,2,0,0,6,1,2,5,93,9
5,2,18,1,6,1,2,5,104,11
5,2,16,1,6,1,2,5,104,11
5,2,22,0,6,1,2,5,93,9
5,2,7,1,1,0,2,5,132,11
5,2,15,1,1,0,2,5,93,11
5,2,12,1,2,0,2,5,104,11
5,2,17,1,5,1,2,5,104,11
5,2,15,1,0,0,2,5,132,11
5,2,15,1,3,0,2,5,93,11
5,2,18,1,4,0,2,5,104,11
5,2,22,0,5,1,2,5,130,11
5,2,16,1,1,0,2,5,104,11
5,2,19,1,1,0,2,5,132,11
5,2,15,1,3,0,2,5,104,11
5,2,15,1,4,0,2,5,90,11
5,2,10,1,6,1,2,5,21,11
5,2,15,1,0,0,2,5,104,11
5,2,17,1,1,0,2,5,93,11
5,2,13,1,3,0,2,5,90,11
5,2,11,1,6,1,2,5,129,9
5,2,12,1,0,0,2,5,93,11
5,2,11,1,1,0,2,5,93,11
6,3,12,1,2,0,2,5,21,11
6,3,17,1,4,0,2,5,93,11
6,3,19,1,5,1,2,5,93,11
6,3,18,1,3,0,2,5,93,11
6,3,18,1,4,0,2,5,90,11
6,3,23,0,2,0,2,5,78,11
6,3,9,1,4,0,2,5,90,11
6,3,18,1,1,0,2,5,104,11
6,3,20,1,1,0,2,5,93,11
6,3,13,1,3,0,2,5,104,11
6,3,11,1,0,0,2,5,21,11
7,3,17,1,6,1,3,5,104,11
7,3,13,1,0,0,3,5,104,11
7,3,14,1,1,0,3,5,90,11
7,3,12,1,0,0,3,5,90,11
7,3,22,0,0,0,3,5,132,11
7,3,2,0,3,0,3,5,21,11
7,3,19,1,3,0,3,5,90,11
7,3,22,0,5,1,3,5,104,11
7,3,14,1,0,0,3,5,104,11
7,3,8,1,1,0,3,5,93,11
7,3,19,1,2,0,3,5,104,11
7,3,22,0,6,1,3,5,93,11
7,3,19,1,6,1,3,5,104,11
8,3,3,0,0,0,3,5,93,11
8,3,14,1,0,0,3,5,132,11
8,3,21,0,2,0,3,5,104,11
8,3,12,1,5,1,3,5,104,11
8,3,16,1,5,1,3,5,93,11
8,3,3,0,1,0,3,5,104,11
8,3,15,1,1,0,3,5,104,11
8,3,23,0,3,0,3,5,104,11
8,3,7,1,2,0,3,5,104,11
8,3,20,1,3,0,3,5,90,11
8,3,3,0,0,0,3,5,80,11
8,3,20,1,1,0,3,5,104,11
8,3,18,1,3,0,3,5,14,9
8,3,13,1,3,0,3,5,14,9
8,3,16,1,5,1,3,5,72,11
9,4,19,1,6,1,3,5,104,11
9,4,5,0,5,1,3,5,49,11
9,4,20,1,3,0,3,5,93,11
9,4,12,1,4,0,3,5,93,11
9,4,0,0,6,1,3,5,90,11
9,4,14,1,1,0,3,5,93,11
9,4,20,1,1,0,3,5,93,11
9,4,20,1,4,0,3,5,93,11
9,4,19,1,4,0,3,5,93,11
10,4,6,0,2,0,4,5,77,11
11,4,23,0,1,0,4,5,90,11
11,4,11,1,6,1,4,5,93,9
12,1,21,0,4,0,4,5,90,11
12,1,20,1,4,0,4,5,104,11
12,1,20,1,5,1,4,5,14,11
12,1,21,0,1,0,4,5,1,11
12,1,22,0,6,1,4,5,67,11
12,1,17,1,6,1,4,5,8,11
12,1,7,1,0,0,4,5,82,11
1,1,17,1,6,1,1,5,77,11
1,1,12,1,0,0,1,5,3,11
1,1,7,1,1,0,1,5,93,11
1,1,20,1,4,0,1,5,91,11
1,1,14,1,4,0,1,5,93,11
1,1,19,1,5,1,1,5,21,11
1,1,4,0,2,0,1,5,74,9
1,1,14,1,2,0,1,5,93,11
1,1,10,1,3,0,1,5,93,11
1,1,17,1,5,1,1,5,40,11
1,1,5,0,6,1,1,5,67,11
1,1,8,1,0,0,1,5,74,11
1,1,23,0,3,0,1,5,90,11
1,1,4,0,5,1,1,5,21,11
1,1,8,1,5,1,1,5,21,11
1,1,17,1,5,1,1,5,106,11
2,1,13,1,0,0,1,5,93,11
2,1,17,1,0,0,1,5,93,11
2,1,7,1,2,0,1,5,74,11
2,1,6,0,4,0,1,5,74,11
2,1,14,1,4,0,1,5,74,11
2,1,19,1,0,0,1,5,74,11
2,1,20,1,3,0,1,5,47,11
2,1,3,0,2,0,1,5,90,11
2,1,12,1,6,1,1,5,93,11
3,2,21,0,6,1,1,5,90,11
3,2,15,1,2,0,1,5,74,11
3,2,9,1,4,0,1,5,93,11
3,2,17,1,4,0,1,5,93,11
3,2,0,0,5,1,1,5,104,11
3,2,0,0,3,0,1,5,14,11
3,2,9,1,3,0,1,5,93,11
3,2,4,0,5,1,1,5,90,11
3,2,20,1,5,1,1,5,93,11
3,2,11,1,6,1,1,5,93,11
3,2,17,1,3,0,1,5,24,11
3,2,16,1,4,0,1,5,93,11
3,2,21,0,5,1,1,5,104,11
3,2,10,1,0,0,1,5,47,8
3,2,7,1,1,0,1,5,93,9
3,2,22,0,2,0,1,5,93,11
3,2,16,1,3,0,1,5,93,11
3,2,7,1,3,0,1,5,93,11
3,2,3,0,3,0,1,5,21,11
4,2,8,1,4,0,2,5,93,9
4,2,9,1,4,0,2,5,47,11
4,2,20,1,4,0,2,5,104,11
4,2,15,1,6,1,2,5,73,11
4,2,22,0,0,0,2,5,93,11
4,2,7,1,1,0,2,5,93,11
4,2,10,1,3,0,2,5,93,11
4,2,22,0,6,1,2,5,93,11
4,2,3,0,1,0,2,5,77,9
4,2,15,1,1,0,2,5,93,11
4,2,21,0,1,0,2,5,93,11
4,2,12,1,2,0,2,5,93,11
4,2,18,1,2,0,2,5,14,11
4,2,20,1,2,0,2,5,93,11
4,2,7,1,3,0,2,5,93,11
4,2,2,0,6,1,2,5,21,11
4,2,12,1,6,1,2,5,93,11
4,2,13,1,0,0,2,5,93,11
4,2,16,1,0,0,2,5,93,11
4,2,16,1,0,0,2,5,93,11
4,2,8,1,0,0,2,5,132,11
4,2,6,0,0,0,2,5,47,9
4,2,21,0,1,0,2,5,47,9
4,2,14,1,3,0,2,5,93,11
4,2,18,1,3,0,2,5,89,11
4,2,10,1,3,0,2,5,77,11
4,2,0,0,3,0,2,5,93,8
4,2,23,0,4,0,2,5,93,11
4,2,18,1,5,1,2,5,100,11
4,2,5,0,1,0,2,5,90,11
4,2,12,1,1,0,2,5,90,11
4,2,12,1,1,0,2,5,93,11
4,2,15,1,2,0,2,5,129,9
4,2,3,0,3,0,2,5,93,9
4,2,13,1,3,0,2,5,93,11
4,2,13,1,3,0,2,5,93,11
4,2,16,1,3,0,2,5,93,11
4,2,16,1,4,0,2,5,47,11
4,2,18,1,5,1,2,5,40,11
5,2,4,0,6,1,2,5,93,11
5,2,11,1,6,1,2,5,104,11
5,2,13,1,6,1,2,5,93,11
5,2,15,1,6,1,2,5,93,11
5,2,15,1,6,1,2,5,93,11
5,2,15,1,6,1,2,5,93,11
5,2,9,1,2,0,2,5,104,11
5,2,23,0,3,0,2,5,14,11
5,2,4,0,4,0,2,5,90,11
5,2,16,1,4,0,2,5,93,11
5,2,17,1,4,0,2,5,93,9
5,2,12,1,5,1,2,5,93,11
5,2,14,1,5,1,2,5,93,9
5,2,17,1,5,1,2,5,1,9
5,2,18,1,3,0,2,5,93,11
5,2,11,1,6,1,2,5,74,11
5,2,15,1,6,1,2,5,93,9
5,2,23,0,6,1,2,5,47,8
5,2,21,0,6,1,2,5,90,11
5,2,17,1,0,0,2,5,93,11
5,2,6,0,1,0,2,5,93,11
5,2,21,0,1,0,2,5,93,11
5,2,15,1,2,0,2,5,93,11
5,2,16,1,3,0,2,5,74,11
5,2,18,1,3,0,2,5,93,11
5,2,10,1,3,0,2,5,8,11
5,2,16,1,3,0,2,5,93,11
5,2,4,0,0,0,2,5,74,11
5,2,13,1,1,0,2,5,93,11
5,2,2,0,2,0,2,5,93,9
5,2,17,1,2,0,2,5,93,11
5,2,12,1,3,0,2,5,68,11
5,2,13,1,4,0,2,5,77,11
5,2,11,1,4,0,2,5,93,11
5,2,10,1,5,1,2,5,93,11
5,2,13,1,5,1,2,5,93,11
5,2,16,1,6,1,2,5,93,9
5,2,5,0,0,0,2,5,21,11
5,2,6,0,0,0,2,5,74,11
5,2,11,1,1,0,2,5,132,11
5,2,16,1,1,0,2,5,93,8
5,2,23,0,1,0,2,5,14,11
6,3,13,1,2,0,2,5,93,11
6,3,16,1,2,0,2,5,93,11
6,3,16,1,2,0,2,5,93,11
6,3,11,1,3,0,2,5,93,11
6,3,11,1,3,0,2,5,93,11
6,3,16,1,4,0,2,5,104,11
6,3,13,1,5,1,2,5,14,11
6,3,2,0,6,1,2,5,93,11
6,3,21,0,0,0,2,5,66,11
6,3,1,0,1,0,2,5,93,11
6,3,9,1,3,0,2,5,93,11
6,3,11,1,3,0,2,5,93,11
6,3,14,1,3,0,2,5,109,11
6,3,15,1,3,0,2,5,74,11
6,3,17,1,3,0,2,5,93,11
6,3,18,1,3,0,2,5,93,11
6,3,18,1,4,0,2,5,93,11
6,3,21,0,5,1,2,5,93,11
6,3,12,1,6,1,2,5,93,11
6,3,5,0,0,0,2,5,93,11
6,3,22,0,1,0,2,5,93,11
6,3,16,1,1,0,2,5,104,11
6,3,17,1,1,0,2,5,104,11
6,3,2,0,2,0,2,5,93,11
6,3,13,1,2,0,2,5,93,11
6,3,19,1,2,0,2,5,93,11
6,3,3,0,3,0,2,5,90,11
6,3,11,1,5,1,2,5,129,8
6,3,13,1,5,1,2,5,93,11
6,3,17,1,6,1,2,5,93,11
6,3,6,0,0,0,2,5,21,11
6,3,1,0,2,0,2,5,93,11
6,3,1,0,2,0,2,5,93,11
6,3,20,1,2,0,2,5,93,8
6,3,23,0,2,0,2,5,21,11
6,3,11,1,3,0,2,5,93,11
6,3,21,0,3,0,2,5,93,11
6,3,11,1,4,0,2,5,93,8
6,3,7,1,5,1,2,5,93,11
6,3,15,1,5,1,2,5,93,11
6,3,18,1,0,0,2,5,93,11
6,3,9,1,3,0,2,5,93,11
6,3,19,1,3,0,2,5,93,11
6,3,0,0,3,0,2,5,104,11
7,3,16,1,5,1,3,5,93,9
7,3,6,0,5,1,3,5,21,11
7,3,21,0,1,0,3,5,74,11
7,3,23,0,1,0,3,5,93,11
7,3,9,1,2,0,3,5,93,11
7,3,5,0,3,0,3,5,21,11
7,3,17,1,4,0,3,5,93,11
7,3,16,1,4,0,3,5,93,9
7,3,15,1,4,0,3,5,36,8
7,3,11,1,5,1,3,5,104,11
7,3,8,1,5,1,3,5,104,11
7,3,12,1,5,1,3,5,93,11
7,3,4,0,1,0,3,5,77,9
7,3,20,1,1,0,3,5,93,11
7,3,14,1,2,0,3,5,93,11
7,3,20,1,3,0,3,5,74,11
7,3,13,1,4,0,3,5,93,11
7,3,20,1,4,0,3,5,132,11
7,3,2,0,5,1,3,5,104,11
7,3,11,1,5,1,3,5,93,11
7,3,2,0,6,1,3,5,93,11
7,3,18,1,0,0,3,5,93,11
7,3,15,1,0,0,3,5,14,9
7,3,20,1,1,0,3,5,93,11
7,3,16,1,1,0,3,5,93,11
7,3,13,1,2,0,3,5,21,11
7,3,9,1,3,0,3,5,90,11
7,3,14,1,3,0,3,5,93,11
7,3,17,1,3,0,3,5,93,11
7,3,11,1,4,0,3,5,93,11
7,3,20,1,4,0,3,5,93,11
7,3,22,0,4,0,3,5,93,11
7,3,15,1,5,1,3,5,93,11
7,3,16,1,6,1,3,5,93,11
7,3,7,1,0,0,3,5,93,11
7,3,4,0,0,0,3,5,90,11
7,3,15,1,0,0,3,5,93,11
7,3,8,1,0,0,3,5,21,11
7,3,11,1,1,0,3,5,74,11
7,3,18,1,1,0,3,5,74,11
7,3,14,1,2,0,3,5,104,11
7,3,16,1,2,0,3,5,93,11
7,3,4,0,3,0,3,5,93,11
7,3,5,0,3,0,3,5,93,11
7,3,10,1,3,0,3,5,93,11
7,3,12,1,4,0,3,5,74,11
7,3,14,1,4,0,3,5,74,11
7,3,10,1,5,1,3,5,93,9
7,3,11,1,5,1,3,5,93,11
7,3,22,0,5,1,3,5,93,11
7,3,22,0,5,1,3,5,115,11
7,3,0,0,6,1,3,5,21,11
8,3,10,1,0,0,3,5,93,11
8,3,11,1,1,0,3,5,74,11
8,3,18,1,1,0,3,5,93,11
8,3,22,0,3,0,3,5,93,11
8,3,15,1,3,0,3,5,21,11
8,3,10,1,4,0,3,5,21,11
8,3,20,1,4,0,3,5,21,11
8,3,15,1,5,1,3,5,93,11
8,3,15,1,6,1,3,5,93,11
8,3,14,1,0,0,3,5,104,11
8,3,2,0,1,0,3,5,93,11
8,3,4,0,3,0,3,5,21,11
8,3,10,1,3,0,3,5,93,11
8,3,16,1,3,0,3,5,93,11
8,3,5,0,4,0,3,5,93,11
8,3,6,0,6,1,3,5,21,11
8,3,8,1,6,1,3,5,93,11
8,3,0,0,0,0,3,5,104,11
8,3,6,0,0,0,3,5,21,11
8,3,10,1,1,0,3,5,21,11
8,3,21,0,2,0,3,5,90,11
8,3,8,1,4,0,3,5,93,9
8,3,0,0,1,0,3,5,132,11
8,3,0,0,1,0,3,5,132,11
8,3,0,0,2,0,3,5,93,11
8,3,0,0,2,0,3,5,93,11
8,3,10,1,2,0,3,5,74,11
8,3,10,1,2,0,3,5,93,11
8,3,13,1,3,0,3,5,21,11
8,3,11,1,3,0,3,5,49,11
8,3,3,0,4,0,3,5,93,11
8,3,6,0,4,0,3,5,74,11
8,3,16,1,4,0,3,5,93,11
8,3,2,0,4,0,3,5,93,11
8,3,18,1,5,1,3,5,93,11
8,3,21,0,5,1,3,5,40,9
8,3,3,0,6,1,3,5,21,11
8,3,13,1,0,0,3,5,93,11
9,4,0,0,3,0,3,5,14,11
9,4,15,1,3,0,3,5,78,11
9,4,21,0,3,0,3,5,93,9
9,4,15,1,5,1,3,5,74,11
9,4,17,1,6,1,3,5,93,11
9,4,21,0,6,1,3,5,93,11
9,4,23,0,6,1,3,5,21,11
9,4,5,0,0,0,3,5,21,11
9,4,10,1,1,0,3,5,21,11
9,4,11,1,5,1,3,5,93,11
9,4,14,1,5,1,3,5,104,11
9,4,9,1,5,1,3,5,47,11
9,4,1,0,6,1,3,5,90,11
9,4,16,1,0,0,3,5,93,11
9,4,0,0,4,0,3,5,100,11
9,4,1,0,4,0,3,5,93,11
9,4,13,1,0,0,3,5,93,11
9,4,16,1,1,0,3,5,93,11
9,4,17,1,2,0,3,5,21,11
9,4,18,1,2,0,3,5,93,11
9,4,13,1,2,0,3,5,93,11
9,4,20,1,2,0,3,5,93,11
10,4,21,0,5,1,4,5,93,11
10,4,2,0,0,0,4,5,21,11
10,4,22,0,1,0,4,5,109,11
10,4,17,1,2,0,4,5,93,11
10,4,7,1,4,0,4,5,93,11
10,4,14,1,4,0,4,5,93,11
10,4,12,1,5,1,4,5,90,11
10,4,23,0,0,0,4,5,22,11
10,4,2,0,1,0,4,5,101,11
10,4,3,0,2,0,4,5,101,11
10,4,17,1,0,0,4,5,93,11
10,4,14,1,1,0,4,5,74,11
10,4,16,1,1,0,4,5,93,11
10,4,0,0,0,0,4,5,77,11
10,4,19,1,5,1,4,5,102,11
10,4,3,0,6,1,4,5,80,11
10,4,18,1,6,1,4,5,93,11
11,4,11,1,1,0,4,5,93,11
11,4,12,1,1,0,4,5,14,9
11,4,20,1,3,0,4,5,93,11
11,4,13,1,4,0,4,5,93,11
11,4,6,0,0,0,4,5,74,11
11,4,3,0,4,0,4,5,47,11
11,4,3,0,6,1,4,5,77,11
11,4,19,1,0,0,4,5,49,11
11,4,11,1,3,0,4,5,83,11
11,4,19,1,3,0,4,5,93,11
11,4,19,1,4,0,4,5,104,11
12,1,3,0,4,0,4,5,77,11
12,1,13,1,5,1,4,5,90,11
12,1,9,1,6,1,4,5,90,11
12,1,20,1,5,1,4,5,93,11
12,1,18,1,1,0,4,5,91,11
12,1,16,1,2,0,4,5,21,11
12,1,21,0,6,1,4,5,90,11
12,1,5,0,0,0,4,5,21,11
12,1,2,0,1,0,4,5,21,11
12,1,16,1,1,0,4,5,132,11
12,1,17,1,2,0,4,5,132,11
12,1,18,1,3,0,4,5,77,11
12,1,23,0,4,0,4,5,93,11
12,1,18,1,5,1,4,5,77,9
12,1,1,0,6,1,4,5,90,11
12,1,18,1,0,0,4,5,93,11
12,1,0,0,2,0,4,5,24,11
1,1,3,0,4,0,1,5,67,11
1,1,17,1,4,0,1,5,91,11
1,1,2,0,0,0,1,5,77,11
1,1,20,1,3,0,1,5,40,11
1,1,10,1,4,0,1,5,93,11
1,1,21,0,2,0,1,5,93,11
1,1,11,1,6,1,1,5,93,11
2,1,6,0,2,0,1,5,90,9
2,1,16,1,1,0,1,5,14,11
2,1,20,1,5,1,1,5,3,11
2,1,20,1,6,1,1,5,93,11
2,1,14,1,6,1,1,5,93,11
3,2,13,1,3,0,1,5,104,9
3,2,13,1,3,0,1,5,78,11
3,2,11,1,2,0,1,5,93,11
3,2,15,1,5,1,1,5,1,11
3,2,11,1,0,0,1,5,21,11
3,2,18,1,1,0,1,5,4,11
4,2,16,1,4,0,2,5,93,11
4,2,18,1,1,0,2,5,83,11
4,2,10,1,3,0,2,5,3,11
4,2,14,1,4,0,2,5,3,11
4,2,15,1,4,0,2,5,3,11
4,2,10,1,1,0,2,5,129,11
4,2,19,1,1,0,2,5,28,11
4,2,18,1,3,0,2,5,3,11
4,2,1,0,3,0,2,5,129,11
4,2,14,1,6,1,2,5,81,11
4,2,12,1,0,0,2,5,93,11
4,2,21,0,0,0,2,5,28,11
4,2,11,1,1,0,2,5,93,11
4,2,14,1,2,0,2,5,3,11
4,2,4,0,3,0,2,5,21,11
5,2,12,1,6,1,2,5,93,11
5,2,14,1,6,1,2,5,93,11
5,2,20,1,6,1,2,5,93,11
5,2,20,1,6,1,2,5,104,11
5,2,1,0,6,1,2,5,90,11
5,2,16,1,6,1,2,5,93,11
5,2,8,1,5,1,2,5,93,8
5,2,20,1,6,1,2,5,21,11
5,2,18,1,0,0,2,5,93,11
5,2,17,1,3,0,2,5,93,9
5,2,21,0,3,0,2,5,93,11
5,2,5,0,4,0,2,5,3,9
5,2,16,1,0,0,2,5,9,11
5,2,10,1,1,0,2,5,129,11
5,2,13,1,1,0,2,5,93,11
5,2,14,1,1,0,2,5,132,11
6,3,13,1,2,0,2,5,3,11
6,3,18,1,5,1,2,5,40,11
6,3,20,1,2,0,2,5,21,11
6,3,23,0,3,0,2,5,78,11
6,3,22,0,0,0,2,5,21,11
6,3,12,1,5,1,2,5,93,11
6,3,23,0,2,0,2,5,3,11
6,3,23,0,3,0,2,5,93,11
7,3,19,1,1,0,3,5,3,11
7,3,22,0,4,0,3,5,132,11
7,3,22,0,6,1,3,5,91,11
7,3,17,1,1,0,3,5,93,11
7,3,1,0,4,0,3,5,93,11
7,3,12,1,5,1,3,5,104,11
7,3,17,1,0,0,3,5,93,11
8,3,14,1,6,1,3,5,3,11
8,3,14,1,5,1,3,5,90,11
8,3,0,0,6,1,3,5,21,11
8,3,21,0,0,0,3,5,21,11
8,3,10,1,1,0,3,5,90,11
8,3,16,1,3,0,3,5,13,11
9,4,10,1,0,0,3,5,77,11
9,4,12,1,2,0,3,5,14,11
9,4,14,1,1,0,3,5,93,11
9,4,15,1,4,0,3,5,28,11
9,4,16,1,4,0,3,5,28,11
10,4,15,1,0,0,4,5,93,11
10,4,20,1,1,0,4,5,132,11
10,4,15,1,1,0,4,5,129,9
10,4,17,1,4,0,4,5,104,11
10,4,2,0,4,0,4,5,93,11
10,4,21,0,4,0,4,5,104,11
10,4,11,1,4,0,4,5,3,11
10,4,15,1,5,1,4,5,129,11
10,4,18,1,0,0,4,5,93,11
10,4,5,0,1,0,4,5,93,11
10,4,23,0,3,0,4,5,93,11
10,4,21,0,4,0,4,5,132,11
10,4,15,1,5,1,4,5,51,11
10,4,3,0,6,1,4,5,21,11
10,4,15,1,0,0,4,5,93,11
11,4,17,1,1,0,4,5,28,11
11,4,20,1,5,1,4,5,93,11
11,4,11,1,6,1,4,5,93,11
11,4,20,1,0,0,4,5,28,11
11,4,15,1,4,0,4,5,21,11
11,4,13,1,5,1,4,5,77,11
11,4,19,1,5,1,4,5,90,11
11,4,12,1,5,1,4,5,93,11
12,1,13,1,0,0,4,5,132,11
12,1,22,0,3,0,4,5,24,11
12,1,17,1,1,0,4,5,93,11
12,1,1,0,3,0,4,5,93,11
12,1,17,1,5,1,4,5,67,11
12,1,22,0,6,1,4,5,90,11
12,1,8,1,1,0,4,5,77,11
12,1,17,1,1,0,4,5,129,11
1,1,17,1,6,1,1,5,90,11
3,2,3,0,4,0,1,5,49,9
3,2,12,1,1,0,1,5,77,11
5,2,8,1,2,0,2,5,104,11
6,3,13,1,6,1,2,5,104,11
6,3,13,1,6,1,2,5,3,9
8,3,10,1,3,0,3,5,93,9
8,3,15,1,1,0,3,5,28,11
9,4,8,1,1,0,3,5,104,9
10,4,10,1,2,0,4,5,104,11
11,4,11,1,3,0,4,5,93,11
11,4,18,1,5,1,4,5,28,11
11,4,12,1,1,0,4,5,28,11
11,4,21,0,3,0,4,5,93,11
1,1,5,0,6,1,1,5,21,11
1,1,20,1,2,0,1,5,90,11
1,1,10,1,3,0,1,5,104,11
1,1,1,0,1,0,1,5,93,11
1,1,13,1,4,0,1,5,90,11
1,1,12,1,5,1,1,5,90,11
1,1,20,1,1,0,1,5,93,11
1,1,19,1,3,0,1,5,77,11
1,1,23,0,4,0,1,5,93,11
2,1,12,1,5,1,1,5,21,11
2,1,3,0,0,0,1,5,104,11
2,1,10,1,1,0,1,5,93,11
2,1,19,1,3,0,1,5,104,11
3,2,9,1,1,0,1,5,93,11
3,2,10,1,5,1,1,5,93,11
3,2,17,1,5,1,1,5,130,11
3,2,14,1,1,0,1,5,77,11
3,2,5,0,3,0,1,5,90,11
3,2,17,1,0,0,1,5,93,11
3,2,11,1,3,0,1,5,77,11
4,2,20,1,5,1,2,5,134,11
4,2,19,1,1,0,2,5,104,11
4,2,13,1,5,1,2,5,93,11
4,2,23,0,4,0,2,5,77,11
4,2,17,1,6,1,2,5,104,11
4,2,0,0,3,0,2,5,93,11
4,2,21,0,3,0,2,5,90,11
4,2,10,1,5,1,2,5,93,11
4,2,17,1,0,0,2,5,93,11
4,2,21,0,1,0,2,5,93,11
4,2,6,0,3,0,2,5,93,11
4,2,22,0,3,0,2,5,47,11
4,2,2,0,4,0,2,5,21,11
4,2,18,1,5,1,2,5,90,11
4,2,16,1,5,1,2,5,90,11
4,2,23,0,5,1,2,5,93,11
4,2,12,1,5,1,2,5,93,11
5,2,0,0,6,1,2,5,93,11
5,2,18,1,6,1,2,5,90,11
5,2,9,1,0,0,2,5,77,11
5,2,11,1,0,0,2,5,129,11
5,2,12,1,5,1,2,5,93,11
6,3,22,0,3,0,2,5,77,11
6,3,7,1,4,0,2,5,67,11
6,3,16,1,3,0,2,5,77,11
6,3,14,1,2,0,2,5,93,11
7,3,23,0,2,0,3,5,122,11
7,3,12,1,4,0,3,5,104,11
7,3,3,0,5,1,3,5,104,11
7,3,12,1,0,0,3,5,90,11
7,3,13,1,3,0,3,5,67,9
7,3,2,0,0,0,3,5,93,11
7,3,15,1,1,0,3,5,77,11
7,3,14,1,4,0,3,5,77,11
8,3,17,1,0,0,3,5,93,11
8,3,3,0,2,0,3,5,93,11
8,3,14,1,4,0,3,5,104,11
8,3,3,0,0,0,3,5,77,11
8,3,16,1,1,0,3,5,93,11
9,4,17,1,4,0,3,5,21,11
9,4,9,1,1,0,3,5,93,11
9,4,16,1,1,0,3,5,77,11
10,4,23,0,3,0,4,5,90,11
10,4,10,1,6,1,4,5,1,11
10,4,21,0,0,0,4,5,112,11
10,4,10,1,5,1,4,5,93,11
10,4,10,1,0,0,4,5,90,11
10,4,10,1,4,0,4,5,93,11
10,4,13,1,4,0,4,5,77,11
10,4,15,1,0,0,4,5,93,11
11,4,9,1,0,0,4,5,112,11
11,4,19,1,3,0,4,5,90,11
11,4,13,1,5,1,4,5,93,11
11,4,20,1,0,0,4,5,77,11
11,4,14,1,3,0,4,5,93,11
11,4,19,1,4,0,4,5,77,11
11,4,23,0,5,1,4,5,51,11
11,4,10,1,6,1,4,5,90,11
11,4,19,1,1,0,4,5,77,11
11,4,14,1,3,0,4,5,90,11
11,4,21,0,4,0,4,5,51,11
11,4,5,0,2,0,4,5,102,11
12,1,5,0,3,0,4,5,102,11
12,1,11,1,5,1,4,5,67,11
12,1,17,1,1,0,4,5,104,11
12,1,5,0,2,0,4,5,101,11
12,1,19,1,3,0,4,5,65,9
12,1,12,1,5,1,4,5,90,11
12,1,12,1,6,1,4,5,93,11
12,1,17,1,1,0,4,5,104,11
1,1,13,1,3,0,1,5,104,11
1,1,19,1,5,1,1,5,93,11
1,1,10,1,6,1,1,5,93,11
1,1,14,1,5,1,1,5,104,11
1,1,16,1,6,1,1,5,67,11
1,1,12,1,3,0,1,5,24,8
1,1,15,1,3,0,1,5,90,11
1,1,18,1,4,0,1,5,93,11
1,1,23,0,4,0,1,5,49,11
1,1,13,1,5,1,1,5,132,11
1,1,17,1,5,1,1,5,47,11
1,1,8,1,6,1,1,5,93,11
1,1,19,1,6,1,1,5,93,11
2,1,15,1,0,0,1,5,93,11
2,1,14,1,4,0,1,5,93,11
2,1,23,0,1,0,1,5,93,11
2,1,17,1,5,1,1,5,93,11
2,1,15,1,3,0,1,5,104,11
3,2,16,1,6,1,1,5,104,11
3,2,10,1,3,0,1,5,104,11
3,2,18,1,2,0,1,5,77,11
3,2,19,1,2,0,1,5,93,11
3,2,11,1,1,0,1,5,93,11
3,2,8,1,2,0,1,5,53,11
3,2,11,1,6,1,1,5,93,11
3,2,14,1,6,1,1,5,100,11
3,2,13,1,3,0,1,5,104,11
4,2,10,1,5,1,2,5,93,11
4,2,10,1,5,1,2,5,93,11
4,2,13,1,5,1,2,5,3,11
4,2,22,0,0,0,2,5,93,11
4,2,10,1,1,0,2,5,93,11
4,2,20,1,2,0,2,5,104,11
4,2,11,1,0,0,2,5,93,11
4,2,10,1,5,1,2,5,93,11
4,2,13,1,6,1,2,5,104,11
4,2,18,1,0,0,2,5,93,11
4,2,1,0,3,0,2,5,93,11
4,2,17,1,5,1,2,5,93,11
4,2,23,0,5,1,2,5,104,11
5,2,1,0,5,1,2,5,93,11
5,2,7,1,1,0,2,5,93,11
5,2,8,1,3,0,2,5,104,11
5,2,10,1,3,0,2,5,104,11
5,2,15,1,1,0,2,5,93,11
5,2,17,1,1,0,2,5,93,11
5,2,22,0,6,1,2,5,93,11
5,2,16,1,4,0,2,5,77,11
6,3,20,1,6,1,2,5,77,11
6,3,19,1,3,0,2,5,93,11
6,3,18,1,5,1,2,5,53,11
6,3,1,0,6,1,2,5,93,11
6,3,0,0,5,1,2,5,77,11
6,3,19,1,1,0,2,5,77,11
6,3,14,1,2,0,2,5,104,11
6,3,16,1,3,0,2,5,104,11
6,3,15,1,1,0,2,5,93,11
7,3,11,1,3,0,3,5,77,11
7,3,14,1,6,1,3,5,104,11
7,3,20,1,0,0,3,5,93,11
7,3,22,0,1,0,3,5,93,11
7,3,7,1,4,0,3,5,14,11
7,3,13,1,4,0,3,5,36,11
7,3,13,1,4,0,3,5,104,11
8,3,13,1,3,0,3,5,93,11
8,3,22,0,5,1,3,5,104,11
8,3,13,1,6,1,3,5,93,11
8,3,11,1,2,0,3,5,93,11
8,3,9,1,3,0,3,5,93,11
8,3,10,1,4,0,3,5,104,11
8,3,11,1,4,0,3,5,104,11
8,3,13,1,4,0,3,5,104,11
8,3,13,1,5,1,3,5,93,11
8,3,14,1,5,1,3,5,9,11
8,3,16,1,5,1,3,5,90,11
8,3,20,1,3,0,3,5,104,11
8,3,21,0,0,0,3,5,93,11
8,3,10,1,1,0,3,5,93,11
8,3,11,1,1,0,3,5,93,11
8,3,14,1,1,0,3,5,93,11
8,3,7,1,2,0,3,5,40,11
8,3,23,0,3,0,3,5,93,11
8,3,20,1,5,1,3,5,93,11
8,3,18,1,6,1,3,5,104,11
8,3,20,1,0,0,3,5,93,11
8,3,11,1,2,0,3,5,93,11
9,4,17,1,3,0,3,5,93,11
9,4,18,1,4,0,3,5,93,11
9,4,18,1,5,1,3,5,93,11
9,4,11,1,1,0,3,5,93,11
9,4,0,0,5,1,3,5,90,11
9,4,21,0,0,0,3,5,90,11
9,4,13,1,1,0,3,5,93,11
11,4,19,1,1,0,4,5,58,11
12,1,15,1,3,0,4,5,104,11
12,1,17,1,3,0,4,5,104,11
12,1,19,1,4,0,4,5,104,11
12,1,23,0,5,1,4,5,3,11
12,1,12,1,0,0,4,5,3,11
12,1,18,1,2,0,4,5,93,11
12,1,17,1,3,0,4,5,93,11
12,1,11,1,2,0,4,5,93,11
12,1,19,1,2,0,4,5,77,11
12,1,10,1,5,1,4,5,104,11
12,1,21,0,5,1,4,5,93,11
12,1,11,1,0,0,4,5,104,11
12,1,12,1,0,0,4,5,93,11
12,1,15,1,0,0,4,5,93,11
12,1,20,1,1,0,4,5,93,11
12,1,12,1,3,0,4,5,93,11
12,1,15,1,1,0,4,5,104,11
12,1,16,1,1,0,4,5,104,11
1,1,8,1,5,1,1,5,93,11
1,1,18,1,5,1,1,5,90,11
1,1,18,1,5,1,1,5,90,11
1,1,14,1,0,0,1,5,90,11
1,1,9,1,3,0,1,5,93,11
1,1,6,0,4,0,1,5,77,8
1,1,18,1,4,0,1,5,90,11
1,1,1,0,6,1,1,5,90,11
1,1,0,0,3,0,1,5,67,11
1,1,12,1,3,0,1,5,109,11
1,1,0,0,5,1,1,5,90,11
1,1,12,1,5,1,1,5,90,11
1,1,20,1,5,1,1,5,93,11
1,1,9,1,5,1,1,5,93,11
1,1,12,1,5,1,1,5,93,11
1,1,21,0,6,1,1,5,93,11
1,1,15,1,2,0,1,5,93,11
1,1,11,1,6,1,1,5,104,11
2,1,17,1,4,0,1,5,77,11
2,1,20,1,3,0,1,5,93,11
2,1,1,0,1,0,1,5,14,8
2,1,9,1,2,0,1,5,93,11
2,1,15,1,5,1,1,5,93,11
2,1,17,1,1,0,1,5,77,9
2,1,18,1,3,0,1,5,93,11
2,1,13,1,4,0,1,5,93,11
2,1,18,1,4,0,1,5,93,11
2,1,21,0,5,1,1,5,27,11
2,1,5,0,6,1,1,5,90,11
3,2,22,0,4,0,1,5,93,11
3,2,18,1,6,1,1,5,93,11
3,2,15,1,3,0,1,5,93,11
3,2,20,1,5,1,1,5,104,11
3,2,14,1,6,1,1,5,104,11
3,2,14,1,1,0,1,5,93,11
3,2,12,1,3,0,1,5,93,11
3,2,10,1,0,0,1,5,104,11
3,2,8,1,6,1,1,5,40,11
3,2,20,1,6,1,1,5,67,11
3,2,0,0,1,0,1,5,104,11
3,2,12,1,3,0,1,5,93,11
4,2,21,0,6,1,2,5,93,11
4,2,0,0,1,0,2,5,104,11
4,2,10,1,2,0,2,5,104,11
4,2,7,1,0,0,2,5,93,11
4,2,15,1,0,0,2,5,93,11
4,2,20,1,1,0,2,5,104,11
4,2,16,1,2,0,2,5,93,11
4,2,17,1,3,0,2,5,49,11
4,2,0,0,4,0,2,5,93,11
4,2,12,1,5,1,2,5,93,11
4,2,18,1,5,1,2,5,93,11
4,2,20,1,5,1,2,5,93,11
4,2,12,1,6,1,2,5,93,11
4,2,22,0,6,1,2,5,93,11
4,2,10,1,0,0,2,5,93,11
4,2,18,1,0,0,2,5,104,11
4,2,18,1,1,0,2,5,93,11
4,2,21,0,1,0,2,5,93,11
4,2,21,0,2,0,2,5,93,11
4,2,1,0,3,0,2,5,104,11
4,2,8,1,3,0,2,5,93,11
4,2,16,1,3,0,2,5,93,11
4,2,19,1,3,0,2,5,93,11
4,2,17,1,4,0,2,5,90,11
4,2,13,1,4,0,2,5,93,11
4,2,0,0,0,0,2,5,104,11
4,2,13,1,0,0,2,5,93,11
4,2,6,0,0,0,2,5,90,9
4,2,9,1,1,0,2,5,93,11
4,2,13,1,1,0,2,5,93,11
4,2,9,1,4,0,2,5,93,11
4,2,11,1,4,0,2,5,104,11
4,2,13,1,5,1,2,5,93,11
5,2,15,1,6,1,2,5,93,11
5,2,17,1,6,1,2,5,93,11
5,2,18,1,6,1,2,5,93,11
5,2,18,1,6,1,2,5,14,11
5,2,11,1,0,0,2,5,93,11
5,2,13,1,0,0,2,5,93,11
5,2,7,1,3,0,2,5,93,11
5,2,18,1,0,0,2,5,104,11
5,2,22,0,1,0,2,5,93,11
5,2,6,0,2,0,2,5,93,11
5,2,2,0,3,0,2,5,90,11
5,2,10,1,3,0,2,5,104,11
5,2,15,1,5,1,2,5,93,9
5,2,17,1,5,1,2,5,93,11
5,2,12,1,6,1,2,5,93,11
5,2,2,0,1,0,2,5,93,11
5,2,0,0,4,0,2,5,93,11
5,2,23,0,1,0,2,5,93,11
5,2,11,1,3,0,2,5,93,11
5,2,9,1,4,0,2,5,93,11
5,2,14,1,4,0,2,5,93,11
5,2,11,1,1,0,2,5,93,11
5,2,13,1,1,0,2,5,93,9
5,2,16,1,1,0,2,5,93,11
6,3,14,1,2,0,2,5,93,11
6,3,14,1,2,0,2,5,93,11
6,3,14,1,2,0,2,5,93,11
6,3,8,1,3,0,2,5,93,11
6,3,20,1,3,0,2,5,93,11
6,3,11,1,0,0,2,5,93,11
6,3,14,1,2,0,2,5,93,11
6,3,10,1,3,0,2,5,77,9
6,3,21,0,3,0,2,5,93,11
6,3,5,0,4,0,2,5,21,11
6,3,18,1,4,0,2,5,77,11
6,3,15,1,5,1,2,5,93,11
6,3,14,1,0,0,2,5,77,8
6,3,17,1,1,0,2,5,93,11
6,3,18,1,1,0,2,5,93,11
6,3,3,0,2,0,2,5,93,11
6,3,18,1,4,0,2,5,93,11
6,3,9,1,6,1,2,5,93,11
6,3,19,1,6,1,2,5,93,11
6,3,16,1,6,1,2,5,104,11
6,3,15,1,0,0,2,5,104,11
6,3,13,1,1,0,2,5,93,9
6,3,3,0,3,0,2,5,93,11
6,3,15,1,3,0,2,5,93,11
6,3,13,1,6,1,2,5,93,11
6,3,19,1,1,0,2,5,93,11
7,3,17,1,6,1,3,5,93,11
7,3,7,1,3,0,3,5,93,11
7,3,15,1,3,0,3,5,93,11
7,3,16,1,3,0,3,5,93,11
7,3,21,0,3,0,3,5,93,11
7,3,7,1,6,1,3,5,93,11
7,3,20,1,6,1,3,5,93,11
7,3,10,1,0,0,3,5,93,11
7,3,21,0,0,0,3,5,93,11
7,3,12,1,4,0,3,5,104,11
7,3,22,0,5,1,3,5,93,11
7,3,13,1,0,0,3,5,93,11
7,3,20,1,4,0,3,5,93,11
7,3,10,1,5,1,3,5,93,11
7,3,15,1,6,1,3,5,93,11
8,3,15,1,0,0,3,5,93,11
8,3,20,1,0,0,3,5,93,11
8,3,18,1,1,0,3,5,93,11
8,3,3,0,4,0,3,5,93,11
8,3,10,1,4,0,3,5,21,11
8,3,13,1,5,1,3,5,93,11
8,3,2,0,6,1,3,5,93,11
8,3,22,0,2,0,3,5,93,11
8,3,11,1,4,0,3,5,21,11
8,3,3,0,1,0,3,5,130,11
8,3,12,1,2,0,3,5,129,11
8,3,13,1,2,0,3,5,93,11
8,3,3,0,4,0,3,5,8,11
8,3,0,0,4,0,3,5,93,8
8,3,21,0,1,0,3,5,93,11
8,3,12,1,4,0,3,5,93,11
8,3,13,1,5,1,3,5,104,11
8,3,16,1,0,0,3,5,21,11
9,4,11,1,1,0,3,5,104,11
9,4,11,1,2,0,3,5,93,11
9,4,19,1,2,0,3,5,93,11
9,4,11,1,5,1,3,5,93,11
9,4,10,1,3,0,3,5,93,11
9,4,1,0,0,0,3,5,93,11
9,4,15,1,0,0,3,5,90,11
9,4,18,1,1,0,3,5,93,11
9,4,10,1,3,0,3,5,49,11
9,4,17,1,3,0,3,5,93,11
9,4,9,1,4,0,3,5,93,11
10,4,15,1,5,1,4,5,93,11
10,4,22,0,6,1,4,5,93,11
10,4,23,0,6,1,4,5,1,11
10,4,10,1,0,0,4,5,93,11
10,4,11,1,1,0,4,5,93,11
10,4,5,0,3,0,4,5,93,11
10,4,13,1,6,1,4,5,93,11
10,4,19,1,6,1,4,5,93,11
10,4,19,1,6,1,4,5,93,11
10,4,7,1,4,0,4,5,93,11
10,4,12,1,4,0,4,5,93,11
10,4,11,1,5,1,4,5,93,11
10,4,18,1,5,1,4,5,93,11
10,4,11,1,5,1,4,5,93,11
10,4,17,1,5,1,4,5,93,11
10,4,18,1,5,1,4,5,93,11
10,4,3,0,6,1,4,5,93,11
10,4,8,1,1,0,4,5,93,11
10,4,14,1,3,0,4,5,93,11
10,4,19,1,4,0,4,5,93,11
10,4,22,0,6,1,4,5,77,11
11,4,19,1,1,0,4,5,93,8
11,4,16,1,1,0,4,5,93,11
11,4,6,0,6,1,4,5,93,11
11,4,12,1,0,0,4,5,93,11
11,4,14,1,0,0,4,5,93,11
11,4,17,1,0,0,4,5,93,11
11,4,14,1,3,0,4,5,93,11
11,4,10,1,6,1,4,5,93,11
11,4,13,1,6,1,4,5,3,11
11,4,11,1,3,0,4,5,93,11
11,4,17,1,4,0,4,5,93,11
11,4,11,1,5,1,4,5,93,11
11,4,9,1,5,1,4,5,93,11
11,4,14,1,6,1,4,5,93,11
11,4,18,1,0,0,4,5,93,11
11,4,9,1,2,0,4,5,93,11
11,4,14,1,4,0,4,5,93,11
11,4,16,1,4,0,4,5,93,11
11,4,11,1,5,1,4,5,93,11
12,1,17,1,4,0,4,5,93,11
12,1,18,1,4,0,4,5,93,11
12,1,12,1,1,0,4,5,93,11
12,1,8,1,2,0,4,5,90,11
12,1,1,0,3,0,4,5,93,11
12,1,14,1,5,1,4,5,93,11
12,1,18,1,5,1,4,5,90,11
12,1,16,1,2,0,4,5,104,11
12,1,12,1,3,0,4,5,93,11
12,1,17,1,4,0,4,5,93,9
12,1,22,0,6,1,4,5,93,11
12,1,18,1,6,1,4,5,90,11
12,1,13,1,3,0,4,5,90,11
12,1,13,1,6,1,4,5,93,11
12,1,19,1,3,0,4,5,93,11
12,1,18,1,5,1,4,5,77,11
1,1,13,1,5,1,1,5,104,11
1,1,20,1,5,1,1,5,77,11
1,1,16,1,3,0,1,5,104,11
1,1,13,1,4,0,1,5,93,11
1,1,18,1,5,1,1,5,104,11
1,1,11,1,0,0,1,5,104,11
1,1,11,1,2,0,1,5,93,11
1,1,7,1,3,0,1,5,104,11
1,1,10,1,5,1,1,5,93,11
1,1,1,0,1,0,1,5,129,11
1,1,16,1,2,0,1,5,77,11
1,1,18,1,2,0,1,5,77,9
1,1,7,1,3,0,1,5,104,11
1,1,14,1,4,0,1,5,58,11
1,1,10,1,6,1,1,5,77,11
1,1,18,1,5,1,1,5,93,11
1,1,14,1,6,1,1,5,104,11
2,1,16,1,0,0,1,5,93,11
2,1,10,1,2,0,1,5,93,11
2,1,11,1,3,0,1,5,93,11
2,1,11,1,1,0,1,5,77,11
2,1,14,1,5,1,1,5,58,9
2,1,11,1,5,1,1,5,77,9
2,1,10,1,5,1,1,5,90,11
2,1,13,1,6,1,1,5,93,11
2,1,19,1,2,0,1,5,104,11
2,1,16,1,2,0,1,5,93,11
2,1,15,1,3,0,1,5,93,11
2,1,13,1,4,0,1,5,93,8
2,1,16,1,0,0,1,5,21,11
2,1,13,1,4,0,1,5,104,9
2,1,8,1,0,0,1,5,90,11
3,2,14,1,1,0,1,5,3,9
3,2,9,1,5,1,1,5,67,11
3,2,14,1,4,0,1,5,93,11
3,2,14,1,1,0,1,5,129,11
3,2,4,0,4,0,1,5,40,11
3,2,13,1,4,0,1,5,104,11
3,2,21,0,0,0,1,5,93,11
3,2,12,1,2,0,1,5,129,11
3,2,21,0,4,0,1,5,77,11
3,2,23,0,5,1,1,5,27,11
3,2,23,0,5,1,1,5,27,11
3,2,21,0,1,0,1,5,93,11
3,2,21,0,1,0,1,5,93,11
3,2,13,1,2,0,1,5,49,11
4,2,13,1,4,0,2,5,77,11
4,2,9,1,5,1,2,5,93,11
4,2,12,1,3,0,2,5,93,11
4,2,21,0,5,1,2,5,3,11
4,2,15,1,5,1,2,5,3,11
4,2,8,1,1,0,2,5,93,11
4,2,5,0,1,0,2,5,93,11
4,2,11,1,5,1,2,5,93,11
4,2,20,1,6,1,2,5,93,11
4,2,11,1,6,1,2,5,93,11
4,2,18,1,0,0,2,5,93,11
4,2,14,1,1,0,2,5,93,11
4,2,15,1,4,0,2,5,93,11
4,2,7,1,5,1,2,5,93,11
4,2,10,1,5,1,2,5,93,11
4,2,13,1,6,1,2,5,93,11
4,2,13,1,0,0,2,5,93,11
4,2,13,1,2,0,2,5,93,11
4,2,10,1,5,1,2,5,93,11
5,2,11,1,6,1,2,5,93,11
5,2,14,1,6,1,2,5,93,11
5,2,13,1,6,1,2,5,93,11
5,2,7,1,4,0,2,5,93,11
5,2,11,1,5,1,2,5,93,11
5,2,15,1,5,1,2,5,93,11
5,2,8,1,6,1,2,5,93,11
5,2,14,1,6,1,2,5,93,11
5,2,14,1,0,0,2,5,93,11
5,2,10,1,4,0,2,5,93,11
5,2,10,1,4,0,2,5,93,11
5,2,7,1,5,1,2,5,93,11
5,2,13,1,1,0,2,5,93,11
5,2,19,1,2,0,2,5,93,11
5,2,8,1,5,1,2,5,93,11
5,2,10,1,6,1,2,5,93,11
5,2,18,1,2,0,2,5,93,11
5,2,1,0,3,0,2,5,93,11
5,2,9,1,5,1,2,5,93,11
5,2,18,1,5,1,2,5,93,11
5,2,11,1,6,1,2,5,93,11
6,3,0,0,2,0,2,5,93,11
6,3,15,1,2,0,2,5,93,11
6,3,16,1,2,0,2,5,93,11
6,3,11,1,6,1,2,5,93,11
6,3,5,0,6,1,2,5,93,11
6,3,8,1,4,0,2,5,93,11
6,3,1,0,1,0,2,5,93,11
6,3,17,1,1,0,2,5,93,11
6,3,12,1,2,0,2,5,93,11
6,3,22,0,0,0,2,5,93,11
7,3,11,1,4,0,3,5,93,9
7,3,17,1,5,1,3,5,93,11
7,3,17,1,6,1,3,5,3,11
7,3,0,0,2,0,3,5,93,11
7,3,1,0,0,0,3,5,104,11
7,3,10,1,1,0,3,5,93,11
7,3,14,1,2,0,3,5,77,11
7,3,14,1,2,0,3,5,93,11
7,3,14,1,3,0,3,5,93,11
7,3,22,0,6,1,3,5,93,11
7,3,18,1,6,1,3,5,3,11
7,3,11,1,6,1,3,5,93,11
7,3,8,1,0,0,3,5,93,9
7,3,0,0,3,0,3,5,104,11
7,3,16,1,3,0,3,5,39,11
7,3,8,1,5,1,3,5,3,11
7,3,5,0,6,1,3,5,69,11
7,3,19,1,6,1,3,5,93,11
7,3,12,1,0,0,3,5,40,11
7,3,19,1,0,0,3,5,77,11
7,3,10,1,1,0,3,5,67,11
7,3,4,0,4,0,3,5,132,11
7,3,12,1,6,1,3,5,132,11
8,3,14,1,1,0,3,5,93,11
8,3,8,1,2,0,3,5,132,11
8,3,14,1,3,0,3,5,132,11
8,3,14,1,4,0,3,5,104,11
8,3,12,1,4,0,3,5,40,11
8,3,12,1,5,1,3,5,122,11
8,3,0,0,5,1,3,5,93,11
8,3,7,1,1,0,3,5,93,11
8,3,23,0,3,0,3,5,13,9
8,3,20,1,0,0,3,5,104,11
8,3,15,1,0,0,3,5,93,11
8,3,8,1,1,0,3,5,93,11
8,3,6,0,2,0,3,5,132,11
8,3,5,0,5,1,3,5,104,11
8,3,18,1,0,0,3,5,93,11
8,3,13,1,2,0,3,5,93,11
8,3,12,1,2,0,3,5,93,11
8,3,8,1,0,0,3,5,36,9
9,4,12,1,3,0,3,5,40,11
9,4,20,1,1,0,3,5,132,11
9,4,21,0,1,0,3,5,36,9
9,4,9,1,5,1,3,5,77,11
9,4,10,1,5,1,3,5,132,11
9,4,7,1,2,0,3,5,93,11
10,4,20,1,5,1,4,5,132,11
10,4,19,1,5,1,4,5,93,11
10,4,12,1,5,1,4,5,104,11
10,4,14,1,0,0,4,5,93,11
10,4,14,1,2,0,4,5,93,11
10,4,7,1,2,0,4,5,93,11
10,4,20,1,3,0,4,5,93,11
10,4,10,1,3,0,4,5,93,11
10,4,22,0,2,0,4,5,21,11
10,4,14,1,2,0,4,5,93,11
10,4,19,1,2,0,4,5,93,11
10,4,15,1,6,1,4,5,93,11
10,4,12,1,5,1,4,5,77,11
11,4,14,1,2,0,4,5,93,11
11,4,19,1,2,0,4,5,93,11
11,4,11,1,3,0,4,5,93,11
11,4,17,1,6,1,4,5,93,11
11,4,21,0,4,0,4,5,132,11
11,4,11,1,6,1,4,5,93,11
11,4,12,1,4,0,4,5,93,11
11,4,11,1,6,1,4,5,104,11
11,4,8,1,1,0,4,5,77,11
11,4,15,1,3,0,4,5,93,11
11,4,12,1,4,0,4,5,93,11
11,4,14,1,5,1,4,5,93,11
11,4,18,1,1,0,4,5,77,11
12,1,15,1,4,0,4,5,93,11
12,1,14,1,5,1,4,5,129,11
12,1,13,1,1,0,4,5,104,11
12,1,14,1,1,0,4,5,77,11
12,1,0,0,4,0,4,5,40,11
12,1,20,1,5,1,4,5,90,11
12,1,11,1,6,1,4,5,93,11
12,1,20,1,0,0,4,5,104,11
12,1,12,1,5,1,4,5,77,11
12,1,11,1,6,1,4,5,93,11
12,1,14,1,3,0,4,5,93,11
12,1,23,0,4,0,4,5,77,11
12,1,8,1,5,1,4,5,77,11
12,1,13,1,0,0,4,5,93,11
1,1,0,0,4,0,1,42,100,11
1,1,15,1,4,0,1,42,67,11
1,1,10,1,5,1,1,42,77,9
1,1,12,1,5,1,1,42,104,11
1,1,13,1,5,1,1,42,40,11
1,1,17,1,5,1,1,42,104,11
1,1,13,1,6,1,1,42,100,11
1,1,16,1,4,0,1,42,86,11
1,1,20,1,4,0,1,42,67,11
1,1,8,1,2,0,1,42,17,11
1,1,21,0,5,1,1,42,100,11
2,1,3,0,0,0,1,42,77,8
2,1,18,1,5,1,1,42,40,9
2,1,15,1,1,0,1,42,100,11
2,1,19,1,5,1,1,42,67,11
2,1,12,1,3,0,1,42,67,11
3,2,21,0,2,0,1,42,100,11
3,2,21,0,4,0,1,42,66,11
3,2,0,0,6,1,1,42,104,11
3,2,15,1,3,0,1,42,60,11
3,2,22,0,1,0,1,42,67,11
3,2,21,0,2,0,1,42,100,11
3,2,21,0,4,0,1,42,67,11
3,2,8,1,6,1,1,42,67,11
3,2,0,0,4,0,1,42,100,11
3,2,0,0,5,1,1,42,100,11
3,2,1,0,5,1,1,42,100,11
3,2,10,1,2,0,1,42,49,11
4,2,23,0,4,0,2,42,100,11
4,2,16,1,1,0,2,42,93,11
4,2,17,1,4,0,2,42,100,11
4,2,4,0,5,1,2,42,100,11
4,2,22,0,5,1,2,42,100,11
4,2,22,0,5,1,2,42,100,11
4,2,18,1,6,1,2,42,81,11
4,2,23,0,6,1,2,42,100,11
4,2,0,0,0,0,2,42,100,11
4,2,1,0,5,1,2,42,102,11
4,2,0,0,6,1,2,42,100,11
4,2,13,1,6,1,2,42,93,11
4,2,13,1,0,0,2,42,111,11
4,2,2,0,6,1,2,42,100,11
4,2,0,0,0,0,2,42,100,11
4,2,13,1,0,0,2,42,21,11
4,2,23,0,0,0,2,42,100,11
4,2,16,1,3,0,2,42,21,11
4,2,18,1,4,0,2,42,93,11
5,2,1,0,0,0,2,42,48,8
5,2,16,1,5,1,2,42,93,11
5,2,11,1,1,0,2,42,67,9
5,2,12,1,1,0,2,42,93,11
6,3,20,1,4,0,2,42,83,11
6,3,10,1,2,0,2,42,93,11
6,3,11,1,2,0,2,42,112,11
6,3,18,1,2,0,2,42,100,11
6,3,4,0,5,1,2,42,100,11
6,3,0,0,1,0,2,42,93,11
6,3,0,0,2,0,2,42,104,11
7,3,20,1,6,1,3,42,93,11
7,3,13,1,1,0,3,42,93,11
7,3,20,1,3,0,3,42,21,11
7,3,0,0,4,0,3,42,93,9
7,3,16,1,6,1,3,42,100,11
7,3,12,1,0,0,3,42,104,11
7,3,18,1,3,0,3,42,130,11
7,3,16,1,3,0,3,42,129,11
7,3,18,1,6,1,3,42,93,11
7,3,19,1,2,0,3,42,93,11
7,3,4,0,3,0,3,42,93,11
7,3,16,1,3,0,3,42,100,11
7,3,21,0,6,1,3,42,93,11
8,3,20,1,2,0,3,42,67,11
8,3,12,1,4,0,3,42,93,11
8,3,1,0,5,1,3,42,100,11
8,3,17,1,6,1,3,42,100,11
8,3,2,0,4,0,3,42,100,11
8,3,1,0,5,1,3,42,100,11
8,3,1,0,5,1,3,42,100,11
8,3,12,1,6,1,3,42,93,11
8,3,15,1,3,0,3,42,100,11
8,3,13,1,1,0,3,42,77,11
8,3,13,1,4,0,3,42,104,11
8,3,20,1,4,0,3,42,104,11
8,3,16,1,4,0,3,42,93,11
8,3,14,1,6,1,3,42,93,11
8,3,18,1,0,0,3,42,104,11
9,4,5,0,4,0,3,42,111,11
9,4,21,0,4,0,3,42,100,11
9,4,0,0,5,1,3,42,100,11
9,4,21,0,5,1,3,42,77,9
9,4,13,1,0,0,3,42,104,11
9,4,18,1,0,0,3,42,93,11
9,4,1,0,1,0,3,42,104,11
9,4,15,1,3,0,3,42,93,11
9,4,7,1,5,1,3,42,93,11
9,4,11,1,5,1,3,42,49,11
9,4,20,1,6,1,3,42,81,11
9,4,12,1,0,0,3,42,93,11
9,4,12,1,0,0,3,42,104,11
9,4,15,1,4,0,3,42,100,11
9,4,20,1,0,0,3,42,49,11
9,4,10,1,1,0,3,42,100,11
9,4,15,1,3,0,3,42,40,9
10,4,11,1,5,1,4,42,93,9
10,4,22,0,6,1,4,42,100,11
10,4,23,0,6,1,4,42,100,11
10,4,21,0,1,0,4,42,93,11
10,4,5,0,4,0,4,42,67,11
10,4,13,1,6,1,4,42,93,11
10,4,20,1,0,0,4,42,26,11
10,4,10,1,4,0,4,42,59,11
10,4,19,1,4,0,4,42,14,11
10,4,15,1,6,1,4,42,26,9
10,4,11,1,1,0,4,42,26,11
10,4,14,1,1,0,4,42,14,9
10,4,20,1,3,0,4,42,66,11
10,4,11,1,4,0,4,42,77,11
10,4,0,0,0,0,4,42,100,11
10,4,0,0,0,0,4,42,100,11
11,4,7,1,4,0,4,42,132,11
11,4,10,1,6,1,4,42,26,11
11,4,21,0,1,0,4,42,112,11
11,4,12,1,2,0,4,42,112,11
11,4,9,1,6,1,4,42,77,9
11,4,2,0,3,0,4,42,100,11
12,1,13,1,0,0,4,42,100,11
12,1,5,0,1,0,4,42,100,11
12,1,19,1,4,0,4,42,59,11
12,1,13,1,5,1,4,42,67,11
12,1,20,1,2,0,4,42,77,9
12,1,14,1,5,1,4,42,104,11
12,1,19,1,1,0,4,42,21,11
12,1,19,1,1,0,4,42,100,11
12,1,23,0,1,0,4,42,77,11
12,1,22,0,4,0,4,42,67,11
12,1,5,0,5,1,4,42,67,11
12,1,17,1,0,0,4,42,67,11
12,1,2,0,1,0,4,42,100,11
12,1,4,0,1,0,4,42,100,11
12,1,7,1,3,0,4,42,93,11
12,1,8,1,3,0,4,42,102,11
12,1,11,1,5,1,4,42,100,11
12,1,19,1,5,1,4,42,77,9
1,1,16,1,5,1,1,42,21,11
1,1,2,0,6,1,1,42,112,11
2,1,13,1,2,0,1,42,77,11
3,2,12,1,4,0,1,42,112,11
3,2,14,1,6,1,1,42,104,11
4,2,20,1,5,1,2,42,112,11
4,2,10,1,1,0,2,42,112,11
5,2,4,0,4,0,2,42,112,11
6,3,9,1,0,0,2,42,21,11
6,3,16,1,3,0,2,42,83,11
7,3,3,0,6,1,3,42,100,11
7,3,22,0,2,0,3,42,59,11
7,3,12,1,6,1,3,42,28,11
8,3,2,0,1,0,3,42,77,11
9,4,8,1,1,0,3,42,112,11
9,4,1,0,0,0,3,42,100,11
10,4,10,1,5,1,4,42,26,11
10,4,16,1,3,0,4,42,93,11
10,4,23,0,6,1,4,42,77,11
11,4,14,1,0,0,4,42,3,9
11,4,15,1,1,0,4,42,132,11
11,4,6,0,0,0,4,42,100,11
11,4,16,1,4,0,4,42,21,11
12,1,12,1,6,1,4,42,93,11
12,1,12,1,3,0,4,42,13,11
1,1,16,1,3,0,1,42,77,9
1,1,13,1,1,0,1,42,104,11
1,1,14,1,4,0,1,42,100,11
2,1,14,1,1,0,1,42,21,11
2,1,21,0,1,0,1,42,81,11
2,1,12,1,3,0,1,42,77,11
2,1,18,1,1,0,1,42,93,11
3,2,8,1,0,0,1,42,40,9
3,2,14,1,1,0,1,42,104,11
6,3,6,0,3,0,2,42,26,11
6,3,19,1,2,0,2,42,77,11
8,3,17,1,5,1,3,42,104,11
8,3,11,1,1,0,3,42,93,9
8,3,9,1,6,1,3,42,13,11
9,4,14,1,3,0,3,42,93,11
9,4,10,1,2,0,3,42,93,11
10,4,2,0,6,1,4,42,26,11
10,4,9,1,2,0,4,42,66,11
10,4,14,1,0,0,4,42,26,11
11,4,0,0,6,1,4,42,26,11
11,4,23,0,0,0,4,42,13,9
12,1,6,0,5,1,4,42,112,11
6,3,5,0,2,0,2,42,14,11
6,3,0,0,6,1,2,42,21,11
7,3,14,1,1,0,3,42,47,11
10,4,22,0,3,0,4,42,130,11
10,4,20,1,0,0,4,42,93,11
11,4,15,1,2,0,4,42,14,11
12,1,5,0,4,0,4,42,14,11
1,1,21,0,2,0,1,21,90,11
1,1,16,1,5,1,1,21,90,11
1,1,7,1,3,0,1,21,74,9
1,1,18,1,5,1,1,21,130,11
1,1,22,0,0,0,1,21,104,11
1,1,2,0,5,1,1,21,71,11
1,1,16,1,2,0,1,21,129,11
2,1,11,1,5,1,1,21,77,9
3,2,3,0,3,0,1,21,77,9
3,2,13,1,5,1,1,21,66,11
3,2,7,1,2,0,1,21,74,11
4,2,19,1,0,0,2,21,129,11
4,2,6,0,2,0,2,21,102,11
4,2,22,0,3,0,2,21,104,11
4,2,16,1,2,0,2,21,86,11
4,2,15,1,1,0,2,21,106,9
4,2,19,1,1,0,2,21,104,11
4,2,14,1,0,0,2,21,3,9
5,2,19,1,6,1,2,21,74,11
5,2,13,1,6,1,2,21,49,11
5,2,15,1,6,1,2,21,77,9
5,2,20,1,1,0,2,21,67,11
5,2,14,1,0,0,2,21,67,9
5,2,0,0,1,0,2,21,74,9
5,2,18,1,3,0,2,21,77,11
5,2,3,0,0,0,2,21,74,11
5,2,12,1,1,0,2,21,90,11
6,3,13,1,3,0,2,21,19,9
6,3,13,1,4,0,2,21,129,11
6,3,12,1,6,1,2,21,104,11
6,3,5,0,6,1,2,21,49,11
6,3,14,1,6,1,2,21,14,11
6,3,12,1,3,0,2,21,104,11
7,3,11,1,4,0,3,21,129,11
7,3,14,1,2,0,3,21,132,9
7,3,17,1,5,1,3,21,129,11
7,3,15,1,0,0,3,21,104,11
7,3,6,0,1,0,3,21,74,11
7,3,9,1,3,0,3,21,28,11
7,3,15,1,4,0,3,21,40,9
7,3,17,1,4,0,3,21,104,11
8,3,16,1,4,0,3,21,28,11
8,3,10,1,6,1,3,21,104,11
8,3,18,1,0,0,3,21,104,11
8,3,17,1,6,1,3,21,9,11
8,3,21,0,2,0,3,21,36,11
8,3,17,1,0,0,3,21,93,9
8,3,17,1,3,0,3,21,28,11
8,3,15,1,4,0,3,21,129,11
8,3,18,1,6,1,3,21,74,11
8,3,16,1,0,0,3,21,28,11
8,3,19,1,2,0,3,21,104,11
9,4,11,1,0,0,3,21,129,11
9,4,22,0,3,0,3,21,104,11
9,4,13,1,2,0,3,21,28,11
9,4,0,0,3,0,3,21,111,8
9,4,17,1,2,0,3,21,129,11
10,4,4,0,5,1,4,21,100,11
10,4,10,1,0,0,4,21,67,11
10,4,7,1,5,1,4,21,99,11
11,4,17,1,2,0,4,21,58,11
11,4,22,0,3,0,4,21,129,11
11,4,18,1,1,0,4,21,28,11
11,4,23,0,0,0,4,21,100,11
11,4,19,1,2,0,4,21,67,11
11,4,14,1,0,0,4,21,74,11
12,1,4,0,3,0,4,21,77,11
12,1,22,0,4,0,4,21,73,11
12,1,18,1,5,1,4,21,90,11
12,1,13,1,6,1,4,21,67,11
12,1,14,1,1,0,4,21,74,9
12,1,23,0,2,0,4,21,90,11
12,1,18,1,5,1,4,21,93,11
12,1,12,1,0,0,4,21,93,11
4,2,18,1,4,0,2,21,90,11
7,3,21,0,5,1,3,21,74,11
8,3,10,1,5,1,3,21,93,9
10,4,0,0,0,0,4,21,73,9
10,4,2,0,6,1,4,21,73,11
11,4,20,1,4,0,4,21,40,9
11,4,7,1,1,0,4,21,111,8
1,1,17,1,4,0,1,21,77,11
1,1,14,1,6,1,1,21,77,11
1,1,19,1,2,0,1,21,132,11
1,1,22,0,3,0,1,21,90,11
1,1,17,1,5,1,1,21,90,11
1,1,13,1,5,1,1,21,77,11
1,1,21,0,3,0,1,21,40,11
1,1,14,1,3,0,1,21,67,9
1,1,14,1,3,0,1,21,67,9
1,1,21,0,5,1,1,21,67,11
3,2,9,1,5,1,1,21,77,11
3,2,13,1,0,0,1,21,77,11
3,2,8,1,3,0,1,21,74,11
4,2,21,0,3,0,2,21,131,11
4,2,13,1,3,0,2,21,129,11
4,2,11,1,3,0,2,21,93,11
4,2,20,1,1,0,2,21,104,11
4,2,17,1,5,1,2,21,36,11
4,2,7,1,2,0,2,21,132,11
6,3,20,1,5,1,2,21,93,11
6,3,18,1,2,0,2,21,13,9
6,3,7,1,3,0,2,21,74,11
6,3,13,1,4,0,2,21,40,11
6,3,9,1,6,1,2,21,74,11
7,3,10,1,0,0,3,21,93,11
7,3,13,1,2,0,3,21,58,11
7,3,22,0,5,1,3,21,86,9
8,3,11,1,3,0,3,21,70,9
8,3,14,1,3,0,3,21,67,11
8,3,17,1,4,0,3,21,36,9
8,3,17,1,5,1,3,21,93,11
8,3,16,1,1,0,3,21,28,11
8,3,13,1,0,0,3,21,93,11
8,3,14,1,2,0,3,21,93,11
8,3,23,0,5,1,3,21,77,11
9,4,15,1,4,0,3,21,93,11
9,4,0,0,6,1,3,21,111,8
9,4,17,1,4,0,3,21,74,11
10,4,12,1,5,1,4,21,104,11
10,4,17,1,0,0,4,21,21,11
10,4,3,0,6,1,4,21,67,11
10,4,21,0,3,0,4,21,77,11
10,4,17,1,0,0,4,21,77,11
10,4,17,1,0,0,4,21,104,11
11,4,16,1,1,0,4,21,93,11
11,4,17,1,2,0,4,21,104,11
11,4,0,0,1,0,4,21,21,9
11,4,18,1,5,1,4,21,93,11
11,4,14,1,2,0,4,21,74,11
12,1,14,1,1,0,4,21,77,11
12,1,17,1,1,0,4,21,77,11
12,1,12,1,4,0,4,21,77,11
12,1,15,1,5,1,4,21,67,11
1,1,8,1,3,0,1,21,109,11
2,1,21,0,2,0,1,21,132,11
2,1,21,0,2,0,1,21,132,11
3,2,14,1,1,0,1,21,93,11
3,2,11,1,3,0,1,21,132,11
3,2,4,0,5,1,1,21,132,11
3,2,17,1,6,1,1,21,93,11
4,2,22,0,3,0,2,21,66,11
5,2,0,0,0,0,2,21,90,11
5,2,20,1,2,0,2,21,13,11
5,2,17,1,3,0,2,21,112,11
7,3,14,1,0,0,3,21,21,9
7,3,5,0,4,0,3,21,77,11
7,3,15,1,2,0,3,21,132,11
7,3,18,1,3,0,3,21,93,11
7,3,20,1,6,1,3,21,93,11
7,3,9,1,4,0,3,21,13,9
8,3,14,1,6,1,3,21,90,11
8,3,17,1,0,0,3,21,93,11
9,4,19,1,6,1,3,21,90,11
10,4,13,1,6,1,4,21,93,11
10,4,5,0,5,1,4,21,53,11
10,4,17,1,1,0,4,21,93,11
11,4,16,1,1,0,4,21,21,9
11,4,6,0,4,0,4,21,93,11
11,4,11,1,1,0,4,21,90,11
12,1,19,1,2,0,4,21,132,11
12,1,14,1,5,1,4,21,90,11
12,1,16,1,5,1,4,21,93,8
12,1,18,1,2,0,4,21,93,11
12,1,15,1,3,0,4,21,100,11
12,1,10,1,6,1,4,21,97,11
12,1,14,1,4,0,4,21,3,11
1,1,17,1,6,1,1,9,21,11
1,1,19,1,4,0,1,9,77,11
1,1,12,1,5,1,1,9,77,11
1,1,13,1,2,0,1,9,90,11
1,1,11,1,3,0,1,9,77,11
1,1,6,0,1,0,1,9,21,11
1,1,1,0,6,1,1,9,90,11
2,1,18,1,3,0,1,9,59,11
2,1,19,1,5,1,1,9,77,11
2,1,17,1,0,0,1,9,77,11
3,2,8,1,6,1,1,9,77,11
3,2,17,1,6,1,1,9,74,11
3,2,4,0,2,0,1,9,49,11
4,2,17,1,5,1,2,9,99,8
4,2,1,0,0,0,2,9,77,11
4,2,6,0,2,0,2,9,40,9
5,2,17,1,0,0,2,9,112,11
6,3,21,0,2,0,2,9,81,11
6,3,19,1,0,0,2,9,104,11
6,3,23,0,1,0,2,9,67,11
6,3,20,1,2,0,2,9,93,11
6,3,14,1,4,0,2,9,24,11
6,3,10,1,5,1,2,9,77,11
7,3,5,0,5,1,3,9,47,9
7,3,5,0,3,0,3,9,104,11
7,3,15,1,3,0,3,9,77,11
7,3,18,1,1,0,3,9,104,11
7,3,16,1,3,0,3,9,21,11
7,3,11,1,0,0,3,9,93,11
7,3,9,1,3,0,3,9,93,11
7,3,1,0,5,1,3,9,93,9
8,3,1,0,4,0,3,9,78,11
8,3,5,0,6,1,3,9,77,11
8,3,5,0,6,1,3,9,77,11
8,3,16,1,0,0,3,9,93,11
8,3,18,1,0,0,3,9,93,11
8,3,17,1,3,0,3,9,93,11
8,3,12,1,6,1,3,9,14,11
9,4,1,0,3,0,3,9,104,11
9,4,4,0,3,0,3,9,104,11
9,4,12,1,0,0,3,9,21,11
9,4,18,1,4,0,3,9,93,11
9,4,0,0,5,1,3,9,93,11
9,4,1,0,5,1,3,9,104,11
9,4,11,1,5,1,3,9,77,11
9,4,17,1,5,1,3,9,21,11
9,4,19,1,6,1,3,9,78,11
9,4,13,1,0,0,3,9,93,11
9,4,19,1,2,0,3,9,104,11
10,4,19,1,5,1,4,9,104,11
10,4,11,1,1,0,4,9,67,11
10,4,14,1,0,0,4,9,67,11
11,4,23,0,4,0,4,9,90,11
11,4,23,0,4,0,4,9,90,11
11,4,2,0,5,1,4,9,90,11
11,4,9,1,6,1,4,9,21,11
11,4,11,1,1,0,4,9,77,11
11,4,14,1,1,0,4,9,21,11
11,4,23,0,3,0,4,9,77,9
11,4,0,0,5,1,4,9,67,11
12,1,11,1,3,0,4,9,77,9
12,1,14,1,4,0,4,9,77,11
12,1,13,1,1,0,4,9,67,11
12,1,16,1,1,0,4,9,132,11
12,1,15,1,3,0,4,9,40,11
12,1,7,1,5,1,4,9,77,8
12,1,12,1,6,1,4,9,77,9
12,1,12,1,3,0,4,9,67,11
12,1,20,1,4,0,4,9,86,11
12,1,23,0,0,0,4,9,21,11
12,1,5,0,2,0,4,9,90,11
12,1,9,1,3,0,4,9,77,11
12,1,12,1,3,0,4,9,93,11
12,1,17,1,4,0,4,9,13,11
4,2,13,1,6,1,2,9,40,9
4,2,13,1,0,0,2,9,77,11
10,4,12,1,5,1,4,9,93,11
10,4,14,1,0,0,4,9,13,11
10,4,18,1,1,0,4,9,77,11
10,4,15,1,0,0,4,9,93,11
11,4,9,1,2,0,4,9,112,11
11,4,20,1,4,0,4,9,77,11
5,2,13,1,2,0,2,9,8,11
9,4,12,1,6,1,3,9,13,11
10,4,13,1,6,1,4,9,93,11
1,1,4,0,5,1,1,37,40,9
1,1,5,0,5,1,1,37,93,11
1,1,9,1,5,1,1,37,93,11
1,1,2,0,6,1,1,37,3,11
1,1,16,1,6,1,1,37,49,11
1,1,21,0,0,0,1,37,100,11
1,1,18,1,4,0,1,37,67,11
1,1,22,0,5,1,1,37,100,11
1,1,16,1,6,1,1,37,77,11
1,1,19,1,6,1,1,37,77,11
1,1,13,1,0,0,1,37,100,11
1,1,20,1,4,0,1,37,77,11
1,1,14,1,5,1,1,37,67,11
1,1,11,1,0,0,1,37,100,11
1,1,21,0,1,0,1,37,77,11
1,1,17,1,4,0,1,37,67,11
1,1,18,1,6,1,1,37,104,11
2,1,7,1,4,0,1,37,40,11
2,1,9,1,4,0,1,37,77,11
2,1,20,1,4,0,1,37,67,11
2,1,17,1,6,1,1,37,77,11
2,1,6,0,0,0,1,37,104,11
2,1,22,0,3,0,1,37,77,11
2,1,17,1,4,0,1,37,67,11
2,1,14,1,4,0,1,37,78,11
3,2,14,1,3,0,1,37,77,11
3,2,15,1,0,0,1,37,40,11
3,2,3,0,2,0,1,37,67,11
3,2,18,1,5,1,1,37,67,11
3,2,16,1,2,0,1,37,100,11
3,2,22,0,2,0,1,37,67,11
3,2,22,0,3,0,1,37,77,11
3,2,20,1,5,1,1,37,77,11
3,2,18,1,0,0,1,37,67,11
3,2,19,1,5,1,1,37,104,11
3,2,11,1,6,1,1,37,49,11
3,2,19,1,6,1,1,37,40,9
4,2,2,0,6,1,2,37,67,11
4,2,16,1,2,0,2,37,104,11
4,2,22,0,6,1,2,37,40,11
5,2,19,1,6,1,2,37,77,9
5,2,14,1,4,0,2,37,77,11
5,2,11,1,5,1,2,37,128,11
5,2,12,1,0,0,2,37,93,11
5,2,23,0,1,0,2,37,77,11
6,3,18,1,3,0,2,37,40,11
6,3,4,0,3,0,2,37,104,11
6,3,22,0,3,0,2,37,93,11
6,3,11,1,4,0,2,37,93,11
6,3,19,1,4,0,2,37,21,11
6,3,15,1,5,1,2,37,93,11
6,3,15,1,0,0,2,37,100,11
6,3,17,1,0,0,2,37,93,11
6,3,1,0,1,0,2,37,77,11
6,3,11,1,1,0,2,37,93,11
6,3,14,1,1,0,2,37,100,11
6,3,19,1,2,0,2,37,104,11
6,3,14,1,3,0,2,37,93,11
6,3,16,1,3,0,2,37,93,11
6,3,17,1,3,0,2,37,93,11
6,3,19,1,4,0,2,37,93,9
6,3,5,0,5,1,2,37,100,11
6,3,13,1,1,0,2,37,47,8
6,3,12,1,2,0,2,37,93,11
7,3,7,1,5,1,3,37,66,9
7,3,4,0,0,0,3,37,77,11
7,3,11,1,0,0,3,37,104,11
7,3,9,1,2,0,3,37,93,11
7,3,11,1,4,0,3,37,14,11
7,3,18,1,4,0,3,37,77,11
7,3,18,1,5,1,3,37,93,11
7,3,5,0,6,1,3,37,78,11
7,3,18,1,1,0,3,37,93,11
7,3,20,1,1,0,3,37,104,11
7,3,20,1,3,0,3,37,104,11
7,3,19,1,4,0,3,37,93,11
7,3,19,1,6,1,3,37,112,11
7,3,11,1,0,0,3,37,104,11
7,3,18,1,0,0,3,37,110,11
7,3,13,1,2,0,3,37,93,11
7,3,11,1,3,0,3,37,93,11
7,3,18,1,3,0,3,37,104,11
7,3,11,1,4,0,3,37,93,11
7,3,16,1,4,0,3,37,104,11
7,3,16,1,5,1,3,37,104,11
7,3,20,1,6,1,3,37,93,11
7,3,18,1,1,0,3,37,93,11
7,3,21,0,1,0,3,37,93,11
8,3,18,1,0,0,3,37,104,11
8,3,20,1,0,0,3,37,93,11
8,3,10,1,0,0,3,37,67,11
8,3,10,1,1,0,3,37,93,11
8,3,12,1,1,0,3,37,21,11
8,3,1,0,2,0,3,37,78,11
8,3,16,1,2,0,3,37,104,11
8,3,13,1,3,0,3,37,93,11
8,3,14,1,4,0,3,37,104,11
8,3,18,1,4,0,3,37,93,11
8,3,13,1,6,1,3,37,93,11
8,3,19,1,0,0,3,37,104,11
8,3,13,1,2,0,3,37,90,11
8,3,16,1,2,0,3,37,93,11
8,3,10,1,3,0,3,37,93,11
8,3,12,1,5,1,3,37,93,11
8,3,22,0,5,1,3,37,93,11
8,3,12,1,6,1,3,37,104,11
8,3,13,1,6,1,3,37,104,11
8,3,17,1,0,0,3,37,93,11
8,3,18,1,0,0,3,37,93,11
8,3,17,1,2,0,3,37,93,11
8,3,15,1,4,0,3,37,93,11
8,3,19,1,4,0,3,37,93,11
8,3,5,0,5,1,3,37,21,11
8,3,12,1,5,1,3,37,93,11
8,3,17,1,0,0,3,37,93,11
8,3,21,0,0,0,3,37,93,11
8,3,22,0,0,0,3,37,21,11
8,3,10,1,1,0,3,37,104,11
8,3,1,0,3,0,3,37,111,11
8,3,13,1,3,0,3,37,104,11
8,3,18,1,5,1,3,37,104,11
8,3,21,0,5,1,3,37,93,11
8,3,10,1,0,0,3,37,93,11
8,3,19,1,1,0,3,37,93,11
8,3,16,1,2,0,3,37,93,11
9,4,19,1,3,0,3,37,111,11
9,4,15,1,4,0,3,37,104,11
9,4,15,1,5,1,3,37,104,11
9,4,10,1,2,0,3,37,93,11
9,4,19,1,4,0,3,37,93,8
9,4,10,1,5,1,3,37,77,9
9,4,16,1,5,1,3,37,93,11
9,4,1,0,6,1,3,37,104,11
9,4,11,1,6,1,3,37,93,11
9,4,17,1,6,1,3,37,93,11
9,4,14,1,0,0,3,37,100,11
9,4,2,0,2,0,3,37,78,11
9,4,13,1,1,0,3,37,93,11
9,4,15,1,1,0,3,37,110,11
10,4,13,1,3,0,4,37,93,11
10,4,13,1,0,0,4,37,104,11
10,4,14,1,0,0,4,37,104,11
10,4,15,1,0,0,4,37,93,9
10,4,20,1,3,0,4,37,111,9
10,4,17,1,6,1,4,37,104,11
10,4,18,1,4,0,4,37,104,11
10,4,12,1,3,0,4,37,104,11
10,4,14,1,3,0,4,37,40,11
10,4,19,1,6,1,4,37,67,11
10,4,19,1,0,0,4,37,93,11
11,4,19,1,5,1,4,37,121,11
11,4,19,1,5,1,4,37,100,11
11,4,19,1,5,1,4,37,100,11
11,4,0,0,6,1,4,37,102,11
11,4,23,0,4,0,4,37,21,11
11,4,2,0,5,1,4,37,109,11
11,4,22,0,6,1,4,37,69,11
11,4,19,1,4,0,4,37,67,11
11,4,21,0,5,1,4,37,40,11
11,4,8,1,0,0,4,37,77,11
11,4,10,1,1,0,4,37,40,11
11,4,23,0,1,0,4,37,67,11
11,4,23,0,1,0,4,37,100,11
11,4,9,1,0,0,4,37,21,11
11,4,20,1,1,0,4,37,100,11
11,4,21,0,1,0,4,37,77,11
11,4,19,1,2,0,4,37,67,11
12,1,13,1,3,0,4,37,111,11
12,1,15,1,4,0,4,37,67,11
12,1,18,1,4,0,4,37,58,11
12,1,1,0,0,0,4,37,21,11
12,1,12,1,3,0,4,37,104,11
12,1,2,0,0,0,4,37,14,11
12,1,21,0,0,0,4,37,112,11
12,1,19,1,1,0,4,37,67,11
12,1,12,1,2,0,4,37,104,11
12,1,17,1,2,0,4,37,104,11
12,1,18,1,6,1,4,37,67,11
12,1,10,1,2,0,4,37,40,9
12,1,12,1,2,0,4,37,93,11
12,1,12,1,5,1,4,37,104,11
12,1,17,1,0,0,4,37,93,11
12,1,13,1,1,0,4,37,90,11
12,1,7,1,3,0,4,37,104,11
12,1,10,1,4,0,4,37,104,11
3,2,22,0,1,0,1,37,40,11
5,2,6,0,6,1,2,37,40,11
5,2,12,1,3,0,2,37,21,11
8,3,0,0,6,1,3,37,66,11
8,3,6,0,6,1,3,37,40,9
8,3,9,1,2,0,3,37,21,11
9,4,13,1,5,1,3,37,93,11
10,4,15,1,5,1,4,37,104,11
10,4,7,1,3,0,4,37,14,11
11,4,15,1,5,1,4,37,93,11
12,1,15,1,6,1,4,37,104,11
12,1,14,1,2,0,4,37,21,11
1,1,22,0,4,0,1,37,93,11
3,2,16,1,6,1,1,37,40,11
4,2,16,1,5,1,2,37,21,11
5,2,0,0,1,0,2,37,21,11
5,2,11,1,3,0,2,37,77,11
8,3,15,1,5,1,3,37,89,11
8,3,12,1,3,0,3,37,93,11
8,3,13,1,2,0,3,37,93,11
8,3,7,1,5,1,3,37,47,9
9,4,13,1,1,0,3,37,93,11
9,4,16,1,1,0,3,37,93,11
10,4,13,1,6,1,4,37,93,11
10,4,18,1,5,1,4,37,13,11
11,4,9,1,2,0,4,37,93,11
11,4,11,1,3,0,4,37,3,11
12,1,15,1,4,0,4,37,104,11
12,1,18,1,5,1,4,37,104,11
12,1,13,1,5,1,4,37,93,11
12,1,10,1,4,0,4,37,3,11
1,1,12,1,4,0,1,11,77,9
1,1,22,0,4,0,1,11,90,11
1,1,3,0,2,0,1,11,132,11
1,1,20,1,2,0,1,11,130,11
1,1,19,1,1,0,1,11,40,11
1,1,12,1,4,0,1,11,32,11
2,1,17,1,6,1,1,11,14,9
2,1,18,1,3,0,1,11,77,11
2,1,16,1,5,1,1,11,66,11
2,1,22,0,0,0,1,11,104,11
3,2,11,1,6,1,1,11,93,11
3,2,11,1,0,0,1,11,132,11
3,2,17,1,5,1,1,11,21,11
3,2,4,0,0,0,1,11,77,9
3,2,20,1,0,0,1,11,93,11
5,2,1,0,3,0,2,11,74,9
5,2,23,0,4,0,2,11,13,9
5,2,3,0,6,1,2,11,64,11
5,2,17,1,5,1,2,11,67,11
5,2,10,1,0,0,2,11,113,11
6,3,10,1,5,1,2,11,77,11
6,3,16,1,5,1,2,11,77,9
6,3,22,0,6,1,2,11,49,11
6,3,11,1,5,1,2,11,67,11
6,3,11,1,2,0,2,11,93,11
6,3,16,1,4,0,2,11,104,11
6,3,9,1,3,0,2,11,67,11
7,3,2,0,1,0,3,11,130,11
7,3,14,1,4,0,3,11,93,9
7,3,11,1,1,0,3,11,104,11
8,3,12,1,0,0,3,11,93,11
8,3,15,1,0,0,3,11,104,11
8,3,20,1,4,0,3,11,104,11
8,3,14,1,3,0,3,11,110,11
8,3,22,0,3,0,3,11,112,11
8,3,14,1,5,1,3,11,104,11
8,3,16,1,5,1,3,11,93,11
8,3,16,1,6,1,3,11,93,11
8,3,18,1,2,0,3,11,120,9
8,3,4,0,3,0,3,11,21,11
8,3,16,1,3,0,3,11,65,8
8,3,18,1,3,0,3,11,109,11
8,3,6,0,0,0,3,11,110,11
9,4,19,1,1,0,3,11,93,11
9,4,19,1,6,1,3,11,93,11
9,4,19,1,6,1,3,11,104,11
9,4,8,1,6,1,3,11,26,11
9,4,14,1,1,0,3,11,90,11
9,4,2,0,4,0,3,11,67,11
10,4,14,1,2,0,4,11,13,9
10,4,15,1,2,0,4,11,26,11
10,4,1,0,6,1,4,11,132,11
10,4,7,1,2,0,4,11,21,11
10,4,12,1,3,0,4,11,93,11
10,4,13,1,4,0,4,11,67,11
11,4,13,1,1,0,4,11,93,11
11,4,13,1,2,0,4,11,93,11
11,4,17,1,3,0,4,11,104,11
11,4,4,0,4,0,4,11,74,11
11,4,3,0,2,0,4,11,21,11
11,4,18,1,3,0,4,11,93,11
11,4,0,0,6,1,4,11,86,11
11,4,16,1,1,0,4,11,13,9
12,1,9,1,4,0,4,11,77,11
12,1,15,1,0,0,4,11,53,11
12,1,21,0,1,0,4,11,132,11
12,1,14,1,5,1,4,11,93,9
12,1,21,0,1,0,4,11,9,11
12,1,17,1,2,0,4,11,3,9
12,1,14,1,1,0,4,11,93,11
12,1,5,0,3,0,4,11,14,9
12,1,10,1,3,0,4,11,93,11
12,1,18,1,4,0,4,11,21,11
1,1,9,1,6,1,1,11,86,11
2,1,15,1,3,0,1,11,77,11
3,2,10,1,0,0,1,11,112,11
3,2,6,0,1,0,1,11,77,11
11,4,21,0,4,0,4,11,40,11
1,1,19,1,4,0,1,11,77,8
1,1,12,1,4,0,1,11,26,11
1,1,20,1,5,1,1,11,132,11
1,1,17,1,0,0,1,11,77,8
1,1,10,1,3,0,1,11,132,11
2,1,19,1,2,0,1,11,40,11
2,1,12,1,5,1,1,11,61,8
3,2,19,1,5,1,1,11,132,11
4,2,19,1,5,1,2,11,93,11
5,2,17,1,4,0,2,11,40,11
5,2,20,1,5,1,2,11,26,11
6,3,5,0,2,0,2,11,132,11
6,3,13,1,4,0,2,11,93,11
6,3,19,1,2,0,2,11,60,11
7,3,4,0,0,0,3,11,132,11
7,3,16,1,1,0,3,11,113,11
7,3,14,1,3,0,3,11,132,11
7,3,18,1,0,0,3,11,93,11
8,3,22,0,1,0,3,11,93,11
8,3,11,1,4,0,3,11,93,11
8,3,7,1,2,0,3,11,132,11
8,3,20,1,3,0,3,11,93,11
8,3,20,1,0,0,3,11,93,11
8,3,21,0,2,0,3,11,93,11
9,4,22,0,0,0,3,11,60,11
9,4,14,1,2,0,3,11,93,11
9,4,15,1,6,1,3,11,13,9
9,4,6,0,5,1,3,11,132,11
9,4,14,1,1,0,3,11,21,11
10,4,13,1,6,1,4,11,93,11
10,4,18,1,6,1,4,11,13,9
10,4,18,1,1,0,4,11,104,11
10,4,12,1,5,1,4,11,77,11
10,4,16,1,5,1,4,11,93,11
10,4,3,0,6,1,4,11,93,9
10,4,13,1,6,1,4,11,40,11
10,4,11,1,0,0,4,11,93,11
11,4,11,1,2,0,4,11,104,9
11,4,22,0,2,0,4,11,13,8
11,4,14,1,3,0,4,11,93,11
11,4,12,1,6,1,4,11,77,11
11,4,6,0,5,1,4,11,67,11
11,4,19,1,6,1,4,11,132,11
11,4,11,1,5,1,4,11,132,11
11,4,23,0,5,1,4,11,132,11
12,1,16,1,2,0,4,11,81,11
12,1,11,1,4,0,4,11,132,11
12,1,15,1,6,1,4,11,132,11
12,1,22,0,2,0,4,11,132,11
12,1,9,1,5,1,4,11,40,11
12,1,15,1,5,1,4,11,93,11
12,1,15,1,6,1,4,11,132,11
12,1,1,0,1,0,4,11,77,8
12,1,3,0,1,0,4,11,132,11
12,1,12,1,3,0,4,11,93,11
12,1,22,0,3,0,4,11,132,11
1,1,9,1,2,0,1,11,77,8
2,1,20,1,4,0,1,11,21,11
8,3,4,0,2,0,3,11,13,9
9,4,2,0,5,1,3,11,93,11
9,4,22,0,0,0,3,11,93,11
10,4,12,1,0,0,4,11,93,9
10,4,10,1,1,0,4,11,26,9
11,4,11,1,1,0,4,11,93,11
11,4,21,0,2,0,4,11,13,8
11,4,12,1,1,0,4,11,77,8
11,4,12,1,3,0,4,11,14,8
12,1,14,1,0,0,4,11,74,9
12,1,10,1,2,0,4,11,26,11
12,1,4,0,1,0,4,11,74,9
1,1,9,1,5,1,1,11,40,8
1,1,19,1,0,0,1,11,77,9
1,1,19,1,4,0,1,11,77,11
1,1,19,1,1,0,1,11,77,9
4,2,12,1,6,1,2,11,77,11
4,2,22,0,1,0,2,11,40,11
4,2,10,1,5,1,2,11,14,11
6,3,19,1,2,0,2,11,93,11
6,3,10,1,6,1,2,11,93,11
7,3,17,1,3,0,3,11,93,11
8,3,15,1,3,0,3,11,93,11
8,3,4,0,6,1,3,11,132,11
8,3,17,1,0,0,3,11,112,11
8,3,14,1,2,0,3,11,77,11
10,4,18,1,6,1,4,11,93,11
10,4,16,1,1,0,4,11,93,11
10,4,14,1,5,1,4,11,93,11
11,4,0,0,5,1,4,11,77,8
11,4,17,1,5,1,4,11,93,11
11,4,16,1,1,0,4,11,93,11
11,4,8,1,6,1,4,11,107,9
11,4,17,1,2,0,4,11,77,11
12,1,15,1,5,1,4,11,3,11
12,1,14,1,1,0,4,11,40,11
12,1,23,0,2,0,4,11,40,9
12,1,14,1,0,0,4,11,77,9
12,1,14,1,3,0,4,11,40,9
3,2,2,0,0,0,1,11,93,11
4,2,22,0,4,0,2,11,77,11
6,3,14,1,3,0,2,11,111,9
9,4,17,1,4,0,3,11,93,11
11,4,19,1,1,0,4,11,3,11
1,1,1,0,6,1,1,19,132,11
1,1,17,1,4,0,1,19,132,11
1,1,14,1,5,1,1,19,67,11
1,1,13,1,6,1,1,19,56,11
1,1,3,0,0,0,1,19,121,11
1,1,20,1,0,0,1,19,59,11
1,1,14,1,1,0,1,19,77,11
1,1,17,1,3,0,1,19,40,11
1,1,5,0,6,1,1,19,132,11
1,1,21,0,6,1,1,19,67,11
1,1,14,1,6,1,1,19,67,11
1,1,8,1,2,0,1,19,67,11
1,1,13,1,3,0,1,19,67,11
1,1,17,1,6,1,1,19,67,11
2,1,2,0,0,0,1,19,132,11
2,1,5,0,3,0,1,19,132,11
2,1,1,0,2,0,1,19,67,11
2,1,5,0,4,0,1,19,132,11
2,1,5,0,4,0,1,19,132,11
2,1,21,0,5,1,1,19,74,11
2,1,15,1,1,0,1,19,74,11
2,1,15,1,2,0,1,19,132,11
2,1,3,0,4,0,1,19,101,11
2,1,23,0,6,1,1,19,74,11
3,2,15,1,3,0,1,19,100,11
3,2,21,0,5,1,1,19,66,11
3,2,13,1,5,1,1,19,74,11
3,2,14,1,6,1,1,19,104,11
3,2,18,1,6,1,1,19,67,11
3,2,18,1,3,0,1,19,67,11
3,2,18,1,6,1,1,19,67,11
3,2,21,0,0,0,1,19,8,11
3,2,2,0,1,0,1,19,67,11
3,2,22,0,2,0,1,19,60,11
3,2,1,0,5,1,1,19,74,11
3,2,7,1,5,1,1,19,77,11
3,2,22,0,3,0,1,19,67,11
3,2,12,1,5,1,1,19,49,11
3,2,11,1,3,0,1,19,67,11
4,2,21,0,2,0,2,19,130,11
4,2,1,0,6,1,2,19,100,11
4,2,0,0,1,0,2,19,67,11
4,2,2,0,1,0,2,19,132,11
4,2,15,1,4,0,2,19,67,11
4,2,11,1,6,1,2,19,132,11
4,2,12,1,0,0,2,19,100,11
4,2,18,1,4,0,2,19,67,11
4,2,14,1,4,0,2,19,67,8
4,2,3,0,5,1,2,19,132,11
4,2,14,1,2,0,2,19,49,11
4,2,22,0,5,1,2,19,100,11
5,2,4,0,4,0,2,19,74,11
5,2,3,0,5,1,2,19,132,11
5,2,10,1,2,0,2,19,67,11
5,2,15,1,5,1,2,19,74,11
5,2,5,0,6,1,2,19,132,11
5,2,3,0,1,0,2,19,100,11
5,2,3,0,1,0,2,19,121,11
5,2,21,0,2,0,2,19,67,11
5,2,6,0,4,0,2,19,132,11
5,2,9,1,5,1,2,19,67,11
5,2,21,0,1,0,2,19,19,11
5,2,9,1,2,0,2,19,67,11
5,2,3,0,1,0,2,19,74,11
6,3,9,1,2,0,2,19,74,11
6,3,3,0,2,0,2,19,74,11
6,3,20,1,3,0,2,19,132,11
6,3,22,0,4,0,2,19,67,11
6,3,10,1,5,1,2,19,67,11
6,3,3,0,5,1,2,19,33,11
6,3,22,0,1,0,2,19,132,11
6,3,12,1,2,0,2,19,31,11
6,3,22,0,3,0,2,19,67,11
6,3,3,0,4,0,2,19,132,11
6,3,10,1,5,1,2,19,49,9
6,3,23,0,0,0,2,19,67,11
6,3,3,0,3,0,2,19,21,11
6,3,3,0,5,1,2,19,104,11
6,3,2,0,6,1,2,19,121,11
6,3,5,0,3,0,2,19,21,11
6,3,4,0,3,0,2,19,21,9
6,3,13,1,5,1,2,19,104,11
7,3,21,0,6,1,3,19,74,11
7,3,0,0,5,1,3,19,67,11
7,3,23,0,5,1,3,19,67,11
7,3,11,1,1,0,3,19,67,11
7,3,22,0,2,0,3,19,93,11
7,3,2,0,5,1,3,19,100,11
7,3,19,1,0,0,3,19,67,11
7,3,2,0,2,0,3,19,67,11
7,3,4,0,2,0,3,19,104,11
7,3,16,1,5,1,3,19,75,11
8,3,20,1,3,0,3,19,132,11
8,3,18,1,4,0,3,19,74,11
8,3,20,1,6,1,3,19,67,9
8,3,15,1,1,0,3,19,67,11
8,3,18,1,3,0,3,19,59,11
8,3,14,1,0,0,3,19,67,11
8,3,23,0,2,0,3,19,67,11
8,3,16,1,5,1,3,19,21,11
8,3,16,1,2,0,3,19,67,11
8,3,13,1,2,0,3,19,67,11
9,4,23,0,5,1,3,19,75,11
9,4,8,1,0,0,3,19,67,11
9,4,1,0,1,0,3,19,100,11
9,4,22,0,1,0,3,19,75,11
9,4,15,1,5,1,3,19,67,11
9,4,14,1,3,0,3,19,67,11
9,4,12,1,3,0,3,19,66,11
9,4,14,1,4,0,3,19,67,11
9,4,6,0,5,1,3,19,100,11
9,4,22,0,6,1,3,19,130,11
9,4,22,0,6,1,3,19,130,11
9,4,4,0,2,0,3,19,61,11
9,4,21,0,2,0,3,19,49,11
9,4,19,1,3,0,3,19,67,11
9,4,0,0,4,0,3,19,132,11
9,4,0,0,4,0,3,19,132,11
9,4,6,0,4,0,3,19,132,11
9,4,18,1,5,1,3,19,75,11
9,4,4,0,6,1,3,19,132,11
9,4,17,1,2,0,3,19,67,11
9,4,5,0,4,0,3,19,100,11
10,4,1,0,1,0,4,19,67,11
10,4,10,1,3,0,4,19,67,11
10,4,4,0,5,1,4,19,132,11
10,4,3,0,5,1,4,19,74,11
10,4,3,0,6,1,4,19,100,11
10,4,13,1,6,1,4,19,132,11
10,4,13,1,6,1,4,19,67,11
10,4,21,0,0,0,4,19,67,11
10,4,3,0,2,0,4,19,49,11
10,4,0,0,3,0,4,19,77,11
10,4,1,0,2,0,4,19,132,11
10,4,12,1,4,0,4,19,49,11
10,4,19,1,6,1,4,19,67,11
11,4,4,0,5,1,4,19,104,11
11,4,19,1,6,1,4,19,67,11
11,4,3,0,3,0,4,19,3,11
11,4,9,1,4,0,4,19,77,11
11,4,21,0,6,1,4,19,77,11
11,4,20,1,6,1,4,19,74,11
11,4,7,1,6,1,4,19,67,11
11,4,22,0,1,0,4,19,100,11
11,4,0,0,2,0,4,19,67,11
11,4,7,1,2,0,4,19,74,11
11,4,1,0,2,0,4,19,132,11
11,4,20,1,3,0,4,19,74,9
11,4,1,0,3,0,4,19,132,11
11,4,0,0,5,1,4,19,74,11
11,4,20,1,5,1,4,19,67,9
11,4,21,0,5,1,4,19,67,11
11,4,12,1,1,0,4,19,67,11
11,4,20,1,2,0,4,19,74,11
11,4,11,1,2,0,4,19,74,11
11,4,20,1,2,0,4,19,74,11
11,4,14,1,2,0,4,19,32,11
11,4,9,1,0,0,4,19,67,11
11,4,9,1,0,0,4,19,67,11
11,4,23,0,1,0,4,19,67,11
11,4,17,1,1,0,4,19,67,11
11,4,15,1,2,0,4,19,67,11
12,1,3,0,3,0,4,19,74,11
12,1,2,0,4,0,4,19,74,11
12,1,7,1,4,0,4,19,132,11
12,1,3,0,5,1,4,19,132,11
12,1,2,0,6,1,4,19,132,11
12,1,23,0,2,0,4,19,67,11
12,1,3,0,3,0,4,19,81,11
12,1,1,0,3,0,4,19,67,11
12,1,7,1,5,1,4,19,100,11
12,1,22,0,5,1,4,19,67,11
12,1,13,1,5,1,4,19,49,11
12,1,6,0,6,1,4,19,132,11
12,1,3,0,1,0,4,19,22,11
12,1,5,0,1,0,4,19,132,11
12,1,16,1,2,0,4,19,67,11
12,1,14,1,5,1,4,19,67,11
12,1,0,0,5,1,4,19,67,11
12,1,11,1,6,1,4,19,67,11
12,1,1,0,6,1,4,19,67,11
12,1,23,0,0,0,4,19,67,11
12,1,17,1,3,0,4,19,77,11
12,1,14,1,4,0,4,19,67,9
12,1,14,1,6,1,4,19,67,11
12,1,9,1,5,1,4,19,67,11
1,1,0,0,4,0,1,19,104,11
1,1,2,0,4,0,1,19,67,11
1,1,0,0,4,0,1,19,67,11
1,1,6,0,4,0,1,19,21,11
1,1,3,0,4,0,1,19,104,11
1,1,18,1,5,1,1,19,67,11
1,1,15,1,5,1,1,19,93,11
1,1,20,1,6,1,1,19,40,11
1,1,3,0,6,1,1,19,21,11
1,1,3,0,1,0,1,19,77,11
1,1,14,1,1,0,1,19,67,11
1,1,20,1,1,0,1,19,40,11
1,1,19,1,2,0,1,19,67,11
1,1,16,1,3,0,1,19,104,11
1,1,18,1,0,0,1,19,61,11
1,1,17,1,1,0,1,19,67,11
1,1,18,1,1,0,1,19,40,11
1,1,12,1,3,0,1,19,100,11
1,1,16,1,3,0,1,19,93,11
1,1,18,1,3,0,1,19,40,11
1,1,18,1,3,0,1,19,100,11
1,1,13,1,5,1,1,19,67,11
1,1,19,1,6,1,1,19,32,11
1,1,3,0,0,0,1,19,121,11
1,1,22,0,1,0,1,19,100,11
1,1,15,1,1,0,1,19,67,11
1,1,21,0,3,0,1,19,104,11
1,1,20,1,3,0,1,19,100,11
1,1,21,0,3,0,1,19,67,11
1,1,15,1,5,1,1,19,84,11
1,1,17,1,6,1,1,19,93,11
1,1,21,0,6,1,1,19,100,11
1,1,15,1,0,0,1,19,104,11
1,1,19,1,0,0,1,19,104,11
1,1,13,1,1,0,1,19,104,11
1,1,16,1,1,0,1,19,93,11
1,1,16,1,1,0,1,19,77,11
1,1,19,1,1,0,1,19,67,11
1,1,22,0,1,0,1,19,67,11
1,1,23,0,1,0,1,19,43,11
1,1,15,1,2,0,1,19,132,11
1,1,10,1,3,0,1,19,111,9
1,1,22,0,4,0,1,19,104,11
1,1,18,1,4,0,1,19,104,11
1,1,17,1,4,0,1,19,93,9
1,1,17,1,4,0,1,19,132,11
1,1,19,1,5,1,1,19,104,11
1,1,14,1,5,1,1,19,67,11
1,1,14,1,5,1,1,19,104,11
1,1,15,1,6,1,1,19,114,9
2,1,18,1,0,0,1,19,40,11
2,1,14,1,2,0,1,19,40,11
2,1,23,0,2,0,1,19,21,11
2,1,13,1,3,0,1,19,59,9
2,1,0,0,3,0,1,19,67,11
2,1,6,0,3,0,1,19,78,11
2,1,1,0,4,0,1,19,67,11
2,1,22,0,4,0,1,19,40,11
2,1,22,0,4,0,1,19,100,11
2,1,15,1,5,1,1,19,104,11
2,1,17,1,5,1,1,19,14,11
2,1,10,1,6,1,1,19,77,11
2,1,18,1,6,1,1,19,104,11
2,1,18,1,0,0,1,19,84,11
2,1,17,1,1,0,1,19,104,11
2,1,4,0,1,0,1,19,100,11
2,1,11,1,2,0,1,19,21,11
2,1,11,1,3,0,1,19,93,11
2,1,11,1,3,0,1,19,40,11
2,1,1,0,3,0,1,19,100,11
2,1,17,1,6,1,1,19,93,11
2,1,21,0,1,0,1,19,67,11
2,1,4,0,2,0,1,19,22,11
2,1,14,1,6,1,1,19,77,11
2,1,20,1,0,0,1,19,100,11
2,1,6,0,0,0,1,19,21,11
2,1,12,1,2,0,1,19,67,11
3,2,12,1,3,0,1,19,93,11
3,2,23,0,4,0,1,19,67,11
3,2,15,1,5,1,1,19,14,9
3,2,19,1,5,1,1,19,24,11
3,2,15,1,6,1,1,19,104,11
3,2,16,1,0,0,1,19,49,11
3,2,22,0,0,0,1,19,21,11
3,2,16,1,1,0,1,19,40,11
3,2,13,1,4,0,1,19,21,11
3,2,4,0,5,1,1,19,133,8
3,2,3,0,5,1,1,19,100,11
3,2,17,1,6,1,1,19,67,11
3,2,9,1,0,0,1,19,8,11
3,2,14,1,1,0,1,19,67,11
3,2,1,0,1,0,1,19,100,11
3,2,20,1,3,0,1,19,104,11
3,2,19,1,2,0,1,19,67,11
3,2,18,1,2,0,1,19,104,11
3,2,6,0,2,0,1,19,21,11
3,2,6,0,4,0,1,19,21,11
3,2,20,1,5,1,1,19,104,11
3,2,10,1,0,0,1,19,67,11
3,2,23,0,1,0,1,19,21,11
3,2,14,1,1,0,1,19,40,11
3,2,15,1,2,0,1,19,67,11
3,2,22,0,3,0,1,19,100,11
4,2,19,1,4,0,2,19,67,11
4,2,21,0,4,0,2,19,104,11
4,2,2,0,4,0,2,19,93,11
4,2,23,0,4,0,2,19,93,11
4,2,5,0,5,1,2,19,77,11
4,2,13,1,5,1,2,19,67,11
4,2,12,1,5,1,2,19,84,11
4,2,12,1,6,1,2,19,67,11
4,2,21,0,6,1,2,19,100,11
4,2,17,1,6,1,2,19,67,11
4,2,2,0,1,0,2,19,104,11
4,2,14,1,2,0,2,19,21,11
4,2,1,0,2,0,2,19,21,11
4,2,8,1,3,0,2,19,67,11
4,2,12,1,5,1,2,19,67,11
4,2,2,0,6,1,2,19,93,11
4,2,15,1,0,0,2,19,121,11
4,2,2,0,1,0,2,19,100,11
4,2,8,1,2,0,2,19,93,11
4,2,16,1,4,0,2,19,21,11
4,2,18,1,5,1,2,19,93,11
4,2,21,0,6,1,2,19,132,11
4,2,23,0,6,1,2,19,77,11
4,2,2,0,6,1,2,19,104,11
4,2,0,0,6,1,2,19,104,11
4,2,11,1,2,0,2,19,67,11
4,2,14,1,2,0,2,19,106,9
4,2,13,1,2,0,2,19,93,11
4,2,17,1,3,0,2,19,104,11
4,2,14,1,6,1,2,19,100,11
4,2,22,0,1,0,2,19,93,11
5,2,17,1,2,0,2,19,115,11
5,2,11,1,3,0,2,19,49,11
5,2,3,0,6,1,2,19,21,9
5,2,13,1,1,0,2,19,77,11
5,2,18,1,2,0,2,19,8,11
5,2,22,0,2,0,2,19,8,9
5,2,17,1,3,0,2,19,14,11
5,2,5,0,4,0,2,19,8,11
5,2,18,1,4,0,2,19,8,11
5,2,17,1,6,1,2,19,104,11
5,2,16,1,6,1,2,19,104,11
5,2,12,1,6,1,2,19,104,11
5,2,16,1,6,1,2,19,8,11
5,2,15,1,6,1,2,19,67,11
5,2,23,0,2,0,2,19,14,11
5,2,16,1,3,0,2,19,21,11
5,2,10,1,5,1,2,19,126,11
5,2,22,0,6,1,2,19,21,11
5,2,3,0,0,0,2,19,21,11
5,2,13,1,1,0,2,19,91,11
5,2,14,1,2,0,2,19,93,11
5,2,8,1,2,0,2,19,40,11
5,2,14,1,3,0,2,19,67,11
5,2,11,1,3,0,2,19,104,11
5,2,18,1,4,0,2,19,21,11
5,2,17,1,4,0,2,19,67,11
5,2,19,1,5,1,2,19,93,11
5,2,15,1,5,1,2,19,104,11
5,2,13,1,6,1,2,19,104,11
5,2,3,0,6,1,2,19,21,11
5,2,11,1,1,0,2,19,77,11
5,2,12,1,1,0,2,19,99,11
5,2,13,1,1,0,2,19,93,11
5,2,19,1,1,0,2,19,104,11
5,2,19,1,1,0,2,19,93,11
6,3,22,0,2,0,2,19,93,11
6,3,3,0,4,0,2,19,8,11
6,3,15,1,4,0,2,19,21,11
6,3,7,1,5,1,2,19,104,11
6,3,13,1,5,1,2,19,67,11
6,3,15,1,5,1,2,19,21,11
6,3,18,1,5,1,2,19,104,11
6,3,16,1,0,0,2,19,93,11
6,3,20,1,0,0,2,19,67,11
6,3,20,1,2,0,2,19,8,11
6,3,14,1,2,0,2,19,21,11
6,3,11,1,4,0,2,19,24,11
6,3,9,1,4,0,2,19,67,11
6,3,21,0,4,0,2,19,104,11
6,3,18,1,5,1,2,19,129,11
6,3,15,1,5,1,2,19,59,11
6,3,23,0,6,1,2,19,104,11
6,3,17,1,6,1,2,19,93,9
6,3,22,0,6,1,2,19,93,11
6,3,18,1,0,0,2,19,67,11
6,3,7,1,0,0,2,19,21,11
6,3,19,1,0,0,2,19,3,11
6,3,13,1,1,0,2,19,21,11
6,3,18,1,2,0,2,19,104,11
6,3,0,0,2,0,2,19,49,11
6,3,19,1,3,0,2,19,93,9
6,3,22,0,4,0,2,19,104,11
6,3,13,1,5,1,2,19,104,11
6,3,1,0,5,1,2,19,100,11
6,3,22,0,5,1,2,19,100,11
6,3,12,1,0,0,2,19,93,9
6,3,1,0,0,0,2,19,100,11
6,3,13,1,1,0,2,19,104,11
6,3,11,1,1,0,2,19,93,11
6,3,11,1,1,0,2,19,40,11
6,3,21,0,1,0,2,19,104,11
6,3,13,1,2,0,2,19,104,11
6,3,15,1,2,0,2,19,93,11
6,3,20,1,2,0,2,19,78,11
6,3,18,1,3,0,2,19,93,9
6,3,15,1,3,0,2,19,15,11
6,3,10,1,3,0,2,19,104,11
6,3,10,1,3,0,2,19,67,11
6,3,4,0,4,0,2,19,91,11
6,3,16,1,5,1,2,19,40,11
6,3,15,1,5,1,2,19,49,11
6,3,11,1,5,1,2,19,77,9
6,3,15,1,5,1,2,19,93,11
6,3,18,1,6,1,2,19,93,11
6,3,13,1,6,1,2,19,59,11
6,3,13,1,0,0,2,19,67,11
6,3,0,0,0,0,2,19,100,11
6,3,21,0,0,0,2,19,104,9
6,3,18,1,0,0,2,19,93,11
6,3,17,1,0,0,2,19,93,9
6,3,21,0,1,0,2,19,104,11
6,3,11,1,2,0,2,19,104,11
6,3,18,1,2,0,2,19,21,11
7,3,11,1,4,0,3,19,67,11
7,3,20,1,4,0,3,19,93,11
7,3,0,0,5,1,3,19,21,11
7,3,17,1,6,1,3,19,93,11
7,3,22,0,0,0,3,19,104,11
7,3,13,1,2,0,3,19,67,11
7,3,19,1,2,0,3,19,93,11
7,3,22,0,3,0,3,19,93,11
7,3,19,1,5,1,3,19,104,9
7,3,21,0,5,1,3,19,67,11
7,3,17,1,5,1,3,19,93,11
7,3,18,1,5,1,3,19,21,11
7,3,17,1,5,1,3,19,93,11
7,3,21,0,6,1,3,19,93,11
7,3,17,1,6,1,3,19,21,11
7,3,12,1,0,0,3,19,104,11
7,3,14,1,0,0,3,19,21,11
7,3,3,0,0,0,3,19,77,11
7,3,18,1,0,0,3,19,67,11
7,3,12,1,0,0,3,19,49,11
7,3,15,1,0,0,3,19,104,11
7,3,17,1,1,0,3,19,14,9
7,3,10,1,2,0,3,19,104,11
7,3,0,0,2,0,3,19,78,11
7,3,12,1,2,0,3,19,93,11
7,3,15,1,2,0,3,19,104,11
7,3,21,0,3,0,3,19,104,11
7,3,20,1,3,0,3,19,104,11
7,3,16,1,4,0,3,19,100,11
7,3,17,1,5,1,3,19,104,11
7,3,20,1,6,1,3,19,58,11
7,3,2,0,6,1,3,19,78,11
7,3,19,1,0,0,3,19,104,11
7,3,14,1,1,0,3,19,93,11
7,3,10,1,1,0,3,19,104,11
7,3,20,1,2,0,3,19,104,11
7,3,18,1,4,0,3,19,104,11
7,3,3,0,4,0,3,19,40,11
7,3,13,1,5,1,3,19,104,11
7,3,3,0,6,1,3,19,78,11
7,3,18,1,0,0,3,19,21,11
7,3,15,1,2,0,3,19,104,11
7,3,17,1,2,0,3,19,104,11
7,3,3,0,4,0,3,19,100,11
7,3,4,0,6,1,3,19,32,11
7,3,21,0,6,1,3,19,21,11
7,3,16,1,6,1,3,19,93,11
8,3,18,1,1,0,3,19,81,11
8,3,19,1,2,0,3,19,104,11
8,3,21,0,2,0,3,19,120,9
8,3,15,1,2,0,3,19,21,11
8,3,15,1,3,0,3,19,67,11
8,3,12,1,6,1,3,19,9,11
8,3,22,0,0,0,3,19,93,11
8,3,17,1,1,0,3,19,93,11
8,3,17,1,3,0,3,19,104,11
8,3,12,1,4,0,3,19,49,11
8,3,8,1,4,0,3,19,77,11
8,3,16,1,5,1,3,19,93,11
8,3,18,1,5,1,3,19,67,11
8,3,11,1,6,1,3,19,40,11
8,3,22,0,6,1,3,19,6,11
8,3,18,1,6,1,3,19,93,11
8,3,17,1,0,0,3,19,93,11
8,3,15,1,0,0,3,19,104,11
8,3,13,1,0,0,3,19,100,11
8,3,5,0,1,0,3,19,21,11
8,3,15,1,1,0,3,19,104,11
8,3,15,1,3,0,3,19,67,11
8,3,14,1,3,0,3,19,104,11
8,3,15,1,3,0,3,19,67,11
8,3,20,1,4,0,3,19,93,11
8,3,14,1,4,0,3,19,93,11
8,3,1,0,5,1,3,19,78,11
8,3,14,1,6,1,3,19,104,11
8,3,19,1,6,1,3,19,40,11
8,3,13,1,0,0,3,19,100,11
8,3,15,1,1,0,3,19,100,11
8,3,17,1,2,0,3,19,67,11
8,3,13,1,2,0,3,19,67,11
8,3,18,1,2,0,3,19,104,11
8,3,18,1,2,0,3,19,47,11
8,3,21,0,2,0,3,19,93,11
8,3,18,1,3,0,3,19,67,11
8,3,11,1,4,0,3,19,21,11
8,3,0,0,5,1,3,19,104,11
8,3,0,0,5,1,3,19,104,11
8,3,9,1,5,1,3,19,104,11
8,3,9,1,5,1,3,19,21,11
8,3,13,1,5,1,3,19,67,11
8,3,18,1,5,1,3,19,93,11
8,3,23,0,6,1,3,19,100,11
8,3,2,0,6,1,3,19,100,11
8,3,21,0,6,1,3,19,93,11
8,3,2,0,2,0,3,19,67,11
9,4,15,1,3,0,3,19,32,11
9,4,10,1,5,1,3,19,104,11
9,4,6,0,6,1,3,19,40,11
9,4,11,1,6,1,3,19,93,11
9,4,20,1,6,1,3,19,93,11
9,4,16,1,6,1,3,19,67,11
9,4,13,1,0,0,3,19,21,11
9,4,18,1,0,0,3,19,104,11
9,4,11,1,0,0,3,19,67,11
9,4,20,1,0,0,3,19,104,11
9,4,23,0,1,0,3,19,67,11
9,4,4,0,1,0,3,19,93,11
9,4,18,1,3,0,3,19,114,11
9,4,14,1,1,0,3,19,93,11
9,4,19,1,2,0,3,19,104,11
9,4,1,0,3,0,3,19,100,11
9,4,4,0,3,0,3,19,21,11
9,4,19,1,4,0,3,19,77,9
9,4,19,1,4,0,3,19,77,9
9,4,15,1,4,0,3,19,114,11
9,4,20,1,5,1,3,19,93,11
9,4,14,1,6,1,3,19,67,11
9,4,18,1,0,0,3,19,59,11
9,4,9,1,0,0,3,19,40,11
9,4,16,1,1,0,3,19,104,11
9,4,11,1,3,0,3,19,24,11
9,4,22,0,4,0,3,19,100,11
9,4,22,0,5,1,3,19,15,11
9,4,21,0,5,1,3,19,67,11
9,4,19,1,5,1,3,19,114,11
9,4,18,1,5,1,3,19,77,11
9,4,13,1,0,0,3,19,67,11
9,4,10,1,1,0,3,19,67,11
9,4,13,1,1,0,3,19,67,11
9,4,17,1,2,0,3,19,93,11
9,4,19,1,3,0,3,19,106,11
9,4,17,1,3,0,3,19,104,11
9,4,18,1,4,0,3,19,67,11
9,4,16,1,4,0,3,19,77,11
10,4,20,1,5,1,4,19,104,11
10,4,21,0,6,1,4,19,93,11
10,4,17,1,3,0,4,19,132,11
10,4,7,1,4,0,4,19,132,11
10,4,17,1,4,0,4,19,24,11
10,4,14,1,5,1,4,19,59,11
10,4,4,0,0,0,4,19,21,11
10,4,14,1,1,0,4,19,67,11
10,4,20,1,1,0,4,19,130,11
10,4,17,1,1,0,4,19,59,11
10,4,11,1,1,0,4,19,67,9
10,4,12,1,2,0,4,19,8,11
10,4,6,0,2,0,4,19,67,11
10,4,1,0,2,0,4,19,104,11
10,4,0,0,4,0,4,19,67,11
10,4,15,1,5,1,4,19,3,11
10,4,9,1,6,1,4,19,68,9
10,4,21,0,6,1,4,19,21,11
10,4,18,1,0,0,4,19,67,11
10,4,5,0,1,0,4,19,100,11
10,4,5,0,2,0,4,19,93,11
10,4,1,0,2,0,4,19,21,11
10,4,16,1,2,0,4,19,104,11
10,4,18,1,4,0,4,19,21,11
10,4,20,1,4,0,4,19,66,11
10,4,13,1,5,1,4,19,100,11
10,4,4,0,5,1,4,19,67,11
10,4,10,1,1,0,4,19,40,11
10,4,10,1,2,0,4,19,21,11
10,4,1,0,2,0,4,19,67,11
10,4,2,0,2,0,4,19,24,8
10,4,2,0,2,0,4,19,47,11
10,4,15,1,2,0,4,19,125,11
10,4,21,0,5,1,4,19,100,11
10,4,20,1,6,1,4,19,77,11
10,4,15,1,6,1,4,19,49,11
10,4,4,0,6,1,4,19,21,9
10,4,23,0,6,1,4,19,21,11
10,4,8,1,0,0,4,19,21,11
10,4,18,1,0,0,4,19,67,11
11,4,18,1,1,0,4,19,67,11
11,4,14,1,1,0,4,19,104,11
11,4,7,1,1,0,4,19,8,11
11,4,0,0,1,0,4,19,104,11
11,4,4,0,2,0,4,19,106,11
11,4,17,1,3,0,4,19,106,11
11,4,13,1,3,0,4,19,77,9
11,4,10,1,3,0,4,19,67,11
11,4,21,0,4,0,4,19,100,11
11,4,14,1,1,0,4,19,40,11
11,4,1,0,1,0,4,19,21,11
11,4,19,1,2,0,4,19,9,11
11,4,9,1,3,0,4,19,106,11
11,4,19,1,3,0,4,19,93,11
11,4,0,0,6,1,4,19,115,9
11,4,19,1,0,0,4,19,104,11
11,4,15,1,1,0,4,19,104,11
11,4,12,1,2,0,4,19,40,11
11,4,12,1,3,0,4,19,100,11
11,4,17,1,3,0,4,19,100,11
11,4,13,1,5,1,4,19,17,11
11,4,20,1,6,1,4,19,67,11
11,4,10,1,6,1,4,19,100,11
11,4,4,0,6,1,4,19,8,11
11,4,18,1,1,0,4,19,104,11
11,4,16,1,1,0,4,19,93,11
11,4,0,0,3,0,4,19,114,11
11,4,12,1,5,1,4,19,106,9
11,4,16,1,5,1,4,19,104,11
11,4,8,1,5,1,4,19,67,11
11,4,15,1,0,0,4,19,104,11
11,4,17,1,1,0,4,19,67,9
11,4,21,0,1,0,4,19,8,11
11,4,1,0,2,0,4,19,21,11
12,1,14,1,3,0,4,19,93,11
12,1,11,1,5,1,4,19,104,11
12,1,20,1,5,1,4,19,104,11
12,1,16,1,5,1,4,19,21,11
12,1,15,1,6,1,4,19,132,11
12,1,0,0,6,1,4,19,104,11
12,1,1,0,6,1,4,19,100,11
12,1,16,1,2,0,4,19,77,11
12,1,17,1,3,0,4,19,104,11
12,1,0,0,4,0,4,19,59,11
12,1,22,0,5,1,4,19,104,11
12,1,9,1,5,1,4,19,67,11
12,1,23,0,5,1,4,19,100,11
12,1,17,1,6,1,4,19,104,11
12,1,21,0,6,1,4,19,100,11
12,1,22,0,6,1,4,19,100,11
12,1,17,1,6,1,4,19,40,11
12,1,7,1,6,1,4,19,21,11
12,1,15,1,0,0,4,19,67,11
12,1,14,1,1,0,4,19,67,11
12,1,18,1,1,0,4,19,93,11
12,1,22,0,1,0,4,19,67,11
12,1,8,1,2,0,4,19,21,11
12,1,4,0,2,0,4,19,59,11
12,1,20,1,2,0,4,19,59,11
12,1,21,0,2,0,4,19,40,11
12,1,16,1,4,0,4,19,104,11
12,1,13,1,4,0,4,19,100,11
12,1,2,0,5,1,4,19,100,11
12,1,6,0,5,1,4,19,67,11
12,1,12,1,6,1,4,19,104,11
12,1,11,1,6,1,4,19,49,11
12,1,20,1,0,0,4,19,77,11
12,1,19,1,0,0,4,19,100,11
12,1,16,1,0,0,4,19,67,11
12,1,15,1,0,0,4,19,104,11
12,1,1,0,2,0,4,19,21,11
12,1,13,1,2,0,4,19,67,11
12,1,11,1,2,0,4,19,93,11
12,1,15,1,2,0,4,19,100,11
12,1,15,1,3,0,4,19,104,11
12,1,12,1,4,0,4,19,120,11
12,1,12,1,4,0,4,19,21,11
12,1,12,1,4,0,4,19,8,11
12,1,14,1,5,1,4,19,67,11
12,1,23,0,5,1,4,19,77,11
12,1,15,1,5,1,4,19,67,11
12,1,16,1,6,1,4,19,132,11
12,1,18,1,0,0,4,19,67,11
12,1,13,1,1,0,4,19,93,9
12,1,19,1,2,0,4,19,100,11
12,1,11,1,3,0,4,19,77,11
12,1,9,1,3,0,4,19,100,11
12,1,12,1,3,0,4,19,104,11
12,1,18,1,5,1,4,19,77,11
12,1,9,1,5,1,4,19,100,11
1,1,2,0,6,1,1,19,93,11
1,1,22,0,3,0,1,19,77,11
1,1,17,1,5,1,1,19,69,11
1,1,11,1,3,0,1,19,100,11
1,1,10,1,5,1,1,19,104,11
1,1,18,1,1,0,1,19,100,11
1,1,12,1,0,0,1,19,104,11
1,1,15,1,2,0,1,19,104,11
1,1,8,1,2,0,1,19,91,11
1,1,16,1,6,1,1,19,93,11
2,1,7,1,0,0,1,19,100,11
2,1,15,1,3,0,1,19,14,11
3,2,20,1,4,0,1,19,131,11
3,2,12,1,4,0,1,19,77,9
3,2,17,1,5,1,1,19,77,11
3,2,17,1,4,0,1,19,3,11
3,2,17,1,0,0,1,19,93,11
4,2,12,1,1,0,2,19,104,11
4,2,15,1,5,1,2,19,104,11
4,2,22,0,0,0,2,19,93,11
4,2,1,0,4,0,2,19,104,11
4,2,20,1,3,0,2,19,3,11
4,2,14,1,5,1,2,19,67,11
5,2,15,1,6,1,2,19,40,11
5,2,13,1,1,0,2,19,3,11
5,2,17,1,3,0,2,19,104,11
5,2,19,1,6,1,2,19,104,11
5,2,11,1,0,0,2,19,93,11
5,2,12,1,6,1,2,19,40,11
5,2,20,1,1,0,2,19,104,11
6,3,23,0,3,0,2,19,8,11
6,3,14,1,6,1,2,19,93,11
6,3,23,0,4,0,2,19,80,11
6,3,17,1,2,0,2,19,87,11
7,3,20,1,1,0,3,19,3,11
7,3,7,1,2,0,3,19,104,11
7,3,18,1,1,0,3,19,104,11
7,3,10,1,6,1,3,19,112,11
7,3,13,1,1,0,3,19,40,11
7,3,19,1,4,0,3,19,104,11
7,3,11,1,6,1,3,19,21,11
7,3,2,0,6,1,3,19,40,11
8,3,18,1,0,0,3,19,93,11
8,3,20,1,0,0,3,19,104,9
9,4,8,1,4,0,3,19,93,11
9,4,15,1,6,1,3,19,104,11
9,4,10,1,0,0,3,19,93,11
9,4,13,1,5,1,3,19,21,11
9,4,13,1,2,0,3,19,93,11
9,4,17,1,0,0,3,19,93,11
9,4,18,1,6,1,3,19,104,11
9,4,10,1,0,0,3,19,104,11
9,4,18,1,0,0,3,19,93,11
10,4,20,1,4,0,4,19,112,11
10,4,19,1,5,1,4,19,93,11
10,4,23,0,0,0,4,19,55,11
10,4,14,1,0,0,4,19,40,11
10,4,3,0,1,0,4,19,115,11
10,4,23,0,0,0,4,19,100,11
10,4,21,0,6,1,4,19,104,11
10,4,11,1,2,0,4,19,104,11
10,4,8,1,5,1,4,19,93,11
11,4,10,1,1,0,4,19,93,11
11,4,12,1,0,0,4,19,3,11
11,4,20,1,2,0,4,19,93,11
11,4,17,1,2,0,4,19,77,11
11,4,19,1,4,0,4,19,93,11
11,4,14,1,5,1,4,19,3,11
11,4,14,1,5,1,4,19,77,11
11,4,8,1,2,0,4,19,21,11
12,1,19,1,3,0,4,19,100,11
12,1,13,1,0,0,4,19,93,11
12,1,17,1,5,1,4,19,93,11
12,1,17,1,5,1,4,19,104,11
12,1,15,1,6,1,4,19,104,11
12,1,22,0,2,0,4,19,100,11
12,1,10,1,4,0,4,19,104,11
12,1,18,1,1,0,4,19,112,11
12,1,22,0,2,0,4,19,2,9
12,1,22,0,2,0,4,19,100,11
12,1,11,1,3,0,4,19,93,11
12,1,8,1,3,0,4,19,122,8
12,1,23,0,4,0,4,19,93,11
12,1,10,1,4,0,4,19,77,11
12,1,17,1,0,0,4,19,3,11
12,1,20,1,1,0,4,19,104,11
12,1,20,1,2,0,4,19,104,11
12,1,16,1,2,0,4,19,93,11
12,1,16,1,2,0,4,19,93,11
12,1,7,1,4,0,4,19,93,11
12,1,15,1,4,0,4,19,104,11
12,1,6,0,4,0,4,19,100,11
12,1,17,1,5,1,4,19,93,9
12,1,14,1,5,1,4,19,104,11
1,1,12,1,4,0,1,19,99,11
1,1,13,1,5,1,1,19,49,11
1,1,20,1,2,0,1,19,40,9
1,1,19,1,0,0,1,19,77,11
1,1,18,1,0,0,1,19,125,11
1,1,23,0,1,0,1,19,100,11
1,1,1,0,1,0,1,19,111,11
1,1,17,1,4,0,1,19,104,11
1,1,19,1,6,1,1,19,77,11
1,1,20,1,6,1,1,19,67,11
1,1,16,1,6,1,1,19,77,11
1,1,21,0,3,0,1,19,21,11
1,1,2,0,4,0,1,19,14,11
1,1,20,1,5,1,1,19,40,11
2,1,12,1,0,0,1,19,104,11
2,1,17,1,1,0,1,19,104,11
2,1,18,1,4,0,1,19,100,11
2,1,18,1,5,1,1,19,104,11
2,1,13,1,0,0,1,19,104,11
2,1,14,1,1,0,1,19,104,11
2,1,18,1,2,0,1,19,3,11
2,1,2,0,1,0,1,19,100,11
2,1,3,0,1,0,1,19,100,11
2,1,18,1,1,0,1,19,21,11
2,1,0,0,0,0,1,19,77,11
3,2,14,1,2,0,1,19,3,11
3,2,11,1,0,0,1,19,104,11
3,2,10,1,0,0,1,19,104,11
3,2,18,1,0,0,1,19,104,11
3,2,20,1,1,0,1,19,77,11
3,2,16,1,3,0,1,19,40,11
3,2,18,1,3,0,1,19,67,11
3,2,17,1,5,1,1,19,104,11
3,2,12,1,1,0,1,19,104,11
3,2,10,1,1,0,1,19,40,11
3,2,11,1,4,0,1,19,104,11
3,2,18,1,6,1,1,19,24,11
4,2,15,1,4,0,2,19,104,11
4,2,18,1,3,0,2,19,84,11
4,2,3,0,5,1,2,19,100,11
4,2,13,1,4,0,2,19,104,11
4,2,22,0,5,1,2,19,3,11
4,2,19,1,0,0,2,19,104,11
4,2,11,1,2,0,2,19,104,11
4,2,14,1,4,0,2,19,3,11
4,2,11,1,3,0,2,19,3,11
5,2,9,1,6,1,2,19,93,11
5,2,11,1,3,0,2,19,21,11
5,2,19,1,1,0,2,19,3,11
5,2,15,1,1,0,2,19,3,11
5,2,16,1,2,0,2,19,104,11
5,2,15,1,2,0,2,19,104,11
5,2,11,1,3,0,2,19,77,11
5,2,10,1,1,0,2,19,104,11
6,3,11,1,4,0,2,19,106,11
6,3,13,1,4,0,2,19,3,11
6,3,10,1,1,0,2,19,104,11
6,3,21,0,4,0,2,19,104,11
6,3,16,1,0,0,2,19,104,11
6,3,16,1,4,0,2,19,104,11
6,3,13,1,4,0,2,19,104,11
6,3,23,0,5,1,2,19,104,11
6,3,8,1,5,1,2,19,21,11
6,3,17,1,0,0,2,19,104,11
6,3,23,0,1,0,2,19,104,11
6,3,10,1,2,0,2,19,104,11
6,3,20,1,2,0,2,19,67,11
6,3,15,1,6,1,2,19,104,11
6,3,9,1,0,0,2,19,104,11
6,3,10,1,2,0,2,19,93,11
7,3,15,1,3,0,3,19,93,11
7,3,6,0,4,0,3,19,104,11
7,3,17,1,4,0,3,19,104,9
7,3,5,0,5,1,3,19,21,11
7,3,20,1,5,1,3,19,3,11
7,3,17,1,5,1,3,19,3,11
7,3,20,1,6,1,3,19,104,11
7,3,5,0,0,0,3,19,14,11
7,3,20,1,1,0,3,19,104,11
7,3,18,1,1,0,3,19,104,11
7,3,22,0,4,0,3,19,61,11
7,3,18,1,1,0,3,19,21,11
7,3,11,1,1,0,3,19,3,11
7,3,11,1,2,0,3,19,104,11
7,3,9,1,6,1,3,19,3,11
7,3,13,1,1,0,3,19,104,11
7,3,17,1,1,0,3,19,104,11
7,3,19,1,3,0,3,19,3,11
7,3,13,1,3,0,3,19,3,11
7,3,15,1,3,0,3,19,3,11
7,3,6,0,5,1,3,19,100,11
7,3,21,0,6,1,3,19,93,11
8,3,22,0,1,0,3,19,104,11
8,3,17,1,1,0,3,19,3,11
8,3,16,1,3,0,3,19,104,11
8,3,14,1,5,1,3,19,104,11
8,3,18,1,4,0,3,19,104,11
8,3,16,1,5,1,3,19,104,11
8,3,7,1,5,1,3,19,104,11
8,3,17,1,0,0,3,19,104,11
8,3,16,1,1,0,3,19,104,11
8,3,18,1,3,0,3,19,104,11
8,3,7,1,3,0,3,19,3,11
8,3,9,1,4,0,3,19,104,11
8,3,11,1,4,0,3,19,104,11
8,3,17,1,6,1,3,19,104,11
8,3,21,0,6,1,3,19,100,11
8,3,18,1,5,1,3,19,104,11
8,3,17,1,6,1,3,19,104,11
8,3,15,1,0,0,3,19,104,11
8,3,2,0,1,0,3,19,3,11
9,4,18,1,4,0,3,19,100,11
9,4,18,1,5,1,3,19,104,11
9,4,10,1,1,0,3,19,104,11
9,4,8,1,2,0,3,19,112,11
9,4,23,0,1,0,3,19,21,9
9,4,16,1,4,0,3,19,104,11
9,4,14,1,0,0,3,19,112,11
9,4,12,1,0,0,3,19,93,11
9,4,9,1,0,0,3,19,21,11
9,4,17,1,4,0,3,19,104,11
9,4,8,1,4,0,3,19,21,11
10,4,18,1,5,1,4,19,104,11
10,4,13,1,1,0,4,19,104,11
10,4,17,1,3,0,4,19,104,11
10,4,13,1,6,1,4,19,21,11
10,4,11,1,1,0,4,19,104,11
10,4,11,1,2,0,4,19,104,11
10,4,10,1,3,0,4,19,104,11
10,4,19,1,5,1,4,19,104,11
10,4,10,1,6,1,4,19,104,11
10,4,22,0,6,1,4,19,104,11
11,4,23,0,2,0,4,19,104,11
11,4,9,1,5,1,4,19,104,11
11,4,10,1,1,0,4,19,104,11
11,4,19,1,2,0,4,19,21,11
11,4,16,1,3,0,4,19,104,11
11,4,17,1,4,0,4,19,104,11
11,4,20,1,4,0,4,19,77,11
11,4,16,1,6,1,4,19,104,11
11,4,17,1,0,0,4,19,104,11
11,4,18,1,1,0,4,19,67,11
11,4,13,1,1,0,4,19,104,11
11,4,13,1,2,0,4,19,104,11
11,4,10,1,2,0,4,19,104,11
11,4,22,0,0,0,4,19,112,11
11,4,18,1,1,0,4,19,40,11
12,1,8,1,3,0,4,19,40,11
12,1,18,1,0,0,4,19,21,9
12,1,20,1,2,0,4,19,93,11
12,1,17,1,6,1,4,19,104,11
12,1,0,0,1,0,4,19,69,11
12,1,14,1,1,0,4,19,104,11
12,1,10,1,1,0,4,19,40,11
12,1,18,1,2,0,4,19,77,11
12,1,17,1,4,0,4,19,104,11
12,1,17,1,4,0,4,19,104,11
12,1,13,1,6,1,4,19,77,11
12,1,12,1,6,1,4,19,104,11
12,1,20,1,6,1,4,19,100,11
12,1,16,1,0,0,4,19,77,11
12,1,14,1,0,0,4,19,104,11
12,1,12,1,2,0,4,19,96,9
12,1,17,1,3,0,4,19,104,11
12,1,15,1,3,0,4,19,104,11
12,1,21,0,3,0,4,19,77,11
1,1,4,0,4,0,1,19,67,11
1,1,16,1,4,0,1,19,104,11
1,1,7,1,4,0,1,19,100,11
1,1,3,0,5,1,1,19,100,11
1,1,20,1,5,1,1,19,67,11
1,1,18,1,5,1,1,19,67,11
1,1,16,1,5,1,1,19,67,11
1,1,8,1,5,1,1,19,100,11
1,1,10,1,5,1,1,19,67,11
1,1,17,1,5,1,1,19,67,11
1,1,14,1,6,1,1,19,77,11
1,1,23,0,0,0,1,19,47,11
1,1,23,0,0,0,1,19,67,11
1,1,20,1,1,0,1,19,14,9
1,1,22,0,2,0,1,19,100,11
1,1,19,1,4,0,1,19,3,11
1,1,22,0,5,1,1,19,67,11
1,1,14,1,0,0,1,19,67,11
1,1,23,0,1,0,1,19,67,11
1,1,15,1,3,0,1,19,100,11
1,1,22,0,4,0,1,19,100,11
1,1,21,0,5,1,1,19,67,11
1,1,23,0,6,1,1,19,100,11
1,1,17,1,2,0,1,19,49,11
1,1,0,0,3,0,1,19,21,11
1,1,0,0,3,0,1,19,59,11
1,1,15,1,5,1,1,19,90,11
1,1,23,0,5,1,1,19,67,11
1,1,1,0,6,1,1,19,100,11
1,1,17,1,6,1,1,19,40,11
1,1,15,1,0,0,1,19,67,11
1,1,2,0,1,0,1,19,74,11
1,1,15,1,3,0,1,19,74,11
1,1,23,0,6,1,1,19,100,11
2,1,13,1,0,0,1,19,59,11
2,1,20,1,1,0,1,19,3,11
2,1,9,1,4,0,1,19,67,11
2,1,16,1,4,0,1,19,100,11
2,1,17,1,4,0,1,19,67,11
2,1,21,0,6,1,1,19,67,11
2,1,21,0,5,1,1,19,100,11
2,1,2,0,6,1,1,19,67,9
2,1,6,0,0,0,1,19,2,11
2,1,0,0,2,0,1,19,74,11
2,1,1,0,2,0,1,19,100,11
2,1,0,0,3,0,1,19,47,11
2,1,10,1,4,0,1,19,77,11
2,1,21,0,4,0,1,19,67,11
2,1,18,1,6,1,1,19,67,11
2,1,15,1,0,0,1,19,67,11
2,1,18,1,4,0,1,19,67,11
2,1,18,1,5,1,1,19,74,11
2,1,11,1,5,1,1,19,77,11
2,1,3,0,5,1,1,19,14,11
3,2,15,1,1,0,1,19,67,11
3,2,8,1,1,0,1,19,90,11
3,2,0,0,2,0,1,19,100,11
3,2,21,0,2,0,1,19,130,11
3,2,17,1,3,0,1,19,67,11
3,2,0,0,3,0,1,19,100,11
3,2,21,0,4,0,1,19,59,11
3,2,11,1,5,1,1,19,93,11
3,2,20,1,6,1,1,19,100,11
3,2,1,0,1,0,1,19,67,11
3,2,23,0,1,0,1,19,67,11
3,2,13,1,1,0,1,19,67,11
3,2,9,1,0,0,1,19,66,11
3,2,13,1,0,0,1,19,67,11
3,2,9,1,3,0,1,19,40,11
3,2,22,0,3,0,1,19,100,11
3,2,19,1,6,1,1,19,77,11
3,2,11,1,6,1,1,19,93,11
3,2,12,1,1,0,1,19,67,11
3,2,9,1,3,0,1,19,67,11
3,2,20,1,4,0,1,19,67,11
3,2,17,1,4,0,1,19,21,11
3,2,14,1,6,1,1,19,67,11
3,2,12,1,0,0,1,19,49,11
3,2,2,0,1,0,1,19,131,11
3,2,4,0,2,0,1,19,21,11
4,2,18,1,5,1,2,19,77,11
4,2,0,0,3,0,2,19,54,11
4,2,10,1,4,0,2,19,66,11
4,2,8,1,4,0,2,19,74,11
4,2,14,1,5,1,2,19,130,11
4,2,1,0,5,1,2,19,74,11
4,2,15,1,5,1,2,19,104,11
4,2,18,1,3,0,2,19,100,11
4,2,16,1,4,0,2,19,93,11
4,2,21,0,6,1,2,19,40,11
4,2,16,1,3,0,2,19,67,11
4,2,10,1,3,0,2,19,59,11
4,2,13,1,5,1,2,19,93,11
4,2,16,1,6,1,2,19,67,11
4,2,20,1,2,0,2,19,104,11
5,2,0,0,6,1,2,19,114,11
5,2,10,1,1,0,2,19,67,11
5,2,8,1,1,0,2,19,122,11
5,2,17,1,2,0,2,19,91,9
5,2,12,1,2,0,2,19,67,11
5,2,15,1,3,0,2,19,67,11
5,2,11,1,3,0,2,19,67,11
5,2,17,1,4,0,2,19,67,11
5,2,3,0,6,1,2,19,21,11
5,2,17,1,4,0,2,19,104,11
5,2,18,1,5,1,2,19,21,11
5,2,10,1,6,1,2,19,49,11
5,2,3,0,1,0,2,19,121,11
5,2,16,1,2,0,2,19,15,11
5,2,10,1,3,0,2,19,67,11
5,2,19,1,4,0,2,19,67,11
5,2,19,1,6,1,2,19,93,11
5,2,5,0,0,0,2,19,100,11
5,2,10,1,0,0,2,19,67,11
5,2,16,1,3,0,2,19,81,11
5,2,17,1,3,0,2,19,3,9
5,2,11,1,5,1,2,19,67,11
5,2,15,1,1,0,2,19,67,9
6,3,21,0,2,0,2,19,66,9
6,3,14,1,4,0,2,19,28,11
6,3,10,1,4,0,2,19,93,11
6,3,8,1,4,0,2,19,67,11
6,3,15,1,4,0,2,19,74,11
6,3,21,0,3,0,2,19,67,11
6,3,0,0,4,0,2,19,67,11
6,3,16,1,5,1,2,19,129,11
6,3,14,1,1,0,2,19,59,11
6,3,15,1,1,0,2,19,93,11
6,3,3,0,3,0,2,19,32,11
6,3,9,1,3,0,2,19,67,11
6,3,14,1,4,0,2,19,67,11
6,3,21,0,1,0,2,19,107,11
6,3,20,1,3,0,2,19,67,11
6,3,3,0,3,0,2,19,40,9
6,3,11,1,4,0,2,19,21,11
6,3,1,0,6,1,2,19,104,11
6,3,13,1,2,0,2,19,67,11
6,3,4,0,2,0,2,19,74,11
7,3,21,0,4,0,3,19,14,11
7,3,15,1,0,0,3,19,67,11
7,3,10,1,0,0,3,19,54,11
7,3,16,1,1,0,3,19,67,11
7,3,3,0,1,0,3,19,93,11
7,3,11,1,2,0,3,19,67,11
7,3,0,0,2,0,3,19,104,11
7,3,20,1,2,0,3,19,67,11
7,3,12,1,2,0,3,19,67,11
7,3,13,1,0,0,3,19,93,11
7,3,17,1,2,0,3,19,67,9
7,3,14,1,2,0,3,19,21,11
7,3,18,1,0,0,3,19,89,11
7,3,0,0,3,0,3,19,21,11
7,3,17,1,4,0,3,19,104,11
7,3,17,1,4,0,3,19,85,11
7,3,18,1,5,1,3,19,104,11
7,3,9,1,6,1,3,19,93,11
7,3,17,1,6,1,3,19,67,8
8,3,14,1,1,0,3,19,67,11
8,3,1,0,1,0,3,19,100,11
8,3,13,1,6,1,3,19,93,11
8,3,13,1,3,0,3,19,93,11
8,3,14,1,2,0,3,19,104,11
8,3,19,1,1,0,3,19,67,11
8,3,20,1,1,0,3,19,62,11
8,3,4,0,2,0,3,19,90,11
8,3,23,0,2,0,3,19,105,11
9,4,18,1,5,1,3,19,93,11
9,4,22,0,5,1,3,19,67,11
9,4,15,1,6,1,3,19,93,11
9,4,15,1,0,0,3,19,40,11
9,4,13,1,0,0,3,19,66,11
9,4,21,0,0,0,3,19,67,11
9,4,0,0,3,0,3,19,21,11
9,4,17,1,6,1,3,19,67,11
9,4,2,0,6,1,3,19,100,11
9,4,2,0,6,1,3,19,100,11
9,4,8,1,0,0,3,19,67,11
9,4,11,1,1,0,3,19,90,11
9,4,15,1,1,0,3,19,77,9
9,4,12,1,1,0,3,19,21,11
9,4,18,1,5,1,3,19,93,11
9,4,17,1,6,1,3,19,107,11
9,4,23,0,1,0,3,19,104,11
9,4,1,0,2,0,3,19,93,11
9,4,14,1,2,0,3,19,3,11
9,4,19,1,2,0,3,19,100,11
9,4,20,1,2,0,3,19,67,11
10,4,17,1,5,1,4,19,67,11
10,4,13,1,2,0,4,19,67,11
10,4,10,1,3,0,4,19,21,11
10,4,13,1,4,0,4,19,100,11
10,4,13,1,0,0,4,19,67,11
10,4,2,0,1,0,4,19,63,11
10,4,9,1,2,0,4,19,100,11
10,4,12,1,2,0,4,19,59,11
10,4,20,1,3,0,4,19,77,11
10,4,0,0,4,0,4,19,21,11
10,4,12,1,4,0,4,19,3,11
10,4,17,1,4,0,4,19,1,11
10,4,14,1,5,1,4,19,77,11
10,4,0,0,5,1,4,19,100,11
10,4,22,0,6,1,4,19,67,11
10,4,12,1,6,1,4,19,74,11
10,4,14,1,0,0,4,19,93,11
10,4,18,1,0,0,4,19,67,11
10,4,18,1,4,0,4,19,77,11
10,4,20,1,5,1,4,19,67,11
10,4,17,1,0,0,4,19,100,11
11,4,16,1,1,0,4,19,74,11
11,4,12,1,3,0,4,19,100,11
11,4,3,0,4,0,4,19,74,11
11,4,13,1,6,1,4,19,67,11
11,4,3,0,1,0,4,19,59,11
11,4,2,0,1,0,4,19,48,11
11,4,18,1,1,0,4,19,67,11
11,4,12,1,4,0,4,19,107,9
11,4,11,1,1,0,4,19,3,11
11,4,17,1,2,0,4,19,67,9
11,4,15,1,4,0,4,19,77,11
11,4,18,1,6,1,4,19,3,11
11,4,21,0,0,0,4,19,40,11
11,4,20,1,2,0,4,19,21,11
11,4,10,1,5,1,4,19,67,11
11,4,0,0,6,1,4,19,67,11
12,1,4,0,5,1,4,19,67,11
12,1,16,1,5,1,4,19,100,11
12,1,14,1,1,0,4,19,100,11
12,1,10,1,5,1,4,19,77,8
12,1,17,1,0,0,4,19,104,11
12,1,23,0,3,0,4,19,93,11
12,1,20,1,3,0,4,19,100,11
12,1,12,1,3,0,4,19,40,11
12,1,18,1,6,1,4,19,104,11
12,1,14,1,6,1,4,19,67,11
12,1,21,0,6,1,4,19,67,11
12,1,1,0,0,0,4,19,121,11
12,1,13,1,1,0,4,19,67,11
12,1,16,1,2,0,4,19,3,11
12,1,19,1,2,0,4,19,67,11
12,1,12,1,2,0,4,19,100,11
12,1,1,0,3,0,4,19,67,11
12,1,12,1,3,0,4,19,67,11
12,1,14,1,4,0,4,19,100,11
12,1,17,1,5,1,4,19,59,11
12,1,12,1,6,1,4,19,100,11
12,1,10,1,0,0,4,19,67,11
12,1,7,1,0,0,4,19,130,11
12,1,4,0,0,0,4,19,67,11
12,1,23,0,1,0,4,19,90,11
12,1,21,0,1,0,4,19,100,11
12,1,21,0,3,0,4,19,67,11
12,1,20,1,4,0,4,19,100,11
12,1,6,0,5,1,4,19,67,11
12,1,7,1,5,1,4,19,14,11
6,3,14,1,1,0,2,19,93,11
8,3,20,1,0,0,3,19,14,11
1,1,0,0,4,0,1,19,21,11
1,1,16,1,5,1,1,19,132,11
1,1,21,0,0,0,1,19,77,11
1,1,19,1,1,0,1,19,104,11
1,1,15,1,2,0,1,19,99,11
1,1,20,1,3,0,1,19,132,11
1,1,4,0,4,0,1,19,21,9
1,1,15,1,4,0,1,19,13,9
1,1,15,1,1,0,1,19,104,11
1,1,16,1,1,0,1,19,93,11
1,1,14,1,1,0,1,19,93,11
1,1,21,0,2,0,1,19,93,9
1,1,18,1,3,0,1,19,104,11
1,1,9,1,3,0,1,19,3,11
1,1,17,1,4,0,1,19,58,11
1,1,14,1,4,0,1,19,93,11
1,1,14,1,4,0,1,19,93,9
1,1,23,0,5,1,1,19,89,9
1,1,15,1,6,1,1,19,104,11
1,1,14,1,0,0,1,19,58,11
1,1,20,1,0,0,1,19,104,11
1,1,13,1,2,0,1,19,93,11
1,1,16,1,3,0,1,19,77,9
1,1,13,1,5,1,1,19,93,11
1,1,16,1,5,1,1,19,104,11
1,1,17,1,5,1,1,19,104,11
1,1,15,1,5,1,1,19,104,11
1,1,15,1,6,1,1,19,104,11
1,1,19,1,6,1,1,19,77,11
2,1,16,1,0,0,1,19,104,11
2,1,1,0,0,0,1,19,93,11
2,1,17,1,1,0,1,19,104,11
2,1,14,1,2,0,1,19,132,11
2,1,17,1,3,0,1,19,132,11
2,1,13,1,4,0,1,19,23,11
2,1,14,1,5,1,1,19,58,11
2,1,15,1,2,0,1,19,3,11
2,1,16,1,3,0,1,19,3,11
2,1,13,1,3,0,1,19,132,11
2,1,10,1,6,1,1,19,77,11
2,1,12,1,1,0,1,19,24,9
2,1,9,1,2,0,1,19,47,9
2,1,4,0,5,1,1,19,21,11
2,1,3,0,6,1,1,19,74,11
2,1,13,1,1,0,1,19,3,11
2,1,14,1,1,0,1,19,104,11
2,1,23,0,3,0,1,19,3,9
2,1,18,1,4,0,1,19,132,11
2,1,15,1,5,1,1,19,3,11
3,2,6,0,4,0,1,19,132,11
3,2,14,1,3,0,1,19,104,11
3,2,18,1,6,1,1,19,3,11
3,2,12,1,0,0,1,19,104,11
3,2,1,0,1,0,1,19,104,11
3,2,15,1,5,1,1,19,3,11
3,2,16,1,2,0,1,19,132,11
4,2,18,1,0,0,2,19,104,11
4,2,13,1,2,0,2,19,104,11
4,2,10,1,4,0,2,19,26,8
4,2,15,1,5,1,2,19,132,11
4,2,20,1,5,1,2,19,132,11
4,2,13,1,4,0,2,19,132,11
4,2,15,1,5,1,2,19,132,11
4,2,11,1,0,0,2,19,3,11
4,2,14,1,1,0,2,19,104,11
4,2,13,1,1,0,2,19,47,11
4,2,11,1,2,0,2,19,93,11
4,2,16,1,3,0,2,19,93,11
4,2,13,1,5,1,2,19,104,11
4,2,18,1,1,0,2,19,104,11
4,2,21,0,2,0,2,19,40,11
4,2,16,1,2,0,2,19,132,11
4,2,1,0,3,0,2,19,74,8
4,2,17,1,3,0,2,19,104,11
4,2,2,0,4,0,2,19,21,9
5,2,20,1,6,1,2,19,132,11
5,2,12,1,2,0,2,19,93,11
5,2,9,1,3,0,2,19,21,11
5,2,18,1,3,0,2,19,104,11
5,2,14,1,4,0,2,19,65,9
5,2,19,1,5,1,2,19,104,11
5,2,20,1,0,0,2,19,3,11
5,2,17,1,2,0,2,19,104,11
5,2,12,1,1,0,2,19,104,11
5,2,3,0,1,0,2,19,74,11
5,2,14,1,1,0,2,19,104,11
5,2,18,1,1,0,2,19,104,11
5,2,12,1,3,0,2,19,104,11
5,2,18,1,3,0,2,19,93,11
5,2,13,1,1,0,2,19,21,11
5,2,13,1,3,0,2,19,132,11
5,2,16,1,6,1,2,19,104,11
5,2,17,1,1,0,2,19,26,9
6,3,16,1,3,0,2,19,111,9
6,3,20,1,4,0,2,19,93,11
6,3,16,1,5,1,2,19,93,11
6,3,2,0,6,1,2,19,21,11
6,3,22,0,6,1,2,19,132,11
6,3,21,0,0,0,2,19,90,11
6,3,23,0,0,0,2,19,3,11
6,3,6,0,1,0,2,19,104,11
6,3,14,1,3,0,2,19,14,11
6,3,15,1,6,1,2,19,3,11
6,3,19,1,6,1,2,19,93,9
6,3,12,1,1,0,2,19,59,11
6,3,17,1,2,0,2,19,21,11
6,3,14,1,2,0,2,19,132,11
6,3,10,1,4,0,2,19,47,11
6,3,7,1,5,1,2,19,104,11
6,3,13,1,6,1,2,19,26,11
6,3,21,0,6,1,2,19,104,11
6,3,14,1,0,0,2,19,130,11
6,3,16,1,1,0,2,19,93,11
6,3,12,1,2,0,2,19,93,11
6,3,3,0,2,0,2,19,104,11
6,3,17,1,2,0,2,19,104,11
6,3,14,1,0,0,2,19,104,11
6,3,19,1,0,0,2,19,104,11
6,3,13,1,0,0,2,19,104,11
6,3,12,1,1,0,2,19,93,11
6,3,23,0,1,0,2,19,104,11
6,3,13,1,1,0,2,19,104,11
6,3,2,0,3,0,2,19,109,11
6,3,18,1,3,0,2,19,104,11
6,3,12,1,3,0,2,19,104,11
7,3,22,0,4,0,3,19,93,8
7,3,14,1,4,0,3,19,128,8
7,3,21,0,5,1,3,19,132,11
7,3,13,1,6,1,3,19,104,11
7,3,19,1,0,0,3,19,104,11
7,3,18,1,0,0,3,19,104,11
7,3,14,1,0,0,3,19,104,11
7,3,14,1,3,0,3,19,83,11
7,3,7,1,5,1,3,19,132,11
7,3,16,1,5,1,3,19,111,11
7,3,11,1,4,0,3,19,93,11
7,3,19,1,5,1,3,19,93,11
7,3,17,1,0,0,3,19,3,11
7,3,16,1,0,0,3,19,3,11
7,3,16,1,0,0,3,19,104,8
7,3,0,0,1,0,3,19,104,11
7,3,11,1,2,0,3,19,132,11
7,3,15,1,3,0,3,19,104,11
7,3,12,1,3,0,3,19,3,11
7,3,20,1,4,0,3,19,104,11
7,3,17,1,4,0,3,19,93,11
7,3,21,0,4,0,3,19,93,11
7,3,13,1,4,0,3,19,104,11
7,3,23,0,0,0,3,19,104,11
7,3,6,0,0,0,3,19,3,11
7,3,5,0,1,0,3,19,21,11
7,3,21,0,2,0,3,19,90,11
7,3,19,1,2,0,3,19,3,11
7,3,12,1,3,0,3,19,104,11
7,3,14,1,5,1,3,19,3,11
7,3,10,1,5,1,3,19,104,11
8,3,8,1,2,0,3,19,111,11
8,3,8,1,3,0,3,19,47,11
8,3,21,0,6,1,3,19,93,11
8,3,1,0,1,0,3,19,67,11
8,3,2,0,2,0,3,19,3,11
8,3,8,1,2,0,3,19,88,11
8,3,17,1,4,0,3,19,47,11
8,3,13,1,4,0,3,19,93,9
8,3,3,0,5,1,3,19,47,11
8,3,14,1,6,1,3,19,129,11
8,3,17,1,0,0,3,19,93,11
8,3,15,1,0,0,3,19,21,11
8,3,19,1,2,0,3,19,21,11
8,3,12,1,2,0,3,19,93,11
8,3,13,1,3,0,3,19,104,11
8,3,17,1,3,0,3,19,93,8
8,3,8,1,3,0,3,19,74,11
8,3,14,1,5,1,3,19,42,11
8,3,11,1,5,1,3,19,77,11
8,3,21,0,5,1,3,19,93,11
8,3,15,1,0,0,3,19,120,8
8,3,7,1,1,0,3,19,40,11
8,3,17,1,2,0,3,19,104,11
8,3,12,1,4,0,3,19,74,11
8,3,22,0,5,1,3,19,104,11
8,3,11,1,5,1,3,19,104,11
8,3,21,0,6,1,3,19,3,11
8,3,19,1,0,0,3,19,104,11
8,3,10,1,1,0,3,19,93,9
8,3,12,1,1,0,3,19,74,11
8,3,13,1,2,0,3,19,93,11
9,4,8,1,3,0,3,19,104,11
9,4,20,1,6,1,3,19,104,11
9,4,12,1,6,1,3,19,104,11
9,4,0,0,6,1,3,19,3,9
9,4,9,1,6,1,3,19,104,11
9,4,16,1,0,0,3,19,104,11
9,4,12,1,0,0,3,19,104,11
9,4,10,1,0,0,3,19,104,11
9,4,15,1,1,0,3,19,77,9
9,4,16,1,2,0,3,19,93,11
9,4,8,1,2,0,3,19,74,9
9,4,8,1,4,0,3,19,132,11
9,4,10,1,5,1,3,19,74,11
9,4,0,0,1,0,3,19,93,11
9,4,9,1,2,0,3,19,74,11
9,4,23,0,3,0,3,19,47,11
9,4,10,1,4,0,3,19,104,11
9,4,5,0,6,1,3,19,77,8
9,4,12,1,0,0,3,19,49,11
9,4,20,1,1,0,3,19,104,11
9,4,19,1,2,0,3,19,104,11
9,4,16,1,3,0,3,19,132,11
9,4,15,1,3,0,3,19,21,11
10,4,16,1,5,1,4,19,104,11
10,4,15,1,6,1,4,19,67,11
10,4,19,1,6,1,4,19,93,11
10,4,22,0,6,1,4,19,104,11
10,4,8,1,6,1,4,19,132,9
10,4,16,1,4,0,4,19,104,11
10,4,19,1,4,0,4,19,28,11
10,4,11,1,6,1,4,19,132,11
10,4,12,1,2,0,4,19,104,9
10,4,19,1,6,1,4,19,132,11
10,4,19,1,1,0,4,19,77,11
10,4,23,0,5,1,4,19,104,11
10,4,20,1,6,1,4,19,3,9
11,4,9,1,1,0,4,19,104,11
11,4,18,1,1,0,4,19,104,11
11,4,13,1,1,0,4,19,93,11
11,4,23,0,1,0,4,19,93,11
11,4,16,1,3,0,4,19,107,11
11,4,12,1,4,0,4,19,125,11
11,4,10,1,5,1,4,19,3,11
11,4,12,1,5,1,4,19,3,11
11,4,11,1,4,0,4,19,74,11
11,4,21,0,5,1,4,19,93,11
11,4,23,0,0,0,4,19,40,11
11,4,20,1,2,0,4,19,104,11
11,4,22,0,6,1,4,19,132,9
11,4,18,1,0,0,4,19,104,11
11,4,15,1,0,0,4,19,132,11
11,4,17,1,0,0,4,19,132,11
11,4,1,0,4,0,4,19,104,11
11,4,21,0,0,0,4,19,132,11
11,4,17,1,1,0,4,19,77,11
12,1,4,0,3,0,4,19,47,11
12,1,12,1,5,1,4,19,104,11
12,1,13,1,2,0,4,19,132,11
12,1,18,1,5,1,4,19,132,11
12,1,15,1,5,1,4,19,104,11
12,1,13,1,5,1,4,19,132,11
12,1,17,1,0,0,4,19,3,11
12,1,23,0,1,0,4,19,104,11
12,1,17,1,1,0,4,19,104,11
12,1,9,1,1,0,4,19,14,9
12,1,13,1,2,0,4,19,74,11
12,1,13,1,3,0,4,19,77,9
12,1,22,0,3,0,4,19,93,9
12,1,21,0,1,0,4,19,77,11
12,1,12,1,4,0,4,19,132,11
12,1,17,1,4,0,4,19,104,11
12,1,13,1,6,1,4,19,93,11
12,1,17,1,0,0,4,19,104,11
12,1,16,1,0,0,4,19,104,11
12,1,15,1,1,0,4,19,104,11
12,1,7,1,1,0,4,19,21,11
12,1,17,1,1,0,4,19,3,11
12,1,16,1,2,0,4,19,104,11
12,1,19,1,2,0,4,19,104,11
12,1,16,1,2,0,4,19,104,11
12,1,17,1,4,0,4,19,93,9
12,1,13,1,4,0,4,19,122,9
12,1,23,0,4,0,4,19,104,11
12,1,12,1,5,1,4,19,93,11
1,1,14,1,5,1,1,19,104,11
1,1,21,0,2,0,1,19,21,11
1,1,19,1,2,0,1,19,132,11
1,1,8,1,3,0,1,19,132,11
1,1,17,1,3,0,1,19,104,11
1,1,12,1,6,1,1,19,77,11
1,1,15,1,6,1,1,19,77,11
1,1,1,0,2,0,1,19,77,9
1,1,19,1,2,0,1,19,3,11
1,1,10,1,2,0,1,19,77,11
1,1,10,1,5,1,1,19,40,8
1,1,14,1,6,1,1,19,40,8
1,1,10,1,5,1,1,19,90,11
1,1,14,1,6,1,1,19,132,8
2,1,10,1,1,0,1,19,3,11
2,1,14,1,5,1,1,19,104,11
2,1,18,1,5,1,1,19,104,11
2,1,21,0,6,1,1,19,100,11
2,1,6,0,0,0,1,19,100,11
2,1,18,1,0,0,1,19,104,11
2,1,15,1,4,0,1,19,93,9
2,1,19,1,4,0,1,19,104,11
2,1,15,1,0,0,1,19,3,11
2,1,17,1,5,1,1,19,40,11
3,2,15,1,1,0,1,19,3,11
3,2,14,1,1,0,1,19,104,11
3,2,14,1,3,0,1,19,104,11
3,2,19,1,4,0,1,19,47,11
3,2,12,1,5,1,1,19,93,11
3,2,16,1,0,0,1,19,93,11
3,2,12,1,1,0,1,19,67,11
3,2,15,1,1,0,1,19,3,11
3,2,15,1,1,0,1,19,3,11
3,2,23,0,4,0,1,19,77,11
3,2,19,1,5,1,1,19,90,11
3,2,1,0,6,1,1,19,24,11
3,2,0,0,4,0,1,19,3,11
3,2,16,1,2,0,1,19,93,11
3,2,20,1,2,0,1,19,3,11
4,2,1,0,6,1,2,19,100,11
4,2,13,1,6,1,2,19,14,11
4,2,17,1,2,0,2,19,104,9
4,2,7,1,3,0,2,19,77,11
4,2,2,0,4,0,2,19,77,11
4,2,17,1,0,0,2,19,132,11
4,2,11,1,1,0,2,19,104,11
4,2,13,1,4,0,2,19,93,9
4,2,1,0,1,0,2,19,21,11
4,2,14,1,2,0,2,19,93,11
4,2,14,1,2,0,2,19,93,9
4,2,19,1,2,0,2,19,104,11
4,2,20,1,2,0,2,19,104,11
4,2,16,1,3,0,2,19,3,9
4,2,14,1,3,0,2,19,93,11
4,2,13,1,3,0,2,19,93,11
4,2,11,1,3,0,2,19,14,9
4,2,10,1,4,0,2,19,93,11
4,2,18,1,4,0,2,19,3,9
4,2,17,1,6,1,2,19,3,11
4,2,20,1,6,1,2,19,93,11
4,2,13,1,6,1,2,19,104,11
4,2,12,1,3,0,2,19,104,11
5,2,21,0,6,1,2,19,132,11
5,2,20,1,3,0,2,19,67,11
5,2,6,0,2,0,2,19,13,8
5,2,13,1,4,0,2,19,132,11
5,2,6,0,4,0,2,19,61,9
5,2,14,1,5,1,2,19,3,9
5,2,11,1,5,1,2,19,93,11
6,3,17,1,3,0,2,19,104,11
6,3,12,1,3,0,2,19,104,9
6,3,20,1,4,0,2,19,77,11
6,3,0,0,3,0,2,19,21,11
6,3,20,1,5,1,2,19,3,11
6,3,9,1,1,0,2,19,21,9
6,3,22,0,3,0,2,19,132,11
6,3,16,1,4,0,2,19,21,11
6,3,11,1,5,1,2,19,93,11
6,3,10,1,1,0,2,19,104,11
6,3,19,1,2,0,2,19,104,11
6,3,2,0,4,0,2,19,21,9
6,3,13,1,1,0,2,19,104,11
6,3,17,1,3,0,2,19,132,11
7,3,20,1,4,0,3,19,74,11
7,3,23,0,0,0,3,19,104,11
7,3,11,1,1,0,3,19,93,11
7,3,17,1,4,0,3,19,77,8
7,3,14,1,4,0,3,19,40,9
7,3,7,1,5,1,3,19,3,11
7,3,16,1,5,1,3,19,93,11
7,3,22,0,6,1,3,19,104,11
7,3,8,1,6,1,3,19,122,11
7,3,18,1,1,0,3,19,132,9
7,3,15,1,3,0,3,19,104,11
7,3,12,1,5,1,3,19,132,9
7,3,2,0,6,1,3,19,104,11
7,3,3,0,2,0,3,19,21,11
7,3,13,1,3,0,3,19,93,11
7,3,20,1,4,0,3,19,104,11
7,3,16,1,5,1,3,19,104,11
7,3,18,1,2,0,3,19,104,11
7,3,14,1,6,1,3,19,104,11
8,3,21,0,1,0,3,19,104,11
8,3,19,1,1,0,3,19,104,11
8,3,10,1,5,1,3,19,14,11
8,3,20,1,6,1,3,19,77,9
8,3,18,1,0,0,3,19,3,11
8,3,16,1,0,0,3,19,3,11
8,3,14,1,1,0,3,19,21,11
8,3,6,0,1,0,3,19,112,11
8,3,16,1,2,0,3,19,77,9
8,3,12,1,3,0,3,19,74,11
8,3,7,1,4,0,3,19,104,11
8,3,22,0,4,0,3,19,3,11
8,3,13,1,0,0,3,19,77,11
8,3,21,0,0,0,3,19,3,9
8,3,22,0,2,0,3,19,24,11
8,3,23,0,5,1,3,19,104,11
8,3,21,0,6,1,3,19,94,11
8,3,17,1,1,0,3,19,93,11
9,4,0,0,1,0,3,19,122,9
9,4,9,1,3,0,3,19,93,11
9,4,22,0,3,0,3,19,104,11
9,4,18,1,4,0,3,19,3,9
9,4,22,0,4,0,3,19,104,11
9,4,21,0,2,0,3,19,132,9
9,4,12,1,3,0,3,19,104,11
9,4,17,1,4,0,3,19,104,11
9,4,21,0,4,0,3,19,104,11
9,4,18,1,0,0,3,19,132,9
9,4,19,1,1,0,3,19,132,11
10,4,19,1,0,0,4,19,40,9
10,4,18,1,2,0,4,19,4,11
10,4,17,1,2,0,4,19,93,11
10,4,21,0,3,0,4,19,3,9
10,4,17,1,3,0,4,19,104,9
10,4,0,0,6,1,4,19,3,11
10,4,19,1,2,0,4,19,104,11
11,4,16,1,2,0,4,19,93,9
11,4,18,1,5,1,4,19,3,11
11,4,21,0,0,0,4,19,104,11
11,4,21,0,0,0,4,19,132,9
11,4,15,1,1,0,4,19,93,9
11,4,9,1,3,0,4,19,104,11
11,4,11,1,1,0,4,19,3,11
11,4,11,1,3,0,4,19,14,9
11,4,1,0,4,0,4,19,3,11
12,1,18,1,5,1,4,19,132,11
12,1,20,1,2,0,4,19,77,11
12,1,3,0,3,0,4,19,74,11
12,1,20,1,3,0,4,19,3,11
12,1,20,1,4,0,4,19,132,11
12,1,17,1,5,1,4,19,104,11
12,1,8,1,6,1,4,19,104,11
12,1,19,1,6,1,4,19,132,9
12,1,23,0,0,0,4,19,132,11
12,1,2,0,2,0,4,19,89,11
12,1,11,1,3,0,4,19,104,11
12,1,17,1,5,1,4,19,132,11
12,1,12,1,6,1,4,19,14,9
12,1,13,1,0,0,4,19,77,9
12,1,20,1,0,0,4,19,74,11
12,1,17,1,3,0,4,19,104,11
12,1,17,1,4,0,4,19,104,11
12,1,20,1,6,1,4,19,40,11
12,1,16,1,6,1,4,19,104,11
12,1,14,1,0,0,4,19,40,9
12,1,15,1,0,0,4,19,3,9
12,1,15,1,1,0,4,19,3,11
12,1,16,1,1,0,4,19,3,11
12,1,16,1,2,0,4,19,104,11
12,1,12,1,2,0,4,19,77,11
12,1,11,1,4,0,4,19,77,11
12,1,17,1,4,0,4,19,82,8
12,1,15,1,5,1,4,19,104,11
1,1,3,0,2,0,1,44,67,11
1,1,9,1,4,0,1,44,40,11
1,1,0,0,1,0,1,44,90,11
1,1,14,1,5,1,1,44,77,11
1,1,20,1,6,1,1,44,67,11
1,1,21,0,6,1,1,44,67,11
1,1,20,1,1,0,1,44,67,11
1,1,13,1,3,0,1,44,104,11
1,1,15,1,3,0,1,44,104,11
1,1,5,0,4,0,1,44,93,9
1,1,16,1,5,1,1,44,90,11
1,1,12,1,6,1,1,44,104,11
2,1,17,1,1,0,1,44,104,11
2,1,15,1,6,1,1,44,77,11
2,1,16,1,4,0,1,44,3,11
2,1,14,1,3,0,1,44,104,11
2,1,0,0,4,0,1,44,49,11
2,1,21,0,5,1,1,44,77,11
2,1,21,0,4,0,1,44,67,11
2,1,18,1,0,0,1,44,104,11
3,2,18,1,1,0,1,44,104,11
3,2,11,1,1,0,1,44,77,8
3,2,14,1,2,0,1,44,104,11
3,2,23,0,3,0,1,44,100,11
3,2,0,0,4,0,1,44,74,11
3,2,14,1,0,0,1,44,21,11
3,2,20,1,0,0,1,44,104,11
3,2,1,0,4,0,1,44,67,11
3,2,9,1,5,1,1,44,67,11
3,2,4,0,6,1,1,44,77,11
3,2,13,1,6,1,1,44,67,11
3,2,14,1,1,0,1,44,104,11
3,2,12,1,5,1,1,44,93,11
3,2,19,1,3,0,1,44,90,11
3,2,23,0,3,0,1,44,66,11
4,2,17,1,2,0,2,44,104,11
4,2,15,1,5,1,2,44,104,11
4,2,5,0,6,1,2,44,21,11
4,2,16,1,2,0,2,44,74,11
4,2,12,1,3,0,2,44,77,11
4,2,2,0,1,0,2,44,104,11
4,2,3,0,1,0,2,44,104,11
4,2,3,0,1,0,2,44,90,11
4,2,5,0,1,0,2,44,90,11
4,2,16,1,2,0,2,44,93,11
4,2,0,0,4,0,2,44,77,11
4,2,14,1,5,1,2,44,104,11
4,2,22,0,6,1,2,44,81,11
4,2,11,1,2,0,2,44,130,11
4,2,22,0,3,0,2,44,90,11
5,2,9,1,5,1,2,44,21,11
5,2,1,0,3,0,2,44,100,11
5,2,1,0,3,0,2,44,100,11
5,2,0,0,4,0,2,44,100,11
5,2,1,0,4,0,2,44,100,11
5,2,18,1,5,1,2,44,78,11
5,2,20,1,1,0,2,44,90,11
5,2,17,1,4,0,2,44,104,11
5,2,15,1,6,1,2,44,77,11
5,2,13,1,0,0,2,44,77,11
5,2,13,1,0,0,2,44,104,11
6,3,14,1,1,0,2,44,67,11
6,3,3,0,3,0,2,44,90,11
6,3,11,1,4,0,2,44,104,11
6,3,15,1,4,0,2,44,121,11
6,3,23,0,4,0,2,44,90,11
6,3,4,0,1,0,2,44,90,11
6,3,13,1,3,0,2,44,21,9
6,3,23,0,4,0,2,44,90,11
7,3,4,0,4,0,3,44,100,11
7,3,17,1,4,0,3,44,93,11
7,3,19,1,2,0,3,44,104,11
7,3,12,1,3,0,3,44,112,11
7,3,12,1,1,0,3,44,93,11
7,3,17,1,2,0,3,44,13,8
7,3,3,0,3,0,3,44,100,11
7,3,0,0,5,1,3,44,100,11
7,3,1,0,5,1,3,44,100,11
7,3,16,1,5,1,3,44,104,11
7,3,1,0,6,1,3,44,100,11
7,3,16,1,6,1,3,44,65,9
7,3,20,1,6,1,3,44,91,11
7,3,14,1,0,0,3,44,93,11
7,3,14,1,0,0,3,44,93,9
7,3,16,1,0,0,3,44,8,9
7,3,20,1,0,0,3,44,67,11
7,3,16,1,2,0,3,44,93,11
7,3,11,1,3,0,3,44,104,11
7,3,18,1,3,0,3,44,104,9
7,3,3,0,4,0,3,44,100,11
7,3,16,1,5,1,3,44,104,11
7,3,18,1,6,1,3,44,93,9
7,3,13,1,1,0,3,44,104,11
7,3,11,1,3,0,3,44,104,11
7,3,12,1,4,0,3,44,67,11
8,3,5,0,5,1,3,44,100,11
8,3,4,0,5,1,3,44,100,11
8,3,0,0,1,0,3,44,112,11
8,3,8,1,1,0,3,44,123,11
8,3,15,1,2,0,3,44,104,11
8,3,17,1,2,0,3,44,104,11
8,3,20,1,3,0,3,44,18,11
8,3,12,1,5,1,3,44,104,11
8,3,23,0,5,1,3,44,21,11
8,3,15,1,6,1,3,44,93,11
8,3,19,1,6,1,3,44,104,11
8,3,6,0,0,0,3,44,90,11
8,3,16,1,0,0,3,44,102,11
8,3,20,1,0,0,3,44,104,11
8,3,12,1,1,0,3,44,104,11
8,3,20,1,1,0,3,44,104,11
8,3,12,1,4,0,3,44,104,11
8,3,15,1,4,0,3,44,104,11
8,3,23,0,6,1,3,44,104,11
8,3,21,0,2,0,3,44,91,11
8,3,12,1,4,0,3,44,104,11
8,3,20,1,0,0,3,44,67,11
9,4,14,1,5,1,3,44,21,11
9,4,18,1,6,1,3,44,104,11
9,4,11,1,6,1,3,44,104,11
9,4,21,0,1,0,3,44,3,11
9,4,13,1,4,0,3,44,40,11
9,4,0,0,5,1,3,44,104,11
9,4,17,1,0,0,3,44,93,11
9,4,18,1,3,0,3,44,104,11
9,4,11,1,6,1,3,44,104,11
9,4,22,0,1,0,3,44,77,11
9,4,11,1,6,1,3,44,104,11
10,4,15,1,5,1,4,44,3,11
10,4,18,1,1,0,4,44,3,11
10,4,15,1,2,0,4,44,3,11
10,4,13,1,2,0,4,44,26,11
10,4,17,1,3,0,4,44,104,11
10,4,18,1,5,1,4,44,90,11
10,4,20,1,2,0,4,44,77,11
10,4,9,1,3,0,4,44,21,11
10,4,2,0,5,1,4,44,100,11
10,4,3,0,5,1,4,44,100,11
10,4,10,1,6,1,4,44,3,11
11,4,15,1,2,0,4,44,77,11
11,4,15,1,2,0,4,44,22,11
11,4,20,1,3,0,4,44,104,11
11,4,19,1,6,1,4,44,74,11
11,4,10,1,0,0,4,44,74,11
11,4,13,1,0,0,4,44,93,11
11,4,12,1,1,0,4,44,93,11
11,4,8,1,1,0,4,44,100,11
11,4,16,1,3,0,4,44,104,11
11,4,1,0,0,0,4,44,100,11
11,4,13,1,2,0,4,44,100,11
11,4,17,1,3,0,4,44,67,11
12,1,23,0,5,1,4,44,77,11
12,1,9,1,6,1,4,44,59,8
12,1,13,1,3,0,4,44,3,11
12,1,12,1,6,1,4,44,3,11
12,1,13,1,5,1,4,44,3,11
12,1,12,1,0,0,4,44,67,11
12,1,17,1,1,0,4,44,3,11
12,1,6,0,2,0,4,44,21,11
12,1,11,1,6,1,4,44,74,11
12,1,11,1,6,1,4,44,77,11
12,1,10,1,6,1,4,44,67,11
12,1,15,1,0,0,4,44,104,11
12,1,9,1,3,0,4,44,104,11
12,1,18,1,3,0,4,44,104,11
12,1,14,1,3,0,4,44,104,11
12,1,11,1,3,0,4,44,104,11
12,1,17,1,4,0,4,44,104,11
1,1,13,1,1,0,1,44,77,11
2,1,16,1,1,0,1,44,3,11
2,1,14,1,6,1,1,44,77,11
2,1,12,1,3,0,1,44,77,11
3,2,17,1,0,0,1,44,3,11
3,2,0,0,1,0,1,44,21,9
3,2,20,1,5,1,1,44,104,11
3,2,2,0,5,1,1,44,78,11
3,2,18,1,0,0,1,44,104,11
4,2,16,1,3,0,2,44,3,11
5,2,15,1,5,1,2,44,104,11
5,2,8,1,1,0,2,44,24,11
6,3,17,1,2,0,2,44,3,11
6,3,16,1,5,1,2,44,3,11
6,3,21,0,3,0,2,44,104,11
6,3,11,1,6,1,2,44,3,11
6,3,18,1,3,0,2,44,3,11
7,3,15,1,0,0,3,44,3,11
7,3,18,1,0,0,3,44,104,11
7,3,13,1,0,0,3,44,104,11
7,3,4,0,2,0,3,44,104,11
7,3,18,1,4,0,3,44,104,9
7,3,21,0,2,0,3,44,104,11
7,3,4,0,5,1,3,44,3,11
8,3,9,1,0,0,3,44,3,11
8,3,13,1,3,0,3,44,3,11
8,3,20,1,6,1,3,44,3,11
8,3,20,1,1,0,3,44,3,11
8,3,8,1,2,0,3,44,14,11
8,3,0,0,1,0,3,44,3,11
8,3,15,1,1,0,3,44,3,11
8,3,17,1,2,0,3,44,3,9
8,3,11,1,3,0,3,44,3,11
8,3,20,1,3,0,3,44,3,11
8,3,19,1,5,1,3,44,3,11
8,3,20,1,0,0,3,44,112,11
8,3,19,1,3,0,3,44,3,11
9,4,13,1,1,0,3,44,3,11
9,4,17,1,4,0,3,44,3,11
9,4,9,1,0,0,3,44,74,11
9,4,18,1,5,1,3,44,3,11
9,4,16,1,1,0,3,44,3,11
9,4,17,1,2,0,3,44,13,11
9,4,12,1,3,0,3,44,3,11
9,4,14,1,3,0,3,44,3,11
10,4,18,1,1,0,4,44,104,11
10,4,15,1,5,1,4,44,3,11
10,4,21,0,6,1,4,44,90,11
10,4,13,1,2,0,4,44,21,11
10,4,18,1,3,0,4,44,3,11
10,4,11,1,6,1,4,44,3,11
10,4,18,1,0,0,4,44,41,11
10,4,16,1,0,0,4,44,74,11
11,4,20,1,5,1,4,44,3,11
11,4,9,1,0,0,4,44,43,11
11,4,17,1,4,0,4,44,3,11
11,4,0,0,4,0,4,44,77,11
11,4,18,1,6,1,4,44,3,11
12,1,20,1,1,0,4,44,77,11
12,1,22,0,1,0,4,44,3,11
12,1,13,1,5,1,4,44,3,11
12,1,15,1,0,0,4,44,104,11
12,1,18,1,0,0,4,44,104,11
12,1,13,1,1,0,4,44,3,11
12,1,17,1,1,0,4,44,3,11
12,1,19,1,2,0,4,44,3,11
12,1,15,1,5,1,4,44,3,11
12,1,15,1,1,0,4,44,77,11
12,1,17,1,2,0,4,44,3,11
12,1,14,1,2,0,4,44,3,11
12,1,10,1,3,0,4,44,100,11
12,1,1,0,4,0,4,44,3,11
1,1,6,0,4,0,1,44,90,11
1,1,18,1,2,0,1,44,40,11
2,1,6,0,6,1,1,44,100,11
2,1,22,0,0,0,1,44,90,9
2,1,18,1,1,0,1,44,104,11
2,1,16,1,5,1,1,44,100,11
3,2,19,1,1,0,1,44,77,11
3,2,21,0,5,1,1,44,112,11
3,2,22,0,4,0,1,44,77,11
4,2,19,1,4,0,2,44,104,11
4,2,14,1,4,0,2,44,104,11
4,2,16,1,5,1,2,44,93,11
4,2,18,1,3,0,2,44,21,11
4,2,8,1,6,1,2,44,112,11
5,2,13,1,0,0,2,44,77,11
5,2,19,1,5,1,2,44,3,11
5,2,11,1,2,0,2,44,112,11
6,3,1,0,0,0,2,44,112,11
6,3,5,0,0,0,2,44,112,11
6,3,17,1,1,0,2,44,112,11
6,3,16,1,6,1,2,44,18,11
6,3,14,1,3,0,2,44,104,11
6,3,15,1,5,1,2,44,93,11
6,3,22,0,5,1,2,44,104,11
6,3,11,1,6,1,2,44,93,11
7,3,20,1,4,0,3,44,3,11
7,3,16,1,5,1,3,44,112,11
7,3,20,1,5,1,3,44,112,11
7,3,9,1,6,1,3,44,21,11
7,3,8,1,3,0,3,44,112,11
7,3,16,1,4,0,3,44,93,11
8,3,14,1,5,1,3,44,104,11
8,3,3,0,5,1,3,44,100,11
8,3,13,1,2,0,3,44,40,11
8,3,12,1,2,0,3,44,104,11
9,4,12,1,5,1,3,44,104,11
9,4,15,1,6,1,3,44,93,11
9,4,12,1,0,0,3,44,93,11
9,4,19,1,0,0,3,44,104,11
9,4,14,1,6,1,3,44,93,11
9,4,23,0,5,1,3,44,90,11
9,4,20,1,0,0,3,44,130,11
9,4,19,1,3,0,3,44,93,11
10,4,11,1,5,1,4,44,3,11
10,4,18,1,5,1,4,44,13,11
10,4,20,1,6,1,4,44,3,11
10,4,21,0,6,1,4,44,3,11
10,4,15,1,0,0,4,44,3,11
10,4,9,1,1,0,4,44,93,11
10,4,16,1,2,0,4,44,3,11
10,4,20,1,2,0,4,44,104,11
10,4,18,1,6,1,4,44,74,11
10,4,13,1,2,0,4,44,77,11
10,4,13,1,4,0,4,44,77,11
10,4,17,1,6,1,4,44,3,11
10,4,20,1,0,0,4,44,40,11
11,4,15,1,2,0,4,44,93,11
11,4,18,1,5,1,4,44,104,11
11,4,15,1,5,1,4,44,104,11
12,1,14,1,3,0,4,44,14,11
12,1,12,1,6,1,4,44,104,11
12,1,17,1,1,0,4,44,129,11
12,1,16,1,1,0,4,44,3,11
12,1,1,0,6,1,4,44,90,11
12,1,17,1,1,0,4,44,90,11
12,1,14,1,1,0,4,44,3,11
12,1,11,1,4,0,4,44,3,11
12,1,16,1,4,0,4,44,3,11
12,1,17,1,0,0,4,44,90,11
12,1,10,1,0,0,4,44,77,11
12,1,0,0,2,0,4,44,14,9
12,1,13,1,3,0,4,44,104,11
12,1,12,1,4,0,4,44,104,11
12,1,12,1,6,1,4,44,104,11
12,1,13,1,6,1,4,44,104,11
12,1,17,1,6,1,4,44,104,11
12,1,11,1,0,0,4,44,104,11
12,1,9,1,2,0,4,44,104,11
12,1,13,1,2,0,4,44,104,11
12,1,13,1,3,0,4,44,104,11
12,1,16,1,4,0,4,44,104,11
12,1,11,1,5,1,4,44,91,11
1,1,16,1,6,1,1,44,13,11
2,1,13,1,3,0,1,44,77,11
3,2,4,0,5,1,1,44,26,11
6,3,3,0,3,0,2,44,90,11
7,3,22,0,0,0,3,44,21,11
12,1,13,1,6,1,4,44,40,11
2,1,14,1,2,0,1,44,104,11
2,1,17,1,4,0,1,44,104,11
3,2,6,0,6,1,1,44,74,11
5,2,17,1,0,0,2,44,104,11
6,3,8,1,3,0,2,44,77,11
6,3,19,1,3,0,2,44,65,11
6,3,20,1,2,0,2,44,104,11
7,3,22,0,4,0,3,44,21,9
7,3,4,0,5,1,3,44,21,11
7,3,3,0,0,0,3,44,104,11
7,3,12,1,1,0,3,44,104,11
8,3,11,1,5,1,3,44,104,11
8,3,12,1,5,1,3,44,3,11
8,3,16,1,2,0,3,44,93,9
8,3,9,1,6,1,3,44,104,11
8,3,16,1,5,1,3,44,104,11
10,4,20,1,0,0,4,44,104,11
10,4,19,1,5,1,4,44,90,11
10,4,12,1,5,1,4,44,77,8
10,4,16,1,6,1,4,44,104,11
10,4,13,1,2,0,4,44,77,11
10,4,17,1,5,1,4,44,104,11
10,4,18,1,0,0,4,44,104,11
11,4,15,1,2,0,4,44,104,11
11,4,15,1,2,0,4,44,112,11
11,4,17,1,1,0,4,44,90,11
12,1,13,1,5,1,4,44,104,11
12,1,13,1,5,1,4,44,3,11
12,1,8,1,3,0,4,44,77,9
1,1,17,1,1,0,1,44,77,11
1,1,12,1,2,0,1,44,77,11
2,1,2,0,5,1,1,44,40,9
2,1,16,1,6,1,1,44,104,11
4,2,12,1,6,1,2,44,77,11
4,2,20,1,6,1,2,44,104,11
4,2,12,1,6,1,2,44,77,11
4,2,16,1,6,1,2,44,104,11
4,2,19,1,4,0,2,44,104,11
4,2,19,1,3,0,2,44,104,11
6,3,15,1,5,1,2,44,104,11
7,3,14,1,4,0,3,44,104,11
7,3,19,1,4,0,3,44,112,11
7,3,18,1,3,0,3,44,77,11
8,3,6,0,0,0,3,44,104,11
8,3,19,1,6,1,3,44,104,11
8,3,21,0,0,0,3,44,112,11
8,3,7,1,5,1,3,44,104,11
9,4,11,1,2,0,3,44,14,11
9,4,14,1,1,0,3,44,13,9
10,4,13,1,3,0,4,44,104,11
10,4,13,1,3,0,4,44,22,11
10,4,18,1,3,0,4,44,13,11
10,4,21,0,5,1,4,44,65,11
11,4,16,1,2,0,4,44,93,11
11,4,15,1,3,0,4,44,104,11
12,1,11,1,4,0,4,44,13,8
12,1,12,1,5,1,4,44,77,11
12,1,16,1,5,1,4,44,14,11
12,1,20,1,5,1,4,44,90,11
12,1,21,0,6,1,4,44,21,11
12,1,12,1,2,0,4,44,40,11
12,1,13,1,2,0,4,44,104,11
12,1,14,1,3,0,4,44,104,9
12,1,16,1,3,0,4,44,104,11
12,1,18,1,4,0,4,44,104,11
1,1,20,1,3,0,1,49,132,11
1,1,11,1,2,0,1,49,77,11
1,1,23,0,1,0,1,49,40,8
2,1,0,0,6,1,1,49,77,8
3,2,6,0,4,0,1,49,132,11
3,2,19,1,0,0,1,49,111,11
5,2,17,1,3,0,2,49,72,11
6,3,2,0,2,0,2,49,93,11
6,3,19,1,3,0,2,49,112,11
6,3,7,1,4,0,2,49,74,11
7,3,23,0,6,1,3,49,93,11
7,3,17,1,2,0,3,49,67,11
7,3,22,0,1,0,3,49,21,11
7,3,12,1,4,0,3,49,93,11
8,3,17,1,0,0,3,49,93,11
8,3,19,1,5,1,3,49,86,11
8,3,22,0,2,0,3,49,93,11
8,3,19,1,5,1,3,49,21,11
9,4,4,0,1,0,3,49,13,11
9,4,19,1,4,0,3,49,21,11
9,4,15,1,5,1,3,49,93,11
9,4,23,0,3,0,3,49,21,11
10,4,10,1,6,1,4,49,21,11
10,4,14,1,1,0,4,49,74,11
11,4,9,1,3,0,4,49,112,11
11,4,9,1,0,0,4,49,21,11
12,1,14,1,5,1,4,49,111,11
12,1,9,1,0,0,4,49,77,11
12,1,13,1,2,0,4,49,32,11
12,1,11,1,6,1,4,49,77,8
12,1,5,0,1,0,4,49,132,11
1,1,19,1,2,0,1,49,111,11
8,3,21,0,0,0,3,49,93,11
1,1,14,1,4,0,1,49,104,11
1,1,11,1,2,0,1,49,122,9
4,2,13,1,5,1,2,49,132,11
5,2,15,1,4,0,2,49,104,11
6,3,17,1,4,0,2,49,93,11
6,3,12,1,3,0,2,49,132,11
7,3,17,1,2,0,3,49,112,11
8,3,11,1,2,0,3,49,93,11
8,3,12,1,1,0,3,49,93,9
9,4,17,1,5,1,3,49,132,11
10,4,10,1,2,0,4,49,93,11
10,4,20,1,6,1,4,49,93,11
11,4,11,1,2,0,4,49,93,11
11,4,14,1,1,0,4,49,77,11
11,4,16,1,5,1,4,49,77,11
11,4,17,1,6,1,4,49,104,11
12,1,22,0,2,0,4,49,132,11
12,1,5,0,2,0,4,49,93,11
12,1,17,1,3,0,4,49,93,11
1,1,12,1,4,0,1,49,77,11
1,1,10,1,5,1,1,49,104,11
1,1,10,1,5,1,1,49,77,11
1,1,19,1,3,0,1,49,67,11
1,1,17,1,2,0,1,49,69,11
1,1,7,1,3,0,1,49,132,11
2,1,9,1,0,0,1,49,104,11
2,1,14,1,5,1,1,49,26,11
3,2,18,1,0,0,1,49,104,11
4,2,20,1,1,0,2,49,104,11
4,2,19,1,5,1,2,49,104,11
4,2,14,1,3,0,2,49,77,11
4,2,16,1,4,0,2,49,93,11
4,2,20,1,6,1,2,49,93,11
4,2,13,1,0,0,2,49,104,11
4,2,10,1,1,0,2,49,93,11
5,2,16,1,0,0,2,49,93,11
5,2,14,1,6,1,2,49,93,11
5,2,19,1,6,1,2,49,93,11
5,2,13,1,1,0,2,49,93,11
5,2,15,1,2,0,2,49,93,11
6,3,18,1,4,0,2,49,49,11
6,3,13,1,6,1,2,49,1,11
6,3,18,1,6,1,2,49,21,9
6,3,20,1,2,0,2,49,104,11
6,3,13,1,1,0,2,49,132,11
6,3,10,1,3,0,2,49,104,11
6,3,20,1,5,1,2,49,93,11
6,3,14,1,3,0,2,49,93,11
7,3,7,1,1,0,3,49,107,9
7,3,16,1,2,0,3,49,93,11
7,3,15,1,4,0,3,49,93,11
7,3,15,1,2,0,3,49,49,11
7,3,16,1,4,0,3,49,14,11
7,3,19,1,6,1,3,49,93,11
7,3,8,1,4,0,3,49,93,11
7,3,12,1,3,0,3,49,93,11
7,3,6,0,3,0,3,49,21,11
8,3,9,1,1,0,3,49,112,11
8,3,14,1,0,0,3,49,93,11
8,3,21,0,0,0,3,49,21,11
8,3,0,0,2,0,3,49,93,11
8,3,17,1,4,0,3,49,21,11
8,3,3,0,0,0,3,49,67,11
8,3,11,1,2,0,3,49,77,11
9,4,20,1,4,0,3,49,67,11
9,4,8,1,6,1,3,49,74,11
9,4,18,1,1,0,3,49,104,11
9,4,22,0,5,1,3,49,14,11
10,4,12,1,2,0,4,49,104,9
10,4,15,1,4,0,4,49,93,11
11,4,15,1,1,0,4,49,104,11
11,4,12,1,2,0,4,49,93,11
11,4,17,1,1,0,4,49,93,11
11,4,14,1,1,0,4,49,104,11
11,4,22,0,1,0,4,49,14,11
11,4,17,1,2,0,4,49,1,11
11,4,13,1,1,0,4,49,104,11
11,4,13,1,2,0,4,49,93,11
11,4,18,1,2,0,4,49,93,11
12,1,13,1,5,1,4,49,104,11
12,1,19,1,2,0,4,49,93,9
12,1,18,1,6,1,4,49,93,11
12,1,19,1,1,0,4,49,112,11
12,1,18,1,5,1,4,49,93,11
12,1,9,1,2,0,4,49,132,11
1,1,1,0,5,1,1,49,67,11
1,1,23,0,0,0,1,49,24,11
2,1,15,1,2,0,1,49,67,11
3,2,14,1,1,0,1,49,132,11
3,2,21,0,2,0,1,49,24,8
5,2,16,1,0,0,2,49,93,11
7,3,19,1,4,0,3,49,21,11
9,4,4,0,4,0,3,49,21,11
10,4,11,1,2,0,4,49,90,11
11,4,11,1,1,0,4,49,67,9
12,1,5,0,3,0,4,49,24,8
2,1,0,0,6,1,1,49,132,11
2,1,13,1,2,0,1,49,40,11
2,1,10,1,5,1,1,49,77,11
3,2,11,1,5,1,1,49,40,11
3,2,19,1,6,1,1,49,104,11
4,2,21,0,4,0,2,49,47,9
4,2,9,1,0,0,2,49,132,11
6,3,15,1,1,0,2,49,48,11
6,3,13,1,4,0,2,49,21,11
8,3,21,0,5,1,3,49,104,11
8,3,18,1,6,1,3,49,93,11
12,1,10,1,3,0,4,49,77,11
12,1,10,1,1,0,4,49,77,11
12,1,16,1,3,0,4,49,60,11
12,1,15,1,4,0,4,49,77,11
12,1,23,0,5,1,4,49,104,11
12,1,3,0,0,0,4,49,104,11
1,1,18,1,4,0,1,26,67,11
1,1,11,1,5,1,1,26,104,11
1,1,13,1,5,1,1,26,67,11
1,1,13,1,0,0,1,26,77,11
1,1,16,1,5,1,1,26,67,11
1,1,19,1,0,0,1,26,100,11
2,1,20,1,1,0,1,26,13,9
2,1,2,0,2,0,1,26,21,11
2,1,16,1,5,1,1,26,77,11
2,1,12,1,4,0,1,26,90,11
3,2,17,1,3,0,1,26,100,11
3,2,10,1,0,0,1,26,104,11
3,2,23,0,4,0,1,26,66,11
3,2,0,0,5,1,1,26,100,11
3,2,14,1,2,0,1,26,14,11
4,2,0,0,0,0,2,26,90,11
4,2,22,0,1,0,2,26,67,11
4,2,23,0,5,1,2,26,100,11
4,2,2,0,1,0,2,26,90,11
4,2,12,1,3,0,2,26,93,11
4,2,14,1,6,1,2,26,90,11
4,2,0,0,5,1,2,26,90,11
5,2,13,1,4,0,2,26,40,9
5,2,17,1,4,0,2,26,40,11
5,2,0,0,5,1,2,26,112,11
5,2,12,1,0,0,2,26,3,11
5,2,7,1,2,0,2,26,14,9
6,3,20,1,1,0,2,26,104,11
6,3,17,1,3,0,2,26,90,11
6,3,13,1,4,0,2,26,93,11
6,3,15,1,1,0,2,26,109,11
6,3,15,1,1,0,2,26,40,11
6,3,22,0,2,0,2,26,22,11
6,3,15,1,3,0,2,26,24,9
6,3,21,0,1,0,2,26,35,11
7,3,22,0,0,0,3,26,93,11
7,3,3,0,4,0,3,26,90,11
7,3,11,1,1,0,3,26,90,11
7,3,3,0,6,1,3,26,86,11
8,3,14,1,1,0,3,26,4,11
8,3,14,1,2,0,3,26,13,11
8,3,12,1,0,0,3,26,93,11
8,3,15,1,3,0,3,26,40,9
8,3,11,1,0,0,3,26,14,8
9,4,16,1,5,1,3,26,90,11
9,4,13,1,4,0,3,26,90,11
9,4,13,1,5,1,3,26,77,11
10,4,10,1,1,0,4,26,77,8
10,4,13,1,2,0,4,26,115,9
10,4,12,1,0,0,4,26,93,11
10,4,13,1,2,0,4,26,3,9
10,4,13,1,4,0,4,26,40,11
11,4,9,1,1,0,4,26,77,8
11,4,10,1,2,0,4,26,21,11
11,4,13,1,3,0,4,26,77,11
11,4,8,1,1,0,4,26,77,11
11,4,4,0,6,1,4,26,90,11
11,4,5,0,0,0,4,26,106,11
11,4,18,1,1,0,4,26,67,11
11,4,17,1,1,0,4,26,77,11
12,1,11,1,5,1,4,26,104,11
12,1,4,0,5,1,4,26,100,11
12,1,11,1,1,0,4,26,40,11
12,1,16,1,6,1,4,26,100,11
12,1,15,1,0,0,4,26,93,11
12,1,15,1,1,0,4,26,93,11
12,1,21,0,1,0,4,26,100,11
12,1,13,1,3,0,4,26,14,11
4,2,20,1,5,1,2,26,77,11
7,3,11,1,2,0,3,26,93,11
7,3,11,1,2,0,3,26,74,11
8,3,11,1,6,1,3,26,14,8
11,4,21,0,5,1,4,26,93,11
12,1,21,0,2,0,4,26,77,11
1,1,10,1,4,0,1,26,47,11
1,1,17,1,4,0,1,26,8,11
2,1,7,1,5,1,1,26,49,11
6,3,20,1,2,0,2,26,132,11
7,3,19,1,4,0,3,26,28,11
7,3,13,1,3,0,3,26,3,11
7,3,16,1,6,1,3,26,100,11
8,3,22,0,5,1,3,26,36,11
8,3,22,0,1,0,3,26,129,11
8,3,14,1,4,0,3,26,3,11
9,4,18,1,5,1,3,26,58,11
10,4,19,1,3,0,4,26,3,11
10,4,1,0,4,0,4,26,112,11
11,4,11,1,2,0,4,26,106,11
12,1,18,1,6,1,4,26,129,11
12,1,19,1,3,0,4,26,106,11
12,1,11,1,0,0,4,26,106,11
1,1,11,1,0,0,1,26,40,8
1,1,11,1,5,1,1,26,77,8
1,1,6,0,6,1,1,26,40,11
5,2,14,1,2,0,2,26,40,11
5,2,19,1,0,0,2,26,90,11
5,2,21,0,5,1,2,26,120,11
7,3,8,1,3,0,3,26,77,9
7,3,19,1,6,1,3,26,14,9
7,3,0,0,1,0,3,26,13,11
8,3,8,1,1,0,3,26,14,11
10,4,1,0,2,0,4,26,100,11
11,4,18,1,4,0,4,26,77,11
11,4,18,1,2,0,4,26,40,8
12,1,18,1,4,0,4,26,77,11
12,1,13,1,6,1,4,26,100,11
12,1,19,1,4,0,4,26,93,11
12,1,22,0,4,0,4,26,90,11
12,1,12,1,5,1,4,26,77,11
12,1,23,0,5,1,4,26,93,11
12,1,15,1,1,0,4,26,40,11
1,1,1,0,2,0,1,38,14,11
1,1,14,1,3,0,1,38,67,11
1,1,8,1,4,0,1,38,40,9
1,1,9,1,6,1,1,38,40,8
2,1,3,0,3,0,1,38,67,11
3,2,6,0,1,0,1,38,47,11
4,2,16,1,4,0,2,38,41,11
4,2,23,0,2,0,2,38,132,9
4,2,13,1,4,0,2,38,77,11
4,2,1,0,5,1,2,38,40,11
5,2,11,1,1,0,2,38,100,11
6,3,5,0,4,0,2,38,21,11
6,3,9,1,5,1,2,38,132,11
6,3,9,1,3,0,2,38,67,11
6,3,15,1,4,0,2,38,90,11
6,3,12,1,2,0,2,38,93,11
6,3,14,1,2,0,2,38,93,11
6,3,2,0,3,0,2,38,83,11
7,3,21,0,5,1,3,38,48,11
7,3,11,1,0,0,3,38,93,11
9,4,11,1,0,0,3,38,40,11
9,4,22,0,5,1,3,38,13,11
10,4,18,1,5,1,4,38,109,11
10,4,22,0,5,1,4,38,77,8
10,4,4,0,5,1,4,38,90,11
11,4,10,1,4,0,4,38,90,9
11,4,17,1,0,0,4,38,90,11
11,4,5,0,6,1,4,38,65,11
11,4,7,1,2,0,4,38,112,11
11,4,22,0,2,0,4,38,112,11
12,1,3,0,4,0,4,38,40,9
12,1,7,1,4,0,4,38,90,11
12,1,16,1,0,0,4,38,14,11
12,1,6,0,1,0,4,38,14,11
12,1,19,1,5,1,4,38,90,11
12,1,22,0,1,0,4,38,90,11
12,1,3,0,5,1,4,38,40,8
12,1,9,1,4,0,4,38,80,11
12,1,14,1,4,0,4,38,13,11
12,1,20,1,4,0,4,38,77,11
1,1,20,1,5,1,1,38,77,11
1,1,3,0,3,0,1,38,21,9
1,1,20,1,6,1,1,38,77,11
1,1,5,0,1,0,1,38,21,11
2,1,20,1,3,0,1,38,40,11
2,1,8,1,0,0,1,19,21,11
2,1,7,1,6,1,1,38,114,8
2,1,11,1,0,0,1,38,93,11
3,2,20,1,2,0,1,38,77,11
3,2,9,1,5,1,1,38,67,11
4,2,14,1,6,1,2,38,93,11
4,2,8,1,2,0,2,38,93,11
4,2,12,1,4,0,2,38,21,11
4,2,11,1,3,0,2,19,74,11
5,2,9,1,4,0,2,38,67,11
5,2,13,1,1,0,2,38,93,11
5,2,23,0,6,1,2,38,67,11
6,3,7,1,6,1,2,19,74,11
6,3,3,0,0,0,2,38,13,9
6,3,7,1,5,1,2,38,90,11
6,3,20,1,0,0,2,38,13,9
7,3,18,1,6,1,3,19,93,11
7,3,18,1,1,0,3,38,24,11
7,3,15,1,2,0,3,38,93,11
7,3,5,0,0,0,3,19,21,11
7,3,9,1,3,0,3,38,104,11
8,3,15,1,5,1,3,38,21,11
8,3,2,0,4,0,3,38,93,11
8,3,1,0,5,1,3,38,100,11
8,3,1,0,5,1,3,38,100,11
9,4,5,0,2,0,3,38,93,11
9,4,22,0,2,0,3,38,13,9
9,4,9,1,0,0,3,38,74,11
9,4,22,0,0,0,3,38,112,11
10,4,22,0,6,1,4,38,100,11
10,4,10,1,2,0,4,38,22,9
10,4,10,1,0,0,4,38,14,8
10,4,21,0,1,0,4,38,114,11
10,4,3,0,4,0,4,38,100,11
10,4,7,1,4,0,4,38,40,11
11,4,21,0,3,0,4,38,93,11
11,4,1,0,2,0,4,38,100,11
11,4,14,1,4,0,4,19,22,11
11,4,17,1,6,1,4,38,21,11
11,4,14,1,4,0,4,38,26,11
11,4,19,1,5,1,4,38,67,11
12,1,0,0,0,0,4,38,77,11
12,1,16,1,2,0,4,38,114,11
12,1,23,0,5,1,4,38,40,9
12,1,3,0,6,1,4,38,14,9
12,1,19,1,6,1,4,38,14,11
12,1,18,1,4,0,4,38,100,11
12,1,20,1,2,0,4,38,77,11
12,1,15,1,4,0,4,38,21,11
12,1,22,0,4,0,4,38,40,11
12,1,20,1,5,1,4,38,67,11
12,1,21,0,6,1,4,38,93,11
12,1,0,0,0,0,4,19,77,11
12,1,20,1,2,0,4,38,24,11
12,1,13,1,3,0,4,38,100,11
1,1,17,1,3,0,1,38,104,11
1,1,19,1,2,0,1,38,22,11
2,1,5,0,0,0,1,38,13,9
2,1,14,1,1,0,1,38,65,11
3,2,5,0,5,1,1,38,40,8
5,2,8,1,0,0,2,38,40,9
5,2,9,1,5,1,2,38,67,11
5,2,19,1,4,0,2,38,112,11
7,3,10,1,3,0,3,38,90,11
7,3,22,0,3,0,3,38,14,11
9,4,0,0,1,0,3,38,48,9
10,4,22,0,4,0,4,38,48,9
10,4,12,1,5,1,4,38,77,9
11,4,11,1,1,0,4,38,74,11
12,1,13,1,1,0,4,38,14,11
12,1,10,1,3,0,4,38,93,11
1,1,15,1,4,0,1,16,77,11
1,1,18,1,4,0,1,16,67,11
1,1,17,1,1,0,1,16,77,11
1,1,15,1,4,0,1,16,21,11
1,1,14,1,1,0,1,16,93,11
1,1,0,0,4,0,1,16,77,11
1,1,18,1,1,0,1,16,21,11
1,1,10,1,2,0,1,16,67,11
1,1,0,0,4,0,1,16,67,11
1,1,8,1,6,1,1,16,90,11
1,1,18,1,6,1,1,16,93,11
2,1,21,0,4,0,1,16,21,11
2,1,5,0,5,1,1,16,13,11
3,2,5,0,3,0,1,16,93,11
3,2,7,1,5,1,1,16,77,9
3,2,13,1,5,1,1,16,67,11
3,2,19,1,6,1,1,16,77,11
3,2,22,0,2,0,1,16,67,11
3,2,21,0,5,1,1,16,67,11
4,2,16,1,5,1,2,16,21,11
4,2,21,0,6,1,2,16,104,11
4,2,18,1,4,0,2,16,21,11
4,2,0,0,6,1,2,16,100,11
4,2,0,0,5,1,2,16,93,11
4,2,13,1,6,1,2,16,77,11
4,2,18,1,3,0,2,16,13,9
5,2,12,1,2,0,2,16,67,11
5,2,18,1,4,0,2,16,74,11
5,2,16,1,5,1,2,16,77,11
5,2,14,1,2,0,2,16,93,11
6,3,1,0,4,0,2,16,21,11
6,3,14,1,3,0,2,16,104,11
7,3,18,1,0,0,3,16,90,11
7,3,5,0,5,1,3,16,90,11
7,3,11,1,3,0,3,16,83,11
7,3,13,1,3,0,3,16,93,11
7,3,11,1,5,1,3,16,9,11
7,3,20,1,5,1,3,16,27,11
7,3,16,1,3,0,3,16,14,9
7,3,22,0,5,1,3,16,67,11
8,3,14,1,0,0,3,16,93,11
8,3,12,1,1,0,3,16,21,11
8,3,21,0,1,0,3,16,21,11
8,3,22,0,1,0,3,16,21,11
8,3,21,0,4,0,3,16,49,11
8,3,17,1,0,0,3,16,93,11
8,3,10,1,4,0,3,16,74,11
8,3,13,1,4,0,3,16,74,11
8,3,12,1,6,1,3,16,104,11
8,3,13,1,6,1,3,16,93,11
8,3,13,1,2,0,3,16,93,11
9,4,17,1,6,1,3,16,100,11
9,4,13,1,5,1,3,16,21,11
10,4,10,1,3,0,4,16,77,11
10,4,11,1,5,1,4,16,77,11
10,4,4,0,4,0,4,16,21,11
10,4,5,0,5,1,4,16,14,11
10,4,21,0,2,0,4,16,77,11
10,4,0,0,3,0,4,16,67,11
10,4,0,0,6,1,4,16,21,11
10,4,1,0,1,0,4,16,21,11
11,4,12,1,1,0,4,16,90,11
11,4,14,1,1,0,4,16,14,9
11,4,8,1,3,0,4,16,14,9
11,4,19,1,5,1,4,16,67,11
11,4,16,1,2,0,4,16,21,11
11,4,22,0,3,0,4,16,74,11
11,4,13,1,4,0,4,16,67,11
11,4,15,1,1,0,4,16,104,11
11,4,21,0,1,0,4,16,67,11
11,4,4,0,2,0,4,16,77,9
12,1,13,1,4,0,4,16,67,11
12,1,14,1,4,0,4,16,90,11
12,1,16,1,1,0,4,16,90,11
12,1,2,0,5,1,4,16,21,11
12,1,2,0,5,1,4,16,77,11
12,1,16,1,5,1,4,16,67,11
12,1,18,1,0,0,4,16,77,11
12,1,0,0,6,1,4,16,69,9
12,1,11,1,5,1,4,16,77,11
12,1,17,1,5,1,4,16,67,11
12,1,22,0,4,0,4,16,21,11
3,2,2,0,6,1,1,16,122,11
3,2,13,1,6,1,1,16,104,11
4,2,17,1,2,0,2,16,111,11
12,1,17,1,3,0,4,16,104,11
1,1,18,1,2,0,1,16,77,11
1,1,6,0,3,0,1,16,77,11
2,1,19,1,0,0,1,16,77,11
2,1,8,1,1,0,1,16,67,8
2,1,21,0,5,1,1,16,100,9
3,2,19,1,4,0,1,16,77,11
3,2,7,1,1,0,1,16,77,8
3,2,11,1,5,1,1,16,111,9
4,2,21,0,4,0,2,16,112,11
4,2,13,1,2,0,2,16,3,11
5,2,2,0,6,1,2,16,67,11
5,2,9,1,0,0,2,16,66,11
6,3,17,1,2,0,2,16,104,8
6,3,15,1,3,0,2,16,49,9
7,3,14,1,1,0,3,16,104,11
7,3,23,0,3,0,3,16,104,9
7,3,10,1,4,0,3,16,49,11
7,3,11,1,5,1,3,16,67,8
8,3,12,1,6,1,3,16,132,9
8,3,10,1,4,0,3,16,132,11
8,3,17,1,4,0,3,16,99,11
9,4,12,1,5,1,3,16,104,11
10,4,22,0,4,0,4,16,130,11
10,4,14,1,1,0,4,16,49,11
10,4,0,0,0,0,4,16,67,11
11,4,18,1,2,0,4,16,77,11
11,4,18,1,4,0,4,16,77,11
11,4,19,1,5,1,4,16,40,11
12,1,22,0,0,0,4,16,77,11
12,1,11,1,0,0,4,16,67,11
12,1,16,1,3,0,4,16,67,11
12,1,22,0,0,0,4,16,40,11
12,1,12,1,1,0,4,16,40,11
1,1,13,1,1,0,1,16,47,11
1,1,17,1,4,0,1,16,100,11
1,1,19,1,0,0,1,16,77,9
1,1,20,1,3,0,1,16,40,11
2,1,16,1,4,0,1,16,100,11
2,1,15,1,3,0,1,16,8,9
2,1,12,1,5,1,1,16,21,11
2,1,19,1,0,0,1,16,112,11
3,2,17,1,1,0,1,16,40,11
3,2,19,1,2,0,1,16,77,11
3,2,6,0,4,0,1,16,21,11
4,2,0,0,0,0,2,16,90,11
4,2,19,1,2,0,2,16,47,9
4,2,17,1,0,0,2,16,40,9
4,2,10,1,1,0,2,16,67,11
4,2,17,1,3,0,2,16,3,11
4,2,17,1,4,0,2,16,112,11
5,2,14,1,4,0,2,16,93,11
5,2,14,1,1,0,2,16,59,11
6,3,5,0,4,0,2,16,3,11
6,3,13,1,0,0,2,16,93,11
6,3,11,1,2,0,2,16,77,11
6,3,10,1,3,0,2,16,93,11
7,3,16,1,4,0,3,16,21,11
7,3,5,0,4,0,3,16,3,11
7,3,19,1,0,0,3,16,77,11
7,3,22,0,1,0,3,16,93,11
7,3,11,1,4,0,3,16,21,9
7,3,4,0,5,1,3,16,74,9
8,3,17,1,2,0,3,16,21,11
9,4,6,0,4,0,3,16,21,11
9,4,17,1,5,1,3,16,104,11
9,4,20,1,1,0,3,16,111,9
10,4,11,1,0,0,4,16,21,11
10,4,7,1,1,0,4,16,77,11
10,4,2,0,3,0,4,16,26,11
10,4,16,1,5,1,4,16,67,11
10,4,0,0,3,0,4,16,100,11
10,4,1,0,3,0,4,16,100,11
11,4,10,1,3,0,4,16,26,11
11,4,12,1,1,0,4,16,14,9
11,4,17,1,4,0,4,16,77,11
11,4,20,1,1,0,4,16,67,11
11,4,10,1,2,0,4,16,67,11
12,1,22,0,3,0,4,16,100,11
12,1,17,1,6,1,4,16,90,11
12,1,22,0,0,0,4,16,90,11
12,1,15,1,3,0,4,16,77,11
12,1,19,1,0,0,4,16,21,11
12,1,5,0,1,0,4,16,100,11
12,1,11,1,2,0,4,16,93,11
12,1,14,1,3,0,4,16,93,11
12,1,22,0,4,0,4,16,77,11
12,1,18,1,5,1,4,16,40,11
1,1,12,1,4,0,1,39,40,11
1,1,16,1,5,1,1,39,77,11
1,1,20,1,0,0,1,39,77,9
1,1,20,1,4,0,1,39,67,11
1,1,14,1,4,0,1,39,104,11
1,1,13,1,3,0,1,39,104,11
1,1,4,0,0,0,1,39,77,11
1,1,2,0,0,0,1,39,21,11
1,1,18,1,1,0,1,39,13,11
1,1,12,1,5,1,1,39,14,11
1,1,13,1,5,1,1,39,40,9
1,1,2,0,6,1,1,39,132,11
1,1,1,0,2,0,1,39,77,8
1,1,13,1,6,1,1,39,104,11
2,1,14,1,0,0,1,39,104,11
2,1,17,1,4,0,1,39,15,11
2,1,17,1,1,0,1,39,104,11
2,1,11,1,3,0,1,39,93,11
2,1,17,1,2,0,1,39,67,11
2,1,14,1,2,0,1,39,49,8
3,2,20,1,3,0,1,39,77,11
3,2,13,1,5,1,1,39,93,11
3,2,11,1,6,1,1,39,67,11
3,2,21,0,4,0,1,39,67,11
3,2,16,1,6,1,1,39,67,11
4,2,14,1,2,0,2,39,104,11
4,2,19,1,0,0,2,39,14,8
4,2,12,1,4,0,2,39,93,11
4,2,10,1,5,1,2,39,40,11
4,2,1,0,6,1,2,39,132,11
4,2,12,1,0,0,2,39,104,11
4,2,15,1,3,0,2,39,104,11
4,2,23,0,5,1,2,39,77,11
5,2,1,0,2,0,2,39,132,11
5,2,12,1,4,0,2,39,104,11
5,2,15,1,5,1,2,39,93,11
5,2,21,0,6,1,2,39,104,11
5,2,15,1,3,0,2,39,100,11
5,2,21,0,3,0,2,39,104,11
5,2,1,0,5,1,2,39,93,11
5,2,12,1,5,1,2,39,104,11
5,2,14,1,5,1,2,39,104,11
6,3,13,1,3,0,2,39,93,11
6,3,17,1,4,0,2,39,74,11
6,3,15,1,6,1,2,39,104,11
6,3,12,1,6,1,2,39,104,11
6,3,14,1,0,0,2,39,104,11
6,3,23,0,1,0,2,39,104,11
6,3,21,0,3,0,2,39,104,11
6,3,8,1,4,0,2,39,99,9
6,3,12,1,5,1,2,39,67,11
6,3,11,1,1,0,2,39,104,11
6,3,9,1,2,0,2,39,104,11
6,3,17,1,2,0,2,39,104,11
6,3,19,1,2,0,2,39,93,11
6,3,13,1,4,0,2,39,21,11
6,3,14,1,5,1,2,39,93,11
6,3,21,0,5,1,2,39,93,11
6,3,0,0,6,1,2,39,104,11
6,3,9,1,0,0,2,39,104,11
6,3,0,0,1,0,2,39,15,9
6,3,18,1,1,0,2,39,93,11
6,3,21,0,1,0,2,39,104,11
6,3,1,0,2,0,2,39,93,11
6,3,18,1,2,0,2,39,93,11
6,3,21,0,2,0,2,39,132,11
6,3,9,1,3,0,2,39,104,11
6,3,2,0,5,1,2,39,93,11
6,3,0,0,5,1,2,39,104,11
6,3,15,1,6,1,2,39,93,9
7,3,13,1,2,0,3,39,104,11
7,3,12,1,4,0,3,39,114,11
7,3,23,0,5,1,3,39,77,9
7,3,15,1,5,1,3,39,104,11
7,3,21,0,5,1,3,39,104,11
7,3,11,1,1,0,3,39,93,11
7,3,14,1,2,0,3,39,93,11
7,3,19,1,3,0,3,39,21,11
7,3,19,1,6,1,3,39,104,11
7,3,8,1,0,0,3,39,104,11
7,3,22,0,0,0,3,39,93,11
7,3,18,1,2,0,3,39,114,11
7,3,16,1,2,0,3,39,104,11
7,3,14,1,2,0,3,39,93,11
7,3,18,1,3,0,3,39,114,11
7,3,12,1,5,1,3,39,104,11
7,3,17,1,6,1,3,39,93,11
7,3,10,1,1,0,3,39,93,11
7,3,14,1,1,0,3,39,93,11
7,3,18,1,2,0,3,39,93,11
7,3,7,1,4,0,3,39,104,11
7,3,16,1,5,1,3,39,93,11
8,3,17,1,0,0,3,39,104,11
8,3,11,1,3,0,3,39,93,11
8,3,19,1,4,0,3,39,104,11
8,3,16,1,4,0,3,39,93,11
8,3,20,1,6,1,3,39,66,11
8,3,15,1,3,0,3,39,93,11
8,3,12,1,4,0,3,39,104,11
8,3,7,1,6,1,3,39,49,9
8,3,18,1,2,0,3,39,104,11
8,3,21,0,5,1,3,39,132,11
8,3,1,0,6,1,3,39,93,11
8,3,10,1,0,0,3,39,104,11
8,3,15,1,1,0,3,39,104,11
8,3,11,1,1,0,3,39,104,11
8,3,10,1,4,0,3,39,93,11
8,3,1,0,0,0,3,39,104,11
9,4,1,0,5,1,3,39,77,8
9,4,21,0,6,1,3,39,93,11
9,4,14,1,0,0,3,39,93,11
9,4,15,1,1,0,3,39,93,11
9,4,20,1,1,0,3,39,104,11
9,4,23,0,2,0,3,39,21,11
9,4,17,1,3,0,3,39,93,11
9,4,13,1,4,0,3,39,104,11
9,4,13,1,4,0,3,39,93,11
9,4,4,0,5,1,3,39,90,11
9,4,18,1,6,1,3,39,104,11
9,4,19,1,6,1,3,39,104,11
9,4,20,1,1,0,3,39,21,11
10,4,17,1,5,1,4,39,93,11
10,4,11,1,0,0,4,39,132,11
10,4,1,0,0,0,4,39,104,11
10,4,18,1,1,0,4,39,104,11
10,4,16,1,3,0,4,39,93,11
10,4,20,1,6,1,4,39,26,11
10,4,16,1,0,0,4,39,67,11
10,4,19,1,3,0,4,39,104,11
10,4,9,1,1,0,4,39,93,11
10,4,12,1,6,1,4,39,13,9
11,4,18,1,1,0,4,39,67,11
11,4,19,1,1,0,4,39,104,11
11,4,23,0,3,0,4,39,67,11
11,4,11,1,4,0,4,39,93,11
11,4,11,1,0,0,4,39,67,11
11,4,15,1,4,0,4,39,67,11
11,4,1,0,5,1,4,39,14,9
11,4,16,1,1,0,4,39,104,11
11,4,19,1,0,0,4,39,112,11
11,4,13,1,1,0,4,39,77,9
12,1,18,1,1,0,4,39,104,11
12,1,8,1,1,0,4,39,104,11
12,1,21,0,5,1,4,39,77,11
12,1,21,0,0,0,4,39,77,11
12,1,17,1,0,0,4,39,93,11
12,1,6,0,1,0,4,39,14,8
12,1,1,0,3,0,4,39,93,9
12,1,18,1,6,1,4,39,132,11
12,1,11,1,1,0,4,39,77,8
12,1,21,0,2,0,4,39,93,9
12,1,14,1,3,0,4,39,90,11
12,1,16,1,0,0,4,39,13,9
12,1,11,1,2,0,4,39,67,11
12,1,12,1,3,0,4,39,93,11
12,1,17,1,3,0,4,39,21,9
12,1,15,1,4,0,4,39,93,11
12,1,11,1,4,0,4,39,104,11
12,1,18,1,4,0,4,39,67,11
1,1,22,0,6,1,1,39,40,11
1,1,11,1,5,1,1,39,77,11
2,1,13,1,5,1,1,39,77,11
3,2,18,1,2,0,1,39,40,11
5,2,23,0,1,0,2,39,77,11
5,2,18,1,6,1,2,39,112,11
5,2,13,1,5,1,2,39,104,11
6,3,13,1,2,0,2,39,104,11
6,3,20,1,0,0,2,39,26,11
7,3,22,0,6,1,3,39,28,9
7,3,13,1,2,0,3,39,26,9
7,3,11,1,1,0,3,39,104,11
7,3,11,1,4,0,3,39,104,11
8,3,22,0,2,0,3,39,90,11
9,4,2,0,1,0,3,39,90,11
10,4,6,0,1,0,4,39,104,11
10,4,18,1,2,0,4,39,77,11
11,4,19,1,1,0,4,39,21,11
11,4,13,1,1,0,4,39,13,9
12,1,19,1,5,1,4,39,13,9
12,1,5,0,5,1,4,39,77,11
12,1,14,1,5,1,4,39,93,9
12,1,11,1,1,0,4,39,40,11
12,1,20,1,5,1,4,39,77,9
1,1,17,1,5,1,1,39,67,11
1,1,8,1,1,0,1,39,13,11
2,1,8,1,4,0,1,39,77,11
2,1,18,1,5,1,1,39,40,11
3,2,20,1,6,1,1,39,77,11
3,2,14,1,5,1,1,39,91,11
6,3,21,0,6,1,2,39,104,11
8,3,22,0,2,0,3,39,86,11
8,3,6,0,0,0,3,39,70,11
8,3,18,1,1,0,3,39,104,11
8,3,23,0,0,0,3,39,91,11
12,1,20,1,5,1,4,39,67,11
1,1,15,1,6,1,1,27,90,11
1,1,14,1,4,0,1,27,77,11
1,1,10,1,5,1,1,27,13,8
1,1,0,0,0,0,1,27,102,11
1,1,19,1,5,1,1,27,67,11
1,1,13,1,3,0,1,27,14,8
3,2,22,0,5,1,1,27,3,11
3,2,4,0,6,1,1,27,100,11
3,2,8,1,4,0,1,27,77,11
4,2,10,1,6,1,2,27,104,11
4,2,18,1,6,1,2,27,13,11
5,2,4,0,5,1,2,27,3,11
5,2,14,1,3,0,2,27,40,11
6,3,23,0,4,0,2,27,131,11
6,3,17,1,5,1,2,27,131,11
6,3,17,1,5,1,2,27,67,11
6,3,14,1,2,0,2,27,93,11
6,3,14,1,2,0,2,27,93,11
7,3,15,1,4,0,3,27,13,8
7,3,12,1,4,0,3,27,3,9
7,3,10,1,3,0,3,27,47,11
8,3,11,1,3,0,3,27,40,11
8,3,19,1,3,0,3,27,13,8
8,3,16,1,4,0,3,27,59,9
8,3,16,1,1,0,3,27,129,11
8,3,17,1,3,0,3,27,67,11
8,3,9,1,0,0,3,27,60,8
8,3,11,1,1,0,3,27,67,11
9,4,23,0,6,1,3,27,90,11
9,4,22,0,5,1,3,27,3,11
9,4,3,0,3,0,3,27,100,11
9,4,7,1,3,0,3,27,7,9
10,4,3,0,5,1,4,27,3,11
10,4,14,1,2,0,4,27,40,11
10,4,21,0,5,1,4,27,67,11
11,4,11,1,2,0,4,27,77,11
11,4,14,1,2,0,4,27,59,11
11,4,13,1,6,1,4,27,77,11
12,1,7,1,5,1,4,27,67,11
12,1,10,1,6,1,4,27,100,11
12,1,12,1,1,0,4,27,3,11
12,1,20,1,5,1,4,27,77,11
12,1,22,0,1,0,4,27,100,11
12,1,18,1,3,0,4,27,40,11
12,1,16,1,6,1,4,27,40,11
12,1,18,1,6,1,4,27,40,11
12,1,19,1,6,1,4,27,67,11
12,1,15,1,4,0,4,27,40,8
2,1,7,1,2,0,1,27,3,11
2,1,10,1,1,0,1,27,67,11
3,2,21,0,5,1,1,27,77,11
3,2,20,1,2,0,1,27,77,8
3,2,15,1,6,1,1,27,90,11
4,2,20,1,4,0,2,27,3,11
4,2,23,0,2,0,2,27,112,11
7,3,12,1,4,0,3,27,93,11
7,3,19,1,6,1,3,27,107,8
7,3,18,1,3,0,3,27,93,11
8,3,22,0,4,0,3,27,93,11
8,3,8,1,6,1,3,27,93,11
9,4,1,0,2,0,3,27,24,11
9,4,1,0,2,0,3,27,90,11
10,4,22,0,1,0,4,27,129,11
11,4,22,0,2,0,4,27,40,11
11,4,20,1,1,0,4,27,77,8
11,4,2,0,3,0,4,27,90,11
12,1,14,1,4,0,4,27,40,11
12,1,23,0,6,1,4,27,77,11
12,1,23,0,4,0,4,27,100,11
1,1,13,1,2,0,1,27,77,8
2,1,13,1,5,1,1,27,90,11
2,1,2,0,5,1,1,27,93,11
6,3,18,1,3,0,2,27,90,11
7,3,5,0,6,1,3,27,108,11
7,3,12,1,5,1,3,27,35,11
9,4,19,1,0,0,3,27,77,11
10,4,5,0,6,1,4,27,93,11
11,4,19,1,3,0,4,27,93,11
11,4,19,1,3,0,4,27,93,11
1,1,0,0,5,1,1,27,40,11
1,1,12,1,5,1,1,27,24,11
1,1,16,1,2,0,1,27,49,9
1,1,18,1,1,0,1,27,40,11
1,1,23,0,0,0,1,27,67,11
2,1,22,0,3,0,1,27,13,11
3,2,0,0,3,0,1,27,67,11
3,2,21,0,5,1,1,27,111,11
5,2,19,1,4,0,2,27,67,11
5,2,19,1,0,0,2,27,13,11
6,3,17,1,4,0,2,27,93,11
6,3,23,0,6,1,2,27,21,11
6,3,14,1,6,1,2,27,93,11
6,3,12,1,3,0,2,27,21,11
6,3,14,1,1,0,2,27,67,11
6,3,17,1,2,0,2,27,93,11
8,3,12,1,4,0,3,27,67,11
8,3,8,1,1,0,3,27,40,11
8,3,17,1,5,1,3,27,106,11
8,3,18,1,2,0,3,27,68,11
10,4,19,1,1,0,4,27,67,11
10,4,3,0,3,0,4,27,13,11
10,4,18,1,5,1,4,27,59,11
10,4,7,1,6,1,4,27,100,11
11,4,10,1,3,0,4,27,49,11
11,4,20,1,6,1,4,27,40,11
11,4,8,1,1,0,4,27,60,11
11,4,16,1,1,0,4,27,77,11
12,1,9,1,3,0,4,27,77,11
12,1,10,1,5,1,4,27,14,11
12,1,22,0,2,0,4,27,80,11
12,1,17,1,2,0,4,27,40,11
12,1,10,1,4,0,4,27,93,11
1,1,10,1,1,0,1,47,77,11
1,1,6,0,1,0,1,47,100,11
1,1,15,1,2,0,1,47,77,11
1,1,17,1,3,0,1,47,40,11
1,1,14,1,5,1,1,47,100,11
1,1,14,1,6,1,1,47,13,8
2,1,8,1,1,0,1,47,77,11
2,1,19,1,2,0,1,47,100,11
2,1,11,1,3,0,1,47,74,11
2,1,15,1,0,0,1,47,40,11
3,2,11,1,4,0,1,47,67,11
3,2,12,1,4,0,1,47,13,8
4,2,14,1,1,0,2,47,14,11
4,2,5,0,5,1,2,47,66,11
4,2,0,0,2,0,2,47,67,11
5,2,14,1,2,0,2,47,67,11
6,3,2,0,4,0,2,47,100,11
8,3,19,1,0,0,3,47,93,11
9,4,10,1,0,0,3,47,112,11
9,4,21,0,4,0,3,47,50,11
10,4,12,1,2,0,4,47,71,11
10,4,16,1,2,0,4,47,81,11
11,4,4,0,1,0,4,47,90,11
11,4,16,1,5,1,4,47,14,11
11,4,9,1,5,1,4,47,100,11
11,4,16,1,4,0,4,47,77,11
11,4,17,1,5,1,4,47,66,11
12,1,2,0,3,0,4,47,90,11
12,1,3,0,0,0,4,47,67,9
12,1,4,0,5,1,4,47,90,11
12,1,3,0,5,1,4,47,131,11
12,1,18,1,5,1,4,47,100,11
12,1,18,1,5,1,4,47,21,11
12,1,3,0,6,1,4,47,90,11
12,1,13,1,0,0,4,47,14,11
12,1,13,1,1,0,4,47,90,11
12,1,22,0,2,0,4,47,90,11
12,1,22,0,4,0,4,47,90,11
12,1,15,1,4,0,4,47,90,8
12,1,16,1,5,1,4,47,77,11
1,1,16,1,4,0,1,23,90,11
1,1,22,0,1,0,1,23,67,11
1,1,9,1,2,0,1,23,40,11
1,1,19,1,4,0,1,23,67,11
1,1,17,1,5,1,1,23,77,11
1,1,17,1,1,0,1,23,67,11
1,1,19,1,0,0,1,23,90,11
1,1,23,0,1,0,1,23,90,11
1,1,20,1,3,0,1,23,90,11
1,1,20,1,4,0,1,23,87,11
1,1,0,0,6,1,1,23,106,11
1,1,11,1,6,1,1,23,90,11
1,1,17,1,1,0,1,23,104,11
1,1,22,0,1,0,1,23,49,11
1,1,15,1,3,0,1,23,67,11
1,1,9,1,6,1,1,23,40,11
1,1,23,0,6,1,1,23,77,11
2,1,19,1,3,0,1,23,67,11
2,1,19,1,3,0,1,23,77,11
2,1,12,1,5,1,1,23,28,11
2,1,20,1,5,1,1,23,90,11
2,1,12,1,6,1,1,23,104,11
2,1,17,1,6,1,1,23,104,11
2,1,5,0,2,0,1,23,77,8
2,1,10,1,4,0,1,23,67,11
2,1,19,1,6,1,1,23,69,9
2,1,22,0,6,1,1,23,90,11
2,1,13,1,2,0,1,23,40,11
2,1,16,1,6,1,1,23,90,11
3,2,7,1,5,1,1,23,90,11
3,2,18,1,5,1,1,23,104,11
3,2,20,1,5,1,1,23,104,11
3,2,18,1,6,1,1,23,90,11
3,2,15,1,0,0,1,23,60,11
3,2,19,1,1,0,1,23,40,11
3,2,0,0,3,0,1,23,104,11
3,2,14,1,4,0,1,23,104,11
3,2,17,1,0,0,1,23,112,11
3,2,3,0,0,0,1,23,90,11
3,2,5,0,1,0,1,23,67,11
3,2,14,1,5,1,1,23,40,11
3,2,20,1,0,0,1,23,77,11
4,2,8,1,5,1,2,23,67,11
4,2,19,1,1,0,2,23,104,11
4,2,18,1,1,0,2,23,21,11
4,2,20,1,3,0,2,23,67,11
4,2,13,1,4,0,2,23,77,11
5,2,3,0,0,0,2,23,90,11
5,2,4,0,0,0,2,23,90,11
5,2,20,1,3,0,2,23,40,11
5,2,11,1,5,1,2,23,77,11
5,2,8,1,2,0,2,23,104,11
5,2,8,1,4,0,2,23,14,11
5,2,21,0,6,1,2,23,67,11
7,3,19,1,5,1,3,23,69,11
7,3,15,1,5,1,3,23,85,11
7,3,11,1,6,1,3,23,21,11
8,3,7,1,1,0,3,23,21,11
8,3,19,1,1,0,3,23,93,9
8,3,21,0,3,0,3,23,93,9
8,3,17,1,4,0,3,23,104,11
8,3,5,0,5,1,3,23,93,11
8,3,23,0,3,0,3,23,31,11
8,3,12,1,4,0,3,23,104,11
8,3,14,1,4,0,3,23,114,11
8,3,20,1,6,1,3,23,93,11
8,3,19,1,1,0,3,23,104,11
9,4,3,0,6,1,3,23,21,9
9,4,22,0,6,1,3,23,114,11
9,4,3,0,0,0,3,23,93,11
9,4,0,0,4,0,3,23,40,11
9,4,21,0,0,0,3,23,40,11
10,4,15,1,3,0,4,23,77,11
10,4,22,0,6,1,4,23,79,11
11,4,13,1,5,1,4,23,100,11
11,4,16,1,5,1,4,23,102,11
11,4,17,1,4,0,4,23,100,11
11,4,5,0,4,0,4,23,40,11
11,4,22,0,5,1,4,23,67,11
11,4,19,1,2,0,4,23,77,11
11,4,9,1,4,0,4,23,90,11
11,4,18,1,5,1,4,23,90,11
11,4,19,1,0,0,4,23,119,11
11,4,20,1,2,0,4,23,100,11
12,1,10,1,3,0,4,23,14,9
12,1,12,1,4,0,4,23,100,11
12,1,13,1,4,0,4,23,40,11
12,1,19,1,5,1,4,23,100,11
12,1,23,0,6,1,4,23,40,11
12,1,12,1,0,0,4,23,77,11
12,1,16,1,5,1,4,23,104,11
12,1,17,1,0,0,4,23,77,11
12,1,12,1,1,0,4,23,100,11
12,1,18,1,3,0,4,23,77,11
12,1,21,0,3,0,4,23,67,11
12,1,21,0,4,0,4,23,77,11
12,1,10,1,1,0,4,23,77,11
12,1,11,1,2,0,4,23,77,11
12,1,15,1,3,0,4,23,93,11
12,1,3,0,4,0,4,23,100,11
12,1,17,1,5,1,4,23,77,11
12,1,0,0,2,0,4,23,100,11
12,1,13,1,2,0,4,23,77,11
12,1,16,1,2,0,4,23,100,11
12,1,12,1,3,0,4,23,67,11
12,1,18,1,3,0,4,23,86,11
12,1,21,0,3,0,4,23,100,11
12,1,17,1,5,1,4,23,77,11
1,1,15,1,1,0,1,23,90,11
1,1,10,1,2,0,1,23,90,11
1,1,13,1,4,0,1,23,77,11
1,1,13,1,2,0,1,23,40,11
2,1,11,1,6,1,1,23,104,11
2,1,21,0,1,0,1,23,40,11
2,1,21,0,1,0,1,23,90,11
2,1,17,1,1,0,1,23,104,11
2,1,15,1,6,1,1,23,40,11
2,1,16,1,6,1,1,23,104,11
3,2,19,1,1,0,1,23,40,11
3,2,9,1,2,0,1,23,77,11
3,2,2,0,5,1,1,23,106,11
3,2,15,1,0,0,1,23,104,11
3,2,18,1,0,0,1,23,77,11
3,2,15,1,5,1,1,23,40,11
3,2,10,1,4,0,1,23,77,11
4,2,20,1,5,1,2,23,40,11
7,3,20,1,4,0,3,23,112,11
7,3,17,1,5,1,3,23,93,11
7,3,7,1,3,0,3,23,93,11
9,4,5,0,3,0,3,23,133,11
12,1,12,1,5,1,4,23,100,11
12,1,22,0,0,0,4,23,93,11
12,1,15,1,2,0,4,23,100,11
12,1,13,1,0,0,4,23,93,11
12,1,20,1,0,0,4,23,100,11
12,1,18,1,1,0,4,23,104,11
12,1,8,1,2,0,4,23,40,11
1,1,0,0,6,1,1,8,86,9
1,1,16,1,5,1,1,8,67,11
1,1,14,1,0,0,1,8,100,11
1,1,18,1,0,0,1,8,67,11
1,1,19,1,6,1,1,8,93,11
2,1,7,1,4,0,1,8,100,11
2,1,15,1,1,0,1,8,14,11
3,2,15,1,3,0,1,8,40,11
3,2,19,1,1,0,1,8,77,11
4,2,20,1,6,1,2,8,67,11
4,2,10,1,1,0,2,8,24,11
4,2,1,0,1,0,2,8,100,11
4,2,19,1,6,1,2,8,77,11
4,2,20,1,1,0,2,8,77,11
5,2,18,1,2,0,2,8,65,8
5,2,14,1,0,0,2,8,77,9
6,3,15,1,3,0,2,8,67,11
6,3,21,0,5,1,2,8,69,11
6,3,20,1,1,0,2,8,24,11
6,3,14,1,2,0,2,8,93,11
7,3,13,1,5,1,3,8,90,11
7,3,18,1,3,0,3,8,104,11
7,3,0,0,0,0,3,8,26,11
7,3,7,1,2,0,3,8,104,11
7,3,7,1,4,0,3,8,40,11
7,3,10,1,6,1,3,8,67,11
7,3,11,1,6,1,3,8,104,11
7,3,16,1,6,1,3,8,104,11
8,3,10,1,1,0,3,8,104,11
9,4,11,1,5,1,3,8,93,11
9,4,19,1,5,1,3,8,104,11
11,4,9,1,3,0,4,8,100,11
11,4,14,1,0,0,4,8,21,11
11,4,15,1,0,0,4,8,100,11
11,4,19,1,5,1,4,8,100,11
11,4,22,0,2,0,4,8,100,11
11,4,12,1,4,0,4,8,100,11
12,1,7,1,3,0,4,8,100,11
12,1,7,1,6,1,4,8,49,9
12,1,17,1,6,1,4,8,104,11
12,1,9,1,3,0,4,8,100,11
12,1,14,1,4,0,4,8,100,11
12,1,12,1,4,0,4,8,111,11
1,1,17,1,0,0,1,8,77,11
8,3,12,1,3,0,3,8,49,11
9,4,11,1,4,0,3,8,40,11
11,4,10,1,2,0,4,8,77,11
9,4,9,1,0,0,3,8,93,11
1,1,13,1,4,0,1,20,104,11
1,1,14,1,4,0,1,20,40,11
1,1,16,1,4,0,1,20,67,11
1,1,17,1,4,0,1,20,132,11
1,1,15,1,5,1,1,20,104,11
1,1,13,1,5,1,1,20,93,11
1,1,18,1,1,0,1,20,132,11
1,1,17,1,1,0,1,20,132,11
1,1,14,1,3,0,1,20,90,11
1,1,2,0,5,1,1,20,104,11
1,1,22,0,6,1,1,20,132,11
1,1,21,0,1,0,1,20,101,11
1,1,19,1,1,0,1,20,132,11
1,1,10,1,2,0,1,20,132,11
1,1,11,1,3,0,1,20,74,11
1,1,13,1,4,0,1,20,132,11
1,1,12,1,4,0,1,20,132,11
1,1,16,1,6,1,1,20,132,11
1,1,0,0,1,0,1,20,132,11
1,1,16,1,1,0,1,20,40,8
1,1,18,1,4,0,1,20,132,11
1,1,20,1,4,0,1,20,100,11
1,1,14,1,0,0,1,20,132,11
1,1,10,1,0,0,1,20,132,11
1,1,17,1,0,0,1,20,132,11
1,1,22,0,0,0,1,20,132,11
1,1,18,1,1,0,1,20,132,11
1,1,16,1,1,0,1,20,132,11
1,1,17,1,5,1,1,20,132,11
1,1,18,1,5,1,1,20,132,11
1,1,12,1,6,1,1,20,132,11
2,1,14,1,3,0,1,20,67,11
2,1,19,1,4,0,1,20,132,11
2,1,9,1,5,1,1,20,132,11
2,1,0,0,6,1,1,20,132,11
2,1,15,1,6,1,1,20,104,11
2,1,16,1,6,1,1,20,115,11
2,1,0,0,0,0,1,20,132,11
2,1,14,1,0,0,1,20,132,11
2,1,10,1,1,0,1,20,67,11
2,1,17,1,1,0,1,20,104,11
2,1,17,1,0,0,1,20,132,11
2,1,17,1,0,0,1,20,14,11
2,1,16,1,1,0,1,20,67,11
2,1,6,0,5,1,1,20,132,11
2,1,20,1,5,1,1,20,132,11
2,1,5,0,6,1,1,20,132,11
2,1,15,1,0,0,1,20,102,11
2,1,17,1,2,0,1,20,132,11
2,1,14,1,6,1,1,20,104,11
2,1,23,0,6,1,1,20,132,11
2,1,14,1,0,0,1,20,93,11
3,2,16,1,1,0,1,20,132,11
3,2,17,1,1,0,1,20,77,11
3,2,13,1,4,0,1,20,132,11
3,2,19,1,5,1,1,20,104,9
3,2,4,0,6,1,1,20,21,11
3,2,14,1,0,0,1,20,132,11
3,2,7,1,6,1,1,20,21,11
3,2,13,1,0,0,1,20,132,11
3,2,14,1,0,0,1,20,132,11
3,2,21,0,2,0,1,20,132,11
3,2,15,1,3,0,1,20,67,11
3,2,21,0,6,1,1,20,132,11
3,2,20,1,0,0,1,20,104,11
3,2,15,1,5,1,1,20,67,11
3,2,2,0,6,1,1,20,40,11
3,2,21,0,0,0,1,20,132,11
4,2,11,1,4,0,2,20,47,9
4,2,2,0,4,0,2,20,121,11
4,2,23,0,5,1,2,20,104,11
4,2,16,1,6,1,2,20,13,11
4,2,13,1,3,0,2,20,21,11
4,2,18,1,3,0,2,20,132,11
4,2,14,1,5,1,2,20,81,11
5,2,0,0,0,0,2,20,40,11
5,2,0,0,1,0,2,20,104,11
5,2,14,1,1,0,2,20,106,11
5,2,2,0,2,0,2,20,100,11
5,2,19,1,3,0,2,20,104,11
5,2,10,1,2,0,2,20,14,11
5,2,20,1,5,1,2,20,100,11
5,2,13,1,5,1,2,20,90,11
5,2,17,1,4,0,2,20,104,11
5,2,14,1,6,1,2,20,104,11
6,3,22,0,5,1,2,20,104,11
6,3,16,1,6,1,2,20,132,11
6,3,13,1,5,1,2,20,104,11
6,3,12,1,4,0,2,20,104,11
6,3,17,1,4,0,2,20,104,11
6,3,13,1,5,1,2,20,132,11
6,3,14,1,3,0,2,20,104,11
6,3,14,1,3,0,2,20,132,11
6,3,21,0,3,0,2,20,93,11
7,3,12,1,5,1,3,20,104,11
7,3,15,1,1,0,3,20,90,11
7,3,13,1,2,0,3,20,40,11
7,3,14,1,2,0,3,20,104,11
7,3,22,0,4,0,3,20,21,9
7,3,15,1,1,0,3,20,104,11
7,3,23,0,2,0,3,20,132,11
7,3,15,1,3,0,3,20,104,11
7,3,0,0,3,0,3,20,93,11
7,3,17,1,6,1,3,20,93,11
7,3,15,1,2,0,3,20,104,11
8,3,20,1,6,1,3,20,104,11
8,3,15,1,3,0,3,20,21,11
8,3,13,1,0,0,3,20,132,11
8,3,14,1,0,0,3,20,104,11
8,3,4,0,2,0,3,20,77,8
8,3,9,1,2,0,3,20,132,11
8,3,17,1,4,0,3,20,104,11
8,3,18,1,6,1,3,20,93,11
8,3,5,0,4,0,3,20,13,11
8,3,17,1,4,0,3,20,104,11
9,4,20,1,4,0,3,20,104,11
9,4,3,0,3,0,3,20,21,11
9,4,22,0,5,1,3,20,112,11
9,4,15,1,5,1,3,20,25,11
9,4,14,1,5,1,3,20,106,11
9,4,0,0,3,0,3,20,21,11
9,4,5,0,5,1,3,20,59,11
9,4,0,0,2,0,3,20,132,11
9,4,15,1,4,0,3,20,21,9
10,4,17,1,6,1,4,20,132,9
10,4,5,0,2,0,4,20,67,11
10,4,19,1,3,0,4,20,132,11
10,4,22,0,5,1,4,20,104,11
11,4,20,1,6,1,4,20,67,11
11,4,8,1,0,0,4,20,132,11
11,4,11,1,0,0,4,20,132,11
11,4,12,1,2,0,4,20,77,11
11,4,9,1,4,0,4,20,67,11
11,4,3,0,0,0,4,20,40,11
11,4,19,1,1,0,4,20,49,11
11,4,14,1,1,0,4,20,49,9
11,4,20,1,3,0,4,20,132,11
11,4,19,1,3,0,4,20,21,11
11,4,15,1,5,1,4,20,132,11
11,4,18,1,6,1,4,20,104,11
11,4,17,1,1,0,4,20,40,11
11,4,11,1,3,0,4,20,132,11
11,4,14,1,3,0,4,20,132,11
11,4,15,1,6,1,4,20,132,11
11,4,8,1,0,0,4,20,22,11
12,1,14,1,3,0,4,20,104,11
12,1,20,1,1,0,4,20,132,11
12,1,0,0,4,0,4,20,132,11
12,1,4,0,0,0,4,20,77,9
12,1,21,0,3,0,4,20,132,11
12,1,10,1,3,0,4,20,132,11
12,1,15,1,4,0,4,20,132,11
12,1,22,0,4,0,4,20,132,11
12,1,17,1,4,0,4,20,104,11
12,1,19,1,5,1,4,20,132,11
12,1,10,1,1,0,4,20,67,11
12,1,10,1,2,0,4,20,132,11
12,1,12,1,2,0,4,20,132,11
12,1,10,1,2,0,4,20,132,11
12,1,11,1,2,0,4,20,132,11
12,1,14,1,3,0,4,20,106,11
12,1,18,1,3,0,4,20,40,11
12,1,3,0,4,0,4,20,132,11
12,1,10,1,4,0,4,20,132,11
12,1,22,0,4,0,4,20,67,11
12,1,14,1,5,1,4,20,40,11
12,1,13,1,6,1,4,20,132,11
12,1,17,1,0,0,4,20,104,11
12,1,15,1,0,0,4,20,104,11
12,1,14,1,1,0,4,20,132,11
12,1,9,1,2,0,4,20,132,11
12,1,21,0,2,0,4,20,132,11
12,1,12,1,3,0,4,20,132,11
12,1,19,1,3,0,4,20,104,11
12,1,14,1,4,0,4,20,132,11
12,1,23,0,4,0,4,20,132,11
12,1,16,1,4,0,4,20,132,11
12,1,16,1,4,0,4,20,93,11
12,1,18,1,4,0,4,20,40,11
12,1,18,1,5,1,4,20,93,11
1,1,3,0,3,0,1,20,77,11
1,1,7,1,5,1,1,20,77,9
3,2,20,1,4,0,1,20,40,11
5,2,22,0,1,0,2,20,77,9
6,3,10,1,0,0,2,20,104,11
6,3,13,1,6,1,2,20,74,11
7,3,7,1,0,0,3,20,87,11
9,4,22,0,6,1,3,20,13,8
12,1,11,1,0,0,4,20,40,11
12,1,11,1,1,0,4,20,68,9
3,2,5,0,3,0,1,20,74,11
6,3,4,0,1,0,2,20,65,9
1,1,14,1,4,0,1,20,40,11
1,1,15,1,5,1,1,20,104,11
1,1,12,1,5,1,1,20,100,11
1,1,16,1,5,1,1,20,67,11
1,1,10,1,3,0,1,20,100,11
1,1,19,1,2,0,1,20,40,11
1,1,17,1,2,0,1,20,100,11
1,1,2,0,3,0,1,20,100,11
1,1,19,1,4,0,1,20,104,11
1,1,10,1,0,0,1,20,67,11
1,1,20,1,0,0,1,20,100,11
1,1,15,1,6,1,1,20,100,11
1,1,17,1,6,1,1,20,1,11
2,1,14,1,0,0,1,20,100,11
2,1,1,0,1,0,1,20,100,11
2,1,14,1,2,0,1,20,104,11
2,1,16,1,2,0,1,20,87,11
2,1,9,1,5,1,1,20,104,11
2,1,0,0,6,1,1,20,40,11
2,1,15,1,0,0,1,20,104,11
2,1,8,1,0,0,1,20,67,11
2,1,14,1,1,0,1,20,100,11
2,1,9,1,5,1,1,20,100,11
2,1,21,0,6,1,1,20,77,11
2,1,8,1,0,0,1,20,30,9
2,1,12,1,0,0,1,20,100,11
2,1,22,0,4,0,1,20,104,11
2,1,15,1,6,1,1,20,100,11
3,2,19,1,3,0,1,20,67,11
3,2,22,0,4,0,1,20,100,11
3,2,0,0,5,1,1,20,100,11
3,2,14,1,5,1,1,20,100,11
3,2,19,1,5,1,1,20,100,11
3,2,13,1,6,1,1,20,40,11
3,2,13,1,6,1,1,20,100,11
3,2,1,0,0,0,1,20,100,11
3,2,8,1,0,0,1,20,100,11
3,2,0,0,1,0,1,20,100,11
3,2,18,1,1,0,1,20,77,11
3,2,21,0,4,0,1,20,100,11
3,2,14,1,4,0,1,20,67,11
3,2,12,1,0,0,1,20,67,11
3,2,21,0,0,0,1,20,40,11
3,2,14,1,2,0,1,20,14,11
3,2,20,1,2,0,1,20,100,11
3,2,21,0,0,0,1,20,107,11
3,2,15,1,1,0,1,20,100,11
3,2,12,1,6,1,1,20,67,11
3,2,1,0,0,0,1,20,100,11
4,2,12,1,6,1,2,20,104,11
4,2,17,1,1,0,2,20,100,11
4,2,21,0,0,0,2,20,100,11
4,2,23,0,2,0,2,20,100,11
4,2,17,1,2,0,2,20,100,11
5,2,1,0,5,1,2,20,21,11
5,2,10,1,1,0,2,20,100,11
6,3,22,0,4,0,2,20,100,11
6,3,4,0,5,1,2,20,67,11
6,3,12,1,6,1,2,20,13,11
6,3,16,1,3,0,2,20,93,11
6,3,21,0,0,0,2,20,100,11
7,3,16,1,0,0,3,20,67,11
7,3,18,1,5,1,3,20,104,11
7,3,21,0,3,0,3,20,104,11
7,3,16,1,4,0,3,20,104,11
7,3,21,0,2,0,3,20,93,11
7,3,0,0,0,0,3,20,100,11
7,3,18,1,6,1,3,20,67,11
8,3,19,1,2,0,3,20,93,11
8,3,18,1,6,1,3,20,104,11
8,3,22,0,0,0,3,20,104,11
8,3,9,1,1,0,3,20,100,11
8,3,22,0,4,0,3,20,21,11
8,3,21,0,5,1,3,20,104,11
8,3,10,1,4,0,3,20,90,11
8,3,17,1,5,1,3,20,100,11
8,3,17,1,0,0,3,20,90,11
8,3,1,0,2,0,3,20,90,11
9,4,16,1,6,1,3,20,3,11
9,4,18,1,5,1,3,20,104,11
10,4,15,1,4,0,4,20,100,11
10,4,11,1,5,1,4,20,104,11
10,4,17,1,5,1,4,20,104,11
10,4,19,1,5,1,4,20,100,11
10,4,18,1,4,0,4,20,100,11
10,4,1,0,6,1,4,20,21,11
10,4,20,1,3,0,4,20,3,11
10,4,19,1,4,0,4,20,93,11
11,4,18,1,2,0,4,20,90,11
11,4,22,0,4,0,4,20,40,9
11,4,19,1,4,0,4,20,100,11
11,4,19,1,4,0,4,20,100,11
11,4,14,1,6,1,4,20,100,11
11,4,16,1,0,0,4,20,77,11
11,4,23,0,1,0,4,20,100,11
11,4,15,1,3,0,4,20,100,11
11,4,20,1,1,0,4,20,67,11
11,4,21,0,1,0,4,20,77,9
11,4,19,1,2,0,4,20,67,11
11,4,9,1,3,0,4,20,100,11
11,4,20,1,4,0,4,20,77,11
11,4,9,1,0,0,4,20,100,11
11,4,18,1,2,0,4,20,100,11
11,4,20,1,2,0,4,20,77,11
12,1,22,0,5,1,4,20,100,11
12,1,9,1,0,0,4,20,100,11
12,1,0,0,5,1,4,20,67,11
12,1,20,1,5,1,4,20,77,11
12,1,21,0,5,1,4,20,100,11
12,1,13,1,6,1,4,20,100,11
12,1,18,1,0,0,4,20,100,11
12,1,18,1,2,0,4,20,100,11
12,1,15,1,4,0,4,20,100,11
12,1,15,1,4,0,4,20,93,11
12,1,21,0,5,1,4,20,40,11
12,1,23,0,5,1,4,20,100,11
12,1,15,1,5,1,4,20,14,11
12,1,18,1,0,0,4,20,100,11
12,1,20,1,1,0,4,20,100,11
12,1,20,1,4,0,4,20,100,11
12,1,15,1,5,1,4,20,100,11
12,1,16,1,0,0,4,20,100,11
12,1,17,1,0,0,4,20,1,11
12,1,20,1,0,0,4,20,100,11
12,1,18,1,1,0,4,20,100,11
12,1,19,1,1,0,4,20,100,11
12,1,17,1,2,0,4,20,104,11
12,1,20,1,3,0,4,20,67,11
12,1,20,1,3,0,4,20,100,11
12,1,23,0,4,0,4,20,77,11
12,1,15,1,5,1,4,20,1,11
2,1,13,1,6,1,1,20,1,11
5,2,21,0,5,1,2,20,104,11
6,3,14,1,3,0,2,20,13,11
6,3,7,1,4,0,2,20,13,11
6,3,21,0,0,0,2,20,67,8
7,3,13,1,5,1,3,20,104,11
7,3,21,0,5,1,3,20,104,11
7,3,13,1,6,1,3,20,104,11
7,3,17,1,4,0,3,20,93,11
8,3,17,1,5,1,3,20,93,9
8,3,9,1,4,0,3,20,93,11
9,4,17,1,1,0,3,20,40,11
10,4,9,1,4,0,4,20,104,11
12,1,8,1,0,0,4,20,77,11
12,1,12,1,5,1,4,20,3,11
9,4,14,1,3,0,3,20,104,11
12,1,11,1,5,1,4,20,104,11
12,1,14,1,5,1,4,20,77,11
1,1,15,1,0,0,1,20,93,11
9,4,17,1,0,0,3,20,104,11
10,4,18,1,1,0,4,20,96,11
10,4,15,1,0,0,4,20,132,11
11,4,22,0,3,0,4,20,77,11
3,2,16,1,1,0,1,20,104,11
6,3,14,1,4,0,2,20,93,11
10,4,2,0,5,1,4,20,14,11
10,4,21,0,0,0,4,20,40,11
12,1,22,0,1,0,4,20,77,11
1,1,21,0,1,0,1,18,77,11
1,1,19,1,4,0,1,18,102,11
1,1,7,1,2,0,1,18,54,11
1,1,18,1,0,0,1,18,67,11
1,1,16,1,1,0,1,18,77,11
2,1,17,1,1,0,1,18,77,11
2,1,19,1,1,0,1,18,90,11
2,1,6,0,1,0,1,18,40,9
2,1,5,0,4,0,1,18,78,11
3,2,13,1,2,0,1,18,90,11
3,2,12,1,0,0,1,18,21,11
3,2,15,1,3,0,1,18,67,11
4,2,11,1,4,0,2,18,93,11
4,2,21,0,3,0,2,18,104,11
4,2,21,0,3,0,2,18,21,11
4,2,12,1,4,0,2,18,67,11
4,2,10,1,3,0,2,18,66,11
5,2,17,1,4,0,2,18,132,11
5,2,4,0,4,0,2,18,132,11
5,2,13,1,1,0,2,18,21,11
5,2,13,1,1,0,2,18,67,11
5,2,14,1,1,0,2,18,90,11
6,3,13,1,4,0,2,18,93,11
6,3,12,1,3,0,2,18,73,11
6,3,22,0,5,1,2,18,80,11
6,3,5,0,0,0,2,18,24,8
6,3,13,1,5,1,2,18,93,11
6,3,0,0,0,0,2,18,14,11
6,3,8,1,0,0,2,18,3,11
6,3,10,1,2,0,2,18,90,11
7,3,15,1,3,0,3,18,93,11
7,3,22,0,1,0,3,18,93,11
7,3,15,1,6,1,3,18,104,11
7,3,14,1,0,0,3,18,93,11
7,3,20,1,1,0,3,18,90,11
7,3,9,1,2,0,3,18,104,11
7,3,11,1,2,0,3,18,67,11
8,3,22,0,5,1,3,18,21,11
8,3,2,0,5,1,3,18,90,11
8,3,2,0,6,1,3,18,90,11
8,3,3,0,6,1,3,18,90,11
8,3,0,0,5,1,3,18,90,11
9,4,18,1,3,0,3,18,90,11
9,4,19,1,0,0,3,18,112,11
9,4,11,1,5,1,3,18,93,11
10,4,19,1,3,0,4,18,104,11
10,4,20,1,0,0,4,18,40,11
10,4,18,1,1,0,4,18,40,11
10,4,14,1,6,1,4,18,14,11
10,4,11,1,5,1,4,18,60,11
11,4,11,1,1,0,4,18,104,11
11,4,22,0,0,0,4,18,90,11
11,4,23,0,0,0,4,18,90,11
11,4,11,1,3,0,4,18,90,11
11,4,15,1,5,1,4,18,90,11
12,1,15,1,3,0,4,18,77,11
12,1,20,1,5,1,4,18,67,11
12,1,17,1,2,0,4,18,104,11
12,1,23,0,6,1,4,18,67,11
12,1,10,1,0,0,4,18,77,9
12,1,16,1,1,0,4,18,90,11
12,1,21,0,3,0,4,18,14,11
12,1,12,1,0,0,4,18,77,11
12,1,12,1,0,0,4,18,90,11
12,1,23,0,0,0,4,18,90,11
12,1,18,1,1,0,4,18,9,11
12,1,15,1,2,0,4,18,90,11
12,1,21,0,2,0,4,18,77,11
12,1,18,1,4,0,4,18,77,11
1,1,16,1,6,1,1,18,77,11
2,1,21,0,3,0,1,18,32,11
4,2,11,1,6,1,2,18,21,11
6,3,10,1,2,0,2,18,60,11
6,3,11,1,5,1,2,18,90,11
7,3,14,1,6,1,3,18,90,11
7,3,5,0,1,0,3,18,90,11
8,3,20,1,4,0,3,18,90,11
8,3,14,1,0,0,3,18,90,11
8,3,12,1,4,0,3,18,22,11
10,4,9,1,2,0,4,18,90,11
10,4,11,1,0,0,4,18,77,11
12,1,19,1,1,0,4,18,93,11
12,1,22,0,3,0,4,18,104,11
12,1,15,1,3,0,4,18,90,11
12,1,13,1,4,0,4,18,93,11
12,1,18,1,5,1,4,18,93,11
6,3,18,1,1,0,2,18,93,11
8,3,17,1,4,0,3,18,90,11
8,3,13,1,0,0,3,18,90,11
8,3,9,1,4,0,3,18,90,11
10,4,1,0,4,0,4,18,104,11
11,4,12,1,4,0,4,18,67,11
12,1,18,1,4,0,4,18,104,11
1,1,0,0,4,0,1,4,77,11
1,1,2,0,4,0,1,4,100,11
1,1,3,0,4,0,1,4,93,11
1,1,20,1,5,1,1,4,40,11
1,1,15,1,5,1,1,4,90,11
1,1,16,1,6,1,1,4,40,11
1,1,21,0,6,1,1,4,59,11
1,1,23,0,0,0,1,4,17,9
1,1,12,1,1,0,1,4,100,11
1,1,15,1,5,1,1,4,13,8
1,1,23,0,6,1,1,4,74,11
1,1,21,0,2,0,1,4,90,11
1,1,18,1,5,1,1,4,77,11
1,1,7,1,2,0,1,4,100,11
1,1,7,1,4,0,1,4,104,11
1,1,12,1,6,1,1,4,104,11
1,1,22,0,6,1,1,4,104,11
1,1,8,1,4,0,1,4,77,11
1,1,9,1,4,0,1,4,104,11
1,1,23,0,5,1,1,4,90,11
1,1,18,1,6,1,1,4,100,11
2,1,19,1,2,0,1,4,67,11
2,1,10,1,0,0,1,4,100,11
2,1,16,1,3,0,1,4,100,11
2,1,12,1,2,0,1,4,49,11
2,1,14,1,2,0,1,4,90,11
2,1,15,1,3,0,1,4,24,11
2,1,18,1,6,1,1,4,67,11
3,2,11,1,5,1,1,4,13,11
3,2,14,1,0,0,1,4,104,11
3,2,9,1,0,0,1,4,81,11
3,2,20,1,5,1,1,4,40,11
3,2,18,1,2,0,1,4,81,11
4,2,7,1,2,0,2,4,93,11
4,2,4,0,0,0,2,4,100,11
4,2,10,1,0,0,2,4,74,11
4,2,10,1,5,1,2,4,90,11
4,2,1,0,6,1,2,4,100,11
4,2,13,1,6,1,2,4,104,11
4,2,21,0,1,0,2,4,74,9
4,2,4,0,2,0,2,4,100,11
4,2,12,1,3,0,2,4,93,11
4,2,14,1,4,0,2,4,93,11
4,2,22,0,4,0,2,4,77,11
4,2,20,1,5,1,2,4,44,11
4,2,18,1,1,0,2,4,104,11
4,2,9,1,2,0,2,4,104,11
4,2,10,1,5,1,2,4,74,11
5,2,7,1,4,0,2,4,34,11
5,2,9,1,6,1,2,4,104,11
5,2,16,1,3,0,2,4,100,11
5,2,3,0,6,1,2,4,93,11
5,2,17,1,4,0,2,4,14,11
5,2,5,0,4,0,2,4,90,11
5,2,18,1,5,1,2,4,67,11
5,2,6,0,0,0,2,4,100,11
5,2,16,1,0,0,2,4,104,11
5,2,7,1,1,0,2,4,100,11
5,2,17,1,1,0,2,4,104,11
6,3,23,0,2,0,2,4,104,11
6,3,14,1,4,0,2,4,77,11
6,3,15,1,1,0,2,4,49,11
6,3,1,0,3,0,2,4,104,11
6,3,20,1,4,0,2,4,104,11
6,3,12,1,0,0,2,4,100,11
6,3,21,0,2,0,2,4,100,11
6,3,13,1,4,0,2,4,74,11
6,3,8,1,3,0,2,4,104,11
6,3,17,1,4,0,2,4,53,11
6,3,9,1,1,0,2,4,104,11
6,3,13,1,3,0,2,4,104,11
7,3,21,0,4,0,3,4,104,11
7,3,9,1,5,1,3,4,104,11
7,3,15,1,6,1,3,4,93,11
7,3,1,0,0,0,3,4,100,11
7,3,10,1,0,0,3,4,77,9
7,3,5,0,1,0,3,4,74,11
7,3,8,1,1,0,3,4,93,11
7,3,12,1,5,1,3,4,67,11
7,3,21,0,6,1,3,4,104,11
8,3,5,0,0,0,3,4,104,11
8,3,6,0,0,0,3,4,104,11
8,3,11,1,0,0,3,4,90,11
8,3,21,0,2,0,3,4,104,11
8,3,14,1,3,0,3,4,104,11
8,3,14,1,3,0,3,4,90,11
8,3,1,0,4,0,3,4,104,11
8,3,20,1,0,0,3,4,93,11
8,3,20,1,2,0,3,4,100,11
8,3,3,0,5,1,3,4,104,11
8,3,22,0,5,1,3,4,100,11
8,3,20,1,5,1,3,4,104,11
8,3,3,0,3,0,3,4,59,11
8,3,23,0,3,0,3,4,104,11
8,3,23,0,0,0,3,4,102,11
8,3,19,1,1,0,3,4,93,11
9,4,11,1,3,0,3,4,93,11
9,4,13,1,4,0,3,4,67,11
9,4,21,0,5,1,3,4,104,11
9,4,15,1,0,0,3,4,104,11
9,4,21,0,2,0,3,4,104,11
9,4,20,1,5,1,3,4,104,11
9,4,19,1,5,1,3,4,93,11
9,4,16,1,3,0,3,4,14,9
10,4,19,1,3,0,4,4,104,11
10,4,15,1,5,1,4,4,93,11
10,4,16,1,1,0,4,4,104,11
10,4,9,1,3,0,4,4,104,11
10,4,13,1,4,0,4,4,74,11
10,4,22,0,4,0,4,4,67,11
10,4,21,0,4,0,4,4,104,11
10,4,10,1,6,1,4,4,90,11
11,4,19,1,3,0,4,4,67,11
11,4,19,1,6,1,4,4,93,11
11,4,11,1,3,0,4,4,74,11
11,4,2,0,6,1,4,4,40,11
11,4,0,0,0,0,4,4,104,11
11,4,17,1,1,0,4,4,104,11
11,4,12,1,5,1,4,4,100,11
11,4,13,1,2,0,4,4,40,11
12,1,7,1,4,0,4,4,100,11
12,1,21,0,4,0,4,4,104,11
12,1,16,1,5,1,4,4,100,11
12,1,11,1,3,0,4,4,104,11
12,1,14,1,4,0,4,4,104,11
12,1,14,1,5,1,4,4,104,11
12,1,19,1,5,1,4,4,90,11
12,1,15,1,6,1,4,4,100,11
12,1,19,1,1,0,4,4,77,11
12,1,21,0,1,0,4,4,90,11
12,1,3,0,2,0,4,4,100,11
12,1,12,1,2,0,4,4,104,11
12,1,17,1,3,0,4,4,104,11
12,1,15,1,4,0,4,4,93,11
12,1,15,1,5,1,4,4,67,11
12,1,16,1,5,1,4,4,104,11
12,1,17,1,0,0,4,4,104,11
12,1,4,0,1,0,4,4,100,11
12,1,12,1,1,0,4,4,104,11
12,1,11,1,2,0,4,4,100,11
12,1,18,1,4,0,4,4,104,11
12,1,17,1,4,0,4,4,11,11
12,1,15,1,4,0,4,4,100,11
12,1,1,0,5,1,4,4,67,11
12,1,17,1,5,1,4,4,77,11
12,1,18,1,5,1,4,4,104,11
12,1,19,1,5,1,4,4,100,11
1,1,21,0,3,0,1,4,67,11
4,2,16,1,2,0,2,4,90,11
4,2,14,1,4,0,2,4,74,11
8,3,17,1,1,0,3,4,104,11
10,4,18,1,1,0,4,4,104,11
11,4,11,1,1,0,4,4,112,11
12,1,15,1,5,1,4,4,104,11
6,3,21,0,6,1,2,4,77,11
12,1,18,1,0,0,4,4,77,11
1,1,10,1,2,0,1,40,77,11
1,1,10,1,0,0,1,40,100,11
1,1,19,1,6,1,1,40,100,11
1,1,13,1,2,0,1,40,67,11
2,1,14,1,2,0,1,40,93,11
2,1,12,1,3,0,1,40,49,11
2,1,19,1,2,0,1,40,93,11
2,1,11,1,3,0,1,40,93,11
3,2,5,0,0,0,1,40,80,11
3,2,10,1,4,0,1,40,21,11
3,2,12,1,1,0,1,40,100,11
4,2,21,0,4,0,2,40,104,11
4,2,0,0,1,0,2,40,40,11
6,3,6,0,2,0,2,40,67,11
6,3,6,0,6,1,2,40,77,11
6,3,18,1,4,0,2,40,79,11
7,3,10,1,5,1,3,40,104,11
7,3,13,1,2,0,3,40,21,11
7,3,14,1,0,0,3,40,93,11
7,3,14,1,1,0,3,40,40,11
7,3,15,1,6,1,3,40,40,11
7,3,7,1,0,0,3,40,104,11
8,3,13,1,0,0,3,40,3,11
8,3,13,1,3,0,3,40,93,11
8,3,2,0,4,0,3,40,132,11
8,3,16,1,4,0,3,40,93,11
8,3,22,0,5,1,3,40,49,11
8,3,18,1,0,0,3,40,93,11
8,3,11,1,1,0,3,40,104,11
8,3,22,0,2,0,3,40,93,11
8,3,2,0,1,0,3,40,132,11
8,3,15,1,1,0,3,40,104,11
8,3,13,1,4,0,3,40,93,11
8,3,23,0,1,0,3,40,132,11
9,4,11,1,4,0,3,40,132,11
9,4,14,1,4,0,3,40,77,11
9,4,19,1,0,0,3,40,132,11
10,4,16,1,0,0,4,40,104,11
11,4,6,0,1,0,4,40,81,11
11,4,13,1,6,1,4,40,21,11
11,4,21,0,0,0,4,40,110,11
11,4,20,1,1,0,4,40,100,11
11,4,15,1,5,1,4,40,40,11
11,4,15,1,0,0,4,40,59,11
12,1,13,1,3,0,4,40,100,11
12,1,22,0,3,0,4,40,100,11
12,1,13,1,2,0,4,40,40,11
12,1,14,1,2,0,4,40,132,11
12,1,15,1,2,0,4,40,40,11
12,1,20,1,3,0,4,40,40,11
12,1,23,0,3,0,4,40,100,11
12,1,17,1,4,0,4,40,104,11
12,1,13,1,5,1,4,40,100,11
12,1,13,1,5,1,4,40,104,11
12,1,18,1,5,1,4,40,77,11
12,1,19,1,1,0,4,40,93,11
1,1,14,1,4,0,1,40,104,11
1,1,23,0,6,1,1,40,21,11
1,1,17,1,0,0,1,40,67,11
3,2,13,1,0,0,1,40,77,11
4,2,19,1,2,0,2,40,93,11
4,2,14,1,3,0,2,40,31,11
4,2,21,0,5,1,2,40,104,11
5,2,3,0,4,0,2,40,132,11
6,3,13,1,4,0,2,40,104,11
6,3,9,1,6,1,2,40,111,11
6,3,6,0,6,1,2,40,3,11
6,3,16,1,5,1,2,40,104,11
6,3,13,1,6,1,2,40,104,11
6,3,18,1,2,0,2,40,104,11
7,3,22,0,5,1,3,40,93,11
7,3,12,1,2,0,3,40,104,11
7,3,15,1,4,0,3,40,104,11
7,3,16,1,3,0,3,40,104,11
7,3,17,1,3,0,3,40,104,11
7,3,17,1,3,0,3,40,104,11
7,3,17,1,3,0,3,40,104,11
7,3,17,1,3,0,3,40,104,11
7,3,10,1,5,1,3,40,104,11
8,3,13,1,5,1,3,40,104,11
8,3,20,1,1,0,3,40,60,11
8,3,10,1,4,0,3,40,104,11
8,3,18,1,6,1,3,40,104,11
8,3,9,1,6,1,3,40,104,11
8,3,23,0,2,0,3,40,104,11
9,4,16,1,4,0,3,40,104,11
9,4,17,1,4,0,3,40,104,11
9,4,12,1,6,1,3,40,104,11
9,4,13,1,1,0,3,40,104,11
9,4,17,1,2,0,3,40,112,11
10,4,15,1,2,0,4,40,104,11
10,4,19,1,3,0,4,40,104,11
10,4,17,1,3,0,4,40,104,11
10,4,16,1,4,0,4,40,104,11
10,4,17,1,4,0,4,40,104,11
10,4,9,1,0,0,4,40,77,11
11,4,18,1,0,0,4,40,21,11
12,1,14,1,3,0,4,40,104,11
12,1,18,1,2,0,4,40,90,11
12,1,14,1,2,0,4,40,90,11
12,1,15,1,3,0,4,40,104,11
12,1,15,1,3,0,4,40,104,11
12,1,16,1,3,0,4,40,104,11
12,1,16,1,3,0,4,40,104,11
12,1,16,1,4,0,4,40,104,11
12,1,17,1,5,1,4,40,104,11
1,1,12,1,6,1,1,40,109,11
4,2,13,1,1,0,2,40,104,11
4,2,10,1,3,0,2,40,104,11
5,2,13,1,0,0,2,40,132,11
6,3,14,1,2,0,2,40,104,11
7,3,16,1,6,1,3,40,3,11
7,3,10,1,6,1,3,40,81,11
8,3,22,0,3,0,3,40,112,11
8,3,8,1,2,0,3,40,66,11
8,3,15,1,6,1,3,40,104,11
9,4,17,1,0,0,3,40,104,11
9,4,9,1,2,0,3,40,104,11
11,4,0,0,2,0,4,40,96,9
12,1,11,1,0,0,4,40,77,11
2,1,16,1,4,0,1,40,77,11
2,1,12,1,0,0,1,40,13,11
4,2,17,1,6,1,2,40,104,11
5,2,20,1,2,0,2,40,132,11
5,2,22,0,1,0,2,40,21,11
5,2,15,1,5,1,2,40,104,11
6,3,14,1,6,1,2,40,104,11
6,3,14,1,1,0,2,40,104,11
6,3,6,0,4,0,2,40,59,11
7,3,14,1,2,0,3,40,90,11
7,3,22,0,2,0,3,40,104,11
7,3,0,0,0,0,3,40,104,11
7,3,15,1,1,0,3,40,104,11
7,3,18,1,5,1,3,40,132,11
8,3,0,0,2,0,3,40,21,11
8,3,16,1,3,0,3,40,132,11
8,3,13,1,6,1,3,40,104,11
8,3,19,1,1,0,3,40,112,11
8,3,21,0,3,0,3,40,1,11
9,4,15,1,5,1,3,40,104,9
9,4,14,1,6,1,3,40,104,11
9,4,19,1,2,0,3,40,104,11
10,4,11,1,5,1,4,40,104,11
10,4,17,1,2,0,4,40,104,11
10,4,6,0,1,0,4,40,77,11
10,4,20,1,1,0,4,40,3,9
10,4,20,1,0,0,4,40,93,11
10,4,13,1,4,0,4,40,40,11
11,4,21,0,0,0,4,40,104,11
11,4,23,0,3,0,4,40,21,11
12,1,12,1,2,0,4,40,104,11
12,1,21,0,2,0,4,40,104,11
12,1,0,0,3,0,4,40,40,11
12,1,15,1,3,0,4,40,104,11
1,1,3,0,6,1,1,31,40,11
4,2,21,0,3,0,2,31,40,11
5,2,15,1,0,0,2,31,93,11
6,3,11,1,5,1,2,31,21,9
8,3,19,1,2,0,3,31,104,11
9,4,13,1,5,1,3,31,93,11
9,4,13,1,1,0,3,31,104,11
10,4,10,1,3,0,4,31,77,11
12,1,19,1,1,0,4,31,49,11
12,1,22,0,0,0,4,31,93,11
1,1,4,0,1,0,1,31,132,11
1,1,22,0,4,0,1,31,93,11
1,1,15,1,5,1,1,31,77,11
1,1,14,1,2,0,1,31,77,11
1,1,12,1,5,1,1,31,28,11
3,2,19,1,4,0,1,31,102,11
4,2,19,1,3,0,2,31,104,9
4,2,10,1,5,1,2,31,104,11
4,2,5,0,6,1,2,31,93,11
5,2,16,1,5,1,2,31,65,9
5,2,17,1,1,0,2,31,104,11
6,3,10,1,5,1,2,31,26,9
7,3,17,1,4,0,3,31,3,11
7,3,3,0,2,0,3,31,90,11
7,3,2,0,2,0,3,31,93,8
8,3,12,1,5,1,3,31,67,11
8,3,4,0,6,1,3,31,90,11
8,3,19,1,2,0,3,31,40,11
9,4,16,1,3,0,3,31,111,9
9,4,20,1,4,0,3,31,21,11
10,4,14,1,5,1,4,31,26,11
10,4,17,1,1,0,4,31,26,11
11,4,15,1,1,0,4,31,104,11
1,1,22,0,5,1,1,31,67,11
1,1,12,1,6,1,1,31,67,11
1,1,0,0,6,1,1,31,132,11
1,1,21,0,0,0,1,31,67,11
1,1,20,1,1,0,1,31,100,11
1,1,19,1,1,0,1,31,40,11
1,1,18,1,1,0,1,31,132,11
1,1,13,1,2,0,1,31,67,11
1,1,15,1,2,0,1,31,132,11
1,1,8,1,3,0,1,31,67,11
1,1,18,1,3,0,1,31,67,11
1,1,21,0,4,0,1,31,100,11
1,1,17,1,5,1,1,31,28,11
1,1,1,0,6,1,1,31,132,11
1,1,9,1,6,1,1,31,3,11
1,1,16,1,1,0,1,31,67,11
1,1,17,1,2,0,1,31,93,11
1,1,19,1,3,0,1,31,104,11
1,1,10,1,4,0,1,31,132,11
1,1,5,0,5,1,1,31,28,11
1,1,18,1,0,0,1,31,67,11
1,1,13,1,0,0,1,31,28,8
1,1,20,1,1,0,1,31,77,11
1,1,18,1,1,0,1,31,77,11
1,1,18,1,1,0,1,31,77,11
1,1,1,0,2,0,1,31,67,11
1,1,1,0,3,0,1,31,67,11
1,1,20,1,3,0,1,31,77,11
1,1,13,1,3,0,1,31,40,11
1,1,9,1,3,0,1,31,40,11
1,1,22,0,4,0,1,31,67,11
1,1,21,0,4,0,1,31,1,11
1,1,1,0,5,1,1,31,132,11
1,1,9,1,5,1,1,31,14,11
1,1,22,0,5,1,1,31,67,11
1,1,21,0,6,1,1,31,132,11
1,1,10,1,0,0,1,31,77,11
1,1,10,1,1,0,1,31,21,11
1,1,1,0,3,0,1,31,104,11
1,1,20,1,4,0,1,31,67,11
1,1,2,0,5,1,1,31,132,11
1,1,13,1,5,1,1,31,93,11
1,1,18,1,5,1,1,31,24,11
1,1,13,1,5,1,1,31,67,11
1,1,3,0,5,1,1,31,67,11
1,1,19,1,6,1,1,31,3,11
2,1,1,0,1,0,1,31,100,11
2,1,3,0,3,0,1,31,21,11
2,1,12,1,3,0,1,31,67,11
2,1,23,0,4,0,1,31,67,11
2,1,8,1,4,0,1,31,28,11
2,1,14,1,5,1,1,31,100,11
2,1,13,1,5,1,1,31,77,11
2,1,20,1,6,1,1,31,77,11
2,1,18,1,0,0,1,31,90,11
2,1,19,1,0,0,1,31,90,11
2,1,23,0,1,0,1,31,67,11
2,1,17,1,2,0,1,31,77,11
2,1,13,1,2,0,1,31,93,11
2,1,3,0,2,0,1,31,104,11
2,1,0,0,2,0,1,31,90,11
2,1,0,0,5,1,1,31,67,11
2,1,16,1,3,0,1,31,100,11
2,1,13,1,1,0,1,31,21,11
2,1,21,0,1,0,1,31,67,8
2,1,12,1,6,1,1,31,90,11
3,2,12,1,3,0,1,31,40,11
3,2,20,1,3,0,1,31,102,11
3,2,21,0,5,1,1,31,93,11
3,2,19,1,4,0,1,31,90,11
3,2,12,1,0,0,1,31,40,11
3,2,22,0,1,0,1,31,67,11
3,2,19,1,2,0,1,31,59,11
3,2,7,1,5,1,1,31,67,11
3,2,20,1,5,1,1,31,67,9
3,2,5,0,6,1,1,31,90,11
3,2,17,1,6,1,1,31,77,11
3,2,11,1,4,0,1,31,67,11
3,2,0,0,5,1,1,31,40,11
3,2,8,1,5,1,1,31,100,11
3,2,17,1,5,1,1,31,90,11
4,2,7,1,5,1,2,31,78,11
4,2,19,1,1,0,2,31,66,11
4,2,19,1,0,0,2,31,90,11
4,2,12,1,3,0,2,31,132,11
4,2,14,1,3,0,2,31,90,11
4,2,0,0,3,0,2,31,24,11
4,2,11,1,4,0,2,31,104,11
4,2,13,1,4,0,2,31,112,11
4,2,16,1,5,1,2,31,93,11
4,2,13,1,4,0,2,31,67,11
5,2,11,1,6,1,2,31,93,11
5,2,1,0,0,0,2,31,100,11
5,2,18,1,1,0,2,31,21,11
5,2,2,0,2,0,2,31,111,11
5,2,12,1,4,0,2,31,100,11
5,2,16,1,0,0,2,31,93,11
5,2,0,0,0,0,2,31,21,11
5,2,2,0,1,0,2,31,100,11
5,2,14,1,2,0,2,31,13,11
5,2,14,1,4,0,2,31,3,8
5,2,14,1,5,1,2,31,93,11
5,2,16,1,5,1,2,31,111,11
5,2,5,0,6,1,2,31,90,11
5,2,14,1,6,1,2,31,100,11
5,2,12,1,6,1,2,31,93,11
5,2,16,1,1,0,2,31,65,11
5,2,12,1,1,0,2,31,67,8
5,2,18,1,2,0,2,31,93,8
5,2,22,0,0,0,2,31,90,11
5,2,22,0,1,0,2,31,67,11
5,2,19,1,2,0,2,31,112,11
5,2,18,1,2,0,2,31,100,11
5,2,13,1,2,0,2,31,90,11
5,2,11,1,4,0,2,31,13,9
5,2,14,1,1,0,2,31,93,11
6,3,17,1,3,0,2,31,90,11
6,3,16,1,4,0,2,31,77,8
6,3,16,1,5,1,2,31,3,8
6,3,3,0,5,1,2,31,3,11
6,3,20,1,6,1,2,31,14,11
6,3,4,0,3,0,2,31,93,11
6,3,2,0,3,0,2,31,100,11
6,3,6,0,4,0,2,31,67,11
6,3,8,1,6,1,2,31,21,11
6,3,18,1,3,0,2,31,93,11
6,3,0,0,4,0,2,31,93,11
6,3,10,1,5,1,2,31,26,11
6,3,12,1,6,1,2,31,77,8
6,3,21,0,0,0,2,31,93,11
6,3,20,1,1,0,2,31,67,11
6,3,14,1,1,0,2,31,24,8
6,3,16,1,1,0,2,31,47,8
6,3,6,0,3,0,2,31,21,11
6,3,12,1,4,0,2,31,93,11
6,3,20,1,5,1,2,31,93,11
6,3,16,1,6,1,2,31,132,8
6,3,18,1,1,0,2,31,8,11
6,3,22,0,3,0,2,31,90,11
6,3,12,1,3,0,2,31,93,11
7,3,2,0,0,0,3,31,104,11
7,3,16,1,3,0,3,31,93,11
7,3,11,1,4,0,3,31,93,11
7,3,15,1,5,1,3,31,93,11
7,3,2,0,5,1,3,31,74,11
7,3,10,1,5,1,3,31,77,11
7,3,13,1,2,0,3,31,93,11
7,3,19,1,2,0,3,31,49,8
7,3,0,0,3,0,3,31,49,11
7,3,21,0,4,0,3,31,93,11
7,3,12,1,4,0,3,31,128,11
7,3,15,1,5,1,3,31,93,11
7,3,13,1,5,1,3,31,104,11
7,3,10,1,1,0,3,31,67,11
7,3,15,1,1,0,3,31,65,8
7,3,5,0,2,0,3,31,21,11
7,3,9,1,2,0,3,31,89,11
7,3,8,1,4,0,3,31,21,11
7,3,0,0,6,1,3,31,78,11
7,3,16,1,6,1,3,31,93,11
7,3,21,0,0,0,3,31,93,11
7,3,16,1,1,0,3,31,93,11
7,3,19,1,1,0,3,31,93,11
7,3,21,0,2,0,3,31,66,11
8,3,19,1,2,0,3,31,93,11
8,3,18,1,6,1,3,31,93,11
8,3,11,1,0,0,3,31,67,11
8,3,14,1,0,0,3,31,67,11
8,3,21,0,3,0,3,31,93,11
8,3,16,1,4,0,3,31,104,11
8,3,13,1,5,1,3,31,100,11
8,3,16,1,0,0,3,31,110,11
8,3,18,1,1,0,3,31,104,11
8,3,16,1,2,0,3,31,14,11
8,3,23,0,3,0,3,31,93,11
8,3,20,1,4,0,3,31,93,11
8,3,13,1,4,0,3,31,67,11
8,3,18,1,6,1,3,31,65,9
8,3,14,1,0,0,3,31,3,11
8,3,18,1,1,0,3,31,93,11
8,3,22,0,1,0,3,31,25,11
8,3,23,0,2,0,3,31,90,11
8,3,13,1,6,1,3,31,47,8
8,3,7,1,0,0,3,31,67,11
8,3,6,0,1,0,3,31,93,11
8,3,15,1,1,0,3,31,93,11
9,4,15,1,3,0,3,31,67,11
9,4,21,0,0,0,3,31,107,9
9,4,15,1,1,0,3,31,112,11
9,4,9,1,2,0,3,31,24,11
9,4,4,0,5,1,3,31,112,11
9,4,18,1,6,1,3,31,8,11
9,4,14,1,2,0,3,31,77,11
9,4,19,1,3,0,3,31,78,11
9,4,14,1,1,0,3,31,77,11
9,4,17,1,4,0,3,31,67,11
9,4,22,0,5,1,3,31,132,11
9,4,13,1,1,0,3,31,67,11
9,4,12,1,3,0,3,31,28,11
9,4,13,1,4,0,3,31,93,11
10,4,20,1,5,1,4,31,90,11
10,4,20,1,5,1,4,31,90,11
10,4,18,1,6,1,4,31,67,11
10,4,18,1,2,0,4,31,93,11
10,4,0,0,4,0,4,31,67,11
10,4,21,0,6,1,4,31,21,11
10,4,19,1,1,0,4,31,93,11
10,4,21,0,0,0,4,31,66,11
10,4,20,1,4,0,4,31,90,11
10,4,21,0,4,0,4,31,67,11
10,4,16,1,6,1,4,31,90,11
10,4,10,1,0,0,4,31,90,11
11,4,15,1,2,0,4,31,28,11
11,4,11,1,3,0,4,31,21,11
11,4,11,1,0,0,4,31,93,11
11,4,21,0,5,1,4,31,67,11
11,4,18,1,5,1,4,31,93,11
11,4,20,1,6,1,4,31,90,11
11,4,17,1,1,0,4,31,67,11
11,4,18,1,1,0,4,31,77,11
11,4,14,1,3,0,4,31,67,11
11,4,17,1,6,1,4,31,67,11
11,4,8,1,2,0,4,31,67,11
11,4,8,1,2,0,4,31,67,11
11,4,12,1,4,0,4,31,93,11
11,4,21,0,4,0,4,31,100,11
11,4,4,0,6,1,4,31,100,11
11,4,4,0,6,1,4,31,100,11
11,4,4,0,6,1,4,31,100,11
11,4,4,0,6,1,4,31,100,11
12,1,15,1,3,0,4,31,40,11
12,1,19,1,6,1,4,31,67,11
12,1,12,1,6,1,4,31,14,11
12,1,8,1,2,0,4,31,21,11
12,1,4,0,4,0,4,31,14,11
12,1,10,1,6,1,4,31,40,11
12,1,18,1,0,0,4,31,93,11
12,1,18,1,1,0,4,31,77,11
12,1,23,0,2,0,4,31,66,11
12,1,17,1,2,0,4,31,67,11
12,1,13,1,3,0,4,31,24,11
12,1,21,0,3,0,4,31,77,11
12,1,6,0,0,0,4,31,93,11
12,1,20,1,0,0,4,31,90,11
12,1,19,1,0,0,4,31,90,11
12,1,21,0,0,0,4,31,93,11
12,1,11,1,2,0,4,31,90,11
12,1,0,0,4,0,4,31,90,11
12,1,17,1,4,0,4,31,90,11
12,1,22,0,4,0,4,31,90,11
12,1,13,1,6,1,4,31,67,11
12,1,20,1,0,0,4,31,67,11
12,1,21,0,0,0,4,31,90,11
12,1,18,1,3,0,4,31,67,11
12,1,17,1,3,0,4,31,67,11
12,1,18,1,3,0,4,31,90,11
12,1,17,1,3,0,4,31,67,11
12,1,18,1,4,0,4,31,90,11
12,1,22,0,4,0,4,31,67,11
12,1,22,0,4,0,4,31,67,11
12,1,11,1,5,1,4,31,90,11
12,1,20,1,5,1,4,31,90,11
7,3,21,0,0,0,3,31,58,11
1,1,14,1,5,1,1,31,36,11
2,1,14,1,4,0,1,31,104,11
2,1,16,1,4,0,1,31,104,11
2,1,10,1,5,1,1,31,77,8
5,2,17,1,5,1,2,31,104,11
5,2,22,0,0,0,2,31,104,11
5,2,15,1,2,0,2,31,21,11
5,2,8,1,0,0,2,31,93,11
6,3,13,1,4,0,2,31,77,11
6,3,20,1,4,0,2,31,96,9
6,3,10,1,0,0,2,31,104,11
7,3,15,1,0,0,3,31,104,11
7,3,18,1,1,0,3,31,41,11
7,3,18,1,0,0,3,31,28,11
8,3,5,0,3,0,3,31,21,11
8,3,20,1,0,0,3,31,104,11
8,3,12,1,2,0,3,31,90,11
9,4,17,1,4,0,3,31,93,11
9,4,4,0,0,0,3,31,21,9
9,4,11,1,1,0,3,31,93,11
9,4,6,0,1,0,3,31,21,11
9,4,10,1,2,0,3,31,93,11
10,4,11,1,2,0,4,31,40,9
10,4,20,1,0,0,4,31,93,11
11,4,1,0,1,0,4,31,77,11
11,4,17,1,1,0,4,31,104,11
11,4,11,1,6,1,4,31,93,11
11,4,5,0,0,0,4,31,77,11
12,1,19,1,4,0,4,31,104,11
12,1,19,1,5,1,4,31,77,11
1,1,22,0,4,0,1,31,67,11
1,1,14,1,6,1,1,31,90,11
1,1,3,0,6,1,1,31,90,11
1,1,7,1,0,0,1,31,90,11
1,1,16,1,4,0,1,31,100,11
3,2,15,1,2,0,1,31,14,9
3,2,10,1,3,0,1,31,13,9
4,2,16,1,4,0,2,31,77,11
4,2,12,1,5,1,2,31,21,11
4,2,14,1,2,0,2,31,93,11
4,2,22,0,2,0,2,31,132,11
5,2,20,1,0,0,2,31,112,11
5,2,10,1,3,0,2,31,77,11
5,2,12,1,4,0,2,31,93,11
5,2,23,0,4,0,2,31,81,11
6,3,13,1,6,1,2,31,93,11
6,3,10,1,6,1,2,31,77,9
6,3,22,0,6,1,2,31,77,11
6,3,21,0,4,0,2,31,93,11
6,3,20,1,6,1,2,31,93,11
7,3,17,1,1,0,3,31,13,11
7,3,11,1,1,0,3,31,13,11
7,3,15,1,3,0,3,31,93,11
8,3,5,0,3,0,3,31,21,11
8,3,4,0,4,0,3,31,78,11
8,3,14,1,1,0,3,31,77,11
8,3,5,0,6,1,3,31,21,11
10,4,14,1,2,0,4,31,91,11
10,4,21,0,1,0,4,31,77,11
11,4,9,1,1,0,4,31,13,11
11,4,21,0,1,0,4,31,67,11
11,4,12,1,2,0,4,31,67,11
12,1,19,1,4,0,4,31,40,11
12,1,13,1,6,1,4,31,77,11
12,1,6,0,5,1,4,31,60,11
1,1,6,0,4,0,1,35,100,11
1,1,0,0,6,1,1,35,100,11
1,1,4,0,0,0,1,35,77,11
1,1,3,0,1,0,1,35,100,11
1,1,18,1,1,0,1,35,13,11
1,1,11,1,3,0,1,35,67,11
1,1,12,1,4,0,1,35,93,11
1,1,20,1,4,0,1,35,74,11
1,1,4,0,5,1,1,35,100,11
1,1,10,1,6,1,1,35,67,11
1,1,18,1,6,1,1,35,100,11
1,1,18,1,0,0,1,35,100,11
1,1,0,0,1,0,1,35,104,11
1,1,3,0,1,0,1,35,100,11
1,1,3,0,1,0,1,35,100,11
1,1,7,1,2,0,1,35,74,11
1,1,21,0,2,0,1,35,77,11
1,1,21,0,2,0,1,35,100,11
1,1,1,0,5,1,1,35,40,11
1,1,17,1,1,0,1,35,100,11
1,1,6,0,2,0,1,35,100,11
1,1,13,1,5,1,1,35,67,11
1,1,21,0,5,1,1,35,100,11
1,1,22,0,6,1,1,35,100,11
1,1,14,1,0,0,1,35,35,11
1,1,17,1,0,0,1,35,93,11
1,1,14,1,3,0,1,35,100,11
1,1,2,0,4,0,1,35,100,11
1,1,2,0,4,0,1,35,100,11
1,1,2,0,4,0,1,35,100,11
1,1,2,0,4,0,1,35,100,11
1,1,2,0,4,0,1,35,100,11
1,1,2,0,4,0,1,35,100,11
1,1,22,0,4,0,1,35,100,11
1,1,23,0,4,0,1,35,100,11
1,1,23,0,4,0,1,35,100,11
1,1,23,0,4,0,1,35,100,11
1,1,23,0,5,1,1,35,100,11
1,1,0,0,6,1,1,35,100,11
1,1,0,0,6,1,1,35,100,11
2,1,16,1,0,0,1,35,100,11
2,1,9,1,3,0,1,35,100,11
2,1,14,1,3,0,1,35,67,11
2,1,17,1,5,1,1,35,40,11
2,1,3,0,6,1,1,35,100,11
2,1,13,1,6,1,1,35,93,11
2,1,20,1,2,0,1,35,13,11
2,1,0,0,6,1,1,35,90,11
2,1,18,1,5,1,1,35,21,11
2,1,17,1,6,1,1,35,66,11
2,1,23,0,6,1,1,35,100,11
2,1,0,0,0,0,1,35,100,11
2,1,0,0,0,0,1,35,100,11
2,1,0,0,0,0,1,35,100,11
2,1,0,0,0,0,1,35,100,11
2,1,10,1,0,0,1,35,8,11
2,1,14,1,3,0,1,35,100,11
2,1,13,1,5,1,1,35,3,11
2,1,18,1,5,1,1,35,104,11
2,1,23,0,5,1,1,35,93,11
2,1,0,0,6,1,1,35,100,11
3,2,20,1,1,0,1,35,100,11
3,2,18,1,3,0,1,35,77,11
3,2,17,1,4,0,1,35,104,11
3,2,22,0,5,1,1,35,93,11
3,2,4,0,6,1,1,35,104,11
3,2,16,1,0,0,1,35,104,11
3,2,18,1,0,0,1,35,93,11
3,2,16,1,3,0,1,35,100,11
3,2,13,1,0,0,1,35,67,11
3,2,20,1,0,0,1,35,112,11
3,2,11,1,6,1,1,35,104,11
3,2,1,0,1,0,1,35,100,11
3,2,2,0,1,0,1,35,100,11
3,2,16,1,2,0,1,35,102,11
3,2,19,1,3,0,1,35,100,11
3,2,21,0,5,1,1,35,40,11
3,2,13,1,3,0,1,35,93,11
3,2,22,0,3,0,1,35,100,11
4,2,21,0,4,0,2,35,74,11
4,2,12,1,6,1,2,35,74,11
4,2,10,1,2,0,2,35,77,9
4,2,22,0,2,0,2,35,93,11
4,2,20,1,0,0,2,35,104,11
4,2,17,1,3,0,2,35,93,11
4,2,20,1,2,0,2,35,104,11
4,2,11,1,3,0,2,35,3,11
4,2,17,1,5,1,2,35,104,11
4,2,6,0,0,0,2,35,47,9
4,2,12,1,1,0,2,35,93,11
4,2,15,1,2,0,2,35,100,11
4,2,14,1,2,0,2,35,93,11
4,2,0,0,3,0,2,35,77,11
4,2,1,0,3,0,2,35,104,11
5,2,4,0,1,0,2,35,74,11
5,2,14,1,5,1,2,35,104,11
5,2,20,1,3,0,2,35,21,11
5,2,13,1,3,0,2,35,100,11
5,2,15,1,4,0,2,35,3,11
5,2,21,0,4,0,2,35,104,11
5,2,18,1,5,1,2,35,100,11
5,2,16,1,0,0,2,35,100,11
5,2,13,1,3,0,2,35,93,11
5,2,2,0,2,0,2,35,100,11
5,2,2,0,2,0,2,35,100,11
5,2,2,0,2,0,2,35,100,11
5,2,22,0,2,0,2,35,104,11
5,2,2,0,4,0,2,35,100,11
5,2,5,0,0,0,2,35,100,11
6,3,16,1,3,0,2,35,93,8
6,3,15,1,4,0,2,35,3,11
6,3,15,1,6,1,2,35,77,11
6,3,15,1,6,1,2,35,24,11
6,3,21,0,1,0,2,35,3,11
6,3,18,1,4,0,2,35,104,11
6,3,18,1,2,0,2,35,22,11
6,3,21,0,4,0,2,35,93,11
6,3,10,1,4,0,2,35,77,9
6,3,3,0,6,1,2,35,100,11
6,3,7,1,6,1,2,35,67,11
6,3,11,1,6,1,2,35,104,11
6,3,13,1,0,0,2,35,93,11
6,3,14,1,3,0,2,35,104,11
7,3,10,1,4,0,3,35,93,11
7,3,18,1,6,1,3,35,94,11
7,3,1,0,0,0,3,35,3,11
7,3,11,1,5,1,3,35,40,11
7,3,20,1,5,1,3,35,104,11
7,3,4,0,2,0,3,35,100,11
7,3,21,0,5,1,3,35,104,11
7,3,1,0,2,0,3,35,93,11
7,3,3,0,2,0,3,35,104,11
7,3,5,0,2,0,3,35,100,11
7,3,0,0,5,1,3,35,100,11
7,3,2,0,5,1,3,35,104,11
7,3,14,1,5,1,3,35,21,11
7,3,10,1,0,0,3,35,77,11
7,3,12,1,1,0,3,35,93,11
7,3,20,1,1,0,3,35,104,11
7,3,18,1,2,0,3,35,14,11
7,3,14,1,5,1,3,35,104,11
7,3,12,1,6,1,3,35,104,11
7,3,19,1,6,1,3,35,104,11
7,3,20,1,6,1,3,35,104,11
8,3,12,1,0,0,3,35,104,11
8,3,11,1,3,0,3,35,104,11
8,3,16,1,4,0,3,35,104,11
8,3,15,1,6,1,3,35,104,9
8,3,12,1,5,1,3,35,100,11
8,3,14,1,6,1,3,35,77,11
8,3,2,0,0,0,3,35,93,11
8,3,12,1,1,0,3,35,67,11
8,3,12,1,2,0,3,35,104,11
8,3,7,1,6,1,3,35,104,11
8,3,23,0,1,0,3,35,104,11
8,3,7,1,2,0,3,35,104,11
8,3,3,0,5,1,3,35,77,11
8,3,13,1,5,1,3,35,104,11
8,3,15,1,6,1,3,35,93,11
8,3,17,1,6,1,3,35,104,11
8,3,22,0,6,1,3,35,94,11
8,3,12,1,0,0,3,35,93,11
9,4,8,1,4,0,3,35,104,11
9,4,0,0,6,1,3,35,104,11
9,4,13,1,0,0,3,35,104,11
9,4,23,0,0,0,3,35,104,11
9,4,12,1,1,0,3,35,104,11
9,4,5,0,6,1,3,35,77,11
9,4,17,1,6,1,3,35,104,11
9,4,16,1,3,0,3,35,93,9
9,4,10,1,6,1,3,35,77,9
9,4,5,0,4,0,3,35,100,11
9,4,13,1,6,1,3,35,3,11
9,4,22,0,0,0,3,35,93,9
9,4,11,1,1,0,3,35,93,11
9,4,14,1,2,0,3,35,67,11
9,4,20,1,2,0,3,35,93,11
9,4,22,0,2,0,3,35,3,8
9,4,5,0,3,0,3,35,100,11
9,4,22,0,4,0,3,35,40,11
10,4,0,0,0,0,4,35,73,11
10,4,11,1,0,0,4,35,93,11
10,4,9,1,1,0,4,35,93,11
10,4,17,1,1,0,4,35,93,11
10,4,14,1,2,0,4,35,93,11
10,4,17,1,2,0,4,35,93,11
10,4,10,1,3,0,4,35,93,11
10,4,17,1,4,0,4,35,104,11
10,4,12,1,6,1,4,35,93,11
10,4,17,1,6,1,4,35,93,11
10,4,4,0,1,0,4,35,100,11
10,4,22,0,1,0,4,35,40,11
10,4,2,0,6,1,4,35,81,9
10,4,2,0,6,1,4,35,74,11
10,4,4,0,2,0,4,35,100,11
11,4,2,0,3,0,4,35,90,11
11,4,19,1,3,0,4,35,104,11
11,4,15,1,3,0,4,35,93,11
11,4,1,0,6,1,4,35,13,9
11,4,18,1,2,0,4,35,40,11
11,4,22,0,2,0,4,35,77,11
11,4,2,0,4,0,4,35,90,11
11,4,10,1,5,1,4,35,100,11
11,4,21,0,6,1,4,35,21,11
11,4,12,1,3,0,4,35,100,11
11,4,11,1,3,0,4,35,93,11
11,4,10,1,3,0,4,35,67,11
11,4,17,1,5,1,4,35,104,11
11,4,10,1,6,1,4,35,100,11
11,4,11,1,0,0,4,35,100,11
11,4,13,1,0,0,4,35,104,11
11,4,17,1,1,0,4,35,77,11
11,4,17,1,1,0,4,35,67,11
12,1,14,1,4,0,4,35,21,11
12,1,0,0,0,0,4,35,100,11
12,1,2,0,1,0,4,35,100,11
12,1,5,0,1,0,4,35,100,11
12,1,1,0,2,0,4,35,104,11
12,1,19,1,3,0,4,35,40,11
12,1,10,1,4,0,4,35,67,11
12,1,13,1,4,0,4,35,104,11
12,1,21,0,1,0,4,35,40,11
12,1,0,0,1,0,4,35,93,11
12,1,15,1,2,0,4,35,100,11
12,1,13,1,2,0,4,35,67,11
12,1,21,0,3,0,4,35,77,11
12,1,2,0,6,1,4,35,100,11
12,1,10,1,6,1,4,35,100,11
12,1,0,0,5,1,4,35,100,11
12,1,10,1,5,1,4,35,86,11
12,1,17,1,5,1,4,35,77,11
12,1,9,1,6,1,4,35,40,11
12,1,15,1,0,0,4,35,13,11
12,1,10,1,2,0,4,35,104,11
12,1,10,1,3,0,4,35,77,11
12,1,1,0,4,0,4,35,67,11
12,1,4,0,4,0,4,35,104,11
12,1,0,0,4,0,4,35,67,11
12,1,10,1,4,0,4,35,93,11
12,1,19,1,5,1,4,35,100,11
12,1,11,1,5,1,4,35,77,11
1,1,11,1,4,0,1,35,40,11
1,1,7,1,2,0,1,35,13,8
1,1,14,1,5,1,1,35,74,11
1,1,12,1,6,1,1,35,90,11
1,1,19,1,1,0,1,35,100,11
1,1,16,1,1,0,1,35,40,11
2,1,18,1,0,0,1,35,104,11
3,2,19,1,4,0,1,35,100,11
3,2,18,1,5,1,1,35,77,11
5,2,17,1,1,0,2,35,13,11
6,3,2,0,3,0,2,35,74,8
7,3,6,0,2,0,3,35,21,11
8,3,13,1,0,0,3,35,93,11
9,4,19,1,1,0,3,35,74,11
10,4,4,0,3,0,4,35,77,8
11,4,5,0,6,1,4,35,132,11
11,4,22,0,2,0,4,35,77,11
12,1,17,1,6,1,4,35,21,8
3,2,11,1,2,0,1,35,112,11
4,2,18,1,4,0,2,35,3,11
7,3,6,0,2,0,3,35,112,11
8,3,4,0,4,0,3,35,104,11
10,4,0,0,3,0,4,35,14,8
11,4,18,1,4,0,4,35,104,11
1,1,18,1,6,1,1,35,40,11
2,1,21,0,3,0,1,35,104,11
3,2,15,1,5,1,1,35,93,11
3,2,9,1,5,1,1,35,54,11
4,2,13,1,3,0,2,35,93,11
4,2,19,1,0,0,2,35,3,11
7,3,19,1,4,0,3,35,104,11
8,3,4,0,1,0,3,35,112,11
8,3,11,1,3,0,3,35,77,9
9,4,14,1,1,0,3,35,104,11
9,4,7,1,3,0,3,35,112,11
10,4,18,1,4,0,4,35,104,11
9,4,15,1,4,0,3,35,93,11
10,4,16,1,1,0,4,35,93,11
12,1,14,1,4,0,4,35,93,11
4,2,13,1,2,0,2,35,104,11
5,2,22,0,6,1,2,35,100,11
6,3,10,1,4,0,2,35,77,11
7,3,4,0,5,1,3,35,40,11
8,3,22,0,1,0,3,35,93,11
11,4,21,0,1,0,4,35,104,11
11,4,11,1,4,0,4,35,104,11
12,1,1,0,5,1,4,35,100,11
1,1,23,0,5,1,1,35,21,11
1,1,1,0,6,1,1,35,100,11
1,1,22,0,2,0,1,35,96,11
2,1,18,1,3,0,1,35,104,11
3,2,4,0,0,0,1,35,13,11
3,2,20,1,2,0,1,35,112,11
3,2,10,1,3,0,1,35,77,11
3,2,17,1,1,0,1,35,40,11
3,2,18,1,5,1,1,35,114,11
3,2,16,1,0,0,1,35,21,11
3,2,20,1,1,0,1,35,77,11
4,2,13,1,2,0,2,35,93,11
4,2,8,1,4,0,2,35,104,11
4,2,18,1,4,0,2,35,93,11
4,2,20,1,2,0,2,35,104,11
4,2,16,1,3,0,2,35,26,11
5,2,20,1,0,0,2,35,112,11
5,2,18,1,5,1,2,35,104,11
5,2,13,1,0,0,2,35,104,11
5,2,11,1,6,1,2,35,112,11
6,3,20,1,4,0,2,35,93,11
7,3,10,1,0,0,3,35,104,11
7,3,14,1,0,0,3,35,93,11
7,3,21,0,2,0,3,35,104,11
7,3,15,1,6,1,3,35,104,11
7,3,8,1,5,1,3,35,104,11
7,3,10,1,5,1,3,35,104,11
7,3,11,1,5,1,3,35,104,11
7,3,11,1,5,1,3,35,104,11
7,3,18,1,5,1,3,35,104,11
7,3,15,1,6,1,3,35,93,11
7,3,21,0,0,0,3,35,104,11
7,3,13,1,1,0,3,35,104,11
7,3,9,1,3,0,3,35,104,11
7,3,21,0,1,0,3,35,104,11
7,3,13,1,3,0,3,35,104,11
7,3,18,1,4,0,3,35,27,11
8,3,11,1,1,0,3,35,104,11
8,3,13,1,1,0,3,35,93,11
8,3,13,1,1,0,3,35,104,11
8,3,14,1,1,0,3,35,104,11
8,3,23,0,2,0,3,35,65,11
8,3,20,1,3,0,3,35,104,11
8,3,8,1,5,1,3,35,112,11
8,3,12,1,3,0,3,35,77,11
8,3,11,1,4,0,3,35,104,11
8,3,20,1,1,0,3,35,104,11
8,3,19,1,1,0,3,35,104,11
8,3,9,1,0,0,3,35,104,11
9,4,20,1,6,1,3,35,104,11
9,4,13,1,2,0,3,35,3,11
9,4,20,1,5,1,3,35,104,11
9,4,18,1,1,0,3,35,104,11
9,4,13,1,2,0,3,35,104,11
9,4,17,1,2,0,3,35,104,11
9,4,18,1,6,1,3,35,104,11
9,4,13,1,0,0,3,35,104,11
9,4,16,1,1,0,3,35,14,11
9,4,19,1,4,0,3,35,104,11
10,4,10,1,1,0,4,35,3,11
10,4,16,1,2,0,4,35,104,11
10,4,19,1,3,0,4,35,21,11
10,4,17,1,6,1,4,35,104,11
10,4,16,1,0,0,4,35,21,11
11,4,18,1,6,1,4,35,93,11
11,4,18,1,3,0,4,35,93,11
11,4,19,1,4,0,4,35,110,11
11,4,14,1,1,0,4,35,47,11
11,4,23,0,2,0,4,35,40,11
11,4,21,0,1,0,4,35,40,11
12,1,13,1,2,0,4,35,3,11
12,1,17,1,5,1,4,35,104,11
1,1,20,1,5,1,1,45,40,11
1,1,20,1,5,1,1,45,67,11
1,1,4,0,5,1,1,45,128,11
1,1,17,1,1,0,1,45,67,11
1,1,2,0,2,0,1,45,90,11
1,1,9,1,6,1,1,45,77,9
1,1,11,1,0,0,1,45,14,9
1,1,18,1,5,1,1,45,77,11
1,1,21,0,5,1,1,45,77,11
1,1,8,1,5,1,1,45,14,11
1,1,13,1,6,1,1,45,67,11
1,1,21,0,6,1,1,45,90,11
1,1,0,0,6,1,1,45,77,11
2,1,11,1,2,0,1,45,90,11
2,1,20,1,0,0,1,45,115,8
2,1,17,1,6,1,1,45,67,11
2,1,16,1,3,0,1,45,14,11
3,2,2,0,1,0,1,45,100,11
3,2,2,0,1,0,1,45,100,11
4,2,19,1,2,0,2,45,130,11
4,2,12,1,2,0,2,45,77,11
4,2,11,1,3,0,2,45,90,11
5,2,21,0,6,1,2,45,13,11
5,2,21,0,6,1,2,45,90,11
5,2,14,1,6,1,2,45,131,8
5,2,20,1,3,0,2,45,3,11
6,3,22,0,5,1,2,45,90,11
6,3,21,0,3,0,2,45,93,11
6,3,19,1,3,0,2,45,93,11
6,3,0,0,2,0,2,45,74,8
6,3,18,1,5,1,2,45,129,11
7,3,15,1,6,1,3,45,49,11
7,3,19,1,2,0,3,45,90,11
7,3,0,0,6,1,3,45,42,11
7,3,14,1,5,1,3,45,13,9
7,3,2,0,0,0,3,45,104,11
8,3,12,1,0,0,3,45,40,11
8,3,15,1,0,0,3,45,77,9
9,4,15,1,3,0,3,45,67,11
9,4,22,0,2,0,3,45,100,11
10,4,6,0,1,0,4,45,24,9
10,4,20,1,1,0,4,45,93,11
10,4,22,0,2,0,4,45,14,11
10,4,5,0,6,1,4,45,93,11
10,4,18,1,0,0,4,45,77,11
10,4,10,1,4,0,4,45,90,9
10,4,2,0,6,1,4,45,100,11
10,4,18,1,4,0,4,45,100,11
10,4,13,1,5,1,4,45,67,11
11,4,20,1,3,0,4,45,111,8
11,4,18,1,5,1,4,45,77,11
11,4,19,1,6,1,4,45,100,11
11,4,16,1,0,0,4,45,90,11
11,4,20,1,3,0,4,45,90,11
11,4,11,1,4,0,4,45,67,11
12,1,6,0,5,1,4,45,13,9
12,1,19,1,6,1,4,45,100,11
12,1,12,1,6,1,4,45,100,11
12,1,8,1,0,0,4,45,130,11
12,1,18,1,4,0,4,45,21,11
12,1,9,1,0,0,4,45,49,11
12,1,15,1,2,0,4,45,25,8
12,1,14,1,3,0,4,45,28,11
12,1,11,1,6,1,4,45,90,11
12,1,5,0,6,1,4,45,77,8
12,1,18,1,5,1,4,45,90,11
7,3,16,1,2,0,3,45,93,11
11,4,0,0,4,0,4,45,24,9
11,4,0,0,4,0,4,45,24,9
12,1,6,0,3,0,4,45,21,11
2,1,19,1,3,0,1,45,93,11
3,2,0,0,3,0,1,45,77,8
3,2,22,0,6,1,1,45,86,11
12,1,2,0,4,0,4,45,13,8
1,1,20,1,5,1,1,45,67,11
1,1,9,1,5,1,1,45,13,11
2,1,0,0,0,0,1,45,132,11
2,1,7,1,6,1,1,45,86,11
2,1,0,0,0,0,1,45,21,11
2,1,11,1,0,0,1,45,104,11
2,1,16,1,1,0,1,45,81,11
2,1,15,1,3,0,1,45,104,11
3,2,11,1,1,0,1,45,132,11
3,2,21,0,2,0,1,45,40,11
3,2,15,1,5,1,1,45,49,11
3,2,13,1,6,1,1,45,104,11
4,2,23,0,0,0,2,45,132,11
4,2,3,0,1,0,2,45,21,11
4,2,13,1,2,0,2,45,93,11
5,2,15,1,5,1,2,45,104,11
5,2,22,0,1,0,2,45,104,11
5,2,11,1,3,0,2,45,104,11
6,3,10,1,5,1,2,45,104,11
6,3,13,1,0,0,2,45,132,11
6,3,14,1,3,0,2,45,86,8
6,3,12,1,2,0,2,45,40,11
6,3,11,1,5,1,2,45,21,11
7,3,5,0,2,0,3,45,14,9
7,3,17,1,2,0,3,45,132,11
7,3,1,0,1,0,3,45,104,11
7,3,5,0,1,0,3,45,14,11
7,3,10,1,6,1,3,45,104,11
7,3,11,1,6,1,3,45,93,11
8,3,22,0,2,0,3,45,104,11
8,3,18,1,6,1,3,45,77,11
8,3,13,1,2,0,3,45,104,11
9,4,23,0,3,0,3,45,132,11
9,4,22,0,4,0,3,45,132,11
10,4,23,0,1,0,4,45,104,11
10,4,23,0,2,0,4,45,132,11
11,4,9,1,5,1,4,45,40,11
11,4,22,0,5,1,4,45,132,11
11,4,18,1,3,0,4,45,86,11
11,4,10,1,4,0,4,45,21,11
11,4,14,1,6,1,4,45,132,11
12,1,18,1,1,0,4,45,132,11
12,1,12,1,3,0,4,45,77,11
12,1,11,1,4,0,4,45,132,11
12,1,10,1,0,0,4,45,132,11
12,1,15,1,5,1,4,45,132,11
12,1,17,1,5,1,4,45,69,9
12,1,22,0,5,1,4,45,132,11
1,1,12,1,6,1,1,22,93,9
1,1,12,1,1,0,1,22,67,11
1,1,13,1,4,0,1,22,90,11
1,1,5,0,5,1,1,22,90,11
1,1,14,1,5,1,1,22,67,11
1,1,19,1,5,1,1,22,90,11
1,1,9,1,0,0,1,22,14,9
1,1,17,1,0,0,1,22,90,11
1,1,14,1,3,0,1,22,80,11
1,1,21,0,4,0,1,22,90,11
1,1,16,1,6,1,1,22,67,11
1,1,21,0,6,1,1,22,67,11
1,1,21,0,4,0,1,22,14,9
2,1,13,1,3,0,1,22,14,9
2,1,23,0,5,1,1,22,67,11
2,1,15,1,5,1,1,22,14,11
2,1,23,0,6,1,1,22,104,11
2,1,13,1,5,1,1,22,90,11
2,1,2,0,2,0,1,22,67,11
3,2,23,0,1,0,1,22,90,11
3,2,16,1,5,1,1,22,77,11
3,2,18,1,2,0,1,22,77,11
3,2,0,0,5,1,1,22,102,11
3,2,21,0,0,0,1,22,104,11
3,2,13,1,1,0,1,22,40,11
3,2,3,0,5,1,1,22,102,11
3,2,18,1,0,0,1,22,40,11
4,2,21,0,1,0,2,22,104,11
4,2,4,0,6,1,2,22,104,11
4,2,8,1,1,0,2,22,3,11
5,2,4,0,6,1,2,22,77,9
5,2,1,0,0,0,2,22,90,11
5,2,1,0,2,0,2,22,13,11
5,2,17,1,6,1,2,22,13,11
5,2,16,1,5,1,2,22,14,9
5,2,5,0,3,0,2,22,67,11
5,2,5,0,3,0,2,22,90,11
6,3,11,1,6,1,2,22,93,11
6,3,6,0,6,1,2,22,60,9
7,3,6,0,4,0,3,22,93,11
7,3,13,1,4,0,3,22,13,9
7,3,13,1,6,1,3,22,77,8
7,3,1,0,6,1,3,22,93,11
7,3,9,1,1,0,3,22,104,11
7,3,14,1,2,0,3,22,93,11
7,3,6,0,0,0,3,22,14,9
7,3,16,1,2,0,3,22,93,9
7,3,10,1,3,0,3,22,46,11
7,3,19,1,4,0,3,22,93,11
7,3,10,1,5,1,3,22,93,9
7,3,15,1,4,0,3,22,93,8
8,3,20,1,5,1,3,22,67,11
8,3,11,1,1,0,3,22,90,11
8,3,15,1,2,0,3,22,13,8
8,3,12,1,0,0,3,22,93,11
8,3,23,0,0,0,3,22,77,11
8,3,18,1,4,0,3,22,90,11
9,4,5,0,5,1,3,22,90,11
9,4,18,1,0,0,3,22,65,8
10,4,3,0,6,1,4,22,90,11
10,4,21,0,2,0,4,22,90,11
10,4,18,1,4,0,4,22,13,11
10,4,22,0,4,0,4,22,67,11
10,4,0,0,2,0,4,22,90,11
10,4,23,0,0,0,4,22,90,11
11,4,13,1,2,0,4,22,3,9
11,4,11,1,1,0,4,22,67,11
11,4,23,0,4,0,4,22,90,11
11,4,20,1,1,0,4,22,40,11
11,4,5,0,5,1,4,22,90,11
12,1,17,1,4,0,4,22,90,11
12,1,19,1,4,0,4,22,77,9
12,1,10,1,0,0,4,22,77,9
12,1,13,1,0,0,4,22,3,11
12,1,14,1,0,0,4,22,67,11
12,1,15,1,1,0,4,22,3,11
12,1,17,1,4,0,4,22,75,11
12,1,15,1,5,1,4,22,67,11
12,1,7,1,0,0,4,22,90,11
12,1,12,1,0,0,4,22,67,9
12,1,9,1,3,0,4,22,90,11
12,1,0,0,4,0,4,22,1,9
12,1,3,0,4,0,4,22,90,11
12,1,16,1,4,0,4,22,40,8
12,1,21,0,5,1,4,22,87,9
12,1,20,1,6,1,4,22,40,11
12,1,23,0,5,1,4,22,104,11
1,1,18,1,3,0,1,22,77,11
1,1,10,1,4,0,1,22,77,11
1,1,22,0,0,0,1,22,77,11
2,1,20,1,0,0,1,22,77,11
2,1,14,1,1,0,1,22,77,9
3,2,13,1,3,0,1,22,90,11
3,2,10,1,0,0,1,22,77,11
4,2,20,1,5,1,2,22,77,11
4,2,1,0,0,0,2,22,90,11
4,2,20,1,5,1,2,22,14,11
5,2,17,1,0,0,2,22,93,11
5,2,16,1,2,0,2,22,93,11
5,2,19,1,6,1,2,22,112,11
5,2,13,1,4,0,2,22,129,11
5,2,21,0,1,0,2,22,104,11
7,3,14,1,2,0,3,22,93,11
7,3,14,1,4,0,3,22,77,11
7,3,10,1,3,0,3,22,93,11
7,3,18,1,5,1,3,22,49,11
7,3,22,0,6,1,3,22,92,11
7,3,11,1,0,0,3,22,65,9
8,3,1,0,0,0,3,22,66,11
8,3,6,0,3,0,3,22,24,11
8,3,3,0,1,0,3,22,21,11
8,3,1,0,2,0,3,22,77,11
8,3,19,1,2,0,3,22,93,11
9,4,3,0,3,0,3,22,93,11
9,4,7,1,2,0,3,22,111,11
9,4,18,1,3,0,3,22,26,11
10,4,17,1,5,1,4,22,93,9
11,4,15,1,0,0,4,22,3,11
11,4,17,1,3,0,4,22,49,11
12,1,20,1,5,1,4,22,77,11
12,1,17,1,2,0,4,22,96,11
12,1,4,0,2,0,4,22,21,11
12,1,9,1,4,0,4,22,24,11
1,1,3,0,2,0,1,22,90,11
2,1,15,1,5,1,1,22,21,11
3,2,18,1,1,0,1,22,77,9
4,2,18,1,6,1,2,22,93,11
4,2,18,1,6,1,2,22,93,11
4,2,7,1,3,0,2,22,14,11
8,3,17,1,0,0,3,22,93,11
9,4,12,1,0,0,3,22,77,11
9,4,18,1,4,0,3,22,93,11
10,4,20,1,4,0,4,22,77,11
12,1,15,1,2,0,4,22,90,11
12,1,15,1,5,1,4,22,40,11
12,1,18,1,5,1,4,22,100,11
4,2,17,1,4,0,2,22,93,11
4,2,11,1,5,1,2,22,21,11
5,2,17,1,5,1,2,22,93,11
5,2,16,1,4,0,2,22,77,11
6,3,20,1,2,0,2,22,93,11
6,3,17,1,5,1,2,22,93,11
6,3,18,1,5,1,2,22,112,11
6,3,12,1,4,0,2,22,77,11
8,3,23,0,0,0,3,22,90,11
10,4,11,1,3,0,4,22,22,11
11,4,12,1,3,0,4,22,3,11
11,4,8,1,4,0,4,22,3,11
11,4,20,1,3,0,4,22,25,9
12,1,6,0,4,0,4,22,21,11
1,1,10,1,3,0,1,6,90,11
1,1,18,1,4,0,1,6,77,11
1,1,17,1,2,0,1,6,28,8
9,4,8,1,3,0,3,6,48,11
9,4,9,1,0,0,3,6,81,11
9,4,15,1,1,0,3,6,112,11
12,1,10,1,2,0,4,6,100,11
12,1,4,0,0,0,4,6,21,11
12,1,11,1,5,1,4,6,77,11
1,1,22,0,6,1,1,6,100,11
1,1,8,1,0,0,1,6,100,11
3,2,14,1,5,1,1,6,104,11
3,2,22,0,3,0,1,6,100,11
3,2,13,1,6,1,1,6,100,11
3,2,20,1,2,0,1,6,104,11
4,2,14,1,5,1,2,6,93,11
5,2,19,1,6,1,2,6,104,11
6,3,22,0,2,0,2,6,104,11
7,3,0,0,3,0,3,6,104,11
12,1,10,1,6,1,4,6,93,11
12,1,23,0,0,0,4,6,100,11
12,1,15,1,4,0,4,6,100,11
1,1,23,0,5,1,1,6,100,11
1,1,20,1,5,1,1,6,100,11
1,1,3,0,6,1,1,6,100,11
1,1,18,1,1,0,1,6,132,11
1,1,23,0,1,0,1,6,90,11
1,1,15,1,3,0,1,6,90,11
1,1,22,0,3,0,1,6,93,11
1,1,15,1,4,0,1,6,90,11
1,1,23,0,4,0,1,6,90,11
1,1,14,1,5,1,1,6,90,11
1,1,16,1,6,1,1,6,40,11
1,1,19,1,0,0,1,6,90,11
1,1,6,0,3,0,1,6,90,11
1,1,4,0,6,1,1,6,67,11
1,1,13,1,6,1,1,6,40,11
1,1,21,0,1,0,1,6,77,11
1,1,15,1,1,0,1,6,90,11
1,1,23,0,2,0,1,6,77,11
1,1,23,0,2,0,1,6,100,11
1,1,8,1,3,0,1,6,100,11
1,1,10,1,4,0,1,6,100,11
1,1,12,1,6,1,1,6,100,11
1,1,20,1,6,1,1,6,100,11
1,1,13,1,0,0,1,6,100,11
1,1,13,1,1,0,1,6,21,11
1,1,15,1,2,0,1,6,93,11
1,1,16,1,3,0,1,6,83,11
1,1,13,1,4,0,1,6,67,11
1,1,13,1,5,1,1,6,40,11
1,1,15,1,5,1,1,6,67,11
1,1,9,1,6,1,1,6,100,11
1,1,13,1,6,1,1,6,104,11
2,1,3,0,0,0,1,6,90,11
2,1,17,1,1,0,1,6,90,11
2,1,15,1,3,0,1,6,100,11
2,1,17,1,5,1,1,6,67,11
2,1,21,0,5,1,1,6,100,11
2,1,18,1,3,0,1,6,90,11
2,1,18,1,4,0,1,6,93,11
2,1,11,1,4,0,1,6,100,11
2,1,10,1,2,0,1,6,93,11
2,1,8,1,3,0,1,6,100,11
2,1,14,1,3,0,1,6,111,11
2,1,15,1,4,0,1,6,40,11
2,1,21,0,4,0,1,6,100,11
2,1,15,1,4,0,1,6,100,11
2,1,0,0,0,0,1,6,100,11
2,1,0,0,2,0,1,6,100,11
2,1,12,1,2,0,1,6,100,11
2,1,17,1,4,0,1,6,100,11
2,1,1,0,0,0,1,6,100,11
2,1,20,1,0,0,1,6,100,11
3,2,10,1,5,1,1,6,40,11
3,2,18,1,6,1,1,6,100,11
3,2,18,1,5,1,1,6,90,11
3,2,7,1,0,0,1,6,90,11
3,2,7,1,1,0,1,6,67,11
3,2,6,0,1,0,1,6,90,11
3,2,2,0,2,0,1,6,100,11
3,2,4,0,5,1,1,6,100,11
3,2,23,0,6,1,1,6,40,11
3,2,2,0,6,1,1,6,90,11
3,2,4,0,6,1,1,6,90,11
3,2,11,1,0,0,1,6,22,11
3,2,0,0,2,0,1,6,90,11
3,2,4,0,3,0,1,6,74,11
4,2,11,1,0,0,2,6,100,11
4,2,22,0,3,0,2,6,21,11
4,2,1,0,6,1,2,6,100,11
4,2,4,0,6,1,2,6,100,11
4,2,17,1,0,0,2,6,67,11
4,2,18,1,4,0,2,6,90,11
4,2,15,1,4,0,2,6,100,11
4,2,23,0,6,1,2,6,93,11
4,2,20,1,4,0,2,6,67,11
4,2,2,0,5,1,2,6,100,11
5,2,23,0,6,1,2,6,100,11
5,2,21,0,2,0,2,6,67,11
5,2,4,0,3,0,2,6,100,11
5,2,11,1,3,0,2,6,100,11
5,2,17,1,4,0,2,6,100,11
5,2,2,0,5,1,2,6,100,11
5,2,23,0,0,0,2,6,100,11
5,2,17,1,2,0,2,6,90,11
5,2,8,1,3,0,2,6,21,11
5,2,0,0,4,0,2,6,100,11
5,2,14,1,4,0,2,6,15,8
5,2,0,0,4,0,2,6,100,11
5,2,4,0,5,1,2,6,100,11
5,2,23,0,5,1,2,6,21,11
5,2,11,1,6,1,2,6,40,11
5,2,23,0,6,1,2,6,100,11
5,2,9,1,6,1,2,6,93,11
5,2,15,1,2,0,2,6,93,11
5,2,20,1,3,0,2,6,83,11
5,2,5,0,3,0,2,6,90,11
5,2,1,0,4,0,2,6,21,11
5,2,16,1,5,1,2,6,67,11
5,2,22,0,6,1,2,6,93,11
5,2,13,1,0,0,2,6,67,11
5,2,6,0,0,0,2,6,90,11
5,2,5,0,2,0,2,6,100,11
5,2,13,1,2,0,2,6,14,9
5,2,3,0,4,0,2,6,74,11
5,2,4,0,4,0,2,6,100,11
5,2,13,1,4,0,2,6,93,11
5,2,23,0,6,1,2,6,40,11
5,2,13,1,6,1,2,6,40,11
5,2,12,1,6,1,2,6,100,11
5,2,5,0,0,0,2,6,21,11
6,3,2,0,3,0,2,6,90,11
6,3,1,0,3,0,2,6,67,11
6,3,3,0,2,0,2,6,74,11
6,3,16,1,2,0,2,6,67,11
6,3,18,1,1,0,2,6,21,11
6,3,21,0,1,0,2,6,21,11
6,3,13,1,5,1,2,6,58,11
6,3,21,0,0,0,2,6,67,11
6,3,3,0,3,0,2,6,90,11
6,3,4,0,4,0,2,6,67,11
6,3,5,0,5,1,2,6,100,11
6,3,0,0,3,0,2,6,67,11
7,3,7,1,4,0,3,6,100,11
7,3,20,1,6,1,3,6,104,11
7,3,6,0,5,1,3,6,24,11
7,3,13,1,5,1,3,6,100,11
7,3,23,0,0,0,3,6,90,11
7,3,8,1,6,1,3,6,74,11
7,3,5,0,1,0,3,6,91,11
7,3,18,1,2,0,3,6,21,11
7,3,18,1,3,0,3,6,48,11
7,3,1,0,3,0,3,6,100,11
7,3,10,1,4,0,3,6,67,11
7,3,17,1,4,0,3,6,77,11
7,3,20,1,4,0,3,6,104,11
7,3,4,0,5,1,3,6,40,11
8,3,10,1,0,0,3,6,77,8
8,3,0,0,0,0,3,6,80,11
8,3,21,0,5,1,3,6,104,11
8,3,1,0,2,0,3,6,14,11
8,3,19,1,3,0,3,6,100,11
8,3,23,0,6,1,3,6,100,11
8,3,4,0,1,0,3,6,100,11
8,3,20,1,1,0,3,6,93,11
9,4,15,1,3,0,3,6,90,11
9,4,13,1,4,0,3,6,77,11
9,4,6,0,6,1,3,6,67,11
9,4,10,1,1,0,3,6,112,11
9,4,12,1,1,0,3,6,63,11
9,4,21,0,2,0,3,6,100,11
9,4,19,1,3,0,3,6,90,11
9,4,0,0,3,0,3,6,77,9
9,4,7,1,0,0,3,6,100,11
9,4,9,1,3,0,3,6,40,11
9,4,17,1,3,0,3,6,100,11
10,4,13,1,5,1,4,6,67,11
10,4,18,1,3,0,4,6,100,11
10,4,16,1,6,1,4,6,21,11
10,4,11,1,0,0,4,6,109,11
10,4,5,0,5,1,4,6,90,11
10,4,15,1,5,1,4,6,100,11
10,4,23,0,6,1,4,6,90,11
10,4,22,0,6,1,4,6,90,11
10,4,23,0,6,1,4,6,90,11
10,4,0,0,0,0,4,6,90,11
10,4,21,0,0,0,4,6,90,11
10,4,14,1,1,0,4,6,21,11
10,4,5,0,0,0,4,6,80,11
11,4,20,1,2,0,4,6,100,11
11,4,18,1,3,0,4,6,90,11
11,4,2,0,0,0,4,6,130,11
11,4,1,0,4,0,4,6,109,11
11,4,19,1,5,1,4,6,77,11
11,4,16,1,0,0,4,6,77,11
11,4,10,1,0,0,4,6,14,11
11,4,3,0,0,0,4,6,100,11
11,4,20,1,1,0,4,6,77,11
11,4,21,0,3,0,4,6,100,11
11,4,14,1,3,0,4,6,77,11
11,4,21,0,3,0,4,6,100,11
11,4,20,1,3,0,4,6,74,11
11,4,21,0,3,0,4,6,67,11
11,4,16,1,4,0,4,6,100,11
11,4,15,1,4,0,4,6,93,11
11,4,16,1,5,1,4,6,67,11
11,4,7,1,3,0,4,6,90,11
11,4,3,0,4,0,4,6,90,11
11,4,8,1,4,0,4,6,90,11
11,4,8,1,5,1,4,6,100,11
11,4,5,0,5,1,4,6,90,11
11,4,18,1,6,1,4,6,49,11
11,4,17,1,1,0,4,6,90,11
11,4,12,1,1,0,4,6,67,11
11,4,23,0,1,0,4,6,100,11
11,4,22,0,2,0,4,6,67,11
11,4,17,1,2,0,4,6,77,11
12,1,19,1,3,0,4,6,74,8
12,1,13,1,4,0,4,6,100,11
12,1,15,1,6,1,4,6,90,11
12,1,15,1,6,1,4,6,78,11
12,1,10,1,1,0,4,6,90,11
12,1,20,1,1,0,4,6,100,11
12,1,7,1,1,0,4,6,100,11
12,1,7,1,3,0,4,6,67,11
12,1,13,1,4,0,4,6,67,11
12,1,1,0,4,0,4,6,100,11
12,1,2,0,6,1,4,6,90,11
12,1,4,0,6,1,4,6,90,11
12,1,13,1,6,1,4,6,100,11
12,1,12,1,6,1,4,6,100,11
12,1,18,1,1,0,4,6,100,11
12,1,11,1,3,0,4,6,21,11
12,1,19,1,3,0,4,6,90,11
12,1,18,1,3,0,4,6,90,11
12,1,11,1,4,0,4,6,100,11
12,1,21,0,4,0,4,6,100,11
12,1,11,1,5,1,4,6,100,11
12,1,15,1,5,1,4,6,100,11
12,1,14,1,6,1,4,6,100,11
12,1,22,0,6,1,4,6,90,11
12,1,0,0,1,0,4,6,21,11
12,1,14,1,1,0,4,6,40,11
12,1,21,0,1,0,4,6,100,11
12,1,19,1,2,0,4,6,100,11
12,1,5,0,3,0,4,6,60,8
12,1,10,1,3,0,4,6,90,11
12,1,20,1,4,0,4,6,90,11
12,1,17,1,4,0,4,6,102,11
12,1,18,1,4,0,4,6,100,11
12,1,22,0,5,1,4,6,90,11
12,1,3,0,5,1,4,6,90,11
12,1,2,0,6,1,4,6,90,11
12,1,14,1,0,0,4,6,100,11
12,1,1,0,1,0,4,6,90,11
12,1,23,0,2,0,4,6,100,11
12,1,16,1,3,0,4,6,67,11
12,1,16,1,3,0,4,6,90,11
12,1,18,1,4,0,4,6,100,11
12,1,14,1,4,0,4,6,100,11
12,1,14,1,5,1,4,6,93,11
12,1,0,0,5,1,4,6,100,11
1,1,20,1,4,0,1,6,77,11
1,1,17,1,1,0,1,6,14,11
2,1,19,1,0,0,1,6,77,11
2,1,7,1,1,0,1,6,24,8
2,1,12,1,3,0,1,6,74,11
3,2,16,1,1,0,1,6,77,11
4,2,12,1,2,0,2,6,21,11
4,2,2,0,4,0,2,6,100,11
4,2,15,1,6,1,2,6,77,11
5,2,5,0,4,0,2,6,93,11
5,2,15,1,1,0,2,6,40,11
6,3,15,1,5,1,2,6,40,11
6,3,21,0,4,0,2,6,40,11
6,3,11,1,3,0,2,6,77,11
6,3,18,1,4,0,2,6,24,9
7,3,17,1,6,1,3,6,74,11
8,3,16,1,3,0,3,6,93,11
8,3,4,0,0,0,3,6,93,11
9,4,11,1,3,0,3,6,132,11
9,4,6,0,2,0,3,6,90,11
9,4,6,0,6,1,3,6,74,11
9,4,14,1,2,0,3,6,13,11
10,4,18,1,0,0,4,6,14,8
11,4,18,1,4,0,4,6,93,11
11,4,20,1,4,0,4,6,132,11
11,4,22,0,5,1,4,6,132,11
11,4,1,0,3,0,4,6,112,11
12,1,17,1,1,0,4,6,77,11
12,1,20,1,2,0,4,6,89,11
12,1,5,0,3,0,4,6,90,11
12,1,22,0,3,0,4,6,77,8
12,1,20,1,5,1,4,6,77,11
12,1,20,1,5,1,4,6,77,11
1,1,14,1,5,1,1,6,47,11
1,1,10,1,6,1,1,6,47,11
1,1,14,1,6,1,1,6,77,8
1,1,0,0,1,0,1,6,90,11
1,1,2,0,1,0,1,6,90,11
1,1,14,1,0,0,1,6,93,11
1,1,1,0,1,0,1,6,90,11
1,1,0,0,3,0,1,6,14,11
1,1,9,1,5,1,1,6,67,11
1,1,23,0,5,1,1,6,14,11
1,1,13,1,6,1,1,6,90,11
1,1,9,1,3,0,1,6,93,11
1,1,19,1,6,1,1,6,90,11
2,1,17,1,3,0,1,6,77,11
2,1,11,1,5,1,1,6,21,11
2,1,18,1,6,1,1,6,90,11
2,1,0,0,2,0,1,6,90,11
2,1,10,1,4,0,1,6,40,11
2,1,12,1,6,1,1,6,90,11
2,1,0,0,1,0,1,6,90,11
2,1,1,0,1,0,1,6,90,11
2,1,1,0,4,0,1,6,90,11
2,1,2,0,4,0,1,6,90,11
3,2,21,0,1,0,1,6,47,11
3,2,1,0,2,0,1,6,90,11
3,2,2,0,5,1,1,6,90,11
3,2,18,1,5,1,1,6,47,11
3,2,0,0,1,0,1,6,47,11
3,2,15,1,3,0,1,6,74,8
3,2,19,1,6,1,1,6,67,11
3,2,21,0,1,0,1,6,77,11
4,2,2,0,1,0,2,6,77,9
4,2,1,0,4,0,2,6,90,11
4,2,2,0,0,0,2,6,90,11
4,2,18,1,2,0,2,6,90,11
4,2,2,0,4,0,2,6,93,11
4,2,17,1,6,1,2,6,130,11
4,2,0,0,1,0,2,6,90,11
4,2,18,1,5,1,2,6,90,11
5,2,11,1,0,0,2,6,93,9
5,2,12,1,0,0,2,6,93,11
5,2,14,1,0,0,2,6,77,11
5,2,18,1,4,0,2,6,90,11
5,2,19,1,6,1,2,6,28,11
5,2,11,1,0,0,2,6,90,11
5,2,13,1,0,0,2,6,93,11
5,2,2,0,1,0,2,6,93,11
5,2,15,1,1,0,2,6,122,11
5,2,4,0,0,0,2,6,122,11
5,2,22,0,0,0,2,6,40,11
5,2,2,0,3,0,2,6,90,11
5,2,22,0,4,0,2,6,91,11
5,2,17,1,0,0,2,6,90,11
5,2,17,1,4,0,2,6,74,11
5,2,7,1,0,0,2,6,77,11
6,3,0,0,3,0,2,6,93,11
6,3,2,0,3,0,2,6,21,11
6,3,23,0,6,1,2,6,37,11
6,3,11,1,4,0,2,6,74,9
7,3,7,1,2,0,3,6,93,11
7,3,1,0,4,0,3,6,90,11
7,3,13,1,5,1,3,6,77,11
8,3,19,1,2,0,3,6,93,11
8,3,18,1,6,1,3,6,47,11
8,3,21,0,0,0,3,6,77,11
8,3,19,1,4,0,3,6,90,11
8,3,5,0,1,0,3,6,90,11
8,3,19,1,1,0,3,6,112,11
8,3,12,1,1,0,3,6,77,11
9,4,18,1,4,0,3,6,93,11
9,4,15,1,1,0,3,6,90,11
9,4,18,1,4,0,3,6,14,11
10,4,15,1,0,0,4,6,90,11
10,4,20,1,1,0,4,6,13,11
10,4,1,0,3,0,4,6,90,11
10,4,20,1,4,0,4,6,93,11
11,4,14,1,1,0,4,6,111,11
11,4,20,1,0,0,4,6,90,11
11,4,2,0,2,0,4,6,13,11
11,4,14,1,3,0,4,6,77,11
12,1,16,1,5,1,4,6,21,11
12,1,13,1,1,0,4,6,77,11
12,1,11,1,2,0,4,6,77,11
12,1,20,1,5,1,4,6,77,11
12,1,0,0,1,0,4,6,90,11
12,1,18,1,1,0,4,6,74,11
12,1,20,1,4,0,4,6,77,11
12,1,19,1,5,1,4,6,40,11
1,1,14,1,6,1,1,6,77,11
2,1,0,0,0,0,1,6,90,11
5,2,8,1,5,1,2,6,90,11
5,2,8,1,5,1,2,6,90,11
5,2,5,0,4,0,2,6,21,11
6,3,3,0,6,1,2,6,112,11
6,3,12,1,3,0,2,6,104,11
7,3,20,1,1,0,3,6,74,11
7,3,21,0,3,0,3,6,40,11
8,3,20,1,2,0,3,6,93,11
8,3,14,1,4,0,3,6,90,11
9,4,6,0,1,0,3,6,112,11
9,4,17,1,1,0,3,6,112,11
9,4,20,1,1,0,3,6,112,11
9,4,15,1,3,0,3,6,1,11
12,1,21,0,4,0,4,6,90,11
4,2,12,1,1,0,2,6,67,11
4,2,13,1,1,0,2,6,77,11
5,2,5,0,6,1,2,6,87,11
5,2,19,1,4,0,2,6,28,11
5,2,19,1,4,0,2,6,3,11
8,3,5,0,6,1,3,6,13,11
10,4,16,1,2,0,4,6,67,11
10,4,19,1,3,0,4,6,86,11
11,4,12,1,2,0,4,6,132,11
1,1,16,1,5,1,1,1,40,11
1,1,14,1,2,0,1,1,67,11
1,1,18,1,3,0,1,1,40,11
1,1,1,0,4,0,1,1,77,11
1,1,10,1,2,0,1,1,21,11
1,1,11,1,3,0,1,1,132,11
1,1,1,0,0,0,1,1,132,11
1,1,13,1,3,0,1,1,132,11
2,1,21,0,0,0,1,1,58,11
2,1,14,1,2,0,1,1,93,11
2,1,7,1,5,1,1,1,132,11
2,1,6,0,1,0,1,1,132,11
2,1,0,0,3,0,1,1,14,11
2,1,14,1,5,1,1,1,21,11
2,1,9,1,6,1,1,1,21,11
2,1,9,1,0,0,1,1,112,11
3,2,17,1,4,0,1,1,67,11
3,2,12,1,0,0,1,1,104,11
3,2,3,0,3,0,1,1,122,9
3,2,6,0,4,0,1,1,77,11
3,2,14,1,6,1,1,1,40,11
4,2,5,0,4,0,2,1,132,11
4,2,14,1,1,0,2,1,77,11
4,2,14,1,0,0,2,1,93,11
4,2,6,0,2,0,2,1,132,11
4,2,14,1,3,0,2,1,93,11
4,2,14,1,3,0,2,1,93,11
4,2,14,1,5,1,2,1,93,11
5,2,0,0,6,1,2,1,132,11
5,2,14,1,6,1,2,1,104,11
5,2,9,1,3,0,2,1,77,11
5,2,10,1,3,0,2,1,77,11
5,2,18,1,5,1,2,1,112,11
5,2,17,1,6,1,2,1,104,11
5,2,13,1,6,1,2,1,104,11
5,2,3,0,6,1,2,1,59,9
5,2,5,0,0,0,2,1,59,11
5,2,18,1,0,0,2,1,104,11
5,2,11,1,1,0,2,1,77,11
6,3,11,1,3,0,2,1,93,11
6,3,15,1,6,1,2,1,93,11
6,3,21,0,6,1,2,1,104,11
6,3,13,1,1,0,2,1,93,11
6,3,21,0,5,1,2,1,104,11
6,3,14,1,6,1,2,1,21,11
6,3,22,0,6,1,2,1,104,11
6,3,6,0,1,0,2,1,77,11
6,3,1,0,3,0,2,1,132,11
6,3,14,1,5,1,2,1,112,11
6,3,18,1,5,1,2,1,112,11
6,3,8,1,0,0,2,1,112,11
6,3,15,1,1,0,2,1,104,11
6,3,16,1,2,0,2,1,104,11
7,3,11,1,4,0,3,1,77,11
7,3,22,0,0,0,3,1,93,11
7,3,16,1,3,0,3,1,93,11
7,3,13,1,0,0,3,1,104,11
7,3,13,1,2,0,3,1,93,11
7,3,15,1,3,0,3,1,14,11
7,3,15,1,3,0,3,1,93,11
7,3,14,1,5,1,3,1,26,11
7,3,11,1,5,1,3,1,104,11
7,3,1,0,6,1,3,1,93,11
7,3,20,1,6,1,3,1,104,11
7,3,16,1,1,0,3,1,93,11
8,3,11,1,3,0,3,1,58,11
8,3,11,1,4,0,3,1,112,11
8,3,19,1,5,1,3,1,32,11
8,3,11,1,1,0,3,1,93,11
8,3,19,1,4,0,3,1,132,11
8,3,23,0,2,0,3,1,40,11
9,4,10,1,4,0,3,1,93,11
9,4,13,1,1,0,3,1,112,11
9,4,23,0,5,1,3,1,21,11
9,4,12,1,2,0,3,1,28,11
9,4,12,1,1,0,3,1,93,11
9,4,12,1,4,0,3,1,77,11
10,4,1,0,5,1,4,1,21,11
10,4,3,0,5,1,4,1,132,11
10,4,18,1,3,0,4,1,93,11
10,4,3,0,4,0,4,1,21,11
10,4,11,1,1,0,4,1,21,11
10,4,3,0,3,0,4,1,132,11
10,4,11,1,5,1,4,1,59,11
10,4,21,0,6,1,4,1,132,11
11,4,18,1,2,0,4,1,132,11
11,4,19,1,5,1,4,1,40,11
11,4,16,1,6,1,4,1,93,11
11,4,3,0,2,0,4,1,78,11
11,4,19,1,2,0,4,1,77,11
11,4,17,1,5,1,4,1,40,11
11,4,13,1,0,0,4,1,40,11
11,4,20,1,5,1,4,1,40,11
11,4,21,0,5,1,4,1,21,11
12,1,13,1,5,1,4,1,40,9
12,1,8,1,2,0,4,1,132,11
12,1,8,1,4,0,4,1,67,11
12,1,22,0,2,0,4,1,132,11
12,1,13,1,3,0,4,1,111,11
1,1,21,0,4,0,1,1,67,11
1,1,17,1,4,0,1,1,77,11
1,1,16,1,4,0,1,1,40,11
1,1,12,1,4,0,1,1,67,11
1,1,21,0,5,1,1,1,90,11
1,1,16,1,0,0,1,1,67,11
1,1,20,1,5,1,1,1,104,11
1,1,19,1,2,0,1,1,77,11
1,1,22,0,3,0,1,1,90,11
1,1,18,1,6,1,1,1,104,11
1,1,22,0,0,0,1,1,67,11
1,1,18,1,0,0,1,1,40,11
1,1,22,0,1,0,1,1,90,11
1,1,1,0,2,0,1,1,40,11
1,1,14,1,4,0,1,1,90,11
1,1,23,0,5,1,1,1,77,11
1,1,17,1,6,1,1,1,93,11
2,1,12,1,0,0,1,1,104,11
2,1,13,1,0,0,1,1,93,11
2,1,9,1,0,0,1,1,102,11
2,1,9,1,0,0,1,1,40,11
2,1,17,1,1,0,1,1,104,11
2,1,19,1,1,0,1,1,90,11
2,1,4,0,1,0,1,1,77,11
2,1,0,0,3,0,1,1,21,11
2,1,17,1,5,1,1,1,40,11
2,1,0,0,0,0,1,1,21,11
2,1,4,0,0,0,1,1,90,11
2,1,16,1,1,0,1,1,67,11
2,1,22,0,0,0,1,1,90,11
2,1,17,1,3,0,1,1,40,11
2,1,22,0,6,1,1,1,104,11
2,1,11,1,0,0,1,1,104,11
2,1,15,1,0,0,1,1,104,11
3,2,0,0,5,1,1,1,90,11
3,2,21,0,0,0,1,1,90,11
3,2,21,0,4,0,1,1,21,11
3,2,7,1,5,1,1,1,40,11
3,2,15,1,1,0,1,1,93,11
3,2,19,1,5,1,1,1,40,11
3,2,12,1,6,1,1,1,77,11
4,2,13,1,5,1,2,1,77,11
4,2,5,0,1,0,2,1,13,11
4,2,0,0,1,0,2,1,90,11
4,2,18,1,3,0,2,1,49,11
4,2,4,0,6,1,2,1,90,11
4,2,17,1,1,0,2,1,104,11
4,2,2,0,2,0,2,1,90,11
4,2,3,0,2,0,2,1,90,11
4,2,22,0,3,0,2,1,104,11
4,2,20,1,6,1,2,1,90,11
4,2,20,1,6,1,2,1,90,11
4,2,10,1,1,0,2,1,90,11
4,2,16,1,1,0,2,1,104,11
4,2,19,1,1,0,2,1,104,11
4,2,15,1,4,0,2,1,104,11
4,2,14,1,5,1,2,1,104,11
4,2,17,1,2,0,2,1,104,11
4,2,20,1,2,0,2,1,90,11
4,2,4,0,3,0,2,1,90,11
4,2,20,1,3,0,2,1,67,11
4,2,18,1,5,1,2,1,77,11
5,2,17,1,6,1,2,1,93,11
5,2,17,1,3,0,2,1,90,11
5,2,21,0,3,0,2,1,90,11
5,2,1,0,5,1,2,1,90,11
5,2,5,0,6,1,2,1,90,11
5,2,12,1,5,1,2,1,104,11
5,2,1,0,5,1,2,1,67,11
5,2,14,1,0,0,2,1,21,11
5,2,18,1,4,0,2,1,93,11
5,2,16,1,6,1,2,1,104,11
5,2,20,1,0,0,2,1,90,11
6,3,13,1,2,0,2,1,104,11
6,3,4,0,4,0,2,1,90,11
6,3,5,0,4,0,2,1,90,11
6,3,13,1,4,0,2,1,104,11
6,3,15,1,0,0,2,1,93,11
6,3,20,1,0,0,2,1,104,11
6,3,16,1,1,0,2,1,104,11
6,3,15,1,4,0,2,1,24,11
6,3,15,1,0,0,2,1,104,11
6,3,21,0,4,0,2,1,93,11
6,3,22,0,4,0,2,1,104,11
6,3,13,1,5,1,2,1,90,11
6,3,22,0,6,1,2,1,100,11
6,3,13,1,0,0,2,1,90,11
7,3,4,0,4,0,3,1,90,11
7,3,15,1,3,0,3,1,93,11
7,3,19,1,3,0,3,1,104,11
7,3,4,0,1,0,3,1,90,11
7,3,4,0,1,0,3,1,90,11
7,3,10,1,1,0,3,1,104,11
7,3,20,1,1,0,3,1,93,11
7,3,20,1,1,0,3,1,49,11
7,3,22,0,1,0,3,1,104,11
7,3,2,0,3,0,3,1,90,11
7,3,3,0,3,0,3,1,90,11
7,3,23,0,3,0,3,1,132,11
7,3,13,1,4,0,3,1,93,11
7,3,13,1,4,0,3,1,93,11
7,3,20,1,6,1,3,1,13,11
7,3,20,1,6,1,3,1,104,11
7,3,16,1,2,0,3,1,106,11
7,3,21,0,2,0,3,1,104,11
7,3,21,0,4,0,3,1,104,11
8,3,10,1,0,0,3,1,104,11
8,3,13,1,2,0,3,1,104,11
8,3,11,1,3,0,3,1,93,11
8,3,13,1,3,0,3,1,58,11
8,3,1,0,5,1,3,1,104,11
8,3,5,0,5,1,3,1,90,11
8,3,23,0,6,1,3,1,104,11
8,3,13,1,0,0,3,1,104,11
8,3,4,0,3,0,3,1,90,11
8,3,5,0,4,0,3,1,90,11
8,3,14,1,4,0,3,1,104,11
8,3,20,1,6,1,3,1,4,11
8,3,17,1,6,1,3,1,93,11
8,3,2,0,0,0,3,1,93,11
8,3,3,0,1,0,3,1,93,11
8,3,16,1,2,0,3,1,4,11
8,3,1,0,3,0,3,1,93,11
8,3,18,1,3,0,3,1,104,11
8,3,13,1,4,0,3,1,40,11
8,3,15,1,5,1,3,1,93,11
8,3,16,1,5,1,3,1,104,11
8,3,18,1,5,1,3,1,104,11
8,3,4,0,6,1,3,1,90,11
8,3,12,1,6,1,3,1,104,11
8,3,19,1,6,1,3,1,4,11
8,3,5,0,0,0,3,1,90,11
8,3,4,0,3,0,3,1,90,11
8,3,8,1,4,0,3,1,13,8
8,3,4,0,5,1,3,1,90,11
8,3,21,0,6,1,3,1,90,11
8,3,15,1,0,0,3,1,104,11
8,3,0,0,1,0,3,1,14,11
8,3,11,1,2,0,3,1,67,11
9,4,8,1,4,0,3,1,104,11
9,4,20,1,6,1,3,1,104,11
9,4,20,1,4,0,3,1,104,11
9,4,19,1,6,1,3,1,93,11
9,4,2,0,0,0,3,1,93,11
9,4,13,1,4,0,3,1,104,11
9,4,18,1,5,1,3,1,104,11
9,4,14,1,6,1,3,1,104,11
9,4,3,0,0,0,3,1,90,11
9,4,4,0,3,0,3,1,102,11
9,4,5,0,5,1,3,1,90,11
9,4,18,1,0,0,3,1,104,11
9,4,11,1,2,0,3,1,13,11
10,4,3,0,1,0,4,1,90,11
10,4,3,0,1,0,4,1,90,11
10,4,1,0,4,0,4,1,90,11
10,4,19,1,0,0,4,1,69,11
10,4,16,1,0,0,4,1,104,11
10,4,14,1,0,0,4,1,104,11
10,4,5,0,6,1,4,1,21,11
10,4,4,0,4,0,4,1,90,11
10,4,13,1,5,1,4,1,104,11
10,4,18,1,6,1,4,1,104,11
10,4,18,1,0,0,4,1,80,11
11,4,12,1,2,0,4,1,15,11
11,4,17,1,3,0,4,1,93,11
11,4,2,0,5,1,4,1,104,11
11,4,17,1,1,0,4,1,112,11
11,4,19,1,3,0,4,1,90,11
11,4,13,1,4,0,4,1,90,11
11,4,1,0,0,0,4,1,104,11
11,4,10,1,2,0,4,1,67,11
11,4,16,1,2,0,4,1,104,11
11,4,19,1,2,0,4,1,90,11
11,4,19,1,5,1,4,1,67,11
11,4,7,1,1,0,4,1,90,11
12,1,10,1,4,0,4,1,104,11
12,1,11,1,5,1,4,1,90,11
12,1,1,0,6,1,4,1,90,11
12,1,20,1,0,0,4,1,90,11
12,1,22,0,0,0,4,1,90,11
12,1,6,0,1,0,4,1,90,11
12,1,21,0,1,0,4,1,30,11
12,1,16,1,2,0,4,1,90,11
12,1,16,1,4,0,4,1,90,11
12,1,21,0,4,0,4,1,21,11
12,1,16,1,5,1,4,1,67,11
12,1,16,1,0,0,4,1,90,11
12,1,14,1,1,0,4,1,40,11
12,1,20,1,2,0,4,1,90,11
12,1,1,0,3,0,4,1,90,11
12,1,14,1,5,1,4,1,90,11
12,1,20,1,6,1,4,1,77,11
12,1,13,1,6,1,4,1,90,11
12,1,18,1,0,0,4,1,90,11
12,1,19,1,0,0,4,1,90,11
12,1,20,1,0,0,4,1,90,11
12,1,19,1,0,0,4,1,102,11
12,1,3,0,1,0,4,1,90,11
12,1,3,0,1,0,4,1,90,11
12,1,10,1,1,0,4,1,13,11
12,1,13,1,1,0,4,1,13,11
12,1,17,1,3,0,4,1,104,11
12,1,17,1,4,0,4,1,3,11
12,1,23,0,4,0,4,1,90,11
12,1,17,1,5,1,4,1,93,11
12,1,16,1,6,1,4,1,77,11
12,1,2,0,6,1,4,1,90,11
12,1,5,0,6,1,4,1,90,11
12,1,5,0,6,1,4,1,21,11
12,1,13,1,6,1,4,1,104,11
12,1,18,1,0,0,4,1,90,11
12,1,18,1,0,0,4,1,90,11
12,1,3,0,1,0,4,1,90,11
12,1,14,1,1,0,4,1,104,11
12,1,0,0,3,0,4,1,90,11
12,1,8,1,3,0,4,1,90,11
12,1,14,1,3,0,4,1,104,11
12,1,14,1,3,0,4,1,90,11
12,1,19,1,3,0,4,1,90,11
12,1,14,1,4,0,4,1,93,11
12,1,22,0,4,0,4,1,90,11
12,1,9,1,4,0,4,1,104,11
12,1,12,1,5,1,4,1,104,11
12,1,8,1,5,1,4,1,93,11
12,1,20,1,5,1,4,1,90,11
2,1,17,1,2,0,1,1,81,11
6,3,11,1,2,0,2,1,77,11
6,3,11,1,2,0,2,1,40,11
7,3,1,0,0,0,3,1,40,11
12,1,19,1,4,0,4,1,40,11
1,1,11,1,0,0,1,1,40,11
2,1,23,0,6,1,1,1,132,11
2,1,2,0,5,1,1,1,93,11
2,1,15,1,1,0,1,1,21,11
4,2,15,1,0,0,2,1,40,11
4,2,12,1,4,0,2,1,93,11
5,2,10,1,0,0,2,1,21,11
5,2,10,1,2,0,2,1,13,11
5,2,19,1,6,1,2,1,104,11
6,3,23,0,5,1,2,1,112,11
7,3,23,0,4,0,3,1,93,11
7,3,12,1,0,0,3,1,77,11
7,3,12,1,6,1,3,1,132,11
8,3,12,1,5,1,3,1,77,11
8,3,7,1,4,0,3,1,132,11
9,4,15,1,1,0,3,1,13,8
10,4,4,0,4,0,4,1,21,9
12,1,19,1,5,1,4,1,32,8
12,1,19,1,0,0,4,1,132,11
12,1,19,1,4,0,4,1,40,11
12,1,7,1,6,1,4,1,93,11
12,1,14,1,2,0,4,1,77,11
12,1,21,0,5,1,4,1,132,11
12,1,12,1,0,0,4,1,77,11
2,1,9,1,3,0,1,1,90,11
2,1,12,1,1,0,1,1,100,11
4,2,21,0,0,0,2,1,21,11
4,2,1,0,1,0,2,1,40,9
6,3,21,0,2,0,2,1,65,9
7,3,12,1,1,0,3,1,93,11
7,3,22,0,2,0,3,1,25,11
7,3,15,1,3,0,3,1,25,11
7,3,16,1,6,1,3,1,26,11
8,3,10,1,6,1,3,1,90,11
9,4,12,1,2,0,3,1,13,11
10,4,13,1,0,0,4,1,40,11
10,4,14,1,1,0,4,1,90,11
11,4,17,1,1,0,4,1,40,11
11,4,18,1,5,1,4,1,21,11
12,1,14,1,5,1,4,1,77,11
12,1,13,1,6,1,4,1,40,9
12,1,14,1,4,0,4,1,13,8
12,1,15,1,6,1,4,1,40,11
1,1,0,0,4,0,1,15,77,11
1,1,3,0,1,0,1,15,40,9
1,1,2,0,4,0,1,15,21,11
1,1,23,0,5,1,1,15,77,9
1,1,11,1,6,1,1,15,40,11
1,1,7,1,2,0,1,15,40,8
1,1,14,1,6,1,1,15,93,11
2,1,14,1,1,0,1,15,93,11
2,1,21,0,6,1,1,15,40,11
2,1,14,1,0,0,1,15,58,11
2,1,9,1,2,0,1,15,67,11
2,1,10,1,1,0,1,15,58,11
2,1,23,0,4,0,1,15,104,11
2,1,18,1,5,1,1,15,100,11
2,1,1,0,0,0,1,15,100,11
2,1,6,0,1,0,1,15,104,11
2,1,17,1,0,0,1,15,104,11
2,1,23,0,0,0,1,15,112,11
3,2,21,0,5,1,1,15,67,11
3,2,22,0,5,1,1,15,104,11
3,2,16,1,1,0,1,15,104,11
3,2,14,1,4,0,1,15,112,11
3,2,13,1,2,0,1,15,104,11
3,2,6,0,3,0,1,15,77,8
3,2,9,1,0,0,1,15,77,9
4,2,0,0,5,1,2,15,104,11
4,2,22,0,0,0,2,15,104,11
4,2,16,1,0,0,2,15,104,11
4,2,0,0,0,0,2,15,104,11
4,2,16,1,1,0,2,15,104,11
4,2,1,0,1,0,2,15,104,11
4,2,2,0,2,0,2,15,104,11
4,2,19,1,0,0,2,15,93,11
4,2,18,1,4,0,2,15,77,11
4,2,20,1,5,1,2,15,104,11
4,2,20,1,5,1,2,15,104,11
4,2,17,1,6,1,2,15,78,11
4,2,20,1,1,0,2,15,104,11
4,2,18,1,1,0,2,15,104,11
4,2,14,1,1,0,2,15,93,11
4,2,17,1,4,0,2,15,104,11
4,2,6,0,4,0,2,15,104,11
4,2,20,1,4,0,2,15,104,11
4,2,7,1,5,1,2,15,104,11
4,2,4,0,5,1,2,15,104,11
4,2,13,1,0,0,2,15,104,11
4,2,18,1,0,0,2,15,104,11
4,2,21,0,0,0,2,15,104,11
4,2,13,1,3,0,2,15,104,11
4,2,21,0,4,0,2,15,104,11
4,2,20,1,4,0,2,15,104,11
5,2,13,1,6,1,2,15,67,11
5,2,11,1,6,1,2,15,28,11
5,2,8,1,0,0,2,15,104,11
5,2,14,1,4,0,2,15,40,11
5,2,15,1,5,1,2,15,104,11
5,2,18,1,6,1,2,15,132,11
5,2,15,1,1,0,2,15,104,11
5,2,13,1,1,0,2,15,104,11
5,2,4,0,2,0,2,15,104,11
5,2,19,1,4,0,2,15,104,11
5,2,17,1,4,0,2,15,104,11
5,2,13,1,1,0,2,15,104,11
5,2,8,1,3,0,2,15,104,11
5,2,13,1,4,0,2,15,104,11
5,2,14,1,4,0,2,15,104,11
5,2,0,0,0,0,2,15,104,11
5,2,2,0,0,0,2,15,104,11
5,2,10,1,3,0,2,15,104,11
5,2,16,1,5,1,2,15,104,11
5,2,19,1,5,1,2,15,104,11
5,2,2,0,6,1,2,15,104,11
5,2,8,1,6,1,2,15,104,11
5,2,12,1,6,1,2,15,104,11
5,2,21,0,1,0,2,15,104,11
5,2,17,1,1,0,2,15,104,11
6,3,0,0,2,0,2,15,104,11
6,3,18,1,2,0,2,15,104,11
6,3,21,0,2,0,2,15,93,11
6,3,21,0,2,0,2,15,104,11
6,3,15,1,2,0,2,15,58,11
6,3,18,1,4,0,2,15,104,11
6,3,16,1,5,1,2,15,104,11
6,3,5,0,6,1,2,15,104,11
6,3,13,1,6,1,2,15,67,11
6,3,23,0,0,0,2,15,104,11
6,3,0,0,1,0,2,15,104,11
6,3,1,0,1,0,2,15,104,11
6,3,9,1,4,0,2,15,104,11
6,3,9,1,6,1,2,15,104,11
6,3,1,0,0,0,2,15,104,11
6,3,2,0,0,0,2,15,104,11
6,3,11,1,0,0,2,15,104,11
6,3,13,1,0,0,2,15,104,11
6,3,15,1,0,0,2,15,104,11
6,3,18,1,0,0,2,15,104,11
6,3,18,1,1,0,2,15,104,11
6,3,14,1,1,0,2,15,129,11
6,3,22,0,3,0,2,15,104,11
6,3,0,0,4,0,2,15,104,11
6,3,19,1,4,0,2,15,104,11
6,3,11,1,5,1,2,15,104,11
6,3,21,0,5,1,2,15,104,11
6,3,22,0,5,1,2,15,104,11
6,3,23,0,5,1,2,15,104,11
6,3,14,1,6,1,2,15,104,11
6,3,15,1,6,1,2,15,104,11
6,3,21,0,6,1,2,15,104,11
6,3,0,0,6,1,2,15,104,11
6,3,13,1,6,1,2,15,129,11
6,3,6,0,0,0,2,15,104,11
6,3,0,0,0,0,2,15,104,11
6,3,21,0,1,0,2,15,104,11
6,3,11,1,2,0,2,15,104,11
6,3,12,1,2,0,2,15,3,11
6,3,13,1,3,0,2,15,104,11
6,3,22,0,4,0,2,15,104,11
6,3,17,1,4,0,2,15,104,11
6,3,13,1,4,0,2,15,104,11
6,3,18,1,5,1,2,15,112,11
6,3,14,1,5,1,2,15,129,11
6,3,20,1,6,1,2,15,104,11
6,3,10,1,2,0,2,15,104,11
6,3,0,0,2,0,2,15,104,11
6,3,22,0,2,0,2,15,104,11
7,3,9,1,5,1,3,15,104,11
7,3,10,1,5,1,3,15,104,11
7,3,16,1,6,1,3,15,104,11
7,3,0,0,0,0,3,15,104,11
7,3,13,1,0,0,3,15,104,11
7,3,0,0,1,0,3,15,104,11
7,3,0,0,3,0,3,15,104,11
7,3,19,1,3,0,3,15,104,11
7,3,10,1,4,0,3,15,104,11
7,3,17,1,5,1,3,15,104,11
7,3,21,0,6,1,3,15,104,11
7,3,13,1,6,1,3,15,104,11
7,3,13,1,6,1,3,15,104,11
7,3,13,1,0,0,3,15,104,11
7,3,2,0,1,0,3,15,104,11
7,3,13,1,1,0,3,15,104,11
7,3,17,1,1,0,3,15,77,11
7,3,10,1,2,0,3,15,104,11
7,3,10,1,3,0,3,15,104,11
7,3,2,0,5,1,3,15,104,11
7,3,0,0,1,0,3,15,104,11
7,3,0,0,1,0,3,15,104,11
7,3,12,1,1,0,3,15,3,11
7,3,14,1,1,0,3,15,104,11
7,3,16,1,1,0,3,15,104,11
7,3,23,0,1,0,3,15,104,11
7,3,12,1,4,0,3,15,104,11
7,3,0,0,5,1,3,15,104,11
7,3,11,1,5,1,3,15,104,11
7,3,14,1,5,1,3,15,104,11
7,3,16,1,5,1,3,15,104,11
7,3,7,1,6,1,3,15,104,11
7,3,15,1,6,1,3,15,104,11
7,3,2,0,0,0,3,15,104,11
7,3,13,1,1,0,3,15,104,11
7,3,13,1,2,0,3,15,104,11
7,3,0,0,2,0,3,15,104,11
7,3,20,1,3,0,3,15,104,11
7,3,0,0,4,0,3,15,104,11
7,3,11,1,4,0,3,15,104,11
7,3,20,1,4,0,3,15,104,11
7,3,14,1,5,1,3,15,104,11
8,3,14,1,0,0,3,15,74,11
8,3,16,1,1,0,3,15,104,11
8,3,14,1,2,0,3,15,104,11
8,3,8,1,3,0,3,15,104,11
8,3,2,0,4,0,3,15,93,11
8,3,8,1,5,1,3,15,104,11
8,3,14,1,5,1,3,15,104,11
8,3,5,0,6,1,3,15,104,11
8,3,15,1,6,1,3,15,104,11
8,3,18,1,6,1,3,15,93,11
8,3,5,0,0,0,3,15,104,11
8,3,15,1,0,0,3,15,104,9
8,3,12,1,1,0,3,15,104,11
8,3,21,0,2,0,3,15,93,11
8,3,22,0,3,0,3,15,104,11
8,3,2,0,4,0,3,15,104,11
8,3,21,0,5,1,3,15,104,11
8,3,1,0,6,1,3,15,104,11
8,3,14,1,6,1,3,15,104,9
8,3,15,1,4,0,3,15,93,11
8,3,12,1,5,1,3,15,104,11
8,3,20,1,0,0,3,15,104,11
8,3,10,1,0,0,3,15,104,11
8,3,21,0,0,0,3,15,104,11
9,4,7,1,3,0,3,15,77,11
9,4,20,1,3,0,3,15,104,11
9,4,23,0,3,0,3,15,104,11
9,4,9,1,4,0,3,15,77,11
9,4,21,0,4,0,3,15,104,11
9,4,22,0,4,0,3,15,104,11
9,4,23,0,5,1,3,15,93,11
9,4,11,1,5,1,3,15,58,11
9,4,1,0,6,1,3,15,104,11
9,4,20,1,6,1,3,15,77,11
9,4,1,0,0,0,3,15,104,11
9,4,7,1,2,0,3,15,90,11
9,4,10,1,2,0,3,15,104,11
9,4,12,1,2,0,3,15,21,11
10,4,15,1,5,1,4,15,28,11
10,4,16,1,0,0,4,15,58,11
10,4,23,0,1,0,4,15,104,11
10,4,13,1,1,0,4,15,58,11
10,4,19,1,3,0,4,15,104,11
10,4,6,0,5,1,4,15,21,11
11,4,19,1,0,0,4,15,21,11
11,4,18,1,3,0,4,15,40,11
11,4,0,0,6,1,4,15,77,11
11,4,22,0,6,1,4,15,132,11
12,1,0,0,6,1,4,15,77,11
12,1,21,0,2,0,4,15,132,11
12,1,13,1,5,1,4,15,77,11
12,1,10,1,1,0,4,15,132,11
12,1,12,1,3,0,4,15,104,11
12,1,0,0,6,1,4,15,106,11
12,1,10,1,3,0,4,15,115,11
12,1,14,1,4,0,4,15,132,11
2,1,16,1,2,0,1,15,93,11
2,1,10,1,1,0,1,15,40,8
5,2,15,1,6,1,2,15,104,11
5,2,20,1,0,0,2,15,112,11
5,2,13,1,3,0,2,15,21,11
6,3,2,0,5,1,2,15,104,11
6,3,6,0,1,0,2,15,104,11
6,3,14,1,0,0,2,15,104,11
7,3,21,0,2,0,3,15,104,11
8,3,14,1,3,0,3,15,77,8
8,3,21,0,5,1,3,15,104,11
1,1,19,1,5,1,1,15,100,11
2,1,1,0,4,0,1,15,11,11
3,2,14,1,3,0,1,15,77,11
5,2,18,1,3,0,2,15,104,11
6,3,9,1,3,0,2,15,21,11
6,3,23,0,3,0,2,15,21,11
7,3,13,1,4,0,3,15,77,11
8,3,15,1,5,1,3,15,77,11
9,4,4,0,4,0,3,15,40,11
9,4,13,1,3,0,3,15,1,9
9,4,4,0,4,0,3,15,104,11
10,4,18,1,1,0,4,15,40,11
12,1,17,1,4,0,4,15,21,9
12,1,20,1,2,0,4,15,132,11
12,1,17,1,2,0,4,15,132,11
1,1,21,0,0,0,1,15,40,11
1,1,9,1,6,1,1,15,90,11
1,1,10,1,0,0,1,15,77,9
1,1,20,1,1,0,1,15,40,11
1,1,19,1,4,0,1,15,77,11
1,1,22,0,0,0,1,15,90,11
2,1,16,1,0,0,1,15,93,11
2,1,19,1,0,0,1,15,77,11
2,1,19,1,4,0,1,15,93,11
2,1,20,1,0,0,1,15,67,11
3,2,0,0,2,0,1,15,3,11
3,2,19,1,5,1,1,15,77,11
3,2,3,0,4,0,1,15,90,11
4,2,1,0,5,1,2,15,100,11
4,2,6,0,3,0,2,15,90,11
4,2,9,1,4,0,2,15,90,11
5,2,0,0,2,0,2,15,90,11
5,2,1,0,1,0,2,15,90,11
5,2,20,1,4,0,2,15,77,11
5,2,22,0,6,1,2,15,77,11
5,2,20,1,6,1,2,15,40,11
5,2,19,1,0,0,2,15,40,11
6,3,20,1,1,0,2,15,67,9
6,3,3,0,3,0,2,15,104,11
6,3,16,1,0,0,2,15,40,9
6,3,3,0,3,0,2,15,104,11
7,3,21,0,0,0,3,15,21,11
7,3,6,0,5,1,3,15,47,11
8,3,17,1,2,0,3,15,104,11
8,3,13,1,3,0,3,15,93,11
8,3,23,0,1,0,3,15,104,11
9,4,12,1,5,1,3,15,21,9
9,4,2,0,4,0,3,15,21,11
10,4,7,1,3,0,4,15,93,11
10,4,12,1,4,0,4,15,110,11
10,4,6,0,6,1,4,15,3,9
10,4,10,1,1,0,4,15,77,9
11,4,8,1,1,0,4,15,21,9
12,1,13,1,1,0,4,15,112,11
12,1,20,1,0,0,4,15,77,8
12,1,15,1,3,0,4,15,40,11
12,1,18,1,4,0,4,15,40,11
12,1,16,1,6,1,4,15,90,11
12,1,17,1,0,0,4,15,90,11
12,1,13,1,1,0,4,15,90,11
12,1,17,1,4,0,4,15,42,11
1,1,8,1,3,0,1,15,77,11
1,1,17,1,3,0,1,15,49,11
1,1,20,1,4,0,1,15,13,11
1,1,19,1,1,0,1,15,13,11
2,1,17,1,5,1,1,15,77,11
2,1,14,1,2,0,1,15,47,11
3,2,14,1,6,1,1,15,77,11
3,2,19,1,1,0,1,15,21,11
3,2,9,1,2,0,1,15,77,11
3,2,14,1,5,1,1,15,40,11
3,2,21,0,1,0,1,15,77,11
3,2,4,0,6,1,1,15,90,11
4,2,3,0,6,1,2,15,21,11
4,2,13,1,6,1,2,15,13,11
4,2,19,1,0,0,2,15,77,11
5,2,11,1,1,0,2,15,120,11
5,2,18,1,6,1,2,15,13,11
6,3,12,1,3,0,2,15,77,11
6,3,22,0,4,0,2,15,132,11
7,3,14,1,1,0,3,15,21,11
7,3,3,0,4,0,3,15,21,11
8,3,16,1,0,0,3,15,66,11
9,4,10,1,2,0,3,15,13,11
9,4,13,1,3,0,3,15,77,11
10,4,21,0,4,0,4,15,47,11
11,4,5,0,3,0,4,15,77,11
11,4,20,1,0,0,4,15,59,11
11,4,17,1,1,0,4,15,77,11
12,1,0,0,0,0,4,15,21,11
12,1,1,0,0,0,4,15,21,11
1,1,22,0,3,0,1,3,86,11
2,1,14,1,2,0,1,3,93,11
2,1,14,1,4,0,1,3,67,11
2,1,18,1,4,0,1,3,14,11
2,1,23,0,1,0,1,3,104,11
2,1,22,0,1,0,1,3,104,11
3,2,16,1,3,0,1,3,104,11
3,2,20,1,6,1,1,3,100,11
3,2,16,1,6,1,1,3,40,11
3,2,17,1,0,0,1,3,93,11
3,2,18,1,3,0,1,3,21,11
3,2,18,1,6,1,1,3,100,11
3,2,2,0,0,0,1,3,104,11
3,2,15,1,2,0,1,3,49,9
4,2,16,1,5,1,2,3,40,11
4,2,4,0,6,1,2,3,100,11
4,2,4,0,6,1,2,3,100,11
4,2,19,1,1,0,2,3,49,11
4,2,15,1,4,0,2,3,47,11
4,2,13,1,5,1,2,3,93,11
4,2,0,0,6,1,2,3,100,11
4,2,1,0,6,1,2,3,27,11
5,2,13,1,2,0,2,3,67,11
5,2,7,1,4,0,2,3,77,11
5,2,0,0,6,1,2,3,104,11
5,2,17,1,0,0,2,3,104,11
5,2,4,0,1,0,2,3,67,11
6,3,3,0,5,1,2,3,77,11
6,3,10,1,6,1,2,3,93,11
6,3,0,0,2,0,2,3,100,11
6,3,20,1,5,1,2,3,21,11
6,3,19,1,6,1,2,3,21,11
6,3,23,0,2,0,2,3,104,11
7,3,12,1,4,0,3,3,100,11
7,3,15,1,1,0,3,3,67,11
8,3,13,1,1,0,3,3,66,11
8,3,10,1,2,0,3,3,81,11
8,3,20,1,3,0,3,3,116,11
9,4,15,1,1,0,3,3,67,11
9,4,13,1,0,0,3,3,67,11
10,4,20,1,6,1,4,3,67,11
10,4,0,0,1,0,4,3,100,11
10,4,18,1,1,0,4,3,21,11
10,4,23,0,2,0,4,3,67,11
11,4,15,1,4,0,4,3,77,11
11,4,20,1,3,0,4,3,14,8
11,4,15,1,2,0,4,3,102,11
12,1,18,1,0,0,4,3,40,11
12,1,8,1,4,0,4,3,93,11
12,1,10,1,5,1,4,3,87,11
12,1,23,0,5,1,4,3,67,11
12,1,2,0,5,1,4,3,93,11
12,1,22,0,5,1,4,3,22,11
12,1,10,1,5,1,4,3,93,11
12,1,10,1,2,0,4,3,93,11
12,1,12,1,5,1,4,3,93,11
12,1,9,1,5,1,4,3,100,11
12,1,19,1,5,1,4,3,77,11
5,2,22,0,2,0,2,3,21,11
6,3,22,0,5,1,2,3,21,11
7,3,12,1,1,0,3,3,102,11
7,3,16,1,5,1,3,3,21,11
8,3,21,0,6,1,3,3,93,11
9,4,9,1,3,0,3,3,112,11
12,1,20,1,4,0,4,3,100,11
2,1,20,1,3,0,1,3,77,9
6,3,12,1,0,0,2,3,26,11
9,4,19,1,4,0,3,3,77,11
12,1,11,1,4,0,4,3,77,11
2,1,12,1,1,0,1,3,77,11
5,2,17,1,5,1,2,3,14,11
6,3,15,1,0,0,2,3,21,11
8,3,12,1,6,1,3,3,104,11
1,1,21,0,5,1,1,3,40,11
3,2,12,1,2,0,1,3,129,11
5,2,1,0,1,0,2,3,132,11
5,2,15,1,6,1,2,3,13,11
5,2,0,0,3,0,2,3,132,11
5,2,1,0,4,0,2,3,132,11
6,3,11,1,2,0,2,3,40,8
7,3,21,0,3,0,3,3,104,11
7,3,10,1,6,1,3,3,132,11
7,3,10,1,6,1,3,3,132,11
10,4,14,1,0,0,4,3,21,11
10,4,7,1,6,1,4,3,112,11
11,4,0,0,0,0,4,3,132,11
11,4,7,1,5,1,4,3,15,11
6,3,18,1,0,0,2,3,112,11
1,1,18,1,6,1,1,36,40,11
1,1,4,0,6,1,1,36,21,11
1,1,21,0,1,0,1,36,13,11
1,1,1,0,3,0,1,36,100,11
1,1,2,0,3,0,1,36,100,11
1,1,0,0,3,0,1,36,93,11
1,1,10,1,6,1,1,36,21,11
1,1,16,1,2,0,1,36,90,11
1,1,23,0,1,0,1,36,90,11
2,1,16,1,0,0,1,36,67,11
2,1,13,1,2,0,1,36,121,11
2,1,18,1,6,1,1,36,45,11
2,1,20,1,0,0,1,36,90,11
2,1,13,1,6,1,1,36,90,11
2,1,13,1,1,0,1,36,20,11
2,1,5,0,2,0,1,36,78,11
2,1,1,0,1,0,1,36,104,11
2,1,1,0,1,0,1,36,104,11
2,1,3,0,1,0,1,36,104,11
2,1,3,0,1,0,1,36,104,11
2,1,3,0,1,0,1,36,104,11
2,1,2,0,2,0,1,36,104,11
2,1,2,0,2,0,1,36,104,11
2,1,18,1,3,0,1,36,24,11
3,2,1,0,2,0,1,36,90,11
3,2,2,0,2,0,1,36,90,11
3,2,1,0,6,1,1,36,90,11
3,2,18,1,0,0,1,36,90,11
3,2,0,0,1,0,1,36,90,11
3,2,21,0,2,0,1,36,13,11
3,2,19,1,5,1,1,36,67,11
3,2,2,0,6,1,1,36,90,11
3,2,18,1,6,1,1,36,90,11
3,2,21,0,2,0,1,36,112,11
3,2,20,1,4,0,1,36,67,11
3,2,20,1,4,0,1,36,77,11
3,2,16,1,5,1,1,36,104,11
3,2,0,0,6,1,1,36,104,11
3,2,0,0,6,1,1,36,104,11
3,2,0,0,6,1,1,36,104,11
3,2,0,0,6,1,1,36,104,11
3,2,1,0,6,1,1,36,104,11
3,2,20,1,0,0,1,36,93,11
4,2,18,1,6,1,2,36,67,11
4,2,19,1,6,1,2,36,104,11
4,2,19,1,6,1,2,36,104,11
4,2,19,1,6,1,2,36,104,11
4,2,4,0,3,0,2,36,90,11
4,2,4,0,3,0,2,36,104,11
4,2,6,0,3,0,2,36,104,11
4,2,3,0,6,1,2,36,90,11
4,2,19,1,6,1,2,36,131,11
4,2,0,0,0,0,2,36,132,11
4,2,19,1,1,0,2,36,104,11
4,2,12,1,5,1,2,36,78,11
4,2,19,1,1,0,2,36,93,11
4,2,4,0,6,1,2,36,104,11
4,2,5,0,6,1,2,36,104,11
4,2,4,0,6,1,2,36,104,11
4,2,0,0,2,0,2,36,132,11
4,2,0,0,2,0,2,36,132,11
4,2,7,1,3,0,2,36,40,11
4,2,23,0,4,0,2,36,132,11
4,2,14,1,5,1,2,36,40,11
5,2,12,1,2,0,2,36,120,11
5,2,11,1,5,1,2,36,100,11
5,2,17,1,6,1,2,36,93,11
5,2,1,0,0,0,2,36,24,11
5,2,22,0,0,0,2,36,115,11
5,2,3,0,5,1,2,36,104,11
5,2,1,0,1,0,2,36,104,11
5,2,2,0,5,1,2,36,100,11
5,2,2,0,5,1,2,36,78,11
5,2,19,1,1,0,2,36,91,11
5,2,9,1,3,0,2,36,90,11
5,2,16,1,4,0,2,36,104,11
6,3,3,0,3,0,2,36,14,8
6,3,4,0,4,0,2,36,104,11
6,3,5,0,6,1,2,36,90,11
6,3,5,0,6,1,2,36,90,11
6,3,5,0,6,1,2,36,90,11
6,3,6,0,4,0,2,36,104,11
6,3,18,1,5,1,2,36,104,11
6,3,6,0,5,1,2,36,104,11
6,3,4,0,4,0,2,36,104,11
6,3,5,0,5,1,2,36,104,11
6,3,6,0,2,0,2,36,104,11
6,3,4,0,2,0,2,36,104,11
6,3,5,0,2,0,2,36,104,11
6,3,18,1,3,0,2,36,104,11
6,3,5,0,0,0,2,36,104,11
7,3,5,0,5,1,3,36,90,11
7,3,5,0,6,1,3,36,90,11
7,3,15,1,1,0,3,36,24,11
7,3,9,1,5,1,3,36,21,11
7,3,17,1,6,1,3,36,106,11
7,3,14,1,2,0,3,36,77,11
7,3,1,0,4,0,3,36,100,11
7,3,11,1,3,0,3,36,104,11
7,3,19,1,4,0,3,36,104,11
7,3,14,1,4,0,3,36,104,11
8,3,15,1,6,1,3,36,93,11
8,3,10,1,1,0,3,36,104,11
8,3,18,1,2,0,3,36,93,11
8,3,21,0,2,0,3,36,14,11
8,3,13,1,2,0,3,36,93,11
8,3,11,1,3,0,3,36,67,11
8,3,23,0,4,0,3,36,67,11
8,3,6,0,6,1,3,36,100,11
8,3,16,1,0,0,3,36,67,11
8,3,5,0,3,0,3,36,93,11
8,3,16,1,6,1,3,36,13,11
8,3,20,1,6,1,3,36,81,11
8,3,4,0,0,0,3,36,100,11
9,4,22,0,5,1,3,36,90,11
9,4,15,1,2,0,3,36,40,11
9,4,12,1,4,0,3,36,61,8
9,4,4,0,5,1,3,36,100,11
9,4,5,0,6,1,3,36,104,11
9,4,6,0,5,1,3,36,90,11
9,4,4,0,0,0,3,36,90,11
9,4,12,1,1,0,3,36,74,11
9,4,2,0,1,0,3,36,90,11
9,4,12,1,2,0,3,36,67,11
9,4,17,1,4,0,3,36,67,11
10,4,18,1,2,0,4,36,40,11
10,4,1,0,2,0,4,36,90,11
10,4,5,0,4,0,4,36,90,11
10,4,4,0,0,0,4,36,90,11
10,4,10,1,6,1,4,36,77,11
10,4,3,0,4,0,4,36,90,11
10,4,17,1,5,1,4,36,21,11
10,4,2,0,1,0,4,36,90,11
10,4,23,0,2,0,4,36,74,11
11,4,13,1,3,0,4,36,67,11
11,4,20,1,3,0,4,36,100,11
11,4,16,1,5,1,4,36,100,11
11,4,7,1,6,1,4,36,21,11
11,4,5,0,0,0,4,36,21,11
11,4,23,0,3,0,4,36,40,11
11,4,14,1,6,1,4,36,40,11
11,4,10,1,0,0,4,36,40,11
11,4,19,1,3,0,4,36,13,11
11,4,6,0,3,0,4,36,77,11
11,4,4,0,3,0,4,36,132,11
11,4,8,1,5,1,4,36,67,11
11,4,13,1,0,0,4,36,66,11
11,4,11,1,0,0,4,36,40,11
11,4,12,1,3,0,4,36,93,11
11,4,8,1,4,0,4,36,67,11
11,4,7,1,6,1,4,36,67,11
12,1,16,1,3,0,4,36,90,11
12,1,18,1,3,0,4,36,40,11
12,1,16,1,0,0,4,36,77,11
12,1,2,0,1,0,4,36,90,11
12,1,23,0,1,0,4,36,90,11
12,1,19,1,2,0,4,36,40,11
12,1,18,1,3,0,4,36,77,11
12,1,21,0,3,0,4,36,74,11
12,1,23,0,3,0,4,36,90,11
12,1,6,0,4,0,4,36,90,11
12,1,2,0,0,0,4,36,90,11
12,1,13,1,2,0,4,36,90,11
12,1,8,1,6,1,4,36,66,11
12,1,12,1,1,0,4,36,77,11
12,1,4,0,4,0,4,36,90,11
12,1,3,0,5,1,4,36,40,11
12,1,20,1,5,1,4,36,67,11
12,1,10,1,6,1,4,36,40,11
12,1,13,1,3,0,4,36,67,11
12,1,20,1,5,1,4,36,67,11
1,1,5,0,5,1,1,36,14,11
2,1,18,1,6,1,1,36,77,11
2,1,11,1,1,0,1,36,77,11
3,2,11,1,1,0,1,36,77,11
4,2,14,1,2,0,2,36,14,11
8,3,14,1,2,0,3,36,93,11
10,4,21,0,0,0,4,36,111,8
11,4,20,1,6,1,4,36,90,11
12,1,12,1,1,0,4,36,77,8
12,1,12,1,3,0,4,36,77,11
1,1,14,1,5,1,1,36,90,11
1,1,18,1,0,0,1,36,90,11
2,1,18,1,6,1,1,36,77,11
2,1,10,1,6,1,1,36,24,11
2,1,21,0,0,0,1,36,47,11
3,2,14,1,2,0,1,36,77,11
3,2,19,1,0,0,1,36,21,11
3,2,2,0,0,0,1,36,90,11
3,2,20,1,1,0,1,36,77,11
3,2,14,1,4,0,1,36,112,11
4,2,0,0,4,0,2,36,98,11
4,2,23,0,4,0,2,36,132,11
4,2,8,1,5,1,2,36,26,9
4,2,23,0,5,1,2,36,77,11
5,2,20,1,0,0,2,36,112,11
5,2,16,1,0,0,2,36,112,11
6,3,18,1,3,0,2,36,132,11
6,3,18,1,3,0,2,36,132,11
7,3,22,0,3,0,3,36,112,11
8,3,11,1,2,0,3,36,112,11
8,3,19,1,6,1,3,36,132,11
8,3,1,0,0,0,3,36,93,11
8,3,7,1,1,0,3,36,112,11
9,4,20,1,5,1,3,36,90,11
11,4,5,0,0,0,4,36,90,11
12,1,14,1,5,1,4,36,90,11
12,1,15,1,5,1,4,36,90,11
1,1,13,1,5,1,1,36,67,11
1,1,10,1,1,0,1,36,67,11
1,1,17,1,3,0,1,36,40,11
2,1,18,1,2,0,1,36,67,11
2,1,14,1,0,0,1,36,112,11
3,2,18,1,3,0,1,36,115,11
4,2,14,1,5,1,2,36,28,11
4,2,10,1,6,1,2,36,112,11
4,2,1,0,4,0,2,36,90,11
4,2,18,1,3,0,2,36,28,11
8,3,18,1,2,0,3,36,81,11
8,3,13,1,2,0,3,36,85,11
11,4,7,1,0,0,4,36,93,11
12,1,16,1,2,0,4,36,90,11
12,1,6,0,4,0,4,36,90,11
1,1,19,1,5,1,1,36,67,11
1,1,7,1,6,1,1,36,77,11
2,1,20,1,6,1,1,36,40,11
2,1,7,1,4,0,1,36,112,11
3,2,0,0,1,0,1,36,6,11
3,2,17,1,3,0,1,36,77,11
3,2,11,1,5,1,1,36,40,11
4,2,19,1,4,0,2,36,28,11
5,2,16,1,0,0,2,36,112,11
6,3,10,1,0,0,2,36,42,11
7,3,0,0,6,1,3,36,21,11
7,3,9,1,1,0,3,36,112,11
7,3,3,0,5,1,3,36,112,11
7,3,7,1,3,0,3,36,58,11
9,4,11,1,3,0,3,36,90,11
9,4,8,1,3,0,3,36,21,11
10,4,19,1,1,0,4,36,90,11
12,1,21,0,5,1,4,36,77,11
1,1,7,1,6,1,1,30,90,11
2,1,17,1,5,1,1,30,93,11
3,2,15,1,1,0,1,30,90,11
3,2,19,1,4,0,1,30,67,11
3,2,13,1,6,1,1,30,67,11
3,2,7,1,1,0,1,30,90,11
3,2,2,0,1,0,1,30,90,11
4,2,13,1,4,0,2,30,104,11
4,2,12,1,4,0,2,30,21,11
5,2,19,1,6,1,2,30,93,11
5,2,21,0,4,0,2,30,112,11
5,2,10,1,6,1,2,30,77,11
5,2,15,1,1,0,2,30,93,11
6,3,10,1,2,0,2,30,93,11
6,3,18,1,3,0,2,30,67,11
6,3,2,0,4,0,2,30,90,11
6,3,11,1,4,0,2,30,93,11
6,3,13,1,1,0,2,30,93,11
7,3,15,1,0,0,3,30,93,11
8,3,18,1,5,1,3,30,74,11
8,3,15,1,0,0,3,30,13,8
8,3,6,0,4,0,3,30,90,11
8,3,9,1,5,1,3,30,90,11
9,4,13,1,2,0,3,30,67,11
10,4,4,0,6,1,4,30,90,11
10,4,15,1,2,0,4,30,74,11
10,4,22,0,3,0,4,30,90,11
11,4,2,0,1,0,4,30,67,11
11,4,5,0,1,0,4,30,40,11
12,1,8,1,3,0,4,30,90,11
12,1,22,0,0,0,4,30,67,11
12,1,20,1,6,1,4,30,14,11
12,1,14,1,1,0,4,30,90,11
2,1,16,1,5,1,1,30,93,11
3,2,15,1,4,0,1,30,112,11
3,2,2,0,2,0,1,30,59,8
3,2,3,0,1,0,1,30,40,9
4,2,19,1,3,0,2,30,93,11
4,2,20,1,5,1,2,30,19,11
4,2,14,1,3,0,2,30,93,11
5,2,12,1,6,1,2,30,93,11
7,3,14,1,3,0,3,30,93,11
7,3,14,1,4,0,3,30,40,11
8,3,12,1,3,0,3,30,64,11
9,4,18,1,3,0,3,30,58,11
9,4,15,1,1,0,3,30,40,11
12,1,12,1,2,0,4,30,13,11
4,2,21,0,2,0,2,5,28,11
4,2,14,1,6,1,2,5,93,11
7,3,20,1,2,0,3,5,21,11
7,3,16,1,6,1,3,5,77,11
8,3,11,1,4,0,3,5,90,11
9,4,14,1,4,0,3,5,104,11
1,1,23,0,4,0,1,30,132,11
4,2,16,1,5,1,2,30,28,11
5,2,16,1,4,0,2,30,93,11
6,3,14,1,2,0,2,30,77,11
6,3,3,0,0,0,2,30,77,11
6,3,16,1,2,0,2,30,93,11
7,3,13,1,4,0,3,30,90,11
1,1,15,1,4,0,1,30,77,11
1,1,20,1,6,1,1,30,77,9
2,1,23,0,1,0,1,30,26,11
4,2,13,1,3,0,2,30,104,11
5,2,18,1,0,0,2,30,112,11
5,2,21,0,0,0,2,30,112,11
5,2,12,1,0,0,2,30,77,9
6,3,20,1,0,0,2,30,14,11
7,3,14,1,0,0,3,30,93,11
8,3,0,0,2,0,3,30,21,9
10,4,22,0,0,0,4,30,47,11
10,4,14,1,6,1,4,30,81,11
11,4,13,1,1,0,4,30,81,11
12,1,16,1,4,0,4,30,47,9
12,1,18,1,3,0,4,30,93,11
1,1,14,1,4,0,1,30,21,9
2,1,12,1,5,1,1,30,112,11
3,2,6,0,5,1,1,30,40,9
8,3,20,1,1,0,3,30,112,11
8,3,1,0,2,0,3,30,21,9
9,4,9,1,5,1,3,30,112,11
9,4,12,1,2,0,3,30,81,11
10,4,21,0,3,0,4,30,112,11
10,4,2,0,4,0,4,30,112,11
10,4,4,0,0,0,4,30,112,11
12,1,10,1,4,0,4,30,112,11
2,1,1,0,4,0,1,30,112,11
2,1,11,1,0,0,1,30,77,9
3,2,20,1,0,0,1,30,112,11
3,2,9,1,2,0,1,30,21,11
4,2,21,0,4,0,2,30,132,11
4,2,7,1,3,0,2,30,81,11
4,2,12,1,6,1,2,30,132,11
5,2,10,1,6,1,2,30,132,11
5,2,16,1,0,0,2,30,112,11
8,3,20,1,6,1,3,30,13,9
8,3,0,0,0,0,3,30,93,11
9,4,17,1,6,1,3,30,132,11
9,4,13,1,2,0,3,30,132,11
10,4,14,1,0,0,4,30,111,11
11,4,20,1,4,0,4,30,21,11
12,1,16,1,0,0,4,30,77,11
12,1,16,1,4,0,4,30,132,11
1,1,20,1,1,0,1,2,14,11
1,1,16,1,1,0,1,2,93,11
1,1,1,0,1,0,1,2,21,11
1,1,12,1,4,0,1,2,77,11
2,1,13,1,4,0,1,2,28,11
3,2,0,0,0,0,1,2,112,11
4,2,10,1,3,0,2,2,26,11
4,2,11,1,5,1,2,2,58,11
4,2,14,1,2,0,2,2,13,11
5,2,8,1,6,1,2,2,49,11
5,2,13,1,1,0,2,2,93,11
6,3,8,1,6,1,2,2,80,11
6,3,20,1,2,0,2,2,104,11
7,3,14,1,4,0,3,2,14,11
7,3,15,1,0,0,3,2,93,11
7,3,16,1,6,1,3,2,93,11
8,3,12,1,3,0,3,2,125,11
8,3,15,1,4,0,3,2,106,11
10,4,20,1,5,1,4,2,77,9
11,4,17,1,1,0,4,2,21,11
11,4,11,1,6,1,4,2,67,11
12,1,19,1,3,0,4,2,90,11
12,1,3,0,5,1,4,2,40,9
12,1,15,1,5,1,4,2,28,11
12,1,9,1,2,0,4,2,21,11
12,1,17,1,3,0,4,2,21,9
1,1,21,0,3,0,1,2,77,11
2,1,9,1,3,0,1,2,77,11
2,1,22,0,5,1,1,2,77,9
3,2,11,1,1,0,1,2,21,11
4,2,9,1,3,0,2,2,77,11
5,2,22,0,3,0,2,2,89,11
7,3,18,1,6,1,3,2,77,11
8,3,9,1,0,0,3,2,21,11
10,4,7,1,3,0,4,2,74,11
1,1,12,1,3,0,1,5,21,11
1,1,19,1,4,0,1,5,65,9
2,1,15,1,2,0,1,5,77,11
3,2,17,1,5,1,1,5,40,11
5,2,3,0,6,1,2,5,132,11
5,2,9,1,6,1,2,5,93,11
5,2,18,1,6,1,2,5,93,11
5,2,9,1,2,0,2,5,77,11
6,3,16,1,0,0,2,5,14,11
6,3,1,0,3,0,2,5,93,11
7,3,9,1,2,0,3,5,104,11
8,3,21,0,1,0,3,5,93,11
8,3,7,1,4,0,3,5,93,11
9,4,14,1,2,0,3,5,13,11
10,4,16,1,0,0,4,5,77,11
10,4,22,0,4,0,4,5,70,11
10,4,13,1,6,1,4,5,112,11
11,4,5,0,2,0,4,5,93,9
11,4,3,0,2,0,4,5,93,11
11,4,17,1,4,0,4,5,93,11
11,4,10,1,0,0,4,5,40,11
12,1,5,0,4,0,4,5,112,11
12,1,19,1,1,0,4,5,77,11
12,1,8,1,2,0,4,5,112,11
12,1,10,1,0,0,4,5,93,11
5,2,13,1,6,1,2,5,93,11
11,4,5,0,4,0,4,5,77,11
11,4,20,1,5,1,4,5,112,11
12,1,7,1,2,0,4,5,102,11
1,1,9,1,4,0,1,2,77,11
1,1,9,1,6,1,1,2,77,11
1,1,11,1,3,0,1,2,112,11
1,1,11,1,0,0,1,2,90,11
2,1,13,1,0,0,1,2,93,11
2,1,16,1,2,0,1,2,90,11
2,1,7,1,4,0,1,2,74,11
2,1,16,1,4,0,1,2,93,11
4,2,17,1,5,1,2,2,93,9
4,2,12,1,4,0,2,2,112,11
4,2,0,0,3,0,2,2,93,11
4,2,12,1,0,0,2,2,104,11
4,2,13,1,0,0,2,2,93,11
5,2,12,1,6,1,2,2,93,11
5,2,18,1,6,1,2,2,102,11
5,2,13,1,1,0,2,2,93,11
5,2,10,1,2,0,2,2,90,11
5,2,10,1,1,0,2,2,93,11
6,3,0,0,0,0,2,2,67,9
6,3,1,0,2,0,2,2,30,9
7,3,5,0,3,0,3,2,15,8
7,3,0,0,5,1,3,2,8,9
7,3,13,1,6,1,3,2,93,8
7,3,12,1,0,0,3,2,13,8
8,3,18,1,1,0,3,2,93,11
8,3,16,1,2,0,3,2,14,9
8,3,18,1,5,1,3,2,77,11
8,3,4,0,6,1,3,2,74,11
8,3,15,1,2,0,3,2,47,8
9,4,10,1,5,1,3,2,14,11
9,4,7,1,2,0,3,2,112,11
9,4,22,0,0,0,3,2,81,11
9,4,12,1,5,1,3,2,77,11
10,4,11,1,2,0,4,2,74,11
10,4,19,1,3,0,4,2,93,11
11,4,11,1,3,0,4,2,74,11
11,4,4,0,2,0,4,2,40,11
12,1,10,1,5,1,4,2,47,9
12,1,1,0,6,1,4,2,77,11
12,1,0,0,1,0,4,2,13,11
12,1,16,1,3,0,4,2,90,11
1,1,23,0,0,0,1,28,40,11
1,1,4,0,1,0,1,28,30,11
1,1,14,1,2,0,1,28,100,11
1,1,23,0,2,0,1,28,24,11
1,1,3,0,3,0,1,28,100,11
1,1,6,0,6,1,1,28,104,11
1,1,6,0,6,1,1,28,100,11
1,1,3,0,6,1,1,28,100,11
1,1,0,0,0,0,1,28,100,11
1,1,7,1,0,0,1,28,47,8
1,1,12,1,6,1,1,28,87,11
1,1,20,1,1,0,1,28,67,11
1,1,0,0,5,1,1,28,132,11
1,1,0,0,5,1,1,28,132,11
1,1,20,1,5,1,1,28,132,11
2,1,19,1,0,0,1,28,77,11
2,1,23,0,1,0,1,28,132,11
2,1,21,0,2,0,1,28,102,11
2,1,15,1,3,0,1,28,77,11
2,1,0,0,3,0,1,28,77,11
2,1,9,1,5,1,1,28,21,9
2,1,18,1,6,1,1,28,14,11
2,1,3,0,0,0,1,28,132,11
2,1,11,1,0,0,1,28,77,11
2,1,10,1,2,0,1,28,21,11
2,1,11,1,0,0,1,28,21,9
2,1,1,0,1,0,1,28,132,11
2,1,4,0,2,0,1,28,47,11
2,1,0,0,4,0,1,28,104,11
3,2,20,1,5,1,1,28,77,9
3,2,15,1,1,0,1,28,132,11
3,2,18,1,1,0,1,28,104,11
3,2,8,1,5,1,1,28,77,11
3,2,0,0,2,0,1,28,21,11
3,2,2,0,6,1,1,28,21,9
3,2,15,1,6,1,1,28,104,11
3,2,12,1,1,0,1,28,77,11
4,2,13,1,5,1,2,28,93,11
4,2,18,1,6,1,2,28,93,11
4,2,6,0,1,0,2,28,21,8
4,2,20,1,4,0,2,28,77,11
4,2,13,1,4,0,2,28,93,11
5,2,10,1,6,1,2,28,93,11
5,2,23,0,6,1,2,28,109,9
5,2,1,0,2,0,2,28,77,9
5,2,17,1,5,1,2,28,74,9
5,2,22,0,6,1,2,28,104,11
5,2,14,1,4,0,2,28,47,9
5,2,13,1,6,1,2,28,67,11
5,2,13,1,0,0,2,28,67,11
5,2,20,1,4,0,2,28,74,11
5,2,10,1,0,0,2,28,21,11
5,2,15,1,0,0,2,28,93,11
5,2,22,0,0,0,2,28,104,11
6,3,13,1,2,0,2,28,77,11
6,3,22,0,3,0,2,28,49,11
6,3,18,1,6,1,2,28,67,11
6,3,12,1,0,0,2,28,93,11
6,3,16,1,2,0,2,28,132,11
6,3,15,1,3,0,2,28,104,11
6,3,21,0,4,0,2,28,132,11
6,3,20,1,5,1,2,28,77,11
6,3,14,1,5,1,2,28,74,11
6,3,9,1,6,1,2,28,77,11
6,3,22,0,0,0,2,28,104,11
6,3,10,1,6,1,2,28,93,11
6,3,21,0,1,0,2,28,21,11
6,3,18,1,1,0,2,28,104,11
7,3,11,1,3,0,3,28,93,11
7,3,6,0,5,1,3,28,59,11
7,3,16,1,4,0,3,28,90,11
7,3,22,0,5,1,3,28,40,11
7,3,5,0,5,1,3,28,132,11
7,3,10,1,3,0,3,28,21,11
7,3,13,1,5,1,3,28,67,9
7,3,11,1,6,1,3,28,93,11
7,3,9,1,0,0,3,28,67,11
7,3,12,1,0,0,3,28,104,11
7,3,15,1,0,0,3,28,74,9
7,3,9,1,4,0,3,28,59,11
7,3,10,1,6,1,3,28,74,11
8,3,17,1,0,0,3,28,59,11
8,3,20,1,0,0,3,28,104,11
8,3,12,1,2,0,3,28,93,11
8,3,12,1,6,1,3,28,77,11
8,3,14,1,2,0,3,28,74,11
8,3,11,1,4,0,3,28,132,11
8,3,10,1,0,0,3,28,67,11
8,3,13,1,3,0,3,28,14,9
8,3,20,1,4,0,3,28,93,11
8,3,12,1,5,1,3,28,49,11
8,3,14,1,0,0,3,28,104,11
8,3,14,1,2,0,3,28,93,11
8,3,23,0,2,0,3,28,93,11
9,4,22,0,4,0,3,28,132,11
9,4,15,1,5,1,3,28,93,11
9,4,7,1,1,0,3,28,93,11
9,4,11,1,2,0,3,28,132,11
9,4,20,1,3,0,3,28,93,11
9,4,9,1,0,0,3,28,74,11
9,4,18,1,0,0,3,28,93,11
9,4,16,1,3,0,3,28,93,11
9,4,11,1,3,0,3,28,104,11
9,4,20,1,4,0,3,28,90,11
9,4,23,0,0,0,3,28,90,11
9,4,0,0,1,0,3,28,104,11
10,4,23,0,5,1,4,28,90,11
10,4,4,0,0,0,4,28,90,11
10,4,10,1,1,0,4,28,115,11
10,4,13,1,2,0,4,28,93,11
10,4,10,1,6,1,4,28,77,11
10,4,15,1,2,0,4,28,93,11
10,4,23,0,3,0,4,28,58,11
10,4,4,0,4,0,4,28,121,11
10,4,13,1,2,0,4,28,77,9
10,4,18,1,3,0,4,28,60,11
10,4,21,0,3,0,4,28,104,11
10,4,2,0,0,0,4,28,21,9
10,4,19,1,2,0,4,28,104,11
10,4,16,1,3,0,4,28,114,11
10,4,14,1,4,0,4,28,127,11
10,4,20,1,4,0,4,28,132,11
10,4,15,1,5,1,4,28,93,11
10,4,19,1,5,1,4,28,132,11
10,4,10,1,5,1,4,28,21,11
11,4,14,1,4,0,4,28,70,11
11,4,19,1,3,0,4,28,132,11
11,4,22,0,4,0,4,28,21,9
11,4,6,0,0,0,4,28,78,11
11,4,20,1,2,0,4,28,77,11
11,4,21,0,3,0,4,28,104,11
11,4,19,1,3,0,4,28,104,11
11,4,14,1,2,0,4,28,21,9
12,1,23,0,3,0,4,28,132,11
12,1,22,0,5,1,4,28,132,11
12,1,15,1,6,1,4,28,132,11
12,1,19,1,6,1,4,28,77,11
12,1,20,1,2,0,4,28,55,11
12,1,11,1,2,0,4,28,132,11
12,1,1,0,4,0,4,28,112,11
12,1,14,1,4,0,4,28,59,11
12,1,19,1,4,0,4,28,93,11
12,1,21,0,4,0,4,28,132,11
12,1,2,0,4,0,4,28,21,11
12,1,12,1,5,1,4,28,67,11
1,1,17,1,1,0,1,28,132,11
3,2,13,1,4,0,1,28,93,11
3,2,18,1,4,0,1,28,21,11
3,2,17,1,6,1,1,28,93,11
4,2,16,1,1,0,2,28,93,11
4,2,19,1,6,1,2,28,130,11
4,2,11,1,5,1,2,28,93,11
4,2,18,1,6,1,2,28,93,11
4,2,14,1,0,0,2,28,93,11
6,3,8,1,3,0,2,28,77,9
6,3,11,1,3,0,2,28,93,11
6,3,7,1,2,0,2,28,14,11
6,3,18,1,3,0,2,28,93,11
6,3,15,1,4,0,2,28,28,11
7,3,17,1,0,0,3,28,86,11
7,3,17,1,2,0,3,28,78,11
8,3,11,1,6,1,3,28,93,11
8,3,10,1,2,0,3,28,93,11
8,3,22,0,1,0,3,28,67,11
8,3,2,0,3,0,3,28,93,11
10,4,17,1,3,0,4,28,129,11
11,4,12,1,2,0,4,28,93,11
11,4,18,1,4,0,4,28,93,11
12,1,20,1,5,1,4,28,77,9
12,1,13,1,1,0,4,28,93,11
1,1,17,1,3,0,1,28,104,11
1,1,17,1,3,0,1,28,104,11
1,1,16,1,6,1,1,28,100,11
2,1,19,1,5,1,1,28,90,11
3,2,9,1,6,1,1,28,77,11
3,2,17,1,1,0,1,28,74,11
5,2,14,1,4,0,2,28,21,11
5,2,20,1,5,1,2,28,112,11
5,2,13,1,2,0,2,28,93,11
6,3,16,1,2,0,2,28,104,11
6,3,20,1,5,1,2,28,104,11
6,3,8,1,1,0,2,28,104,11
6,3,20,1,1,0,2,28,104,11
6,3,0,0,6,1,2,28,14,11
6,3,11,1,0,0,2,28,112,11
6,3,10,1,3,0,2,28,40,11
6,3,14,1,1,0,2,28,93,11
7,3,12,1,5,1,3,28,104,11
7,3,12,1,5,1,3,28,28,11
7,3,17,1,0,0,3,28,104,11
7,3,1,0,2,0,3,28,77,11
7,3,4,0,3,0,3,28,21,8
7,3,19,1,6,1,3,28,93,11
7,3,14,1,1,0,3,28,93,11
7,3,14,1,0,0,3,28,67,11
7,3,19,1,0,0,3,28,93,11
7,3,18,1,3,0,3,28,93,9
8,3,18,1,3,0,3,28,93,11
8,3,21,0,1,0,3,28,40,11
8,3,21,0,1,0,3,28,104,11
9,4,19,1,6,1,3,28,104,11
9,4,12,1,4,0,3,28,59,8
10,4,10,1,0,0,4,28,104,11
10,4,6,0,4,0,4,28,49,11
10,4,18,1,5,1,4,28,93,11
12,1,20,1,5,1,4,28,90,11
12,1,13,1,5,1,4,28,21,9
12,1,2,0,2,0,4,28,90,11
12,1,5,0,6,1,4,28,90,11
12,1,4,0,2,0,4,28,112,11
12,1,13,1,5,1,4,28,90,11
5,2,1,0,1,0,2,28,77,11
8,3,16,1,6,1,3,28,93,11
9,4,14,1,1,0,3,28,112,11
1,1,2,0,1,0,1,46,90,11
1,1,0,0,2,0,1,46,90,11
1,1,1,0,0,0,1,46,104,11
1,1,17,1,3,0,1,46,3,11
1,1,19,1,2,0,1,46,40,11
1,1,20,1,2,0,1,46,40,11
1,1,20,1,5,1,1,46,90,11
2,1,17,1,5,1,1,46,90,11
2,1,21,0,6,1,1,46,74,11
2,1,7,1,2,0,1,46,111,8
2,1,13,1,6,1,1,46,93,11
4,2,15,1,5,1,2,46,13,11
4,2,19,1,4,0,2,46,26,11
4,2,21,0,3,0,2,46,40,11
5,2,11,1,2,0,2,46,67,11
5,2,10,1,5,1,2,46,93,11
5,2,15,1,5,1,2,46,93,11
5,2,10,1,5,1,2,46,74,11
5,2,1,0,6,1,2,46,104,11
5,2,18,1,0,0,2,46,104,11
5,2,19,1,0,0,2,46,104,11
6,3,18,1,3,0,2,46,93,11
6,3,16,1,3,0,2,46,104,11
6,3,20,1,0,0,2,46,36,11
6,3,11,1,3,0,2,46,93,11
6,3,20,1,2,0,2,46,67,11
6,3,14,1,3,0,2,46,67,9
6,3,12,1,2,0,2,46,104,11
6,3,15,1,4,0,2,46,22,11
7,3,0,0,2,0,3,46,77,8
8,3,21,0,4,0,3,46,77,11
8,3,16,1,0,0,3,46,26,11
8,3,6,0,2,0,3,46,74,8
9,4,17,1,5,1,3,46,77,11
9,4,6,0,3,0,3,46,14,11
10,4,6,0,6,1,4,46,77,11
10,4,12,1,2,0,4,46,77,11
11,4,13,1,3,0,4,46,74,11
11,4,18,1,6,1,4,46,74,11
11,4,12,1,6,1,4,46,40,11
11,4,13,1,6,1,4,46,2,11
12,1,19,1,5,1,4,46,67,11
12,1,9,1,2,0,4,46,109,11
12,1,5,0,3,0,4,46,67,11
12,1,11,1,2,0,4,46,49,11
12,1,17,1,5,1,4,46,100,11
1,1,16,1,3,0,1,46,93,9
1,1,11,1,0,0,1,46,77,11
1,1,0,0,2,0,1,46,74,11
2,1,13,1,1,0,1,46,47,8
4,2,7,1,2,0,2,46,47,11
4,2,15,1,0,0,2,46,74,11
5,2,0,0,0,0,2,46,74,9
6,3,7,1,3,0,2,46,74,11
6,3,18,1,4,0,2,46,74,11
7,3,10,1,0,0,3,46,93,9
7,3,17,1,6,1,3,46,77,11
8,3,15,1,4,0,3,46,132,11
9,4,8,1,1,0,3,46,40,11
9,4,20,1,1,0,3,46,105,11
9,4,18,1,1,0,3,46,111,9
10,4,21,0,4,0,4,46,112,11
10,4,1,0,3,0,4,46,77,11
10,4,0,0,6,1,4,46,13,11
1,1,16,1,1,0,1,46,77,11
2,1,15,1,0,0,1,46,77,11
3,2,19,1,4,0,1,46,77,11
5,2,23,0,4,0,2,46,14,9
5,2,1,0,4,0,2,46,15,9
6,3,15,1,4,0,2,46,74,11
7,3,17,1,4,0,3,46,93,11
8,3,10,1,5,1,3,46,77,11
9,4,12,1,3,0,3,46,14,11
9,4,2,0,3,0,3,46,49,11
10,4,21,0,2,0,4,46,24,11
10,4,4,0,0,0,4,46,121,11
10,4,6,0,0,0,4,46,74,11
11,4,21,0,6,1,4,46,74,11
12,1,20,1,5,1,4,46,77,11
1,1,6,0,1,0,1,46,104,11
2,1,20,1,1,0,1,46,26,8
4,2,10,1,2,0,2,46,11,11
5,2,14,1,0,0,2,46,77,8
6,3,17,1,4,0,2,46,74,8
8,3,2,0,0,0,3,46,47,11
10,4,7,1,3,0,4,46,47,11
12,1,17,1,4,0,4,46,67,8
12,1,18,1,1,0,4,46,77,11
1,1,20,1,2,0,1,46,40,11
1,1,13,1,2,0,1,46,77,11
2,1,18,1,6,1,1,46,104,11
2,1,18,1,0,0,1,46,104,11
2,1,12,1,6,1,1,46,77,11
4,2,14,1,5,1,2,46,93,11
5,2,20,1,2,0,2,46,93,11
10,4,16,1,3,0,4,46,104,11
11,4,12,1,1,0,4,46,104,11
12,1,8,1,1,0,4,46,77,11
12,1,0,0,1,0,4,46,77,11
4,2,19,1,6,1,2,46,74,8
5,2,18,1,0,0,2,46,67,11
5,2,15,1,6,1,2,46,93,11
5,2,18,1,1,0,2,46,24,8
7,3,10,1,6,1,3,46,74,8
7,3,16,1,1,0,3,46,18,11
9,4,15,1,3,0,3,46,93,11
10,4,10,1,5,1,4,46,111,9
1,1,14,1,4,0,1,46,93,11
1,1,21,0,3,0,1,46,77,11
5,2,3,0,6,1,2,46,13,9
5,2,0,0,5,1,2,46,111,9
8,3,6,0,4,0,3,46,74,11
9,4,1,0,1,0,3,46,111,8
9,4,5,0,4,0,3,46,65,11
10,4,19,1,4,0,4,46,77,11
11,4,12,1,1,0,4,46,74,11
12,1,13,1,6,1,4,46,77,11
12,1,0,0,0,0,4,46,100,11
3,2,12,1,1,0,1,46,58,11
4,2,17,1,2,0,2,46,3,11
6,3,14,1,4,0,2,46,90,11
9,4,12,1,6,1,3,46,24,11
11,4,17,1,6,1,4,46,65,11
1,1,8,1,0,0,1,46,132,11
2,1,13,1,1,0,1,46,112,11
2,1,15,1,1,0,1,46,104,11
3,2,19,1,3,0,1,46,77,11
4,2,13,1,1,0,2,46,67,11
5,2,10,1,6,1,2,46,21,11
6,3,20,1,2,0,2,46,77,9
7,3,14,1,3,0,3,46,93,11
7,3,13,1,6,1,3,46,77,11
8,3,13,1,2,0,3,46,93,11
11,4,17,1,2,0,4,46,77,11
11,4,1,0,2,0,4,46,77,8
11,4,1,0,2,0,4,46,77,11
12,1,4,0,4,0,4,46,40,9
1,1,16,1,2,0,1,13,90,11
1,1,13,1,6,1,1,13,77,9
2,1,15,1,3,0,1,13,90,11
3,2,22,0,0,0,1,13,90,11
3,2,18,1,1,0,1,13,67,11
4,2,16,1,4,0,2,13,77,11
5,2,7,1,3,0,2,13,132,11
5,2,17,1,6,1,2,13,67,11
7,3,14,1,2,0,3,13,93,11
8,3,14,1,0,0,3,13,93,11
8,3,6,0,3,0,3,13,132,11
9,4,16,1,1,0,3,13,93,9
10,4,12,1,6,1,4,13,111,11
10,4,16,1,0,0,4,13,132,11
11,4,8,1,2,0,4,13,130,11
11,4,12,1,1,0,4,13,132,11
11,4,0,0,2,0,4,13,67,11
11,4,19,1,2,0,4,13,67,11
12,1,4,0,0,0,4,13,77,9
12,1,13,1,4,0,4,13,132,11
12,1,10,1,5,1,4,13,90,11
2,1,19,1,2,0,1,48,130,11
2,1,18,1,1,0,1,48,21,11
5,2,19,1,6,1,2,48,106,11
5,2,21,0,0,0,2,48,40,11
8,3,16,1,5,1,3,48,49,11
8,3,11,1,0,0,3,48,74,11
9,4,1,0,4,0,3,48,104,11
10,4,11,1,5,1,4,48,100,11
10,4,19,1,3,0,4,48,93,11
10,4,18,1,2,0,4,48,77,11
10,4,17,1,6,1,4,48,40,11
11,4,8,1,0,0,4,48,93,11
11,4,10,1,0,0,4,48,93,11
11,4,17,1,4,0,4,48,104,11
11,4,16,1,4,0,4,48,77,11
11,4,21,0,5,1,4,48,132,11
12,1,23,0,3,0,4,48,132,11
12,1,16,1,6,1,4,48,40,11
12,1,14,1,6,1,4,48,90,11
12,1,5,0,4,0,4,48,102,11
12,1,16,1,5,1,4,48,104,11
12,1,13,1,3,0,4,48,77,11
12,1,13,1,4,0,4,48,21,11
12,1,20,1,5,1,4,48,77,11
1,1,0,0,3,0,1,48,90,11
3,2,12,1,5,1,1,48,40,11
1,1,5,0,6,1,1,48,100,11
1,1,20,1,4,0,1,48,77,11
2,1,18,1,5,1,1,48,77,11
3,2,19,1,2,0,1,48,14,11
4,2,4,0,4,0,2,48,104,11
4,2,23,0,4,0,2,48,77,11
10,4,11,1,1,0,4,48,93,11
11,4,13,1,6,1,4,48,77,11
12,1,8,1,5,1,4,48,69,11
1,1,16,1,2,0,1,48,104,11
1,1,10,1,0,0,1,48,90,11
1,1,22,0,3,0,1,48,40,11
2,1,18,1,4,0,1,48,40,11
3,2,6,0,1,0,1,48,69,9
4,2,23,0,0,0,2,48,93,11
4,2,13,1,3,0,2,48,104,11
7,3,13,1,6,1,3,48,14,9
8,3,4,0,2,0,3,48,104,11
8,3,3,0,6,1,3,48,104,11
8,3,22,0,0,0,3,48,104,11
8,3,6,0,1,0,3,48,104,11
9,4,17,1,5,1,3,48,40,11
10,4,15,1,2,0,4,48,104,11
10,4,18,1,4,0,4,48,104,11
10,4,15,1,3,0,4,48,93,11
10,4,19,1,3,0,4,48,93,11
10,4,20,1,3,0,4,48,111,11
10,4,9,1,1,0,4,48,14,11
12,1,23,0,4,0,4,48,90,11
12,1,13,1,0,0,4,48,100,11
12,1,18,1,2,0,4,48,67,11
12,1,14,1,4,0,4,48,90,11
12,1,5,0,1,0,4,48,21,11
1,1,2,0,5,1,1,7,132,11
1,1,12,1,2,0,1,7,65,11
2,1,5,0,3,0,1,7,67,11
2,1,8,1,6,1,1,7,60,9
2,1,13,1,6,1,1,7,104,11
3,2,9,1,4,0,1,7,40,11
3,2,5,0,2,0,1,7,90,11
3,2,6,0,2,0,1,7,90,11
3,2,4,0,2,0,1,7,90,11
3,2,13,1,6,1,1,7,87,11
3,2,15,1,1,0,1,7,93,11
4,2,11,1,1,0,2,7,77,11
4,2,11,1,2,0,2,7,93,11
4,2,7,1,3,0,2,7,8,11
4,2,4,0,3,0,2,7,90,11
5,2,22,0,1,0,2,7,132,11
5,2,3,0,1,0,2,7,132,11
5,2,20,1,2,0,2,7,77,11
5,2,16,1,2,0,2,7,104,11
5,2,16,1,2,0,2,7,93,11
5,2,20,1,2,0,2,7,65,11
5,2,12,1,4,0,2,7,77,11
5,2,5,0,5,1,2,7,67,11
6,3,9,1,4,0,2,7,93,11
6,3,10,1,4,0,2,7,93,11
6,3,12,1,6,1,2,7,40,11
6,3,16,1,5,1,2,7,131,11
6,3,17,1,5,1,2,7,104,11
7,3,3,0,1,0,3,7,132,11
7,3,22,0,1,0,3,7,93,9
7,3,13,1,4,0,3,7,21,11
7,3,11,1,6,1,3,7,80,11
7,3,19,1,2,0,3,7,93,11
7,3,9,1,3,0,3,7,93,11
7,3,15,1,5,1,3,7,93,11
8,3,12,1,5,1,3,7,93,11
8,3,11,1,1,0,3,7,77,11
8,3,16,1,0,0,3,7,3,11
8,3,15,1,0,0,3,7,58,11
8,3,12,1,1,0,3,7,93,11
8,3,14,1,1,0,3,7,93,11
9,4,13,1,2,0,3,7,40,11
9,4,18,1,6,1,3,7,93,11
9,4,12,1,5,1,3,7,104,11
9,4,20,1,1,0,3,7,106,11
10,4,5,0,0,0,4,7,74,11
10,4,18,1,0,0,4,7,93,11
10,4,14,1,5,1,4,7,26,11
10,4,23,0,1,0,4,7,67,11
10,4,23,0,5,1,4,7,77,9
11,4,18,1,1,0,4,7,104,11
11,4,2,0,2,0,4,7,77,11
12,1,22,0,2,0,4,7,21,11
12,1,16,1,0,0,4,7,74,11
12,1,19,1,2,0,4,7,77,11
12,1,19,1,2,0,4,7,77,11
1,1,19,1,3,0,1,7,1,11
2,1,5,0,0,0,1,7,100,11
2,1,6,0,0,0,1,7,100,11
3,2,17,1,4,0,1,7,81,9
3,2,2,0,1,0,1,7,21,11
3,2,3,0,1,0,1,7,21,11
4,2,13,1,1,0,2,7,93,11
4,2,9,1,4,0,2,7,96,9
4,2,16,1,6,1,2,7,24,11
4,2,12,1,3,0,2,7,24,11
5,2,15,1,3,0,2,7,21,11
5,2,8,1,6,1,2,7,13,9
5,2,5,0,1,0,2,7,21,11
5,2,16,1,2,0,2,7,93,11
5,2,4,0,2,0,2,7,21,11
5,2,22,0,2,0,2,7,21,11
5,2,18,1,5,1,2,7,21,11
5,2,19,1,0,0,2,7,21,11
6,3,3,0,4,0,2,7,93,11
7,3,14,1,6,1,3,7,9,11
7,3,8,1,6,1,3,7,14,11
7,3,4,0,2,0,3,7,77,11
7,3,17,1,5,1,3,7,132,11
7,3,21,0,6,1,3,7,24,11
7,3,18,1,1,0,3,7,93,11
7,3,15,1,2,0,3,7,24,11
8,3,12,1,0,0,3,7,93,11
8,3,13,1,2,0,3,7,93,11
8,3,8,1,2,0,3,7,21,11
8,3,14,1,0,0,3,7,93,11
8,3,23,0,1,0,3,7,90,11
8,3,17,1,1,0,3,7,13,11
9,4,6,0,2,0,3,7,112,11
9,4,0,0,3,0,3,7,91,11
9,4,1,0,2,0,3,7,40,9
9,4,18,1,1,0,3,7,93,11
9,4,1,0,2,0,3,7,40,11
9,4,5,0,2,0,3,7,89,8
9,4,16,1,6,1,3,7,96,8
10,4,9,1,1,0,4,7,21,11
10,4,11,1,1,0,4,7,112,11
10,4,16,1,5,1,4,7,77,11
11,4,9,1,3,0,4,7,111,11
12,1,20,1,5,1,4,7,77,11
12,1,23,0,5,1,4,7,21,11
12,1,10,1,1,0,4,7,24,11
12,1,13,1,1,0,4,7,90,11
12,1,18,1,3,0,4,7,47,9
1,1,0,0,1,0,1,7,128,11
2,1,0,0,0,0,1,7,21,11
2,1,16,1,1,0,1,7,93,11
2,1,15,1,2,0,1,7,58,8
2,1,0,0,3,0,1,7,93,11
2,1,4,0,6,1,1,7,24,8
3,2,16,1,2,0,1,7,24,8
3,2,15,1,0,0,1,7,93,11
4,2,15,1,5,1,2,7,77,8
4,2,9,1,2,0,2,7,78,11
4,2,16,1,4,0,2,7,74,8
4,2,3,0,0,0,2,7,93,8
4,2,16,1,2,0,2,7,28,11
5,2,17,1,6,1,2,7,93,11
5,2,13,1,2,0,2,7,104,11
5,2,15,1,3,0,2,7,93,11
5,2,14,1,1,0,2,7,28,11
6,3,19,1,6,1,2,7,129,11
6,3,22,0,5,1,2,7,78,11
6,3,16,1,6,1,2,7,77,11
6,3,16,1,2,0,2,7,74,11
6,3,11,1,6,1,2,7,104,11
7,3,11,1,1,0,3,7,93,11
7,3,20,1,5,1,3,7,81,11
7,3,21,0,0,0,3,7,28,11
7,3,9,1,4,0,3,7,104,11
7,3,2,0,4,0,3,7,77,8
8,3,20,1,6,1,3,7,23,11
8,3,17,1,0,0,3,7,93,11
8,3,22,0,0,0,3,7,93,11
8,3,14,1,1,0,3,7,77,8
9,4,9,1,0,0,3,7,112,11
9,4,17,1,4,0,3,7,112,11
10,4,14,1,5,1,4,7,28,9
10,4,18,1,1,0,4,7,104,11
11,4,12,1,2,0,4,7,93,11
11,4,7,1,4,0,4,7,106,11
11,4,0,0,6,1,4,7,132,11
12,1,6,0,1,0,4,7,118,11
12,1,14,1,5,1,4,7,93,11
12,1,8,1,1,0,4,7,74,11
11,4,13,1,1,0,4,7,40,8
11,4,16,1,0,0,4,7,74,11
1,1,14,1,4,0,1,12,72,11
1,1,0,0,6,1,1,12,40,11
1,1,10,1,6,1,1,12,77,11
1,1,17,1,2,0,1,12,67,11
1,1,0,0,0,0,1,12,100,11
1,1,6,0,5,1,1,12,21,11
2,1,21,0,6,1,1,12,77,11
2,1,22,0,1,0,1,12,67,11
2,1,19,1,2,0,1,12,55,11
2,1,18,1,6,1,1,12,40,11
2,1,12,1,3,0,1,12,80,11
3,2,19,1,4,0,1,12,49,11
3,2,10,1,6,1,1,12,77,11
3,2,12,1,2,0,1,12,21,11
3,2,17,1,4,0,1,12,93,11
3,2,17,1,1,0,1,12,77,11
4,2,3,0,5,1,2,12,21,11
4,2,3,0,2,0,2,12,21,11
4,2,11,1,2,0,2,12,21,11
4,2,0,0,5,1,2,12,77,11
4,2,0,0,2,0,2,12,21,11
4,2,13,1,6,1,2,12,100,11
4,2,13,1,0,0,2,12,14,9
4,2,14,1,5,1,2,12,77,11
5,2,15,1,6,1,2,12,93,11
5,2,20,1,6,1,2,12,73,11
5,2,1,0,1,0,2,12,77,11
5,2,17,1,4,0,2,12,15,11
5,2,18,1,4,0,2,12,40,11
5,2,15,1,4,0,2,12,86,11
5,2,8,1,4,0,2,12,40,11
5,2,15,1,6,1,2,12,100,11
6,3,3,0,5,1,2,12,90,11
6,3,5,0,0,0,2,12,100,11
7,3,18,1,6,1,3,12,104,11
7,3,16,1,2,0,3,12,93,11
7,3,12,1,4,0,3,12,93,11
7,3,23,0,4,0,3,12,67,11
7,3,17,1,6,1,3,12,93,11
7,3,21,0,6,1,3,12,74,11
7,3,14,1,0,0,3,12,74,11
7,3,19,1,1,0,3,12,14,11
7,3,19,1,1,0,3,12,40,11
7,3,18,1,2,0,3,12,21,11
8,3,8,1,5,1,3,12,112,11
8,3,11,1,5,1,3,12,112,11
8,3,2,0,6,1,3,12,93,11
8,3,15,1,0,0,3,12,93,11
8,3,20,1,2,0,3,12,67,11
9,4,14,1,3,0,3,12,40,11
9,4,12,1,4,0,3,12,93,11
9,4,8,1,5,1,3,12,21,11
9,4,13,1,5,1,3,12,93,11
9,4,16,1,5,1,3,12,93,11
9,4,3,0,6,1,3,12,14,9
10,4,17,1,3,0,4,12,9,11
10,4,17,1,2,0,4,12,40,11
10,4,8,1,4,0,4,12,40,11
10,4,12,1,4,0,4,12,93,11
10,4,4,0,2,0,4,12,74,11
10,4,18,1,2,0,4,12,106,11
11,4,18,1,0,0,4,12,13,11
11,4,18,1,2,0,4,12,40,11
12,1,17,1,5,1,4,12,90,11
12,1,0,0,6,1,4,12,21,11
12,1,19,1,5,1,4,12,40,11
12,1,6,0,6,1,4,12,77,11
12,1,22,0,4,0,4,12,67,11
12,1,3,0,6,1,4,12,90,11
12,1,22,0,0,0,4,12,31,11
12,1,13,1,5,1,4,12,40,11
12,1,21,0,5,1,4,12,69,11
1,1,1,0,2,0,1,12,100,11
1,1,19,1,5,1,1,12,100,11
1,1,9,1,1,0,1,12,100,11
1,1,16,1,4,0,1,12,21,11
4,2,4,0,0,0,2,12,100,11
8,3,19,1,2,0,3,12,21,11
8,3,18,1,6,1,3,12,77,11
10,4,15,1,1,0,4,12,40,11
1,1,12,1,6,1,1,12,77,11
3,2,10,1,5,1,1,12,21,11
5,2,5,0,4,0,2,12,14,11
5,2,3,0,5,1,2,12,21,11
6,3,8,1,6,1,2,12,21,11
8,3,13,1,6,1,3,12,28,11
9,4,20,1,1,0,3,12,36,11
9,4,21,0,1,0,3,12,112,11
9,4,23,0,1,0,3,12,112,11
12,1,18,1,3,0,4,12,122,11
6,3,17,1,1,0,2,12,21,11
8,3,0,0,4,0,3,12,112,11
9,4,23,0,1,0,3,12,112,11
11,4,23,0,6,1,4,12,40,11
12,1,19,1,2,0,4,12,90,11
2,1,16,1,6,1,1,12,67,11
5,2,15,1,0,0,2,12,65,11
5,2,13,1,5,1,2,12,93,11
7,3,16,1,4,0,3,12,40,9
7,3,19,1,6,1,3,12,67,11
8,3,4,0,2,0,3,12,93,11
10,4,12,1,3,0,4,12,90,11
12,1,1,0,6,1,4,12,90,11
11,4,15,1,2,0,4,12,14,11
12,1,18,1,2,0,4,12,77,11
4,2,21,0,4,0,2,12,14,9
7,3,21,0,5,1,3,12,111,9
7,3,8,1,1,0,3,12,112,11
8,3,2,0,2,0,3,12,73,11
9,4,14,1,2,0,3,12,104,11
12,1,9,1,5,1,4,12,111,11
1,1,14,1,6,1,1,29,93,11
1,1,12,1,3,0,1,29,40,11
1,1,10,1,5,1,1,29,24,11
2,1,6,0,3,0,1,29,77,11
2,1,13,1,0,0,1,29,14,11
3,2,13,1,3,0,1,29,77,11
3,2,13,1,0,0,1,29,77,9
4,2,22,0,4,0,2,29,14,11
4,2,5,0,6,1,2,29,104,11
4,2,15,1,3,0,2,29,14,11
4,2,23,0,5,1,2,29,104,9
4,2,9,1,6,1,2,29,93,11
4,2,15,1,6,1,2,29,40,11
4,2,20,1,5,1,2,29,93,11
5,2,11,1,5,1,2,29,93,11
5,2,14,1,2,0,2,29,77,11
5,2,23,0,5,1,2,29,93,11
5,2,20,1,3,0,2,29,132,11
5,2,11,1,3,0,2,29,104,11
6,3,14,1,2,0,2,29,93,11
6,3,23,0,3,0,2,29,93,11
6,3,20,1,5,1,2,29,93,11
6,3,16,1,6,1,2,29,132,9
6,3,11,1,1,0,2,29,93,11
6,3,19,1,2,0,2,29,93,11
6,3,8,1,3,0,2,29,93,11
6,3,21,0,3,0,2,29,21,11
6,3,10,1,0,0,2,29,90,11
6,3,20,1,2,0,2,29,90,11
6,3,21,0,0,0,2,29,77,11
6,3,14,1,5,1,2,29,74,11
7,3,9,1,4,0,3,29,93,11
7,3,19,1,5,1,3,29,77,11
7,3,12,1,1,0,3,29,74,11
7,3,0,0,0,0,3,29,104,11
7,3,7,1,0,0,3,29,90,11
7,3,10,1,3,0,3,29,93,11
7,3,2,0,4,0,3,29,93,11
7,3,19,1,5,1,3,29,67,11
7,3,22,0,6,1,3,29,93,9
7,3,3,0,1,0,3,29,93,11
7,3,9,1,3,0,3,29,93,11
8,3,14,1,6,1,3,29,77,11
8,3,20,1,3,0,3,29,93,11
8,3,9,1,5,1,3,29,129,11
8,3,11,1,0,0,3,29,21,11
8,3,0,0,0,0,3,29,93,11
9,4,12,1,0,0,3,29,40,11
9,4,11,1,0,0,3,29,77,11
10,4,19,1,6,1,4,29,93,11
10,4,8,1,1,0,4,29,14,9
10,4,9,1,1,0,4,29,93,11
10,4,14,1,2,0,4,29,93,11
10,4,17,1,4,0,4,29,86,11
10,4,8,1,6,1,4,29,93,11
11,4,16,1,2,0,4,29,93,8
11,4,17,1,1,0,4,29,86,8
11,4,16,1,0,0,4,29,74,11
12,1,11,1,4,0,4,29,93,11
12,1,18,1,3,0,4,29,14,11
1,1,11,1,0,0,1,29,77,11
6,3,21,0,2,0,2,29,77,11
6,3,11,1,5,1,2,29,74,11
8,3,16,1,4,0,3,29,93,11
8,3,22,0,1,0,3,29,87,11
10,4,1,0,3,0,4,29,61,9
3,2,18,1,1,0,1,29,93,11
3,2,11,1,2,0,1,29,129,11
3,2,20,1,3,0,1,29,21,11
3,2,19,1,4,0,1,29,93,11
3,2,12,1,3,0,1,29,36,11
3,2,11,1,5,1,1,29,40,11
3,2,11,1,5,1,1,29,40,11
3,2,12,1,3,0,1,29,104,11
3,2,12,1,3,0,1,29,14,11
4,2,11,1,5,1,2,29,129,11
4,2,12,1,2,0,2,29,93,11
5,2,15,1,6,1,2,29,93,11
5,2,9,1,2,0,2,29,14,11
5,2,19,1,4,0,2,29,93,11
7,3,9,1,5,1,3,29,93,11
8,3,1,0,1,0,3,29,104,11
8,3,14,1,3,0,3,29,93,11
8,3,11,1,4,0,3,29,93,11
8,3,23,0,4,0,3,29,112,11
11,4,10,1,3,0,4,29,90,11
11,4,4,0,5,1,4,29,13,9
11,4,16,1,1,0,4,29,74,11
12,1,15,1,4,0,4,29,14,11
6,3,2,0,0,0,2,29,49,11
7,3,23,0,0,0,3,29,21,11
10,4,18,1,0,0,4,29,90,11
11,4,0,0,1,0,4,29,24,11
12,1,14,1,0,0,4,29,104,11
2,1,10,1,3,0,1,29,86,11
3,2,13,1,3,0,1,29,93,8
6,3,12,1,3,0,2,29,93,11
7,3,12,1,0,0,3,29,132,11
7,3,14,1,3,0,3,29,90,11
7,3,2,0,4,0,3,29,93,11
7,3,12,1,1,0,3,29,74,11
7,3,21,0,2,0,3,29,90,11
7,3,14,1,4,0,3,29,93,11
7,3,14,1,5,1,3,29,90,11
8,3,20,1,1,0,3,29,49,11
8,3,15,1,3,0,3,29,104,11
9,4,6,0,2,0,3,29,93,11
9,4,16,1,4,0,3,29,90,11
9,4,18,1,5,1,3,29,90,11
10,4,15,1,1,0,4,29,90,11
10,4,5,0,1,0,4,29,61,11
11,4,12,1,3,0,4,29,90,11
11,4,16,1,5,1,4,29,93,11
4,2,12,1,1,0,2,29,77,11
5,2,18,1,5,1,2,29,91,11
6,3,8,1,0,0,2,29,14,11
6,3,18,1,3,0,2,29,132,11
6,3,13,1,3,0,2,29,93,11
7,3,10,1,0,0,3,29,93,11
7,3,16,1,2,0,3,29,40,11
7,3,0,0,4,0,3,29,104,11
7,3,16,1,2,0,3,29,104,11
8,3,2,0,5,1,3,29,21,11
9,4,20,1,3,0,3,29,83,11
11,4,10,1,1,0,4,29,14,11
11,4,15,1,6,1,4,29,93,11
12,1,13,1,6,1,4,29,77,11
12,1,10,1,2,0,4,29,90,11
1,1,23,0,4,0,1,10,40,11
1,1,20,1,5,1,1,10,93,11
1,1,19,1,5,1,1,10,51,11
1,1,4,0,1,0,1,10,90,11
1,1,14,1,2,0,1,10,67,11
1,1,15,1,4,0,1,10,93,11
1,1,16,1,4,0,1,10,67,11
1,1,21,0,5,1,1,10,67,11
1,1,17,1,2,0,1,10,93,11
1,1,17,1,4,0,1,10,130,11
1,1,14,1,5,1,1,10,93,11
1,1,14,1,6,1,1,10,93,11
1,1,2,0,2,0,1,10,93,11
1,1,14,1,2,0,1,10,93,11
1,1,9,1,3,0,1,10,93,11
2,1,9,1,0,0,1,10,100,11
2,1,5,0,0,0,1,10,15,11
2,1,12,1,0,0,1,10,93,11
2,1,18,1,1,0,1,10,93,11
2,1,9,1,2,0,1,10,93,11
2,1,17,1,3,0,1,10,93,11
2,1,7,1,4,0,1,10,93,11
2,1,14,1,6,1,1,10,90,11
2,1,10,1,0,0,1,10,93,11
2,1,23,0,2,0,1,10,93,11
2,1,1,0,5,1,1,10,93,11
2,1,17,1,6,1,1,10,8,11
2,1,6,0,6,1,1,10,93,11
3,2,14,1,5,1,1,10,67,8
3,2,12,1,0,0,1,10,93,11
3,2,13,1,0,0,1,10,93,11
3,2,20,1,2,0,1,10,67,11
3,2,14,1,3,0,1,10,67,11
3,2,11,1,4,0,1,10,93,11
3,2,1,0,6,1,1,10,90,11
3,2,11,1,1,0,1,10,21,11
3,2,0,0,5,1,1,10,93,11
3,2,20,1,6,1,1,10,104,11
3,2,6,0,2,0,1,10,77,11
3,2,15,1,2,0,1,10,93,11
3,2,17,1,4,0,1,10,87,11
3,2,18,1,4,0,1,10,93,11
3,2,14,1,5,1,1,10,93,11
3,2,11,1,6,1,1,10,67,11
4,2,13,1,6,1,2,10,93,11
4,2,20,1,6,1,2,10,112,11
4,2,21,0,3,0,2,10,93,11
4,2,15,1,1,0,2,10,93,11
4,2,19,1,5,1,2,10,93,11
5,2,17,1,6,1,2,10,104,11
5,2,17,1,6,1,2,10,93,11
5,2,15,1,6,1,2,10,67,11
5,2,22,0,3,0,2,10,93,11
5,2,17,1,0,0,2,10,59,9
5,2,1,0,3,0,2,10,93,11
5,2,4,0,3,0,2,10,30,8
5,2,16,1,5,1,2,10,93,11
5,2,11,1,5,1,2,10,104,11
5,2,22,0,5,1,2,10,93,11
5,2,20,1,6,1,2,10,74,11
5,2,0,0,2,0,2,10,93,11
5,2,19,1,3,0,2,10,90,11
5,2,17,1,1,0,2,10,74,11
5,2,11,1,2,0,2,10,77,11
5,2,14,1,2,0,2,10,59,11
5,2,15,1,3,0,2,10,93,11
5,2,11,1,1,0,2,10,1,11
6,3,16,1,2,0,2,10,74,11
6,3,17,1,2,0,2,10,1,11
6,3,3,0,0,0,2,10,21,11
6,3,21,0,0,0,2,10,93,11
6,3,20,1,3,0,2,10,93,11
6,3,21,0,3,0,2,10,93,11
6,3,20,1,4,0,2,10,67,11
6,3,9,1,6,1,2,10,74,8
6,3,2,0,6,1,2,10,93,11
6,3,0,0,6,1,2,10,21,11
6,3,19,1,0,0,2,10,93,11
6,3,14,1,0,0,2,10,93,11
6,3,14,1,1,0,2,10,93,11
6,3,13,1,2,0,2,10,77,11
6,3,10,1,5,1,2,10,104,11
6,3,18,1,0,0,2,10,93,11
6,3,19,1,2,0,2,10,93,11
6,3,15,1,2,0,2,10,93,11
6,3,13,1,5,1,2,10,74,11
6,3,13,1,2,0,2,10,67,11
7,3,4,0,6,1,3,10,104,11
7,3,19,1,3,0,3,10,93,11
7,3,15,1,3,0,3,10,93,11
7,3,14,1,6,1,3,10,40,11
7,3,13,1,1,0,3,10,104,11
7,3,17,1,2,0,3,10,104,11
7,3,12,1,3,0,3,10,81,11
7,3,5,0,4,0,3,10,93,11
7,3,17,1,5,1,3,10,90,11
7,3,16,1,5,1,3,10,93,11
7,3,1,0,6,1,3,10,104,11
7,3,13,1,6,1,3,10,93,11
7,3,14,1,6,1,3,10,93,11
7,3,20,1,1,0,3,10,93,11
7,3,20,1,3,0,3,10,3,11
7,3,22,0,2,0,3,10,93,11
7,3,12,1,5,1,3,10,78,11
7,3,21,0,5,1,3,10,100,11
8,3,14,1,1,0,3,10,93,11
8,3,13,1,3,0,3,10,93,11
8,3,10,1,4,0,3,10,93,11
8,3,13,1,4,0,3,10,67,11
8,3,20,1,6,1,3,10,93,11
8,3,20,1,6,1,3,10,59,11
8,3,20,1,2,0,3,10,67,11
8,3,11,1,3,0,3,10,67,11
8,3,22,0,4,0,3,10,93,11
8,3,2,0,0,0,3,10,74,11
8,3,1,0,4,0,3,10,93,11
8,3,12,1,4,0,3,10,93,11
8,3,20,1,6,1,3,10,67,11
8,3,14,1,1,0,3,10,93,11
8,3,4,0,2,0,3,10,93,11
8,3,9,1,5,1,3,10,93,11
8,3,16,1,1,0,3,10,90,11
9,4,13,1,3,0,3,10,93,11
9,4,4,0,4,0,3,10,86,11
9,4,1,0,5,1,3,10,22,11
9,4,20,1,5,1,3,10,93,11
9,4,17,1,6,1,3,10,9,11
9,4,18,1,6,1,3,10,93,11
9,4,21,0,0,0,3,10,9,11
9,4,22,0,6,1,3,10,93,11
9,4,11,1,6,1,3,10,90,11
9,4,16,1,6,1,3,10,129,11
9,4,0,0,0,0,3,10,93,11
9,4,12,1,0,0,3,10,93,11
9,4,11,1,1,0,3,10,93,11
9,4,1,0,2,0,3,10,19,11
9,4,4,0,3,0,3,10,93,11
9,4,0,0,3,0,3,10,93,11
9,4,16,1,5,1,3,10,19,11
9,4,9,1,5,1,3,10,90,11
9,4,2,0,6,1,3,10,90,11
9,4,23,0,0,0,3,10,90,11
9,4,17,1,1,0,3,10,93,11
9,4,14,1,1,0,3,10,93,11
9,4,11,1,2,0,3,10,104,11
9,4,16,1,4,0,3,10,93,11
10,4,11,1,3,0,4,10,93,11
10,4,20,1,4,0,4,10,93,11
10,4,14,1,1,0,4,10,59,11
10,4,10,1,2,0,4,10,67,11
10,4,12,1,3,0,4,10,93,11
10,4,13,1,4,0,4,10,93,11
10,4,17,1,0,0,4,10,14,11
10,4,14,1,0,0,4,10,19,11
10,4,10,1,0,0,4,10,93,11
10,4,17,1,1,0,4,10,67,11
10,4,12,1,2,0,4,10,93,11
10,4,14,1,2,0,4,10,15,11
10,4,12,1,4,0,4,10,86,11
10,4,20,1,5,1,4,10,93,11
10,4,5,0,6,1,4,10,80,11
10,4,23,0,1,0,4,10,67,11
10,4,6,0,2,0,4,10,14,11
11,4,13,1,2,0,4,10,93,11
11,4,23,0,3,0,4,10,93,11
11,4,11,1,3,0,4,10,93,11
11,4,12,1,4,0,4,10,93,11
11,4,16,1,6,1,4,10,93,11
11,4,17,1,0,0,4,10,93,11
11,4,0,0,0,0,4,10,93,11
11,4,13,1,2,0,4,10,115,8
11,4,9,1,3,0,4,10,93,11
11,4,13,1,3,0,4,10,93,11
11,4,12,1,3,0,4,10,93,11
11,4,9,1,4,0,4,10,93,11
11,4,20,1,5,1,4,10,74,11
11,4,7,1,1,0,4,10,80,11
12,1,20,1,4,0,4,10,130,11
12,1,14,1,5,1,4,10,14,11
12,1,18,1,5,1,4,10,77,11
12,1,17,1,0,0,4,10,77,11
12,1,21,0,1,0,4,10,9,11
12,1,18,1,3,0,4,10,93,11
12,1,22,0,5,1,4,10,67,11
12,1,3,0,5,1,4,10,60,11
12,1,16,1,0,0,4,10,93,11
12,1,18,1,0,0,4,10,93,11
12,1,22,0,1,0,4,10,104,11
12,1,19,1,2,0,4,10,67,11
12,1,22,0,3,0,4,10,49,11
12,1,21,0,4,0,4,10,67,11
12,1,4,0,5,1,4,10,14,8
12,1,23,0,6,1,4,10,93,11
12,1,14,1,6,1,4,10,67,11
12,1,15,1,6,1,4,10,129,11
12,1,9,1,6,1,4,10,93,11
12,1,9,1,6,1,4,10,132,11
12,1,21,0,0,0,4,10,104,11
12,1,18,1,0,0,4,10,67,11
12,1,11,1,4,0,4,10,21,11
12,1,23,0,4,0,4,10,90,11
12,1,20,1,1,0,4,10,93,11
12,1,13,1,2,0,4,10,93,11
12,1,1,0,3,0,4,10,74,11
12,1,14,1,5,1,4,10,67,11
12,1,0,0,5,1,4,10,93,11
1,1,13,1,0,0,1,10,90,11
2,1,14,1,1,0,1,10,129,11
2,1,12,1,1,0,1,10,93,11
2,1,22,0,5,1,1,10,93,11
2,1,20,1,0,0,1,10,93,11
3,2,15,1,5,1,1,10,132,11
3,2,22,0,0,0,1,10,77,11
3,2,9,1,2,0,1,10,60,11
3,2,20,1,0,0,1,10,93,11
4,2,2,0,3,0,2,10,93,11
4,2,15,1,3,0,2,10,93,11
4,2,13,1,4,0,2,10,93,11
5,2,10,1,6,1,2,10,93,11
5,2,10,1,0,0,2,10,93,11
5,2,13,1,3,0,2,10,93,11
5,2,19,1,4,0,2,10,93,11
6,3,12,1,4,0,2,10,28,11
6,3,20,1,6,1,2,10,104,11
6,3,6,0,0,0,2,10,112,11
6,3,1,0,5,1,2,10,93,11
6,3,22,0,3,0,2,10,93,11
7,3,14,1,6,1,3,10,104,11
7,3,14,1,6,1,3,10,93,8
8,3,9,1,2,0,3,10,93,11
8,3,19,1,6,1,3,10,90,11
9,4,17,1,6,1,3,10,104,11
10,4,20,1,0,0,4,10,132,11
10,4,11,1,2,0,4,10,93,11
10,4,17,1,1,0,4,10,67,11
11,4,9,1,6,1,4,10,93,11
11,4,16,1,2,0,4,10,93,11
11,4,11,1,3,0,4,10,28,11
12,1,16,1,5,1,4,10,93,11
12,1,11,1,3,0,4,10,93,11
12,1,16,1,1,0,4,10,93,11
12,1,20,1,4,0,4,10,132,11
12,1,22,0,6,1,4,10,93,11
12,1,15,1,2,0,4,10,93,11
12,1,15,1,6,1,4,10,93,11
1,1,11,1,1,0,1,10,93,11
2,1,12,1,3,0,1,10,93,11
2,1,12,1,5,1,1,10,90,11
2,1,20,1,0,0,1,10,112,11
3,2,5,0,6,1,1,10,90,11
3,2,17,1,5,1,1,10,93,11
4,2,4,0,5,1,2,10,90,11
4,2,11,1,1,0,2,10,93,11
5,2,16,1,4,0,2,10,93,11
7,3,1,0,1,0,3,10,93,11
7,3,15,1,2,0,3,10,67,11
8,3,10,1,3,0,3,10,104,11
8,3,21,0,0,0,3,10,49,11
9,4,14,1,1,0,3,10,93,11
11,4,21,0,4,0,4,10,93,11
11,4,18,1,4,0,4,10,93,11
11,4,17,1,4,0,4,10,28,11
11,4,11,1,5,1,4,10,93,11
11,4,17,1,0,0,4,10,93,11
11,4,10,1,6,1,4,10,104,11
11,4,12,1,0,0,4,10,129,9
12,1,18,1,4,0,4,10,93,11
12,1,12,1,6,1,4,10,77,11
12,1,16,1,5,1,4,10,129,11
12,1,16,1,5,1,4,10,93,11
12,1,9,1,6,1,4,10,93,11
12,1,17,1,5,1,4,10,28,11
1,1,13,1,3,0,1,10,93,11
1,1,11,1,3,0,1,10,93,11
2,1,14,1,0,0,1,10,93,11
2,1,12,1,2,0,1,10,93,11
2,1,12,1,6,1,1,10,93,11
2,1,13,1,1,0,1,10,3,9
3,2,10,1,1,0,1,10,28,9
3,2,12,1,2,0,1,10,93,11
3,2,14,1,3,0,1,10,93,11
3,2,17,1,5,1,1,10,93,11
3,2,18,1,1,0,1,10,93,11
3,2,14,1,5,1,1,10,93,11
4,2,12,1,5,1,2,10,93,11
4,2,11,1,4,0,2,10,93,11
4,2,15,1,4,0,2,10,93,11
4,2,17,1,6,1,2,10,93,11
5,2,19,1,6,1,2,10,93,11
5,2,12,1,1,0,2,10,93,11
5,2,18,1,2,0,2,10,93,11
6,3,14,1,1,0,2,10,68,11
6,3,14,1,1,0,2,10,1,11
6,3,10,1,1,0,2,10,112,11
7,3,22,0,6,1,3,10,93,11
8,3,17,1,0,0,3,10,74,11
8,3,15,1,3,0,3,10,77,11
9,4,19,1,4,0,3,10,104,11
9,4,12,1,6,1,3,10,3,11
9,4,5,0,2,0,3,10,112,11
9,4,7,1,0,0,3,10,93,11
10,4,3,0,1,0,4,10,93,11
10,4,12,1,5,1,4,10,93,11
10,4,19,1,5,1,4,10,93,11
11,4,22,0,0,0,4,10,15,11
11,4,19,1,1,0,4,10,67,11
3,2,7,1,4,0,1,10,5,11
3,2,15,1,4,0,1,10,6,11
9,4,13,1,4,0,3,10,6,11
1,1,10,1,5,1,1,10,132,11
1,1,11,1,6,1,1,10,26,11
1,1,9,1,3,0,1,10,50,11
2,1,8,1,3,0,1,10,90,11
2,1,10,1,5,1,1,10,100,11
2,1,21,0,1,0,1,10,93,11
2,1,6,0,3,0,1,10,93,11
2,1,15,1,2,0,1,10,40,11
3,2,21,0,6,1,1,10,73,9
3,2,17,1,1,0,1,10,132,11
3,2,12,1,2,0,1,10,74,11
4,2,21,0,3,0,2,10,86,11
4,2,19,1,5,1,2,10,67,11
4,2,3,0,0,0,2,10,103,11
4,2,14,1,5,1,2,10,93,11
4,2,10,1,6,1,2,10,104,11
4,2,14,1,6,1,2,10,93,9
4,2,2,0,2,0,2,10,100,11
4,2,12,1,5,1,2,10,93,11
5,2,3,0,6,1,2,10,100,11
5,2,15,1,6,1,2,10,93,11
5,2,15,1,0,0,2,10,104,11
5,2,1,0,2,0,2,10,93,11
5,2,16,1,3,0,2,10,93,11
6,3,8,1,4,0,2,10,49,11
6,3,14,1,2,0,2,10,93,11
6,3,21,0,2,0,2,10,93,11
6,3,8,1,6,1,2,10,21,11
6,3,11,1,4,0,2,10,21,11
6,3,18,1,0,0,2,10,93,11
7,3,1,0,5,1,3,10,40,11
7,3,19,1,0,0,3,10,93,11
7,3,0,0,1,0,3,10,104,11
7,3,2,0,6,1,3,10,132,11
7,3,7,1,3,0,3,10,80,9
8,3,12,1,0,0,3,10,93,11
8,3,8,1,4,0,3,10,21,11
8,3,9,1,0,0,3,10,67,9
8,3,21,0,6,1,3,10,90,11
9,4,12,1,4,0,3,10,87,11
9,4,4,0,1,0,3,10,74,11
9,4,19,1,3,0,3,10,67,11
9,4,10,1,0,0,3,10,87,11
9,4,13,1,0,0,3,10,63,11
9,4,2,0,1,0,3,10,78,11
9,4,18,1,0,0,3,10,93,11
9,4,10,1,3,0,3,10,104,11
9,4,9,1,4,0,3,10,67,11
10,4,17,1,5,1,4,10,14,11
10,4,10,1,1,0,4,10,93,11
10,4,9,1,4,0,4,10,93,11
10,4,14,1,6,1,4,10,93,11
11,4,17,1,3,0,4,10,104,11
11,4,14,1,5,1,4,10,93,11
11,4,17,1,6,1,4,10,104,11
11,4,15,1,1,0,4,10,129,11
11,4,19,1,5,1,4,10,104,11
11,4,19,1,0,0,4,10,93,11
11,4,1,0,2,0,4,10,14,9
11,4,15,1,6,1,4,10,129,11
11,4,14,1,3,0,4,10,93,11
11,4,15,1,0,0,4,10,36,9
11,4,13,1,0,0,4,10,67,11
12,1,15,1,1,0,4,10,129,11
12,1,19,1,4,0,4,10,93,11
12,1,14,1,5,1,4,10,129,11
12,1,3,0,0,0,4,10,93,11
12,1,11,1,1,0,4,10,93,11
12,1,15,1,1,0,4,10,104,11
1,1,9,1,4,0,1,33,49,11
1,1,3,0,0,0,1,33,59,8
1,1,16,1,3,0,1,33,70,11
1,1,19,1,3,0,1,33,77,11
1,1,11,1,6,1,1,33,77,11
1,1,13,1,3,0,1,33,77,8
1,1,2,0,6,1,1,33,21,11
2,1,19,1,0,0,1,33,77,11
2,1,10,1,0,0,1,33,49,11
2,1,3,0,2,0,1,33,100,11
2,1,3,0,2,0,1,33,132,11
2,1,0,0,4,0,1,33,14,11
2,1,1,0,4,0,1,33,90,11
2,1,20,1,6,1,1,33,69,11
2,1,9,1,6,1,1,33,21,11
3,2,9,1,5,1,1,33,67,11
3,2,19,1,2,0,1,33,9,11
3,2,12,1,4,0,1,33,132,11
3,2,10,1,5,1,1,33,132,11
3,2,11,1,1,0,1,33,132,11
3,2,6,0,3,0,1,33,104,11
3,2,17,1,5,1,1,33,132,11
3,2,16,1,6,1,1,33,58,11
3,2,21,0,6,1,1,33,40,11
3,2,8,1,1,0,1,33,13,9
4,2,13,1,6,1,2,33,21,11
4,2,11,1,6,1,2,33,104,11
4,2,13,1,4,0,2,33,100,11
4,2,3,0,5,1,2,33,21,9
4,2,17,1,0,0,2,33,93,11
4,2,16,1,1,0,2,33,132,11
4,2,13,1,3,0,2,33,14,9
4,2,9,1,5,1,2,33,77,11
4,2,22,0,5,1,2,33,77,9
4,2,2,0,5,1,2,33,132,11
5,2,17,1,1,0,2,33,34,9
5,2,15,1,4,0,2,33,77,9
5,2,23,0,6,1,2,33,90,11
5,2,13,1,6,1,2,33,93,11
5,2,1,0,1,0,2,33,87,9
5,2,8,1,3,0,2,33,93,11
6,3,23,0,2,0,2,33,64,9
6,3,18,1,4,0,2,33,19,11
6,3,19,1,1,0,2,33,100,11
6,3,19,1,4,0,2,33,51,11
6,3,11,1,3,0,2,33,70,11
6,3,18,1,4,0,2,33,87,9
6,3,19,1,2,0,2,33,67,11
6,3,10,1,3,0,2,33,104,11
6,3,22,0,6,1,2,33,90,11
6,3,23,0,0,0,2,33,90,11
7,3,10,1,5,1,3,33,93,9
7,3,20,1,1,0,3,33,93,11
7,3,19,1,4,0,3,33,9,11
7,3,9,1,6,1,3,33,21,11
7,3,17,1,1,0,3,33,66,11
8,3,11,1,2,0,3,33,13,9
8,3,14,1,4,0,3,33,93,11
8,3,17,1,3,0,3,33,74,11
8,3,2,0,3,0,3,33,15,11
9,4,17,1,4,0,3,33,104,11
9,4,15,1,4,0,3,33,104,11
9,4,9,1,5,1,3,33,104,11
9,4,10,1,5,1,3,33,104,11
9,4,18,1,5,1,3,33,104,11
9,4,17,1,0,0,3,33,104,11
9,4,19,1,6,1,3,33,93,11
9,4,13,1,0,0,3,33,28,11
9,4,14,1,6,1,3,33,85,11
9,4,13,1,1,0,3,33,93,11
10,4,1,0,5,1,4,33,21,9
10,4,13,1,2,0,4,33,67,11
10,4,9,1,5,1,4,33,21,11
10,4,18,1,5,1,4,33,22,11
10,4,18,1,6,1,4,33,74,9
10,4,10,1,0,0,4,33,87,9
10,4,0,0,1,0,4,33,90,11
10,4,16,1,0,0,4,33,90,11
11,4,16,1,1,0,4,33,104,11
11,4,12,1,2,0,4,33,104,11
11,4,5,0,4,0,4,33,104,11
11,4,14,1,6,1,4,33,132,11
11,4,14,1,6,1,4,33,14,9
11,4,7,1,4,0,4,33,77,11
11,4,19,1,4,0,4,33,106,11
11,4,16,1,6,1,4,33,93,11
11,4,13,1,3,0,4,33,104,11
11,4,4,0,4,0,4,33,104,11
11,4,22,0,3,0,4,33,106,8
11,4,18,1,4,0,4,33,132,11
11,4,16,1,4,0,4,33,77,11
11,4,4,0,0,0,4,33,21,11
11,4,17,1,2,0,4,33,77,11
12,1,19,1,2,0,4,33,93,11
12,1,18,1,4,0,4,33,81,11
12,1,0,0,2,0,4,33,93,11
12,1,17,1,0,0,4,33,93,11
12,1,8,1,0,0,4,33,67,11
12,1,2,0,3,0,4,33,77,11
12,1,16,1,3,0,4,33,77,11
12,1,18,1,3,0,4,33,90,11
12,1,21,0,3,0,4,33,90,11
12,1,14,1,3,0,4,33,77,11
12,1,21,0,5,1,4,33,67,11
1,1,19,1,4,0,1,33,40,11
1,1,5,0,6,1,1,33,80,11
1,1,12,1,1,0,1,33,77,11
1,1,7,1,1,0,1,33,89,11
2,1,4,0,5,1,1,33,21,9
3,2,11,1,2,0,1,33,77,11
3,2,19,1,5,1,1,33,77,11
5,2,16,1,1,0,2,33,104,11
5,2,22,0,6,1,2,33,77,9
6,3,7,1,1,0,2,33,74,11
7,3,18,1,0,0,3,33,21,11
7,3,11,1,5,1,3,33,13,11
7,3,20,1,5,1,3,33,77,11
7,3,11,1,3,0,3,33,107,11
7,3,10,1,0,0,3,33,93,11
7,3,3,0,6,1,3,33,60,9
8,3,3,0,1,0,3,33,77,11
10,4,9,1,5,1,4,33,59,9
10,4,20,1,0,0,4,33,81,11
11,4,22,0,2,0,4,33,47,11
11,4,5,0,2,0,4,33,112,11
11,4,9,1,5,1,4,33,93,11
11,4,16,1,0,0,4,33,77,11
12,1,0,0,3,0,4,33,77,11
12,1,16,1,4,0,4,33,77,11
12,1,19,1,3,0,4,33,77,11
12,1,22,0,0,0,4,33,13,9
1,1,13,1,0,0,1,33,77,11
1,1,19,1,1,0,1,33,49,11
1,1,13,1,2,0,1,33,49,9
2,1,14,1,2,0,1,33,77,9
5,2,21,0,0,0,2,33,132,11
7,3,23,0,3,0,3,33,93,11
7,3,3,0,0,0,3,33,77,11
10,4,14,1,0,0,4,33,93,11
10,4,3,0,4,0,4,33,59,11
11,4,5,0,4,0,4,33,77,11
11,4,7,1,6,1,4,33,69,11
12,1,19,1,0,0,4,33,77,11
12,1,15,1,4,0,4,33,77,11
1,1,17,1,3,0,1,33,69,11
1,1,16,1,3,0,1,33,132,11
2,1,15,1,4,0,1,33,129,11
2,1,4,0,6,1,1,33,112,11
3,2,16,1,5,1,1,33,67,11
3,2,23,0,4,0,1,33,132,11
6,3,10,1,6,1,2,33,93,11
7,3,5,0,0,0,3,33,93,11
7,3,16,1,4,0,3,33,77,11
8,3,2,0,0,0,3,33,132,11
8,3,19,1,2,0,3,33,74,11
8,3,19,1,2,0,3,33,65,11
8,3,12,1,4,0,3,33,112,11
9,4,6,0,3,0,3,33,112,11
9,4,17,1,2,0,3,33,129,11
9,4,0,0,3,0,3,33,40,11
10,4,22,0,1,0,4,33,102,11
11,4,22,0,0,0,4,33,77,11
11,4,13,1,3,0,4,33,132,11
12,1,13,1,5,1,4,33,93,11
12,1,13,1,3,0,4,33,77,11
12,1,21,0,5,1,4,33,132,11
12,1,21,0,4,0,4,33,132,11
12,1,14,1,5,1,4,33,132,11
1,1,12,1,5,1,1,51,93,11
1,1,19,1,0,0,1,51,93,11
1,1,2,0,2,0,1,51,77,11
1,1,15,1,3,0,1,51,132,11
1,1,6,0,3,0,1,51,40,11
1,1,7,1,0,0,1,51,132,11
1,1,12,1,5,1,1,51,132,11
2,1,11,1,5,1,1,51,40,11
2,1,9,1,6,1,1,51,132,11
2,1,12,1,6,1,1,51,132,11
2,1,10,1,0,0,1,51,74,11
2,1,14,1,0,0,1,51,73,11
2,1,21,0,6,1,1,51,132,11
3,2,18,1,3,0,1,51,73,11
3,2,19,1,1,0,1,51,104,11
4,2,3,0,6,1,2,51,8,11
4,2,0,0,1,0,2,51,93,11
4,2,22,0,2,0,2,51,132,11
4,2,19,1,2,0,2,51,59,11
4,2,21,0,2,0,2,51,67,11
4,2,12,1,3,0,2,51,132,11
4,2,15,1,6,1,2,51,132,11
4,2,20,1,3,0,2,51,93,11
4,2,12,1,4,0,2,51,104,11
4,2,19,1,5,1,2,51,77,11
4,2,23,0,4,0,2,51,132,11
4,2,21,0,4,0,2,51,93,11
4,2,20,1,5,1,2,51,93,11
4,2,21,0,5,1,2,51,93,11
4,2,20,1,5,1,2,51,102,11
4,2,22,0,5,1,2,51,104,11
4,2,23,0,5,1,2,51,104,11
4,2,23,0,5,1,2,51,93,11
5,2,7,1,6,1,2,51,93,11
5,2,0,0,6,1,2,51,93,11
5,2,0,0,6,1,2,51,93,11
5,2,9,1,0,0,2,51,132,11
5,2,7,1,0,0,2,51,132,11
5,2,17,1,5,1,2,51,93,11
5,2,5,0,0,0,2,51,132,11
6,3,17,1,2,0,2,51,40,11
6,3,5,0,4,0,2,51,74,11
6,3,16,1,0,0,2,51,93,8
6,3,12,1,2,0,2,51,74,11
6,3,14,1,3,0,2,51,93,11
6,3,13,1,1,0,2,51,93,11
7,3,18,1,3,0,3,51,93,11
7,3,19,1,5,1,3,51,27,11
7,3,14,1,1,0,3,51,104,11
8,3,18,1,4,0,3,51,93,11
8,3,20,1,2,0,3,51,49,9
8,3,15,1,5,1,3,51,40,11
9,4,7,1,0,0,3,51,104,11
9,4,21,0,1,0,3,51,67,11
9,4,12,1,2,0,3,51,74,11
9,4,11,1,3,0,3,51,13,11
10,4,6,0,3,0,4,51,81,11
10,4,2,0,5,1,4,51,106,9
10,4,19,1,2,0,4,51,106,11
11,4,10,1,4,0,4,51,40,11
11,4,15,1,2,0,4,51,106,9
11,4,23,0,2,0,4,51,106,8
11,4,19,1,5,1,4,51,112,11
11,4,21,0,2,0,4,51,132,11
12,1,9,1,6,1,4,51,132,11
12,1,8,1,6,1,4,51,132,11
12,1,21,0,2,0,4,51,132,11
12,1,11,1,4,0,4,51,132,11
12,1,15,1,1,0,4,51,40,11
12,1,7,1,4,0,4,51,132,11
12,1,21,0,5,1,4,51,132,11
12,1,11,1,5,1,4,51,93,11
12,1,12,1,6,1,4,51,132,11
12,1,13,1,6,1,4,51,93,11
12,1,16,1,0,0,4,51,132,11
12,1,18,1,0,0,4,51,132,11
12,1,19,1,1,0,4,51,77,8
12,1,8,1,2,0,4,51,93,11
12,1,16,1,5,1,4,51,132,11
12,1,14,1,0,0,4,51,132,11
12,1,21,0,4,0,4,51,77,11
1,1,8,1,6,1,1,51,77,11
4,2,23,0,2,0,2,51,8,11
9,4,22,0,4,0,3,51,112,11
12,1,15,1,0,0,4,51,77,11
2,1,15,1,5,1,1,51,132,11
3,2,15,1,2,0,1,51,93,11
3,2,22,0,6,1,1,51,74,9
4,2,9,1,2,0,2,51,93,11
4,2,4,0,3,0,2,51,81,11
4,2,0,0,4,0,2,51,77,11
4,2,8,1,5,1,2,51,93,11
6,3,13,1,4,0,2,51,93,11
11,4,11,1,5,1,4,51,132,11
11,4,14,1,2,0,4,51,93,11
12,1,15,1,5,1,4,51,132,11
12,1,7,1,6,1,4,51,132,11
1,1,9,1,0,0,1,43,40,11
1,1,19,1,2,0,1,43,21,11
1,1,20,1,6,1,1,43,93,11
2,1,13,1,4,0,1,43,132,11
3,2,1,0,5,1,1,43,114,9
3,2,3,0,2,0,1,43,78,11
6,3,15,1,3,0,2,43,86,11
6,3,20,1,3,0,2,43,10,9
6,3,19,1,0,0,2,43,93,11
6,3,14,1,1,0,2,43,21,11
6,3,19,1,0,0,2,43,15,11
6,3,14,1,6,1,2,43,10,11
7,3,14,1,2,0,3,43,93,11
7,3,20,1,4,0,3,43,64,11
7,3,16,1,0,0,3,43,64,11
8,3,6,0,2,0,3,43,77,11
8,3,1,0,2,0,3,43,77,11
9,4,19,1,0,0,3,43,77,11
10,4,15,1,4,0,4,43,21,11
10,4,14,1,2,0,4,43,93,11
11,4,22,0,2,0,4,43,132,11
11,4,23,0,1,0,4,43,132,11
11,4,3,0,6,1,4,43,74,9
11,4,11,1,0,0,4,43,93,11
11,4,23,0,4,0,4,43,132,11
12,1,23,0,6,1,4,43,8,9
12,1,16,1,0,0,4,43,28,11
12,1,13,1,2,0,4,43,28,11
12,1,17,1,6,1,4,43,104,11
12,1,11,1,0,0,4,43,28,11
12,1,9,1,2,0,4,43,3,11
3,2,21,0,4,0,1,43,93,11
4,2,12,1,4,0,2,43,93,11
4,2,1,0,5,1,2,43,104,11
5,2,12,1,3,0,2,43,93,11
5,2,12,1,6,1,2,43,77,11
8,3,19,1,0,0,3,43,21,11
1,1,18,1,4,0,1,43,93,11
2,1,5,0,3,0,1,43,132,11
3,2,7,1,3,0,1,43,65,11
4,2,3,0,1,0,2,43,93,11
4,2,14,1,0,0,2,43,93,11
5,2,15,1,2,0,2,43,80,11
6,3,13,1,6,1,2,43,77,11
8,3,22,0,5,1,3,43,77,9
10,4,11,1,5,1,4,43,77,11
12,1,16,1,4,0,4,43,28,11
12,1,22,0,5,1,4,43,28,11
12,1,10,1,6,1,4,43,132,11
1,1,21,0,6,1,1,43,77,11
1,1,15,1,2,0,1,43,93,11
6,3,8,1,5,1,2,43,93,11
1,1,11,1,6,1,1,17,15,11
1,1,3,0,0,0,1,17,21,11
2,1,13,1,5,1,1,17,93,9
2,1,3,0,4,0,1,17,21,11
3,2,9,1,2,0,1,17,93,11
4,2,1,0,6,1,2,17,21,11
4,2,10,1,2,0,2,17,93,11
4,2,20,1,0,0,2,17,14,11
4,2,11,1,5,1,2,17,77,11
5,2,12,1,6,1,2,17,93,11
5,2,20,1,6,1,2,17,13,11
5,2,14,1,2,0,2,17,40,11
5,2,12,1,6,1,2,17,104,11
5,2,12,1,0,0,2,17,21,11
5,2,12,1,1,0,2,17,21,11
6,3,8,1,4,0,2,17,132,11
6,3,10,1,4,0,2,17,14,11
7,3,19,1,4,0,3,17,24,11
7,3,4,0,1,0,3,17,93,8
7,3,13,1,5,1,3,17,99,8
8,3,14,1,4,0,3,17,21,11
8,3,22,0,2,0,3,17,13,11
8,3,15,1,3,0,3,17,104,11
8,3,21,0,4,0,3,17,93,11
9,4,19,1,5,1,3,17,111,11
9,4,13,1,0,0,3,17,77,8
9,4,16,1,3,0,3,17,13,8
9,4,18,1,2,0,3,17,104,11
9,4,23,0,3,0,3,17,103,11
10,4,3,0,6,1,4,17,104,11
10,4,8,1,1,0,4,17,21,11
10,4,3,0,4,0,4,17,21,11
11,4,12,1,5,1,4,17,104,11
11,4,4,0,0,0,4,17,21,11
11,4,19,1,3,0,4,17,77,11
12,1,18,1,3,0,4,17,90,11
12,1,3,0,4,0,4,17,90,11
12,1,1,0,4,0,4,17,104,11
12,1,23,0,1,0,4,17,93,11
12,1,4,0,5,1,4,17,77,11
12,1,9,1,5,1,4,17,112,11
1,1,21,0,2,0,1,17,3,9
1,1,3,0,3,0,1,17,132,11
1,1,19,1,0,0,1,17,93,11
1,1,20,1,4,0,1,17,132,11
1,1,2,0,6,1,1,17,132,11
1,1,19,1,4,0,1,17,67,9
2,1,12,1,2,0,1,17,21,11
2,1,21,0,5,1,1,17,93,11
2,1,11,1,0,0,1,17,93,11
2,1,16,1,1,0,1,17,93,11
2,1,16,1,3,0,1,17,93,11
3,2,12,1,0,0,1,17,130,11
3,2,21,0,1,0,1,17,93,11
3,2,22,0,1,0,1,17,93,8
3,2,12,1,2,0,1,17,104,11
3,2,12,1,2,0,1,17,93,11
3,2,12,1,2,0,1,17,104,11
4,2,20,1,3,0,2,17,93,11
4,2,16,1,5,1,2,17,93,11
4,2,11,1,5,1,2,17,93,11
5,2,21,0,6,1,2,17,130,11
5,2,2,0,0,0,2,17,132,11
5,2,6,0,0,0,2,17,50,8
5,2,14,1,3,0,2,17,93,11
5,2,13,1,0,0,2,17,60,8
5,2,13,1,1,0,2,17,93,11
5,2,16,1,4,0,2,17,93,11
6,3,17,1,2,0,2,17,78,11
6,3,15,1,6,1,2,17,93,11
6,3,22,0,2,0,2,17,132,11
6,3,15,1,6,1,2,17,93,11
6,3,13,1,4,0,2,17,93,11
6,3,12,1,5,1,2,17,93,11
6,3,20,1,1,0,2,17,93,11
6,3,0,0,3,0,2,17,93,11
7,3,11,1,5,1,3,17,86,11
7,3,6,0,2,0,3,17,93,11
7,3,20,1,4,0,3,17,59,11
8,3,2,0,3,0,3,17,90,11
8,3,5,0,3,0,3,17,86,11
8,3,17,1,1,0,3,17,93,11
9,4,13,1,1,0,3,17,93,11
9,4,6,0,3,0,3,17,49,11
10,4,4,0,5,1,4,17,67,11
10,4,11,1,6,1,4,17,13,8
10,4,23,0,6,1,4,17,90,11
10,4,7,1,3,0,4,17,77,11
11,4,2,0,2,0,4,17,93,11
11,4,18,1,4,0,4,17,93,11
11,4,1,0,5,1,4,17,90,11
11,4,6,0,1,0,4,17,21,11
12,1,13,1,3,0,4,17,104,11
2,1,11,1,4,0,1,17,77,11
3,2,21,0,5,1,1,17,90,11
4,2,17,1,3,0,2,17,104,11
5,2,15,1,1,0,2,17,91,8
6,3,13,1,2,0,2,17,93,11
6,3,1,0,0,0,2,17,21,11
6,3,12,1,1,0,2,17,77,11
7,3,3,0,1,0,3,17,93,11
8,3,18,1,2,0,3,17,77,11
9,4,10,1,4,0,3,17,77,11
10,4,21,0,4,0,4,17,28,11
12,1,1,0,2,0,4,17,90,11
12,1,18,1,4,0,4,17,59,11
1,1,15,1,1,0,1,17,77,9
1,1,6,0,6,1,1,17,13,8
3,2,5,0,3,0,1,17,77,11
4,2,14,1,4,0,2,17,93,11
5,2,1,0,3,0,2,17,104,11
5,2,23,0,1,0,2,17,14,11
5,2,3,0,3,0,2,17,73,11
6,3,19,1,4,0,2,17,1,11
6,3,20,1,2,0,2,17,104,11
7,3,23,0,0,0,3,17,77,11
7,3,6,0,3,0,3,17,104,11
9,4,1,0,6,1,3,17,74,11
9,4,21,0,5,1,3,17,77,11
10,4,10,1,4,0,4,17,77,11
10,4,16,1,5,1,4,17,104,11
10,4,15,1,4,0,4,17,104,11
11,4,15,1,0,0,4,17,93,11
12,1,12,1,6,1,4,17,77,11
12,1,16,1,1,0,4,17,104,11
12,1,10,1,2,0,4,17,77,8
1,1,20,1,4,0,1,17,132,11
1,1,3,0,5,1,1,17,93,11
1,1,19,1,5,1,1,17,40,11
1,1,4,0,6,1,1,17,132,11
1,1,1,0,2,0,1,17,102,11
1,1,3,0,3,0,1,17,77,11
1,1,18,1,3,0,1,17,67,11
1,1,19,1,3,0,1,17,132,11
1,1,22,0,6,1,1,17,132,11
1,1,23,0,6,1,1,17,132,11
1,1,2,0,0,0,1,17,132,11
1,1,16,1,3,0,1,17,93,11
1,1,22,0,4,0,1,17,93,11
1,1,1,0,5,1,1,17,93,11
1,1,22,0,5,1,1,17,104,11
1,1,17,1,6,1,1,17,77,11
1,1,18,1,6,1,1,17,112,11
1,1,1,0,1,0,1,17,21,11
1,1,0,0,3,0,1,17,21,11
1,1,6,0,5,1,1,17,132,11
1,1,22,0,1,0,1,17,78,11
1,1,23,0,2,0,1,17,67,11
1,1,10,1,4,0,1,17,132,11
1,1,15,1,4,0,1,17,132,11
2,1,1,0,1,0,1,17,132,11
2,1,13,1,3,0,1,17,99,11
2,1,18,1,3,0,1,17,104,11
2,1,21,0,4,0,1,17,67,11
2,1,17,1,6,1,1,17,104,11
2,1,17,1,6,1,1,17,93,11
2,1,0,0,0,0,1,17,44,11
2,1,23,0,5,1,1,17,90,11
2,1,18,1,5,1,1,17,132,11
2,1,0,0,0,0,1,17,21,11
2,1,21,0,0,0,1,17,132,11
2,1,22,0,0,0,1,17,132,11
2,1,9,1,1,0,1,17,90,11
2,1,14,1,1,0,1,17,104,11
2,1,7,1,3,0,1,17,21,11
2,1,12,1,5,1,1,17,77,11
3,2,20,1,2,0,1,17,40,11
3,2,19,1,3,0,1,17,93,11
3,2,11,1,4,0,1,17,93,11
3,2,16,1,5,1,1,17,40,11
3,2,20,1,5,1,1,17,57,8
3,2,4,0,0,0,1,17,121,8
3,2,12,1,0,0,1,17,90,11
3,2,17,1,1,0,1,17,77,11
3,2,4,0,2,0,1,17,40,11
3,2,18,1,2,0,1,17,21,11
3,2,20,1,2,0,1,17,93,11
3,2,15,1,3,0,1,17,100,11
3,2,3,0,0,0,1,17,21,11
3,2,19,1,1,0,1,17,21,11
3,2,0,0,4,0,1,17,59,11
3,2,14,1,5,1,1,17,132,11
3,2,13,1,6,1,1,17,3,11
3,2,14,1,6,1,1,17,132,11
3,2,4,0,0,0,1,17,104,11
3,2,18,1,0,0,1,17,104,11
3,2,15,1,1,0,1,17,59,11
3,2,22,0,2,0,1,17,104,11
3,2,0,0,0,0,1,17,93,11
4,2,19,1,4,0,2,17,132,11
4,2,13,1,5,1,2,17,28,11
4,2,15,1,6,1,2,17,58,11
4,2,16,1,6,1,2,17,93,11
4,2,20,1,0,0,2,17,104,11
4,2,9,1,3,0,2,17,104,11
4,2,11,1,3,0,2,17,90,9
4,2,4,0,4,0,2,17,132,11
4,2,18,1,4,0,2,17,93,11
4,2,0,0,6,1,2,17,93,11
4,2,21,0,6,1,2,17,93,11
4,2,20,1,3,0,2,17,93,11
4,2,19,1,3,0,2,17,60,11
4,2,21,0,3,0,2,17,132,11
4,2,13,1,3,0,2,17,74,11
4,2,12,1,5,1,2,17,58,11
4,2,20,1,1,0,2,17,77,11
4,2,13,1,2,0,2,17,93,11
4,2,9,1,3,0,2,17,132,11
4,2,17,1,3,0,2,17,132,11
4,2,12,1,4,0,2,17,9,11
4,2,15,1,4,0,2,17,93,11
4,2,18,1,4,0,2,17,40,9
4,2,20,1,4,0,2,17,93,11
4,2,15,1,0,0,2,17,23,9
4,2,17,1,0,0,2,17,93,11
4,2,16,1,1,0,2,17,132,11
4,2,22,0,2,0,2,17,81,8
4,2,22,0,4,0,2,17,93,11
4,2,16,1,5,1,2,17,93,11
5,2,1,0,6,1,2,17,77,11
5,2,10,1,6,1,2,17,90,11
5,2,18,1,6,1,2,17,129,11
5,2,14,1,6,1,2,17,129,11
5,2,20,1,6,1,2,17,129,11
5,2,12,1,3,0,2,17,77,11
5,2,15,1,4,0,2,17,104,11
5,2,13,1,0,0,2,17,77,11
5,2,14,1,0,0,2,17,40,11
5,2,17,1,2,0,2,17,104,11
5,2,22,0,4,0,2,17,67,11
5,2,8,1,5,1,2,17,77,11
5,2,16,1,5,1,2,17,90,11
5,2,17,1,5,1,2,17,67,11
5,2,18,1,6,1,2,17,90,11
5,2,12,1,3,0,2,17,14,11
5,2,20,1,3,0,2,17,93,11
5,2,18,1,6,1,2,17,3,11
5,2,21,0,6,1,2,17,132,11
5,2,15,1,0,0,2,17,104,11
5,2,7,1,1,0,2,17,21,9
5,2,22,0,3,0,2,17,67,11
5,2,14,1,3,0,2,17,93,11
5,2,18,1,4,0,2,17,67,11
5,2,1,0,6,1,2,17,132,11
5,2,9,1,1,0,2,17,90,11
6,3,12,1,2,0,2,17,77,11
6,3,21,0,2,0,2,17,132,11
6,3,1,0,6,1,2,17,90,11
6,3,0,0,1,0,2,17,78,11
6,3,17,1,3,0,2,17,93,11
6,3,4,0,4,0,2,17,90,11
6,3,19,1,4,0,2,17,67,11
6,3,23,0,4,0,2,17,67,11
6,3,2,0,5,1,2,17,78,11
6,3,12,1,5,1,2,17,21,11
6,3,18,1,0,0,2,17,67,11
6,3,14,1,2,0,2,17,67,11
6,3,17,1,3,0,2,17,13,11
6,3,12,1,4,0,2,17,86,11
6,3,11,1,5,1,2,17,49,11
6,3,18,1,5,1,2,17,40,11
6,3,19,1,6,1,2,17,104,11
6,3,17,1,5,1,2,17,111,11
6,3,14,1,6,1,2,17,104,11
6,3,21,0,2,0,2,17,24,11
7,3,21,0,4,0,3,17,90,11
7,3,13,1,1,0,3,17,74,11
7,3,2,0,1,0,3,17,93,11
7,3,18,1,2,0,3,17,90,11
7,3,6,0,5,1,3,17,77,11
7,3,14,1,5,1,3,17,77,11
7,3,15,1,6,1,3,17,93,11
7,3,11,1,3,0,3,17,14,8
7,3,1,0,5,1,3,17,13,11
7,3,3,0,0,0,3,17,21,11
7,3,16,1,0,0,3,17,78,11
7,3,12,1,1,0,3,17,90,11
7,3,14,1,1,0,3,17,93,11
7,3,20,1,3,0,3,17,50,11
7,3,20,1,4,0,3,17,67,11
7,3,18,1,1,0,3,17,67,11
7,3,7,1,2,0,3,17,90,11
7,3,11,1,2,0,3,17,93,11
7,3,22,0,5,1,3,17,132,11
7,3,16,1,6,1,3,17,132,11
8,3,5,0,0,0,3,17,81,11
8,3,22,0,0,0,3,17,40,11
8,3,3,0,2,0,3,17,90,11
8,3,18,1,3,0,3,17,110,11
8,3,4,0,4,0,3,17,90,11
8,3,3,0,5,1,3,17,40,11
8,3,18,1,0,0,3,17,21,11
8,3,4,0,2,0,3,17,33,11
8,3,8,1,5,1,3,17,112,11
8,3,13,1,6,1,3,17,90,11
8,3,5,0,0,0,3,17,90,11
8,3,15,1,1,0,3,17,14,11
8,3,17,1,1,0,3,17,21,11
8,3,19,1,1,0,3,17,77,11
8,3,21,0,1,0,3,17,59,11
8,3,21,0,3,0,3,17,80,11
8,3,4,0,4,0,3,17,21,11
8,3,12,1,6,1,3,17,93,11
8,3,22,0,6,1,3,17,86,11
8,3,5,0,1,0,3,17,21,8
8,3,16,1,1,0,3,17,67,11
8,3,21,0,2,0,3,17,67,11
9,4,14,1,3,0,3,17,90,11
9,4,18,1,5,1,3,17,93,11
9,4,7,1,3,0,3,17,132,11
9,4,16,1,4,0,3,17,31,11
9,4,18,1,4,0,3,17,93,11
9,4,3,0,6,1,3,17,21,11
9,4,21,0,1,0,3,17,132,11
9,4,11,1,2,0,3,17,104,11
9,4,2,0,3,0,3,17,104,11
9,4,18,1,4,0,3,17,90,11
9,4,2,0,5,1,3,17,49,11
9,4,11,1,1,0,3,17,44,11
9,4,11,1,3,0,3,17,40,11
9,4,13,1,3,0,3,17,40,11
9,4,15,1,4,0,3,17,132,11
9,4,2,0,5,1,3,17,132,11
9,4,14,1,0,0,3,17,93,11
9,4,5,0,4,0,3,17,57,8
10,4,11,1,1,0,4,17,49,11
10,4,11,1,1,0,4,17,67,11
10,4,2,0,2,0,4,17,21,11
10,4,19,1,2,0,4,17,93,11
10,4,4,0,3,0,4,17,90,11
10,4,4,0,3,0,4,17,60,11
10,4,5,0,3,0,4,17,49,11
10,4,5,0,3,0,4,17,90,11
10,4,0,0,6,1,4,17,90,11
10,4,10,1,6,1,4,17,104,11
10,4,17,1,0,0,4,17,104,11
10,4,14,1,2,0,4,17,77,11
10,4,16,1,2,0,4,17,67,11
10,4,10,1,4,0,4,17,93,11
10,4,17,1,4,0,4,17,47,8
10,4,4,0,6,1,4,17,100,11
10,4,18,1,0,0,4,17,90,11
10,4,6,0,1,0,4,17,80,9
10,4,8,1,3,0,4,17,132,11
10,4,11,1,4,0,4,17,132,11
10,4,22,0,4,0,4,17,112,11
10,4,19,1,5,1,4,17,24,11
10,4,19,1,5,1,4,17,77,11
10,4,22,0,6,1,4,17,21,11
10,4,1,0,1,0,4,17,21,11
10,4,6,0,2,0,4,17,82,11
10,4,21,0,5,1,4,17,93,11
10,4,18,1,6,1,4,17,59,11
10,4,22,0,6,1,4,17,90,11
10,4,1,0,0,0,4,17,93,11
10,4,19,1,0,0,4,17,93,11
11,4,14,1,1,0,4,17,67,11
11,4,15,1,1,0,4,17,67,11
11,4,16,1,1,0,4,17,132,9
11,4,17,1,3,0,4,17,67,11
11,4,23,0,2,0,4,17,132,11
11,4,14,1,3,0,4,17,104,11
11,4,21,0,3,0,4,17,104,11
11,4,20,1,5,1,4,17,14,11
11,4,3,0,2,0,4,17,33,11
11,4,10,1,4,0,4,17,93,11
11,4,18,1,0,0,4,17,40,11
11,4,21,0,0,0,4,17,16,11
11,4,22,0,0,0,4,17,21,11
11,4,21,0,1,0,4,17,67,11
11,4,14,1,2,0,4,17,67,11
11,4,16,1,2,0,4,17,14,11
11,4,7,1,0,0,4,17,90,11
12,1,17,1,3,0,4,17,67,11
12,1,14,1,4,0,4,17,93,11
12,1,15,1,5,1,4,17,67,11
12,1,20,1,0,0,4,17,21,11
12,1,11,1,4,0,4,17,73,8
12,1,18,1,4,0,4,17,32,11
12,1,0,0,0,0,4,17,90,11
12,1,3,0,0,0,4,17,90,11
12,1,23,0,1,0,4,17,109,11
12,1,5,0,2,0,4,17,109,11
12,1,18,1,2,0,4,17,40,11
12,1,15,1,3,0,4,17,90,11
12,1,16,1,3,0,4,17,40,11
12,1,22,0,3,0,4,17,132,11
12,1,3,0,6,1,4,17,21,11
12,1,15,1,6,1,4,17,40,11
12,1,21,0,6,1,4,17,40,11
12,1,22,0,6,1,4,17,40,11
12,1,14,1,0,0,4,17,21,11
12,1,5,0,1,0,4,17,100,11
12,1,8,1,2,0,4,17,90,11
12,1,19,1,5,1,4,17,40,11
12,1,19,1,0,0,4,17,49,11
12,1,21,0,0,0,4,17,14,11
12,1,6,0,1,0,4,17,132,11
12,1,17,1,3,0,4,17,21,11
12,1,0,0,5,1,4,17,132,11
1,1,3,0,4,0,1,17,93,11
1,1,18,1,4,0,1,17,104,11
2,1,16,1,2,0,1,17,93,11
2,1,20,1,3,0,1,17,132,11
3,2,12,1,6,1,1,17,104,11
3,2,7,1,0,0,1,17,132,11
3,2,16,1,2,0,1,17,58,11
3,2,17,1,6,1,1,17,14,11
3,2,14,1,2,0,1,17,27,9
4,2,10,1,6,1,2,17,104,11
4,2,15,1,3,0,2,17,104,9
4,2,11,1,6,1,2,17,93,11
4,2,11,1,4,0,2,17,93,11
4,2,5,0,3,0,2,17,93,11
5,2,0,0,6,1,2,17,93,11
5,2,12,1,5,1,2,17,75,11
5,2,19,1,4,0,2,17,93,11
5,2,16,1,4,0,2,17,93,11
6,3,12,1,3,0,2,17,93,11
6,3,10,1,2,0,2,17,90,11
6,3,8,1,2,0,2,17,132,11
6,3,14,1,5,1,2,17,93,11
6,3,15,1,3,0,2,17,104,11
6,3,13,1,3,0,2,17,104,11
7,3,10,1,4,0,3,17,93,11
8,3,11,1,4,0,3,17,86,11
8,3,5,0,4,0,3,17,38,11
9,4,7,1,1,0,3,17,93,11
10,4,22,0,0,0,4,17,24,11
12,1,14,1,3,0,4,17,90,11
12,1,19,1,5,1,4,17,90,11
12,1,12,1,0,0,4,17,24,8
1,1,6,0,6,1,1,50,77,11
1,1,5,0,6,1,1,50,21,11
1,1,7,1,3,0,1,50,3,11
1,1,10,1,5,1,1,50,77,11
2,1,14,1,3,0,1,50,129,11
2,1,14,1,0,0,1,50,14,11
2,1,15,1,4,0,1,50,28,11
2,1,13,1,6,1,1,50,58,11
2,1,13,1,6,1,1,50,3,11
2,1,8,1,0,0,1,50,58,9
2,1,17,1,1,0,1,50,3,11
2,1,17,1,1,0,1,50,58,11
2,1,12,1,3,0,1,50,3,11
2,1,15,1,3,0,1,50,3,11
3,2,10,1,2,0,1,50,3,11
3,2,12,1,5,1,1,50,89,11
3,2,18,1,5,1,1,50,3,11
3,2,15,1,2,0,1,50,112,11
3,2,11,1,2,0,1,50,28,11
3,2,10,1,2,0,1,50,3,11
3,2,10,1,2,0,1,50,3,11
3,2,16,1,5,1,1,50,13,9
4,2,23,0,2,0,2,50,3,11
4,2,12,1,5,1,2,50,3,11
4,2,13,1,6,1,2,50,3,11
4,2,11,1,3,0,2,50,3,11
4,2,4,0,5,1,2,50,93,11
5,2,19,1,2,0,2,50,3,11
6,3,16,1,2,0,2,50,132,11
6,3,23,0,0,0,2,50,93,11
6,3,13,1,6,1,2,50,104,11
7,3,19,1,1,0,3,50,15,11
8,3,21,0,5,1,3,50,104,11
8,3,14,1,6,1,3,50,3,11
8,3,10,1,6,1,3,50,49,11
8,3,15,1,3,0,3,50,90,11
8,3,18,1,0,0,3,50,8,11
8,3,12,1,3,0,3,50,77,11
9,4,10,1,4,0,3,50,104,11
9,4,11,1,3,0,3,50,11,11
9,4,7,1,1,0,3,50,3,11
9,4,17,1,1,0,3,50,93,11
10,4,4,0,4,0,4,50,80,11
10,4,16,1,6,1,4,50,93,11
10,4,4,0,4,0,4,50,77,8
11,4,9,1,5,1,4,50,93,11
11,4,13,1,5,1,4,50,93,11
11,4,10,1,0,0,4,50,3,11
11,4,16,1,6,1,4,50,3,11
12,1,12,1,3,0,4,50,112,11
6,3,5,0,4,0,2,50,80,11
8,3,6,0,0,0,3,50,104,11
1,1,22,0,4,0,1,50,104,11
1,1,22,0,1,0,1,50,93,11
1,1,1,0,3,0,1,50,100,11
1,1,23,0,1,0,1,50,90,11
1,1,13,1,4,0,1,50,100,11
1,1,11,1,1,0,1,50,40,11
1,1,16,1,1,0,1,50,90,11
1,1,19,1,2,0,1,50,100,11
1,1,13,1,6,1,1,50,100,11
1,1,19,1,6,1,1,50,104,11
1,1,0,0,0,0,1,50,104,11
1,1,2,0,0,0,1,50,104,11
1,1,2,0,0,0,1,50,104,11
1,1,2,0,0,0,1,50,104,11
1,1,23,0,3,0,1,50,90,11
1,1,17,1,6,1,1,50,104,11
1,1,17,1,6,1,1,50,77,11
2,1,0,0,1,0,1,50,104,11
2,1,20,1,2,0,1,50,34,11
2,1,20,1,3,0,1,50,58,11
2,1,3,0,5,1,1,50,21,11
2,1,12,1,5,1,1,50,93,11
2,1,1,0,6,1,1,50,90,11
2,1,6,0,6,1,1,50,21,11
2,1,14,1,1,0,1,50,93,11
2,1,22,0,2,0,1,50,93,11
2,1,23,0,2,0,1,50,67,11
2,1,16,1,4,0,1,50,93,11
2,1,12,1,5,1,1,50,67,11
2,1,19,1,1,0,1,50,93,11
2,1,12,1,2,0,1,50,93,11
2,1,22,0,2,0,1,50,93,11
2,1,21,0,5,1,1,50,93,11
2,1,16,1,0,0,1,50,28,11
3,2,3,0,2,0,1,50,21,11
3,2,23,0,4,0,1,50,132,11
3,2,2,0,5,1,1,50,132,11
3,2,21,0,5,1,1,50,67,11
3,2,1,0,3,0,1,50,90,11
3,2,10,1,3,0,1,50,59,11
3,2,22,0,4,0,1,50,40,11
3,2,19,1,6,1,1,50,93,11
3,2,21,0,6,1,1,50,104,11
3,2,11,1,2,0,1,50,93,11
4,2,23,0,4,0,2,50,132,9
4,2,2,0,5,1,2,50,67,11
4,2,14,1,0,0,2,50,104,11
4,2,18,1,3,0,2,50,40,11
4,2,22,0,4,0,2,50,130,11
4,2,21,0,6,1,2,50,77,11
4,2,4,0,3,0,2,50,121,11
4,2,0,0,0,0,2,50,93,11
4,2,11,1,1,0,2,50,93,11
4,2,16,1,2,0,2,50,93,11
4,2,21,0,5,1,2,50,93,9
5,2,0,0,6,1,2,50,93,11
5,2,1,0,6,1,2,50,90,11
5,2,18,1,6,1,2,50,104,11
5,2,19,1,6,1,2,50,100,11
5,2,20,1,1,0,2,50,104,11
5,2,4,0,3,0,2,50,40,11
5,2,16,1,3,0,2,50,93,11
5,2,1,0,6,1,2,50,21,9
5,2,11,1,0,0,2,50,90,11
5,2,14,1,1,0,2,50,104,11
5,2,22,0,5,1,2,50,121,11
5,2,21,0,0,0,2,50,40,11
5,2,6,0,0,0,2,50,21,11
5,2,2,0,3,0,2,50,60,11
5,2,11,1,4,0,2,50,77,11
5,2,15,1,4,0,2,50,104,11
5,2,12,1,5,1,2,50,93,11
5,2,22,0,5,1,2,50,67,11
6,3,14,1,3,0,2,50,21,9
6,3,16,1,3,0,2,50,78,9
6,3,7,1,4,0,2,50,132,11
6,3,14,1,5,1,2,50,67,11
6,3,15,1,1,0,2,50,67,11
6,3,22,0,2,0,2,50,93,11
6,3,3,0,4,0,2,50,100,11
6,3,3,0,4,0,2,50,100,11
6,3,3,0,4,0,2,50,100,11
6,3,4,0,4,0,2,50,100,11
6,3,13,1,6,1,2,50,104,11
6,3,1,0,0,0,2,50,100,11
7,3,0,0,4,0,3,50,100,11
7,3,14,1,4,0,3,50,93,11
7,3,4,0,3,0,3,50,2,11
7,3,12,1,4,0,3,50,125,11
7,3,16,1,4,0,3,50,93,11
7,3,21,0,4,0,3,50,67,11
7,3,14,1,0,0,3,50,28,11
7,3,12,1,5,1,3,50,93,11
7,3,17,1,2,0,3,50,90,11
8,3,20,1,2,0,3,50,40,11
8,3,22,0,6,1,3,50,90,11
8,3,13,1,0,0,3,50,67,11
8,3,7,1,2,0,3,50,77,11
8,3,14,1,2,0,3,50,90,9
8,3,23,0,0,0,3,50,67,9
8,3,20,1,2,0,3,50,21,11
8,3,0,0,6,1,3,50,100,9
8,3,21,0,1,0,3,50,21,9
8,3,14,1,2,0,3,50,67,11
9,4,3,0,4,0,3,50,67,11
9,4,10,1,6,1,3,50,49,11
9,4,9,1,0,0,3,50,21,11
9,4,18,1,5,1,3,50,93,11
9,4,4,0,1,0,3,50,115,8
9,4,12,1,5,1,3,50,100,11
9,4,20,1,5,1,3,50,40,11
9,4,10,1,1,0,3,50,93,11
9,4,23,0,4,0,3,50,104,11
9,4,23,0,4,0,3,50,104,11
9,4,19,1,4,0,3,50,67,11
9,4,23,0,5,1,3,50,90,11
9,4,22,0,6,1,3,50,67,9
9,4,22,0,0,0,3,50,100,11
10,4,4,0,2,0,4,50,58,11
10,4,11,1,2,0,4,50,67,11
10,4,10,1,0,0,4,50,2,11
10,4,12,1,0,0,4,50,93,9
10,4,10,1,2,0,4,50,21,11
10,4,19,1,4,0,4,50,14,11
10,4,14,1,5,1,4,50,67,11
10,4,19,1,5,1,4,50,93,11
10,4,5,0,6,1,4,50,132,11
10,4,13,1,6,1,4,50,21,11
10,4,9,1,2,0,4,50,90,11
10,4,1,0,4,0,4,50,90,11
10,4,15,1,5,1,4,50,132,11
10,4,18,1,5,1,4,50,67,11
10,4,19,1,5,1,4,50,93,11
10,4,18,1,0,0,4,50,60,11
11,4,21,0,1,0,4,50,21,11
11,4,20,1,2,0,4,50,49,8
11,4,8,1,3,0,4,50,40,11
11,4,12,1,5,1,4,50,58,11
11,4,19,1,5,1,4,50,131,11
11,4,20,1,5,1,4,50,80,11
11,4,11,1,6,1,4,50,132,11
11,4,13,1,1,0,4,50,132,11
11,4,21,0,2,0,4,50,40,11
11,4,12,1,4,0,4,50,86,9
11,4,15,1,5,1,4,50,93,11
11,4,23,0,5,1,4,50,132,11
11,4,4,0,0,0,4,50,90,9
11,4,2,0,3,0,4,50,132,11
11,4,15,1,6,1,4,50,90,11
11,4,6,0,0,0,4,50,90,11
11,4,12,1,0,0,4,50,93,11
11,4,13,1,3,0,4,50,67,11
11,4,13,1,3,0,4,50,67,11
11,4,14,1,4,0,4,50,93,11
12,1,14,1,4,0,4,50,77,11
12,1,17,1,5,1,4,50,108,11
12,1,11,1,6,1,4,50,132,11
12,1,21,0,1,0,4,50,72,11
12,1,20,1,2,0,4,50,90,11
12,1,17,1,4,0,4,50,93,11
12,1,18,1,5,1,4,50,90,11
12,1,18,1,5,1,4,50,90,11
12,1,20,1,2,0,4,50,77,11
12,1,9,1,3,0,4,50,91,11
12,1,18,1,3,0,4,50,104,11
12,1,18,1,3,0,4,50,90,11
12,1,21,0,3,0,4,50,90,11
12,1,16,1,5,1,4,50,67,11
12,1,22,0,6,1,4,50,90,11
12,1,19,1,0,0,4,50,67,11
12,1,11,1,2,0,4,50,90,11
12,1,17,1,5,1,4,50,77,11
12,1,18,1,6,1,4,50,40,11
12,1,11,1,0,0,4,50,90,11
2,1,23,0,2,0,1,50,40,11
3,2,14,1,0,0,1,50,93,11
6,3,15,1,4,0,2,50,104,11
6,3,8,1,5,1,2,50,93,11
8,3,20,1,0,0,3,50,21,11
9,4,20,1,3,0,3,50,21,9
10,4,1,0,5,1,4,50,13,11
10,4,15,1,6,1,4,50,14,11
11,4,14,1,1,0,4,50,104,11
8,3,20,1,4,0,3,50,104,11
8,3,15,1,2,0,3,50,21,9
11,4,15,1,2,0,4,50,104,11
12,1,20,1,1,0,4,50,104,11
1,1,13,1,1,0,1,41,93,11
1,1,19,1,2,0,1,41,74,11
1,1,23,0,2,0,1,41,74,11
1,1,9,1,5,1,1,41,93,11
1,1,20,1,1,0,1,41,93,11
1,1,17,1,6,1,1,41,49,9
2,1,17,1,4,0,1,41,14,9
2,1,7,1,1,0,1,41,132,11
2,1,6,0,6,1,1,41,109,8
2,1,6,0,6,1,1,41,109,11
2,1,7,1,3,0,1,41,81,9
2,1,18,1,6,1,1,41,93,9
3,2,9,1,4,0,1,41,40,11
3,2,12,1,5,1,1,41,21,9
4,2,14,1,4,0,2,41,66,11
4,2,18,1,5,1,2,41,100,11
4,2,0,0,5,1,2,41,100,11
5,2,4,0,3,0,2,41,86,11
5,2,14,1,1,0,2,41,77,11
5,2,12,1,3,0,2,41,40,9
5,2,14,1,3,0,2,41,40,11
5,2,6,0,5,1,2,41,13,9
5,2,12,1,4,0,2,41,67,11
6,3,8,1,6,1,2,41,93,11
7,3,14,1,4,0,3,41,93,11
7,3,0,0,1,0,3,41,100,11
7,3,21,0,2,0,3,41,51,11
8,3,9,1,2,0,3,41,21,9
8,3,14,1,6,1,3,41,67,11
8,3,18,1,0,0,3,41,104,11
9,4,3,0,6,1,3,41,90,11
9,4,8,1,2,0,3,41,104,11
9,4,13,1,2,0,3,41,104,11
9,4,4,0,6,1,3,41,40,11
9,4,23,0,1,0,3,41,132,11
9,4,20,1,3,0,3,41,67,11
9,4,18,1,0,0,3,41,129,11
9,4,15,1,0,0,3,41,129,11
9,4,16,1,2,0,3,41,132,11
10,4,17,1,1,0,4,41,90,11
10,4,15,1,4,0,4,41,132,11
10,4,22,0,5,1,4,41,67,9
10,4,16,1,1,0,4,41,28,11
10,4,16,1,1,0,4,41,67,11
10,4,17,1,2,0,4,41,66,11
10,4,11,1,5,1,4,41,74,11
10,4,10,1,6,1,4,41,28,11
11,4,14,1,1,0,4,41,14,11
11,4,13,1,4,0,4,41,67,8
11,4,16,1,2,0,4,41,14,11
12,1,0,0,0,0,4,41,40,11
12,1,0,0,2,0,4,41,77,11
12,1,22,0,0,0,4,41,67,11
12,1,13,1,6,1,4,41,90,11
4,2,23,0,5,1,2,41,77,9
7,3,14,1,4,0,3,41,129,11
8,3,13,1,0,0,3,41,93,11
8,3,12,1,4,0,3,41,21,8
8,3,18,1,6,1,3,41,21,9
10,4,9,1,1,0,4,41,3,11
9,4,1,0,3,0,3,41,90,11
11,4,10,1,4,0,4,41,104,8
2,1,23,0,1,0,1,41,40,9
3,2,10,1,0,0,1,41,21,11
6,3,10,1,6,1,2,41,21,11
8,3,21,0,4,0,3,41,14,11
12,1,15,1,5,1,4,41,40,8
10,4,13,1,0,0,4,41,40,11
6,3,9,1,3,0,2,41,93,11
12,1,12,1,5,1,4,41,132,11
1,1,10,1,2,0,1,32,93,11
1,1,0,0,1,0,1,32,77,11
2,1,10,1,3,0,1,32,67,11
2,1,14,1,6,1,1,32,67,11
3,2,1,0,1,0,1,32,21,11
3,2,3,0,4,0,1,32,100,11
3,2,2,0,6,1,1,32,40,11
3,2,4,0,5,1,1,32,132,11
3,2,8,1,2,0,1,32,59,8
5,2,19,1,3,0,2,32,77,11
6,3,18,1,1,0,2,32,104,11
7,3,4,0,6,1,3,32,93,11
7,3,15,1,6,1,3,32,21,11
8,3,3,0,6,1,3,32,80,9
9,4,14,1,1,0,3,32,67,11
9,4,14,1,2,0,3,32,90,11
9,4,9,1,0,0,3,32,67,11
10,4,21,0,6,1,4,32,93,11
10,4,12,1,5,1,4,32,104,11
10,4,17,1,5,1,4,32,86,11
10,4,20,1,4,0,4,32,93,11
10,4,16,1,0,0,4,32,112,11
11,4,12,1,2,0,4,32,81,11
11,4,8,1,5,1,4,32,132,11
11,4,12,1,5,1,4,32,100,11
11,4,8,1,2,0,4,32,104,11
12,1,0,0,6,1,4,32,65,11
12,1,17,1,3,0,4,32,77,11
12,1,9,1,2,0,4,32,77,11
12,1,14,1,5,1,4,32,77,11
12,1,16,1,0,0,4,32,90,11
5,2,12,1,6,1,2,32,104,11
9,4,15,1,1,0,3,32,112,11
10,4,20,1,5,1,4,32,104,11
10,4,11,1,6,1,4,32,112,11
1,1,12,1,3,0,1,32,49,11
2,1,8,1,3,0,1,32,93,11
2,1,14,1,6,1,1,32,93,11
2,1,11,1,4,0,1,32,67,9
3,2,14,1,3,0,1,32,49,11
4,2,13,1,1,0,2,32,77,11
4,2,10,1,1,0,2,32,77,11
6,3,17,1,5,1,2,32,21,11
6,3,11,1,3,0,2,32,40,11
8,3,20,1,0,0,3,32,13,11
8,3,11,1,0,0,3,32,90,11
12,1,9,1,2,0,4,32,67,11
1,1,4,0,5,1,1,32,40,11
1,1,0,0,2,0,1,32,90,11
1,1,17,1,3,0,1,32,40,11
2,1,20,1,0,0,1,32,104,11
3,2,23,0,2,0,1,32,90,11
3,2,23,0,5,1,1,32,93,11
5,2,23,0,6,1,2,32,90,11
8,3,13,1,3,0,3,32,104,11
9,4,8,1,6,1,3,32,59,11
11,4,11,1,4,0,4,32,93,11
12,1,18,1,5,1,4,32,90,11
1,1,13,1,2,0,1,24,132,11
1,1,10,1,4,0,1,24,21,11
2,1,19,1,4,0,1,24,132,11
2,1,22,0,1,0,1,24,132,11
2,1,15,1,0,0,1,24,77,11
6,3,6,0,5,1,2,24,132,11
7,3,12,1,4,0,3,24,132,11
8,3,9,1,6,1,3,24,77,9
9,4,3,0,1,0,3,24,90,11
9,4,17,1,2,0,3,24,86,11
10,4,21,0,1,0,4,24,93,11
12,1,8,1,1,0,4,24,77,11
4,2,0,0,3,0,2,24,132,11
4,2,6,0,1,0,2,24,132,11
4,2,21,0,3,0,2,24,132,11
6,3,12,1,4,0,2,24,104,11
6,3,11,1,2,0,2,24,104,11
7,3,5,0,4,0,3,24,132,11
9,4,12,1,1,0,3,24,77,11
11,4,5,0,3,0,4,24,132,11
11,4,13,1,4,0,4,24,132,11
11,4,10,1,4,0,4,24,21,11
12,1,6,0,2,0,4,24,77,11
7,3,18,1,3,0,3,24,70,11
8,3,19,1,2,0,3,24,112,11
1,1,19,1,4,0,1,24,67,11
1,1,8,1,2,0,1,24,67,11
1,1,13,1,2,0,1,24,77,11
1,1,19,1,4,0,1,24,132,11
1,1,21,0,5,1,1,24,67,11
2,1,15,1,1,0,1,24,14,11
2,1,0,0,2,0,1,24,132,11
2,1,10,1,1,0,1,24,67,11
2,1,22,0,3,0,1,24,40,11
2,1,12,1,6,1,1,24,15,11
2,1,13,1,6,1,1,24,132,11
3,2,20,1,1,0,1,24,24,11
3,2,16,1,1,0,1,24,132,11
3,2,18,1,5,1,1,24,21,11
4,2,10,1,1,0,2,24,104,11
4,2,20,1,2,0,2,24,132,11
4,2,21,0,2,0,2,24,67,9
5,2,15,1,0,0,2,24,67,11
5,2,2,0,5,1,2,24,132,11
5,2,3,0,5,1,2,24,132,11
5,2,1,0,0,0,2,24,3,11
5,2,22,0,3,0,2,24,77,11
5,2,12,1,5,1,2,24,14,11
5,2,2,0,6,1,2,24,49,11
5,2,3,0,2,0,2,24,67,11
6,3,10,1,0,0,2,24,103,11
6,3,16,1,5,1,2,24,86,11
6,3,12,1,0,0,2,24,77,11
6,3,17,1,4,0,2,24,15,11
6,3,23,0,0,0,2,24,104,11
6,3,2,0,1,0,2,24,104,11
6,3,7,1,4,0,2,24,104,11
6,3,12,1,4,0,2,24,21,9
6,3,3,0,6,1,2,24,104,11
6,3,14,1,2,0,2,24,132,11
6,3,0,0,3,0,2,24,132,11
7,3,0,0,6,1,3,24,132,11
7,3,0,0,1,0,3,24,104,11
7,3,4,0,6,1,3,24,132,11
8,3,11,1,0,0,3,24,21,11
8,3,19,1,3,0,3,24,77,11
8,3,6,0,0,0,3,24,67,11
8,3,22,0,4,0,3,24,132,11
8,3,1,0,5,1,3,24,132,11
8,3,19,1,0,0,3,24,132,11
8,3,14,1,1,0,3,24,93,11
8,3,11,1,3,0,3,24,78,11
8,3,21,0,3,0,3,24,104,11
8,3,10,1,5,1,3,24,40,9
8,3,2,0,6,1,3,24,110,11
8,3,23,0,2,0,3,24,59,8
9,4,9,1,3,0,3,24,86,11
9,4,17,1,0,0,3,24,59,11
10,4,14,1,0,0,4,24,67,9
10,4,0,0,1,0,4,24,49,9
10,4,19,1,5,1,4,24,50,11
10,4,15,1,6,1,4,24,67,11
10,4,16,1,2,0,4,24,44,11
10,4,13,1,0,0,4,24,104,11
11,4,2,0,2,0,4,24,70,11
11,4,14,1,3,0,4,24,14,8
11,4,10,1,4,0,4,24,132,11
11,4,10,1,5,1,4,24,67,11
11,4,22,0,0,0,4,24,77,11
11,4,14,1,1,0,4,24,132,11
12,1,18,1,3,0,4,24,77,11
12,1,15,1,1,0,4,24,132,11
12,1,7,1,0,0,4,24,59,11
12,1,9,1,2,0,4,24,21,11
12,1,1,0,2,0,4,24,132,11
12,1,1,0,4,0,4,24,49,11
12,1,20,1,5,1,4,24,132,11
1,1,6,0,6,1,1,34,100,11
1,1,10,1,3,0,1,34,86,11
2,1,14,1,6,1,1,34,67,11
2,1,22,0,6,1,1,34,67,9
3,2,14,1,5,1,1,34,40,11
3,2,5,0,6,1,1,34,90,11
3,2,14,1,6,1,1,34,102,11
4,2,19,1,3,0,2,34,93,11
4,2,13,1,3,0,2,34,93,11
4,2,11,1,0,0,2,34,40,11
4,2,19,1,3,0,2,34,132,11
4,2,14,1,5,1,2,34,93,11
5,2,21,0,6,1,2,34,100,11
5,2,6,0,1,0,2,34,102,11
5,2,15,1,0,0,2,34,104,11
5,2,6,0,2,0,2,34,132,11
5,2,1,0,5,1,2,34,132,11
5,2,20,1,4,0,2,34,90,11
6,3,23,0,3,0,2,34,104,11
6,3,15,1,1,0,2,34,49,11
6,3,11,1,4,0,2,34,49,11
6,3,21,0,5,1,2,34,90,11
6,3,22,0,3,0,2,34,132,11
6,3,7,1,5,1,2,34,132,11
7,3,19,1,4,0,3,34,21,11
7,3,23,0,3,0,3,34,40,11
7,3,0,0,1,0,3,34,86,11
8,3,14,1,0,0,3,34,93,11
8,3,15,1,4,0,3,34,132,11
8,3,11,1,0,0,3,34,67,8
8,3,17,1,2,0,3,34,81,11
8,3,2,0,6,1,3,34,21,11
8,3,12,1,6,1,3,34,103,9
8,3,0,0,0,0,3,34,132,11
9,4,1,0,4,0,3,34,58,11
9,4,20,1,2,0,3,34,51,11
10,4,11,1,2,0,4,34,93,11
10,4,14,1,3,0,4,34,21,11
10,4,9,1,4,0,4,34,104,11
11,4,20,1,2,0,4,34,40,11
11,4,17,1,0,0,4,34,93,11
11,4,18,1,4,0,4,34,67,11
11,4,23,0,3,0,4,34,93,11
11,4,17,1,0,0,4,34,67,11
11,4,5,0,0,0,4,34,49,11
12,1,19,1,2,0,4,34,69,11
12,1,21,0,2,0,4,34,132,11
12,1,12,1,6,1,4,34,93,11
12,1,14,1,6,1,4,34,67,11
12,1,16,1,2,0,4,34,104,11
12,1,21,0,3,0,4,34,104,11
12,1,22,0,5,1,4,34,40,11
12,1,16,1,2,0,4,34,67,11
12,1,16,1,4,0,4,34,132,11
8,3,19,1,5,1,3,34,91,11
9,4,21,0,5,1,3,34,13,9
10,4,16,1,3,0,4,34,21,11
1,1,16,1,4,0,1,25,67,11
1,1,15,1,5,1,1,25,90,11
1,1,18,1,1,0,1,25,40,11
1,1,12,1,1,0,1,25,112,11
2,1,19,1,2,0,1,25,40,11
2,1,21,0,4,0,1,25,90,11
2,1,8,1,2,0,1,25,21,11
2,1,14,1,0,0,1,25,21,11
3,2,17,1,1,0,1,25,90,11
3,2,19,1,5,1,1,25,102,11
4,2,1,0,1,0,2,25,21,11
4,2,17,1,5,1,2,25,90,11
4,2,12,1,6,1,2,25,102,11
4,2,21,0,0,0,2,25,90,11
4,2,13,1,6,1,2,25,1,11
5,2,15,1,6,1,2,25,102,11
5,2,17,1,1,0,2,25,21,11
5,2,10,1,6,1,2,25,104,11
5,2,11,1,3,0,2,25,93,11
6,3,20,1,3,0,2,25,21,8
6,3,21,0,1,0,2,25,90,11
6,3,15,1,0,0,2,25,66,11
7,3,17,1,3,0,3,25,86,11
7,3,10,1,2,0,3,25,93,11
8,3,21,0,1,0,3,25,112,11
8,3,18,1,5,1,3,25,77,11
8,3,18,1,1,0,3,25,93,11
8,3,17,1,5,1,3,25,77,11
8,3,21,0,6,1,3,25,93,11
8,3,22,0,0,0,3,25,93,11
9,4,19,1,5,1,3,25,28,11
10,4,11,1,3,0,4,25,93,11
11,4,12,1,6,1,4,25,104,11
11,4,6,0,0,0,4,25,90,11
12,1,21,0,0,0,4,25,132,11
12,1,7,1,4,0,4,25,29,11
12,1,13,1,6,1,4,25,115,11
12,1,19,1,1,0,4,25,77,11
12,1,14,1,2,0,4,25,21,11
12,1,17,1,3,0,4,25,90,11
12,1,15,1,3,0,4,25,28,11
1,1,19,1,1,0,1,25,90,11
5,2,9,1,4,0,2,25,77,11
8,3,14,1,1,0,3,25,90,11
8,3,0,0,6,1,3,25,59,11
8,3,6,0,1,0,3,25,112,11
11,4,22,0,0,0,4,25,40,11
12,1,18,1,5,1,4,25,90,11
12,1,13,1,3,0,4,25,77,11
2,1,18,1,5,1,1,25,93,11
5,2,21,0,4,0,2,25,112,11
6,3,15,1,5,1,2,25,14,11
1,1,14,1,6,1,1,25,77,11
1,1,11,1,4,0,1,14,132,11
1,1,22,0,5,1,1,14,77,11
1,1,7,1,2,0,1,14,29,11
1,1,21,0,5,1,1,14,77,11
2,1,10,1,5,1,1,14,40,11
3,2,2,0,5,1,1,14,77,11
4,2,20,1,5,1,2,14,59,11
4,2,23,0,6,1,2,14,93,11
4,2,14,1,2,0,2,14,77,11
4,2,12,1,3,0,2,14,77,11
4,2,22,0,5,1,2,14,67,11
4,2,21,0,6,1,2,14,40,8
4,2,2,0,3,0,2,14,77,11
4,2,8,1,3,0,2,14,90,11
5,2,13,1,4,0,2,14,21,11
5,2,23,0,0,0,2,14,90,11
6,3,2,0,3,0,2,14,77,11
6,3,12,1,5,1,2,14,86,11
7,3,15,1,1,0,3,14,93,11
7,3,7,1,6,1,3,14,77,9
7,3,12,1,3,0,3,14,59,11
8,3,3,0,3,0,3,14,77,9
9,4,20,1,2,0,3,14,24,11
9,4,16,1,3,0,3,14,67,11
9,4,6,0,1,0,3,14,67,11
9,4,1,0,6,1,3,14,90,11
10,4,19,1,5,1,4,14,93,11
10,4,14,1,4,0,4,14,129,11
10,4,13,1,5,1,4,14,77,11
10,4,8,1,4,0,4,14,112,11
11,4,18,1,2,0,4,14,77,11
11,4,15,1,3,0,4,14,77,11
11,4,22,0,3,0,4,14,90,11
11,4,6,0,4,0,4,14,112,11
11,4,23,0,4,0,4,14,21,11
11,4,14,1,3,0,4,14,104,11
11,4,21,0,2,0,4,14,90,11
11,4,19,1,3,0,4,14,40,11
12,1,6,0,4,0,4,14,90,11
12,1,3,0,1,0,4,14,105,8
12,1,5,0,1,0,4,14,112,11
12,1,12,1,0,0,4,14,90,9
12,1,18,1,2,0,4,14,14,9
12,1,15,1,4,0,4,14,132,11
12,1,12,1,1,0,4,14,40,11
12,1,17,1,6,1,4,14,90,11
12,1,11,1,0,0,4,14,104,11
12,1,17,1,1,0,4,14,77,11
12,1,10,1,5,1,4,14,132,11
12,1,16,1,5,1,4,14,132,11
12,1,15,1,6,1,4,14,129,11
