@Relation urban_new_2017_fold1_train

@ATTRIBUTE f1_minas          NUMERIC  % Μήνας (1-12)
@ATTRIBUTE f2_epochi         NUMERIC  % Εποχή (1=Χειμ 2=Άνοιξ 3=Καλοκ 4=Φθιν)
@ATTRIBUTE f3_ora            NUMERIC  % Ώρα ημέρας (0-23)
@ATTRIBUTE f4_mera_nyxta     NUMERIC  % Μέρα=1 Νύχτα=0
@ATTRIBUTE f5_imera_evdom    NUMERIC  % Ημέρα εβδομάδας (0=Δευτ 6=Κυρ)
@ATTRIBUTE f6_savvatokyriako NUMERIC  % Σαββ/κο=1 Καθημ=0
@ATTRIBUTE f7_trimino        NUMERIC  % Τρίμηνο (1-4)
@ATTRIBUTE f8_nomos          NUMERIC  % Κωδικός Νομού
@ATTRIBUTE f9_typos_xorou    NUMERIC  % Κωδικός τύπου χώρου
@ATTRIBUTE class             {8,9,11} % 8=Μεγάλη 9=Μεσαία 11=Μικρή

@DATA
2,1,14,1,4,0,1,5,95,11
2,1,7,1,1,0,1,5,81,8
2,1,5,0,2,0,1,5,95,11
2,1,14,1,1,0,1,5,107,11
3,2,13,1,1,0,1,5,95,11
3,2,16,1,4,0,1,5,95,11
3,2,19,1,1,0,1,5,95,11
3,2,10,1,4,0,1,5,3,11
3,2,17,1,4,0,1,5,95,11
3,2,14,1,2,0,1,5,107,11
4,2,23,0,6,1,2,5,95,11
4,2,16,1,6,1,2,5,95,11
4,2,13,1,0,0,2,5,95,11
4,2,18,1,3,0,2,5,95,11
4,2,15,1,3,0,2,5,107,11
4,2,20,1,6,1,2,5,95,11
4,2,16,1,4,0,2,5,95,11
4,2,11,1,2,0,2,5,95,11
5,2,19,1,4,0,2,5,95,11
6,3,18,1,6,1,2,5,79,11
6,3,10,1,2,0,2,5,95,11
8,3,14,1,4,0,3,5,84,11
10,4,22,0,6,1,4,5,95,11
10,4,15,1,2,0,4,5,95,11
10,4,13,1,4,0,4,5,95,11
10,4,21,0,6,1,4,5,95,11
10,4,10,1,4,0,4,5,95,11
10,4,4,0,1,0,4,5,121,11
12,1,8,1,0,0,4,5,95,11
12,1,19,1,3,0,4,5,95,11
1,1,21,0,5,1,1,5,5,11
1,1,16,1,1,0,1,5,15,11
4,2,0,0,0,0,2,5,101,11
4,2,9,1,1,0,2,5,112,11
7,3,22,0,6,1,3,5,4,11
8,3,12,1,3,0,3,5,107,11
11,4,22,0,2,0,4,5,5,11
1,1,5,0,6,1,1,5,93,11
1,1,6,0,6,1,1,5,93,11
1,1,6,0,6,1,1,5,93,11
1,1,22,0,0,0,1,5,8,11
1,1,19,1,1,0,1,5,93,11
1,1,22,0,1,0,1,5,93,11
1,1,3,0,2,0,1,5,93,11
1,1,9,1,2,0,1,5,71,11
1,1,20,1,2,0,1,5,93,11
1,1,18,1,2,0,1,5,32,11
1,1,17,1,2,0,1,5,32,11
1,1,2,0,3,0,1,5,93,11
1,1,19,1,3,0,1,5,93,11
1,1,22,0,4,0,1,5,81,11
1,1,15,1,5,1,1,5,71,11
1,1,20,1,6,1,1,5,8,11
1,1,19,1,0,0,1,5,71,11
1,1,10,1,1,0,1,5,89,11
1,1,9,1,3,0,1,5,102,11
1,1,20,1,3,0,1,5,102,11
1,1,12,1,4,0,1,5,51,11
1,1,20,1,4,0,1,5,71,11
1,1,20,1,5,1,1,5,8,11
1,1,7,1,5,1,1,5,93,11
1,1,21,0,5,1,1,5,93,11
1,1,2,0,0,0,1,5,81,11
1,1,2,0,1,0,1,5,121,11
1,1,12,1,2,0,1,5,8,11
1,1,17,1,3,0,1,5,71,11
1,1,17,1,3,0,1,5,79,11
1,1,19,1,3,0,1,5,93,11
1,1,15,1,4,0,1,5,71,11
1,1,7,1,4,0,1,5,93,11
1,1,23,0,4,0,1,5,93,11
1,1,22,0,4,0,1,5,93,11
1,1,12,1,4,0,1,5,93,11
1,1,23,0,4,0,1,5,93,11
1,1,0,0,6,1,1,5,89,9
1,1,18,1,6,1,1,5,71,11
1,1,1,0,0,0,1,5,93,11
1,1,2,0,0,0,1,5,93,11
1,1,1,0,2,0,1,5,93,11
1,1,20,1,2,0,1,5,93,11
1,1,14,1,2,0,1,5,93,11
1,1,9,1,3,0,1,5,71,11
1,1,21,0,3,0,1,5,93,11
1,1,20,1,3,0,1,5,93,11
1,1,14,1,4,0,1,5,71,11
1,1,7,1,4,0,1,5,93,11
1,1,1,0,4,0,1,5,93,11
1,1,15,1,5,1,1,5,93,11
1,1,21,0,5,1,1,5,93,11
1,1,18,1,5,1,1,5,71,11
1,1,3,0,6,1,1,5,93,11
1,1,16,1,6,1,1,5,71,11
1,1,14,1,6,1,1,5,93,11
1,1,22,0,6,1,1,5,93,11
1,1,2,0,0,0,1,5,93,11
1,1,12,1,0,0,1,5,51,9
1,1,19,1,0,0,1,5,93,11
1,1,20,1,0,0,1,5,71,11
1,1,1,0,1,0,1,5,93,11
1,1,23,0,1,0,1,5,93,11
1,1,15,1,1,0,1,5,71,11
2,1,22,0,2,0,1,5,71,11
2,1,1,0,5,1,1,5,93,11
2,1,19,1,5,1,1,5,71,8
2,1,0,0,6,1,1,5,93,11
2,1,13,1,6,1,1,5,71,11
2,1,22,0,6,1,1,5,71,11
2,1,14,1,2,0,1,5,32,11
2,1,18,1,3,0,1,5,71,11
2,1,1,0,4,0,1,5,93,11
2,1,12,1,6,1,1,5,93,11
2,1,21,0,6,1,1,5,71,11
2,1,17,1,0,0,1,5,46,11
2,1,1,0,1,0,1,5,71,11
2,1,10,1,1,0,1,5,115,11
2,1,20,1,2,0,1,5,93,11
2,1,13,1,3,0,1,5,71,11
2,1,2,0,4,0,1,5,93,11
2,1,11,1,4,0,1,5,93,11
2,1,21,0,5,1,1,5,93,11
2,1,19,1,5,1,1,5,93,11
2,1,21,0,6,1,1,5,71,11
2,1,4,0,6,1,1,5,93,11
2,1,20,1,6,1,1,5,8,11
2,1,17,1,6,1,1,5,34,11
2,1,3,0,0,0,1,5,102,11
2,1,10,1,0,0,1,5,93,11
2,1,2,0,2,0,1,5,71,11
2,1,3,0,2,0,1,5,93,11
2,1,2,0,2,0,1,5,93,11
2,1,21,0,2,0,1,5,93,11
2,1,16,1,3,0,1,5,41,11
2,1,23,0,3,0,1,5,93,11
2,1,4,0,4,0,1,5,93,11
2,1,11,1,4,0,1,5,111,11
2,1,1,0,6,1,1,5,62,11
2,1,13,1,6,1,1,5,71,11
2,1,4,0,0,0,1,5,31,11
2,1,3,0,0,0,1,5,31,11
2,1,14,1,0,0,1,5,66,11
3,2,5,0,2,0,1,5,93,11
3,2,11,1,2,0,1,5,71,11
3,2,9,1,3,0,1,5,71,11
3,2,17,1,3,0,1,5,93,11
3,2,20,1,4,0,1,5,7,11
3,2,22,0,4,0,1,5,71,11
3,2,23,0,4,0,1,5,93,11
3,2,6,0,5,1,1,5,93,11
3,2,5,0,5,1,1,5,93,11
3,2,21,0,5,1,1,5,93,11
3,2,4,0,6,1,1,5,93,11
3,2,17,1,6,1,1,5,71,11
3,2,12,1,0,0,1,5,7,11
3,2,14,1,0,0,1,5,71,11
3,2,7,1,1,0,1,5,84,11
3,2,11,1,4,0,1,5,103,11
3,2,13,1,5,1,1,5,93,11
3,2,1,0,5,1,1,5,93,11
3,2,11,1,5,1,1,5,93,11
3,2,4,0,0,0,1,5,93,11
3,2,7,1,0,0,1,5,93,11
3,2,22,0,0,0,1,5,71,11
3,2,19,1,2,0,1,5,71,11
3,2,0,0,4,0,1,5,93,11
3,2,17,1,6,1,1,5,71,11
3,2,7,1,6,1,1,5,93,11
3,2,1,0,0,0,1,5,93,11
3,2,3,0,0,0,1,5,93,11
3,2,9,1,0,0,1,5,71,11
3,2,1,0,1,0,1,5,7,11
3,2,16,1,1,0,1,5,93,11
3,2,13,1,2,0,1,5,71,11
3,2,11,1,3,0,1,5,93,11
3,2,22,0,4,0,1,5,93,11
3,2,20,1,5,1,1,5,93,11
3,2,11,1,5,1,1,5,105,11
3,2,17,1,6,1,1,5,8,11
3,2,21,0,1,0,1,5,93,11
3,2,1,0,4,0,1,5,71,11
3,2,1,0,4,0,1,5,93,11
3,2,9,1,4,0,1,5,93,11
4,2,11,1,5,1,2,5,71,11
4,2,11,1,5,1,2,5,93,11
4,2,21,0,5,1,2,5,71,11
4,2,13,1,2,0,2,5,33,11
4,2,11,1,3,0,2,5,51,11
4,2,3,0,4,0,2,5,71,11
4,2,19,1,4,0,2,5,120,9
4,2,11,1,4,0,2,5,93,11
4,2,21,0,4,0,2,5,47,11
4,2,0,0,5,1,2,5,120,11
4,2,4,0,5,1,2,5,120,9
4,2,23,0,5,1,2,5,93,11
4,2,14,1,5,1,2,5,93,11
4,2,5,0,5,1,2,5,93,11
4,2,8,1,5,1,2,5,71,11
4,2,20,1,5,1,2,5,71,11
4,2,1,0,6,1,2,5,51,11
4,2,23,0,0,0,2,5,93,11
4,2,23,0,0,0,2,5,93,11
4,2,0,0,0,0,2,5,93,11
4,2,5,0,1,0,2,5,93,11
4,2,7,1,1,0,2,5,93,11
4,2,10,1,3,0,2,5,51,11
4,2,15,1,3,0,2,5,71,8
4,2,7,1,3,0,2,5,93,11
4,2,0,0,4,0,2,5,71,11
4,2,16,1,4,0,2,5,71,11
4,2,15,1,4,0,2,5,93,11
4,2,22,0,5,1,2,5,71,11
4,2,17,1,5,1,2,5,71,9
4,2,14,1,5,1,2,5,71,11
4,2,1,0,6,1,2,5,93,11
4,2,7,1,6,1,2,5,71,8
4,2,18,1,6,1,2,5,102,11
4,2,17,1,6,1,2,5,71,11
4,2,5,0,0,0,2,5,93,11
4,2,6,0,0,0,2,5,93,11
4,2,6,0,0,0,2,5,93,11
4,2,12,1,0,0,2,5,93,11
4,2,3,0,1,0,2,5,102,11
4,2,8,1,1,0,2,5,93,11
4,2,18,1,1,0,2,5,93,11
4,2,20,1,2,0,2,5,84,11
4,2,1,0,3,0,2,5,93,11
4,2,2,0,3,0,2,5,93,11
4,2,4,0,3,0,2,5,93,11
4,2,12,1,4,0,2,5,93,11
4,2,13,1,4,0,2,5,71,11
4,2,13,1,0,0,2,5,71,11
4,2,11,1,1,0,2,5,8,11
4,2,19,1,2,0,2,5,93,11
4,2,0,0,3,0,2,5,102,11
4,2,22,0,4,0,2,5,93,11
4,2,22,0,4,0,2,5,93,11
4,2,4,0,4,0,2,5,93,11
4,2,4,0,4,0,2,5,93,11
4,2,17,1,5,1,2,5,71,11
4,2,4,0,5,1,2,5,93,11
4,2,20,1,5,1,2,5,93,11
4,2,3,0,6,1,2,5,93,11
4,2,19,1,6,1,2,5,93,11
5,2,20,1,1,0,2,5,71,11
5,2,7,1,1,0,2,5,20,11
5,2,14,1,1,0,2,5,82,11
5,2,8,1,2,0,2,5,20,11
5,2,10,1,4,0,2,5,51,11
5,2,21,0,6,1,2,5,102,11
5,2,10,1,0,0,2,5,93,11
5,2,17,1,1,0,2,5,93,11
5,2,19,1,1,0,2,5,93,11
5,2,20,1,3,0,2,5,7,8
5,2,15,1,4,0,2,5,102,11
5,2,2,0,0,0,2,5,20,11
5,2,4,0,0,0,2,5,93,11
5,2,4,0,0,0,2,5,102,11
5,2,7,1,1,0,2,5,30,11
5,2,14,1,2,0,2,5,20,8
5,2,11,1,3,0,2,5,51,11
5,2,10,1,3,0,2,5,71,11
5,2,2,0,3,0,2,5,102,11
5,2,23,0,4,0,2,5,20,11
5,2,22,0,5,1,2,5,71,11
5,2,4,0,5,1,2,5,20,8
5,2,7,1,5,1,2,5,93,11
5,2,3,0,5,1,2,5,93,11
5,2,5,0,6,1,2,5,20,11
5,2,2,0,6,1,2,5,82,11
5,2,11,1,3,0,2,5,20,11
5,2,14,1,3,0,2,5,107,11
5,2,10,1,4,0,2,5,71,11
5,2,5,0,4,0,2,5,93,11
5,2,20,1,4,0,2,5,7,8
5,2,4,0,5,1,2,5,93,11
5,2,20,1,6,1,2,5,71,11
5,2,22,0,6,1,2,5,20,11
5,2,22,0,1,0,2,5,93,11
5,2,21,0,2,0,2,5,18,11
6,3,15,1,4,0,2,5,8,11
6,3,15,1,6,1,2,5,30,11
6,3,1,0,6,1,2,5,102,11
6,3,13,1,1,0,2,5,71,11
6,3,11,1,4,0,2,5,71,11
6,3,10,1,4,0,2,5,71,8
6,3,17,1,4,0,2,5,71,11
6,3,22,0,4,0,2,5,86,11
6,3,23,0,5,1,2,5,102,11
6,3,6,0,6,1,2,5,6,11
6,3,18,1,6,1,2,5,71,11
6,3,17,1,1,0,2,5,20,11
6,3,21,0,3,0,2,5,70,11
6,3,10,1,3,0,2,5,93,11
6,3,14,1,3,0,2,5,71,11
6,3,7,1,4,0,2,5,71,11
6,3,18,1,5,1,2,5,71,11
6,3,23,0,1,0,2,5,93,11
6,3,22,0,1,0,2,5,93,11
6,3,1,0,4,0,2,5,102,11
6,3,5,0,4,0,2,5,102,11
6,3,2,0,4,0,2,5,20,11
6,3,2,0,4,0,2,5,93,11
6,3,16,1,5,1,2,5,93,11
6,3,4,0,5,1,2,5,93,11
6,3,1,0,5,1,2,5,93,11
6,3,0,0,5,1,2,5,93,11
6,3,17,1,6,1,2,5,93,11
6,3,23,0,0,0,2,5,20,11
6,3,16,1,1,0,2,5,86,11
6,3,19,1,1,0,2,5,71,11
6,3,0,0,2,0,2,5,93,11
6,3,23,0,2,0,2,5,102,11
6,3,13,1,2,0,2,5,93,11
6,3,1,0,3,0,2,5,93,11
6,3,7,1,3,0,2,5,102,11
6,3,23,0,3,0,2,5,93,11
6,3,16,1,4,0,2,5,93,11
6,3,11,1,4,0,2,5,71,11
7,3,0,0,5,1,3,5,93,11
7,3,12,1,5,1,3,5,93,11
7,3,16,1,6,1,3,5,20,11
7,3,15,1,6,1,3,5,93,11
7,3,2,0,6,1,3,5,71,11
7,3,17,1,0,0,3,5,93,11
7,3,10,1,1,0,3,5,93,11
7,3,17,1,1,0,3,5,71,11
7,3,15,1,2,0,3,5,93,11
7,3,11,1,3,0,3,5,71,11
7,3,22,0,3,0,3,5,8,11
7,3,18,1,4,0,3,5,71,11
7,3,23,0,4,0,3,5,93,11
7,3,14,1,5,1,3,5,71,11
7,3,11,1,6,1,3,5,71,11
7,3,3,0,6,1,3,5,93,11
7,3,10,1,0,0,3,5,71,11
7,3,7,1,1,0,3,5,71,11
7,3,14,1,1,0,3,5,71,11
7,3,5,0,2,0,3,5,93,11
7,3,10,1,2,0,3,5,71,11
7,3,19,1,2,0,3,5,93,11
7,3,9,1,4,0,3,5,71,11
7,3,23,0,5,1,3,5,8,11
7,3,22,0,5,1,3,5,93,11
7,3,15,1,6,1,3,5,71,11
7,3,17,1,0,0,3,5,93,11
7,3,10,1,1,0,3,5,71,11
7,3,0,0,2,0,3,5,93,11
7,3,0,0,2,0,3,5,93,11
7,3,5,0,2,0,3,5,93,11
7,3,15,1,3,0,3,5,93,11
7,3,11,1,3,0,3,5,30,8
7,3,10,1,3,0,3,5,93,11
7,3,10,1,4,0,3,5,71,11
7,3,16,1,4,0,3,5,71,11
7,3,3,0,5,1,3,5,71,11
7,3,3,0,6,1,3,5,93,11
7,3,4,0,6,1,3,5,93,11
7,3,19,1,3,0,3,5,62,11
7,3,12,1,4,0,3,5,71,11
7,3,11,1,4,0,3,5,71,11
7,3,11,1,5,1,3,5,71,11
7,3,12,1,5,1,3,5,93,11
7,3,3,0,0,0,3,5,93,11
7,3,0,0,0,0,3,5,71,11
7,3,2,0,0,0,3,5,93,11
8,3,4,0,1,0,3,5,95,11
8,3,23,0,1,0,3,5,71,11
8,3,11,1,2,0,3,5,71,11
8,3,19,1,2,0,3,5,102,11
8,3,1,0,4,0,3,5,8,11
8,3,20,1,4,0,3,5,105,11
8,3,18,1,4,0,3,5,102,11
8,3,1,0,6,1,3,5,71,11
8,3,7,1,6,1,3,5,62,11
8,3,5,0,6,1,3,5,81,8
8,3,1,0,0,0,3,5,93,11
8,3,11,1,0,0,3,5,93,11
8,3,22,0,1,0,3,5,8,11
8,3,14,1,3,0,3,5,71,11
8,3,8,1,4,0,3,5,71,11
8,3,8,1,6,1,3,5,8,11
8,3,11,1,6,1,3,5,93,11
8,3,21,0,0,0,3,5,131,11
8,3,20,1,2,0,3,5,97,11
8,3,15,1,3,0,3,5,71,11
8,3,23,0,3,0,3,5,71,11
8,3,19,1,4,0,3,5,93,11
8,3,0,0,6,1,3,5,103,11
8,3,2,0,6,1,3,5,102,11
8,3,19,1,0,0,3,5,71,11
8,3,17,1,0,0,3,5,71,11
8,3,23,0,1,0,3,5,93,11
8,3,13,1,4,0,3,5,71,11
8,3,22,0,5,1,3,5,71,11
8,3,20,1,6,1,3,5,33,11
8,3,14,1,6,1,3,5,71,11
8,3,0,0,6,1,3,5,93,11
8,3,23,0,2,0,3,5,93,11
8,3,9,1,3,0,3,5,62,11
8,3,11,1,3,0,3,5,102,11
9,4,10,1,4,0,3,5,71,11
9,4,23,0,4,0,3,5,71,11
9,4,7,1,5,1,3,5,93,11
9,4,23,0,5,1,3,5,93,11
9,4,15,1,1,0,3,5,70,11
9,4,19,1,3,0,3,5,71,11
9,4,5,0,5,1,3,5,93,11
9,4,2,0,6,1,3,5,71,11
9,4,7,1,6,1,3,5,79,11
9,4,19,1,1,0,3,5,93,11
9,4,16,1,1,0,3,5,71,11
9,4,20,1,2,0,3,5,8,11
9,4,2,0,3,0,3,5,7,11
9,4,6,0,3,0,3,5,93,11
9,4,19,1,3,0,3,5,71,11
9,4,21,0,4,0,3,5,102,11
9,4,23,0,4,0,3,5,71,11
9,4,13,1,5,1,3,5,7,11
9,4,11,1,4,0,3,5,20,11
9,4,0,0,6,1,3,5,20,11
9,4,9,1,0,0,3,5,95,11
9,4,18,1,3,0,3,5,71,11
9,4,5,0,3,0,3,5,71,11
9,4,18,1,3,0,3,5,93,11
9,4,23,0,4,0,3,5,93,11
10,4,3,0,6,1,4,5,93,11
10,4,3,0,6,1,4,5,93,11
10,4,13,1,1,0,4,5,71,11
10,4,22,0,1,0,4,5,51,11
10,4,20,1,3,0,4,5,14,11
10,4,19,1,3,0,4,5,71,9
10,4,12,1,4,0,4,5,71,11
10,4,21,0,5,1,4,5,20,11
10,4,6,0,6,1,4,5,93,11
10,4,21,0,6,1,4,5,102,11
10,4,16,1,6,1,4,5,102,11
10,4,23,0,6,1,4,5,39,11
10,4,7,1,0,0,4,5,71,11
10,4,8,1,1,0,4,5,71,11
10,4,1,0,2,0,4,5,33,11
10,4,22,0,2,0,4,5,93,11
10,4,11,1,2,0,4,5,71,11
10,4,23,0,3,0,4,5,93,11
10,4,1,0,3,0,4,5,93,11
10,4,9,1,4,0,4,5,95,11
10,4,13,1,4,0,4,5,8,11
10,4,22,0,5,1,4,5,102,11
10,4,14,1,5,1,4,5,93,11
10,4,1,0,0,0,4,5,93,11
10,4,10,1,0,0,4,5,93,11
10,4,23,0,1,0,4,5,70,11
10,4,2,0,2,0,4,5,7,8
10,4,0,0,3,0,4,5,7,11
10,4,11,1,5,1,4,5,95,11
10,4,3,0,6,1,4,5,54,11
10,4,2,0,6,1,4,5,93,11
10,4,23,0,2,0,4,5,71,11
10,4,4,0,3,0,4,5,102,11
10,4,23,0,4,0,4,5,20,11
10,4,2,0,5,1,4,5,20,9
10,4,3,0,5,1,4,5,20,9
10,4,5,0,5,1,4,5,20,9
10,4,10,1,5,1,4,5,20,11
10,4,14,1,5,1,4,5,41,11
10,4,12,1,6,1,4,5,71,11
10,4,17,1,6,1,4,5,71,11
10,4,0,0,0,0,4,5,93,11
10,4,17,1,0,0,4,5,102,11
11,4,4,0,2,0,4,5,71,11
11,4,4,0,4,0,4,5,93,11
11,4,4,0,4,0,4,5,93,11
11,4,6,0,4,0,4,5,93,11
11,4,6,0,4,0,4,5,93,11
11,4,21,0,5,1,4,5,93,11
11,4,0,0,6,1,4,5,93,11
11,4,1,0,6,1,4,5,71,8
11,4,12,1,6,1,4,5,71,11
11,4,22,0,6,1,4,5,7,11
11,4,14,1,1,0,4,5,71,11
11,4,11,1,1,0,4,5,71,11
11,4,7,1,3,0,4,5,8,11
11,4,18,1,3,0,4,5,71,11
11,4,13,1,4,0,4,5,71,11
11,4,11,1,5,1,4,5,93,11
11,4,16,1,5,1,4,5,93,11
11,4,1,0,6,1,4,5,20,11
11,4,15,1,3,0,4,5,20,11
11,4,21,0,4,0,4,5,20,11
11,4,3,0,5,1,4,5,102,11
11,4,6,0,6,1,4,5,83,8
11,4,4,0,1,0,4,5,30,11
11,4,15,1,1,0,4,5,71,11
11,4,10,1,1,0,4,5,62,8
11,4,17,1,1,0,4,5,102,11
11,4,1,0,2,0,4,5,93,11
11,4,15,1,2,0,4,5,71,11
11,4,21,0,4,0,4,5,93,11
11,4,23,0,4,0,4,5,93,11
11,4,17,1,6,1,4,5,71,11
11,4,12,1,6,1,4,5,71,11
11,4,22,0,6,1,4,5,7,11
11,4,8,1,0,0,4,5,39,11
11,4,1,0,1,0,4,5,105,11
11,4,17,1,2,0,4,5,8,11
11,4,11,1,2,0,4,5,71,11
11,4,14,1,2,0,4,5,71,11
11,4,15,1,2,0,4,5,71,11
11,4,20,1,2,0,4,5,71,11
11,4,2,0,3,0,4,5,71,11
11,4,18,1,3,0,4,5,20,11
12,1,22,0,4,0,4,5,71,11
12,1,2,0,4,0,4,5,7,11
12,1,2,0,4,0,4,5,84,11
12,1,6,0,4,0,4,5,71,11
12,1,15,1,5,1,4,5,33,11
12,1,10,1,5,1,4,5,105,11
12,1,13,1,0,0,4,5,71,11
12,1,18,1,1,0,4,5,71,11
12,1,20,1,2,0,4,5,20,11
12,1,12,1,2,0,4,5,93,11
12,1,19,1,2,0,4,5,102,11
12,1,22,0,2,0,4,5,71,11
12,1,23,0,2,0,4,5,20,11
12,1,20,1,2,0,4,5,20,11
12,1,21,0,2,0,4,5,20,11
12,1,2,0,3,0,4,5,20,11
12,1,19,1,3,0,4,5,71,11
12,1,5,0,3,0,4,5,93,11
12,1,5,0,4,0,4,5,20,11
12,1,5,0,4,0,4,5,20,9
12,1,10,1,4,0,4,5,71,11
12,1,19,1,4,0,4,5,8,11
12,1,4,0,5,1,4,5,93,11
12,1,22,0,5,1,4,5,93,11
12,1,22,0,5,1,4,5,93,11
12,1,11,1,5,1,4,5,102,11
12,1,16,1,5,1,4,5,93,11
12,1,18,1,5,1,4,5,102,8
12,1,18,1,5,1,4,5,93,11
12,1,4,0,6,1,4,5,102,11
12,1,4,0,6,1,4,5,102,11
12,1,20,1,6,1,4,5,20,11
12,1,9,1,0,0,4,5,84,11
12,1,12,1,0,0,4,5,71,11
12,1,7,1,2,0,4,5,71,11
12,1,20,1,2,0,4,5,93,11
12,1,20,1,2,0,4,5,93,11
12,1,22,0,2,0,4,5,102,11
12,1,23,0,2,0,4,5,93,11
12,1,0,0,3,0,4,5,71,11
12,1,18,1,3,0,4,5,102,11
12,1,10,1,4,0,4,5,41,11
12,1,3,0,0,0,4,5,93,11
12,1,3,0,0,0,4,5,93,11
12,1,4,0,0,0,4,5,7,8
12,1,17,1,1,0,4,5,71,11
12,1,4,0,2,0,4,5,93,11
12,1,11,1,2,0,4,5,71,11
12,1,20,1,2,0,4,5,71,11
12,1,20,1,3,0,4,5,81,11
12,1,2,0,4,0,4,5,20,11
12,1,23,0,4,0,4,5,71,11
12,1,11,1,4,0,4,5,71,11
12,1,9,1,4,0,4,5,71,11
12,1,17,1,5,1,4,5,8,11
12,1,23,0,5,1,4,5,71,11
12,1,7,1,5,1,4,5,14,8
12,1,8,1,5,1,4,5,102,11
12,1,1,0,5,1,4,5,71,11
12,1,2,0,5,1,4,5,93,11
12,1,18,1,5,1,4,5,20,11
12,1,8,1,5,1,4,5,93,11
12,1,20,1,0,0,4,5,93,11
12,1,12,1,0,0,4,5,62,11
12,1,8,1,0,0,4,5,71,11
12,1,11,1,0,0,4,5,71,11
12,1,16,1,1,0,4,5,18,11
12,1,22,0,2,0,4,5,107,8
12,1,6,0,2,0,4,5,93,11
12,1,5,0,4,0,4,5,93,11
12,1,6,0,4,0,4,5,102,11
12,1,8,1,6,1,4,5,71,11
12,1,11,1,6,1,4,5,71,11
1,1,5,0,6,1,1,5,79,11
1,1,13,1,6,1,1,5,93,11
1,1,19,1,6,1,1,5,107,11
1,1,3,0,0,0,1,5,132,11
1,1,3,0,0,0,1,5,132,11
1,1,22,0,0,0,1,5,132,11
1,1,8,1,0,0,1,5,81,11
1,1,11,1,0,0,1,5,93,11
1,1,0,0,1,0,1,5,93,11
1,1,5,0,1,0,1,5,93,11
1,1,5,0,1,0,1,5,93,11
1,1,0,0,2,0,1,5,93,11
1,1,0,0,2,0,1,5,93,11
1,1,0,0,2,0,1,5,93,11
1,1,1,0,2,0,1,5,93,11
1,1,6,0,2,0,1,5,93,11
1,1,7,1,2,0,1,5,71,11
1,1,2,0,3,0,1,5,132,11
1,1,7,1,3,0,1,5,71,11
1,1,21,0,3,0,1,5,81,11
1,1,19,1,3,0,1,5,71,9
1,1,12,1,4,0,1,5,95,11
1,1,4,0,5,1,1,5,93,11
1,1,17,1,6,1,1,5,93,11
1,1,4,0,1,0,1,5,81,9
1,1,7,1,3,0,1,5,79,11
1,1,23,0,4,0,1,5,14,11
1,1,19,1,4,0,1,5,71,11
1,1,15,1,4,0,1,5,107,11
1,1,19,1,5,1,1,5,107,11
1,1,17,1,5,1,1,5,71,11
1,1,15,1,5,1,1,5,41,11
1,1,12,1,5,1,1,5,71,11
1,1,17,1,6,1,1,5,95,8
1,1,10,1,0,0,1,5,93,11
1,1,2,0,2,0,1,5,93,11
1,1,17,1,3,0,1,5,71,11
1,1,2,0,4,0,1,5,16,11
1,1,3,0,4,0,1,5,107,11
1,1,16,1,6,1,1,5,95,11
1,1,10,1,6,1,1,5,71,11
1,1,5,0,6,1,1,5,93,11
1,1,1,0,6,1,1,5,79,11
1,1,2,0,0,0,1,5,93,11
1,1,7,1,0,0,1,5,71,11
1,1,3,0,1,0,1,5,93,11
1,1,1,0,1,0,1,5,71,11
1,1,0,0,1,0,1,5,79,11
1,1,10,1,1,0,1,5,93,11
1,1,10,1,1,0,1,5,1,11
1,1,23,0,3,0,1,5,93,11
1,1,22,0,4,0,1,5,107,11
1,1,22,0,4,0,1,5,71,11
1,1,22,0,4,0,1,5,107,11
1,1,1,0,5,1,1,5,107,11
1,1,0,0,5,1,1,5,107,11
1,1,7,1,6,1,1,5,79,11
1,1,5,0,6,1,1,5,93,11
1,1,1,0,6,1,1,5,107,11
1,1,20,1,0,0,1,5,107,11
2,1,0,0,2,0,1,5,93,11
2,1,20,1,2,0,1,5,1,11
2,1,15,1,3,0,1,5,71,11
2,1,8,1,3,0,1,5,95,11
2,1,0,0,3,0,1,5,93,11
2,1,0,0,3,0,1,5,93,11
2,1,19,1,4,0,1,5,51,11
2,1,15,1,4,0,1,5,71,11
2,1,21,0,4,0,1,5,93,11
2,1,13,1,4,0,1,5,71,11
2,1,1,0,5,1,1,5,132,11
2,1,23,0,5,1,1,5,71,11
2,1,21,0,1,0,1,5,107,11
2,1,13,1,2,0,1,5,93,11
2,1,1,0,5,1,1,5,107,11
2,1,1,0,5,1,1,5,132,11
2,1,15,1,6,1,1,5,81,11
2,1,18,1,6,1,1,5,102,11
2,1,2,0,0,0,1,5,132,11
2,1,0,0,0,0,1,5,132,11
2,1,23,0,0,0,1,5,20,11
2,1,3,0,1,0,1,5,132,11
2,1,2,0,1,0,1,5,93,11
2,1,21,0,1,0,1,5,71,9
2,1,3,0,2,0,1,5,132,11
2,1,2,0,2,0,1,5,132,11
2,1,12,1,2,0,1,5,71,11
2,1,2,0,4,0,1,5,93,11
2,1,15,1,4,0,1,5,41,11
2,1,23,0,4,0,1,5,107,11
2,1,23,0,4,0,1,5,107,11
2,1,23,0,5,1,1,5,107,11
2,1,19,1,6,1,1,5,71,11
2,1,5,0,6,1,1,5,107,11
2,1,15,1,2,0,1,5,71,11
2,1,5,0,3,0,1,5,93,11
2,1,4,0,3,0,1,5,93,11
2,1,11,1,3,0,1,5,71,11
2,1,9,1,3,0,1,5,71,11
2,1,0,0,3,0,1,5,71,11
2,1,2,0,5,1,1,5,93,11
2,1,4,0,5,1,1,5,93,11
2,1,2,0,5,1,1,5,93,11
2,1,13,1,0,0,1,5,71,11
2,1,1,0,1,0,1,5,132,11
2,1,18,1,1,0,1,5,71,11
3,2,4,0,2,0,1,5,93,11
3,2,3,0,2,0,1,5,93,11
3,2,22,0,4,0,1,5,71,11
3,2,14,1,4,0,1,5,107,11
3,2,19,1,4,0,1,5,107,11
3,2,19,1,4,0,1,5,71,9
3,2,19,1,4,0,1,5,93,11
3,2,13,1,4,0,1,5,71,9
3,2,20,1,5,1,1,5,107,11
3,2,0,0,5,1,1,5,107,11
3,2,13,1,5,1,1,5,71,11
3,2,10,1,6,1,1,5,71,11
3,2,2,0,6,1,1,5,107,11
3,2,2,0,6,1,1,5,107,11
3,2,2,0,6,1,1,5,107,11
3,2,10,1,6,1,1,5,71,11
3,2,8,1,0,0,1,5,93,11
3,2,2,0,1,0,1,5,107,11
3,2,18,1,1,0,1,5,71,11
3,2,20,1,2,0,1,5,71,11
3,2,8,1,2,0,1,5,71,11
3,2,10,1,3,0,1,5,81,11
3,2,1,0,5,1,1,5,107,11
3,2,14,1,0,0,1,5,71,11
3,2,13,1,0,0,1,5,93,11
3,2,0,0,1,0,1,5,107,11
3,2,16,1,1,0,1,5,71,11
3,2,18,1,2,0,1,5,71,11
3,2,17,1,2,0,1,5,71,11
3,2,11,1,2,0,1,5,107,11
3,2,6,0,3,0,1,5,107,11
3,2,0,0,3,0,1,5,71,11
3,2,0,0,3,0,1,5,71,11
3,2,11,1,4,0,1,5,41,11
3,2,21,0,5,1,1,5,132,11
3,2,15,1,5,1,1,5,132,11
3,2,12,1,6,1,1,5,71,11
3,2,8,1,6,1,1,5,93,11
3,2,2,0,6,1,1,5,107,11
3,2,0,0,6,1,1,5,107,11
3,2,3,0,0,0,1,5,93,11
3,2,19,1,0,0,1,5,93,11
3,2,15,1,1,0,1,5,93,11
3,2,3,0,2,0,1,5,93,11
3,2,21,0,2,0,1,5,71,11
3,2,14,1,3,0,1,5,41,11
3,2,10,1,4,0,1,5,93,11
3,2,18,1,0,0,1,5,93,11
3,2,0,0,1,0,1,5,93,11
3,2,4,0,2,0,1,5,102,11
3,2,4,0,2,0,1,5,102,11
3,2,19,1,2,0,1,5,41,11
3,2,22,0,3,0,1,5,1,11
3,2,10,1,3,0,1,5,95,11
3,2,19,1,4,0,1,5,71,11
3,2,1,0,4,0,1,5,93,11
4,2,21,0,6,1,2,5,79,11
4,2,21,0,6,1,2,5,71,11
4,2,21,0,6,1,2,5,93,11
4,2,18,1,6,1,2,5,95,11
4,2,12,1,2,0,2,5,93,11
4,2,3,0,3,0,2,5,102,11
4,2,4,0,3,0,2,5,20,11
4,2,3,0,3,0,2,5,132,11
4,2,18,1,4,0,2,5,79,11
4,2,11,1,4,0,2,5,79,11
4,2,20,1,5,1,2,5,71,11
4,2,2,0,5,1,2,5,102,11
4,2,2,0,5,1,2,5,93,11
4,2,2,0,0,0,2,5,71,11
4,2,23,0,0,0,2,5,7,8
4,2,2,0,1,0,2,5,102,11
4,2,18,1,1,0,2,5,93,11
4,2,18,1,3,0,2,5,79,11
4,2,10,1,3,0,2,5,71,11
4,2,23,0,3,0,2,5,105,11
4,2,5,0,3,0,2,5,13,11
4,2,3,0,3,0,2,5,71,11
4,2,13,1,4,0,2,5,95,11
4,2,21,0,4,0,2,5,102,11
4,2,17,1,5,1,2,5,71,11
4,2,12,1,5,1,2,5,70,11
4,2,3,0,5,1,2,5,81,11
4,2,20,1,6,1,2,5,93,11
4,2,12,1,6,1,2,5,14,11
4,2,5,0,6,1,2,5,79,11
4,2,4,0,6,1,2,5,93,11
4,2,4,0,6,1,2,5,93,11
4,2,1,0,6,1,2,5,93,11
4,2,0,0,6,1,2,5,71,11
4,2,16,1,0,0,2,5,105,11
4,2,5,0,0,0,2,5,93,11
4,2,2,0,0,0,2,5,93,11
4,2,17,1,3,0,2,5,71,11
4,2,20,1,3,0,2,5,95,11
4,2,12,1,3,0,2,5,71,9
4,2,11,1,3,0,2,5,93,11
4,2,2,0,3,0,2,5,93,11
4,2,22,0,4,0,2,5,71,11
4,2,2,0,5,1,2,5,93,11
4,2,22,0,5,1,2,5,18,11
4,2,15,1,5,1,2,5,41,11
4,2,1,0,6,1,2,5,93,11
4,2,1,0,0,0,2,5,102,11
4,2,19,1,0,0,2,5,71,11
4,2,12,1,0,0,2,5,71,11
4,2,10,1,0,0,2,5,71,11
4,2,10,1,2,0,2,5,95,11
4,2,21,0,2,0,2,5,51,11
4,2,23,0,3,0,2,5,132,11
4,2,14,1,3,0,2,5,24,9
4,2,2,0,4,0,2,5,93,11
4,2,1,0,4,0,2,5,93,11
4,2,0,0,4,0,2,5,93,11
4,2,18,1,4,0,2,5,8,11
4,2,17,1,5,1,2,5,20,11
4,2,18,1,6,1,2,5,20,11
4,2,15,1,6,1,2,5,24,11
4,2,9,1,6,1,2,5,105,11
5,2,21,0,0,0,2,5,81,11
5,2,0,0,1,0,2,5,81,11
5,2,22,0,1,0,2,5,71,11
5,2,5,0,2,0,2,5,71,11
5,2,0,0,2,0,2,5,93,11
5,2,20,1,3,0,2,5,81,11
5,2,17,1,4,0,2,5,107,11
5,2,11,1,6,1,2,5,79,11
5,2,1,0,0,0,2,5,102,11
5,2,18,1,0,0,2,5,105,11
5,2,12,1,0,0,2,5,95,11
5,2,17,1,1,0,2,5,81,11
5,2,22,0,1,0,2,5,93,11
5,2,3,0,3,0,2,5,93,11
5,2,20,1,3,0,2,5,93,11
5,2,22,0,3,0,2,5,132,11
5,2,17,1,6,1,2,5,81,11
5,2,5,0,6,1,2,5,71,11
5,2,14,1,1,0,2,5,71,9
5,2,20,1,3,0,2,5,14,11
5,2,15,1,3,0,2,5,71,11
5,2,21,0,4,0,2,5,107,11
5,2,22,0,5,1,2,5,71,11
5,2,20,1,6,1,2,5,93,11
5,2,19,1,0,0,2,5,41,11
5,2,21,0,0,0,2,5,95,11
5,2,4,0,1,0,2,5,93,11
5,2,11,1,1,0,2,5,71,11
5,2,15,1,1,0,2,5,93,11
5,2,12,1,1,0,2,5,49,11
5,2,21,0,3,0,2,5,93,11
5,2,17,1,3,0,2,5,93,11
5,2,3,0,0,0,2,5,20,11
5,2,20,1,1,0,2,5,15,11
5,2,22,0,2,0,2,5,102,11
5,2,15,1,2,0,2,5,71,11
6,3,0,0,5,1,2,5,102,11
6,3,19,1,5,1,2,5,95,11
6,3,11,1,1,0,2,5,102,11
6,3,9,1,5,1,2,5,24,9
6,3,19,1,5,1,2,5,71,11
6,3,13,1,5,1,2,5,79,11
6,3,14,1,0,0,2,5,102,11
6,3,6,0,1,0,2,5,102,11
6,3,6,0,3,0,2,5,71,11
6,3,22,0,3,0,2,5,93,11
6,3,9,1,3,0,2,5,95,11
6,3,7,1,4,0,2,5,102,11
6,3,17,1,4,0,2,5,71,11
6,3,13,1,4,0,2,5,84,11
6,3,8,1,4,0,2,5,71,11
6,3,17,1,5,1,2,5,71,11
6,3,5,0,5,1,2,5,71,11
6,3,21,0,6,1,2,5,51,11
6,3,5,0,0,0,2,5,102,11
6,3,9,1,0,0,2,5,62,11
6,3,13,1,0,0,2,5,93,11
6,3,1,0,3,0,2,5,102,11
6,3,1,0,3,0,2,5,102,11
6,3,23,0,3,0,2,5,71,11
6,3,3,0,4,0,2,5,93,11
6,3,2,0,4,0,2,5,102,11
6,3,15,1,4,0,2,5,71,11
6,3,22,0,4,0,2,5,71,11
6,3,11,1,5,1,2,5,65,11
6,3,2,0,5,1,2,5,71,11
6,3,2,0,5,1,2,5,93,11
6,3,15,1,6,1,2,5,93,11
6,3,0,0,6,1,2,5,93,11
6,3,6,0,0,0,2,5,102,11
6,3,23,0,0,0,2,5,71,8
6,3,16,1,0,0,2,5,1,11
6,3,17,1,1,0,2,5,71,11
6,3,20,1,1,0,2,5,8,11
6,3,15,1,1,0,2,5,102,11
6,3,12,1,1,0,2,5,71,11
6,3,3,0,2,0,2,5,93,11
6,3,3,0,2,0,2,5,93,11
6,3,9,1,2,0,2,5,132,11
6,3,8,1,2,0,2,5,107,11
6,3,1,0,3,0,2,5,102,11
6,3,4,0,3,0,2,5,105,11
6,3,20,1,3,0,2,5,93,11
6,3,6,0,4,0,2,5,93,11
6,3,3,0,4,0,2,5,93,11
6,3,4,0,4,0,2,5,93,11
6,3,3,0,4,0,2,5,93,11
6,3,13,1,4,0,2,5,71,8
6,3,14,1,4,0,2,5,71,11
6,3,16,1,4,0,2,5,1,11
7,3,7,1,5,1,3,5,71,11
7,3,18,1,5,1,3,5,93,11
7,3,14,1,5,1,3,5,71,11
7,3,2,0,0,0,3,5,95,8
7,3,3,0,0,0,3,5,95,11
7,3,19,1,0,0,3,5,71,11
7,3,12,1,1,0,3,5,62,11
7,3,7,1,1,0,3,5,62,9
7,3,14,1,3,0,3,5,95,11
7,3,19,1,3,0,3,5,102,11
7,3,23,0,3,0,3,5,102,11
7,3,4,0,4,0,3,5,105,11
7,3,21,0,5,1,3,5,71,11
7,3,3,0,6,1,3,5,132,11
7,3,0,0,6,1,3,5,132,11
7,3,6,0,0,0,3,5,1,11
7,3,18,1,2,0,3,5,63,11
7,3,11,1,2,0,3,5,71,11
7,3,5,0,3,0,3,5,102,11
7,3,18,1,5,1,3,5,95,11
7,3,22,0,6,1,3,5,79,11
7,3,10,1,3,0,3,5,93,11
7,3,12,1,5,1,3,5,51,11
7,3,14,1,5,1,3,5,71,11
7,3,2,0,5,1,3,5,93,11
7,3,10,1,6,1,3,5,71,11
7,3,5,0,1,0,3,5,95,11
7,3,0,0,2,0,3,5,132,11
7,3,3,0,3,0,3,5,107,11
7,3,12,1,5,1,3,5,107,11
7,3,20,1,5,1,3,5,71,11
7,3,16,1,5,1,3,5,71,11
7,3,3,0,0,0,3,5,93,11
8,3,0,0,1,0,3,5,132,11
8,3,18,1,1,0,3,5,71,11
8,3,4,0,2,0,3,5,1,11
8,3,14,1,2,0,3,5,95,9
8,3,23,0,2,0,3,5,93,11
8,3,23,0,2,0,3,5,93,11
8,3,22,0,2,0,3,5,93,11
8,3,2,0,4,0,3,5,112,9
8,3,22,0,4,0,3,5,71,11
8,3,7,1,6,1,3,5,71,11
8,3,12,1,2,0,3,5,14,11
8,3,16,1,4,0,3,5,41,11
8,3,13,1,6,1,3,5,71,11
8,3,22,0,1,0,3,5,95,11
8,3,5,0,1,0,3,5,41,11
8,3,13,1,2,0,3,5,71,11
8,3,2,0,2,0,3,5,71,11
8,3,14,1,2,0,3,5,71,11
8,3,14,1,3,0,3,5,132,11
8,3,6,0,6,1,3,5,102,11
8,3,23,0,6,1,3,5,110,8
8,3,18,1,6,1,3,5,81,11
8,3,0,0,0,0,3,5,102,11
8,3,0,0,3,0,3,5,102,11
8,3,18,1,4,0,3,5,71,11
8,3,2,0,5,1,3,5,93,11
8,3,14,1,5,1,3,5,71,11
8,3,14,1,2,0,3,5,33,9
8,3,20,1,2,0,3,5,93,11
9,4,2,0,4,0,3,5,89,11
9,4,9,1,4,0,3,5,20,11
9,4,7,1,5,1,3,5,62,11
9,4,2,0,5,1,3,5,70,11
9,4,0,0,5,1,3,5,71,11
9,4,1,0,6,1,3,5,93,11
9,4,23,0,1,0,3,5,107,11
9,4,16,1,1,0,3,5,1,11
9,4,23,0,2,0,3,5,81,11
9,4,11,1,3,0,3,5,95,11
9,4,17,1,4,0,3,5,107,11
9,4,13,1,4,0,3,5,14,11
9,4,14,1,4,0,3,5,95,11
9,4,7,1,5,1,3,5,71,11
9,4,22,0,0,0,3,5,132,11
9,4,16,1,3,0,3,5,107,11
9,4,23,0,4,0,3,5,93,11
9,4,3,0,4,0,3,5,71,8
9,4,10,1,5,1,3,5,71,11
9,4,17,1,5,1,3,5,93,11
9,4,20,1,5,1,3,5,93,11
9,4,15,1,5,1,3,5,102,11
9,4,20,1,6,1,3,5,71,11
9,4,20,1,6,1,3,5,71,11
9,4,7,1,0,0,3,5,130,11
9,4,17,1,0,0,3,5,93,11
9,4,13,1,0,0,3,5,71,11
9,4,16,1,0,0,3,5,132,11
9,4,4,0,1,0,3,5,102,11
9,4,17,1,1,0,3,5,93,11
9,4,4,0,2,0,3,5,105,11
9,4,21,0,2,0,3,5,81,11
9,4,2,0,3,0,3,5,20,11
9,4,13,1,5,1,3,5,93,11
9,4,5,0,5,1,3,5,93,11
9,4,2,0,5,1,3,5,41,11
9,4,19,1,6,1,3,5,93,11
9,4,23,0,6,1,3,5,93,11
9,4,13,1,1,0,3,5,71,11
9,4,21,0,4,0,3,5,79,11
9,4,22,0,5,1,3,5,71,11
9,4,11,1,5,1,3,5,107,11
10,4,22,0,6,1,4,5,93,11
10,4,1,0,0,0,4,5,105,11
10,4,0,0,0,0,4,5,105,11
10,4,18,1,0,0,4,5,71,11
10,4,16,1,0,0,4,5,41,11
10,4,12,1,0,0,4,5,41,11
10,4,8,1,0,0,4,5,71,11
10,4,2,0,1,0,4,5,107,11
10,4,23,0,1,0,4,5,71,11
10,4,12,1,1,0,4,5,1,11
10,4,11,1,3,0,4,5,62,11
10,4,2,0,6,1,4,5,93,11
10,4,2,0,6,1,4,5,132,11
10,4,9,1,0,0,4,5,93,11
10,4,3,0,1,0,4,5,71,11
10,4,5,0,2,0,4,5,71,11
10,4,20,1,4,0,4,5,103,11
10,4,17,1,4,0,4,5,14,9
10,4,0,0,5,1,4,5,107,11
10,4,13,1,5,1,4,5,71,11
10,4,21,0,5,1,4,5,107,11
10,4,16,1,6,1,4,5,93,11
10,4,7,1,6,1,4,5,71,11
10,4,0,0,2,0,4,5,107,11
10,4,13,1,2,0,4,5,95,11
10,4,22,0,3,0,4,5,93,11
10,4,23,0,3,0,4,5,112,11
10,4,1,0,4,0,4,5,81,11
10,4,18,1,5,1,4,5,71,11
10,4,19,1,6,1,4,5,107,11
10,4,18,1,6,1,4,5,112,11
10,4,21,0,2,0,4,5,93,11
10,4,0,0,3,0,4,5,79,11
10,4,19,1,3,0,4,5,71,11
10,4,5,0,5,1,4,5,107,11
10,4,22,0,0,0,4,5,79,11
10,4,16,1,0,0,4,5,71,9
10,4,10,1,0,0,4,5,71,11
11,4,15,1,2,0,4,5,95,11
11,4,1,0,3,0,4,5,132,11
11,4,1,0,3,0,4,5,71,11
11,4,18,1,5,1,4,5,71,11
11,4,2,0,0,0,4,5,79,11
11,4,16,1,0,0,4,5,93,11
11,4,12,1,0,0,4,5,79,11
11,4,20,1,0,0,4,5,51,11
11,4,19,1,0,0,4,5,95,11
11,4,16,1,1,0,4,5,71,9
11,4,17,1,1,0,4,5,71,11
11,4,9,1,1,0,4,5,71,11
11,4,1,0,3,0,4,5,93,11
11,4,1,0,3,0,4,5,93,11
11,4,18,1,4,0,4,5,95,11
11,4,18,1,5,1,4,5,71,11
11,4,0,0,6,1,4,5,107,11
11,4,15,1,6,1,4,5,107,11
11,4,3,0,1,0,4,5,93,8
11,4,18,1,2,0,4,5,95,11
11,4,14,1,3,0,4,5,71,11
11,4,9,1,3,0,4,5,93,11
11,4,22,0,3,0,4,5,71,11
11,4,21,0,4,0,4,5,89,11
11,4,16,1,4,0,4,5,102,11
11,4,17,1,5,1,4,5,93,11
11,4,17,1,5,1,4,5,89,9
11,4,3,0,5,1,4,5,89,8
11,4,11,1,5,1,4,5,89,11
11,4,1,0,5,1,4,5,89,11
11,4,19,1,6,1,4,5,7,9
11,4,23,0,0,0,4,5,51,11
11,4,19,1,1,0,4,5,102,11
11,4,17,1,1,0,4,5,112,11
11,4,6,0,1,0,4,5,32,11
11,4,23,0,3,0,4,5,93,11
11,4,21,0,3,0,4,5,102,11
11,4,18,1,4,0,4,5,79,11
11,4,15,1,5,1,4,5,105,11
11,4,19,1,6,1,4,5,93,11
11,4,7,1,1,0,4,5,93,11
12,1,16,1,4,0,4,5,93,11
12,1,4,0,5,1,4,5,89,11
12,1,9,1,0,0,4,5,7,9
12,1,13,1,0,0,4,5,93,11
12,1,3,0,2,0,4,5,71,11
12,1,8,1,3,0,4,5,7,11
12,1,2,0,4,0,4,5,15,11
12,1,19,1,5,1,4,5,102,11
12,1,14,1,5,1,4,5,93,11
12,1,6,0,6,1,4,5,93,11
12,1,12,1,2,0,4,5,71,11
12,1,5,0,4,0,4,5,93,11
12,1,16,1,4,0,4,5,95,11
12,1,10,1,5,1,4,5,93,11
12,1,22,0,5,1,4,5,71,11
12,1,3,0,6,1,4,5,93,11
12,1,6,0,6,1,4,5,71,11
12,1,14,1,6,1,4,5,93,11
12,1,7,1,6,1,4,5,63,11
12,1,9,1,0,0,4,5,41,11
12,1,1,0,0,0,4,5,102,11
12,1,0,0,1,0,4,5,93,11
12,1,0,0,1,0,4,5,93,11
12,1,1,0,1,0,4,5,107,11
12,1,0,0,1,0,4,5,107,11
12,1,21,0,1,0,4,5,14,11
12,1,6,0,1,0,4,5,7,11
12,1,5,0,2,0,4,5,8,11
12,1,17,1,2,0,4,5,71,8
12,1,14,1,2,0,4,5,71,11
12,1,10,1,3,0,4,5,95,11
12,1,19,1,3,0,4,5,1,11
12,1,14,1,4,0,4,5,71,11
12,1,19,1,6,1,4,5,107,11
12,1,19,1,2,0,4,5,20,11
12,1,6,0,3,0,4,5,41,11
12,1,2,0,4,0,4,5,71,11
12,1,19,1,4,0,4,5,71,11
12,1,19,1,5,1,4,5,93,11
12,1,20,1,5,1,4,5,71,11
12,1,21,0,6,1,4,5,1,11
1,1,3,0,0,0,1,5,93,11
1,1,1,0,0,0,1,5,121,11
1,1,20,1,1,0,1,5,105,11
1,1,10,1,2,0,1,5,1,11
1,1,10,1,3,0,1,5,20,11
1,1,12,1,3,0,1,5,71,11
1,1,21,0,5,1,1,5,105,11
1,1,4,0,5,1,1,5,107,11
1,1,19,1,5,1,1,5,93,11
1,1,23,0,6,1,1,5,93,11
1,1,1,0,6,1,1,5,93,11
1,1,1,0,0,0,1,5,93,11
1,1,22,0,1,0,1,5,71,11
1,1,15,1,1,0,1,5,71,11
1,1,8,1,2,0,1,5,71,11
1,1,19,1,2,0,1,5,93,9
1,1,6,0,2,0,1,5,30,11
1,1,0,0,3,0,1,5,71,11
1,1,19,1,6,1,1,5,71,11
1,1,2,0,6,1,1,5,107,11
1,1,13,1,1,0,1,5,81,11
1,1,0,0,1,0,1,5,81,11
1,1,0,0,2,0,1,5,83,9
1,1,15,1,3,0,1,5,71,11
1,1,17,1,3,0,1,5,93,11
1,1,19,1,4,0,1,5,71,11
1,1,2,0,4,0,1,5,20,11
1,1,1,0,4,0,1,5,82,11
1,1,23,0,5,1,1,5,71,11
1,1,0,0,5,1,1,5,93,11
1,1,18,1,6,1,1,5,93,11
1,1,4,0,6,1,1,5,107,11
1,1,3,0,0,0,1,5,121,9
1,1,13,1,2,0,1,5,71,11
1,1,21,0,2,0,1,5,20,11
1,1,18,1,2,0,1,5,115,11
1,1,22,0,3,0,1,5,105,11
1,1,21,0,3,0,1,5,93,11
1,1,0,0,3,0,1,5,102,11
1,1,20,1,4,0,1,5,71,11
1,1,18,1,4,0,1,5,71,11
1,1,14,1,6,1,1,5,93,11
1,1,13,1,0,0,1,5,107,11
1,1,3,0,0,0,1,5,93,11
2,1,19,1,2,0,1,5,71,11
2,1,0,0,3,0,1,5,71,11
2,1,1,0,3,0,1,5,93,11
2,1,2,0,3,0,1,5,93,11
2,1,3,0,3,0,1,5,93,11
2,1,1,0,5,1,1,5,102,11
2,1,2,0,0,0,1,5,102,11
2,1,18,1,2,0,1,5,8,11
2,1,12,1,4,0,1,5,93,11
2,1,18,1,5,1,1,5,93,11
2,1,21,0,5,1,1,5,71,11
2,1,4,0,5,1,1,5,93,11
2,1,22,0,6,1,1,5,71,11
2,1,18,1,0,0,1,5,41,11
2,1,5,0,1,0,1,5,93,11
2,1,20,1,1,0,1,5,71,11
2,1,3,0,2,0,1,5,121,11
2,1,17,1,3,0,1,5,71,11
2,1,13,1,3,0,1,5,71,11
2,1,14,1,6,1,1,5,71,11
2,1,3,0,1,0,1,5,93,11
2,1,9,1,1,0,1,5,132,11
2,1,21,0,2,0,1,5,71,11
2,1,22,0,5,1,1,5,81,11
2,1,3,0,5,1,1,5,102,11
2,1,4,0,5,1,1,5,102,11
2,1,0,0,5,1,1,5,20,11
2,1,19,1,6,1,1,5,132,11
2,1,18,1,6,1,1,5,71,11
3,2,12,1,2,0,1,5,71,11
3,2,21,0,4,0,1,5,71,11
3,2,22,0,4,0,1,5,132,11
3,2,16,1,4,0,1,5,71,11
3,2,13,1,5,1,1,5,71,11
3,2,1,0,6,1,1,5,71,11
3,2,8,1,0,0,1,5,71,11
3,2,13,1,3,0,1,5,71,11
3,2,17,1,4,0,1,5,107,11
3,2,16,1,4,0,1,5,71,11
3,2,20,1,6,1,1,5,71,11
3,2,1,0,0,0,1,5,93,11
3,2,19,1,1,0,1,5,71,11
3,2,10,1,3,0,1,5,132,11
3,2,6,0,6,1,1,5,7,9
3,2,14,1,6,1,1,5,51,11
3,2,11,1,2,0,1,5,62,11
3,2,22,0,6,1,1,5,71,11
3,2,23,0,6,1,1,5,20,11
3,2,4,0,0,0,1,5,102,11
3,2,10,1,0,0,1,5,89,11
3,2,16,1,0,0,1,5,107,11
3,2,10,1,2,0,1,5,20,11
3,2,5,0,2,0,1,5,107,11
3,2,9,1,4,0,1,5,132,11
4,2,21,0,5,1,2,5,71,11
4,2,22,0,5,1,2,5,71,11
4,2,14,1,6,1,2,5,71,11
4,2,12,1,6,1,2,5,71,11
4,2,3,0,6,1,2,5,102,11
4,2,22,0,0,0,2,5,93,11
4,2,7,1,1,0,2,5,71,11
4,2,19,1,5,1,2,5,71,11
4,2,22,0,0,0,2,5,71,11
4,2,18,1,1,0,2,5,71,11
4,2,1,0,5,1,2,5,71,11
4,2,1,0,6,1,2,5,71,11
4,2,22,0,6,1,2,5,102,11
4,2,19,1,6,1,2,5,71,11
4,2,12,1,0,0,2,5,71,11
4,2,16,1,2,0,2,5,71,11
4,2,6,0,3,0,2,5,93,11
4,2,5,0,3,0,2,5,102,11
4,2,4,0,4,0,2,5,93,11
4,2,0,0,4,0,2,5,93,11
4,2,11,1,0,0,2,5,107,11
4,2,3,0,1,0,2,5,107,11
4,2,13,1,1,0,2,5,71,11
4,2,23,0,2,0,2,5,71,11
4,2,9,1,2,0,2,5,8,11
4,2,3,0,4,0,2,5,107,11
4,2,12,1,6,1,2,5,71,11
5,2,10,1,0,0,2,5,71,11
5,2,11,1,1,0,2,5,71,11
5,2,2,0,2,0,2,5,132,11
5,2,11,1,2,0,2,5,71,11
5,2,10,1,2,0,2,5,71,11
5,2,5,0,5,1,2,5,102,11
5,2,0,0,6,1,2,5,71,11
5,2,5,0,0,0,2,5,71,11
5,2,19,1,3,0,2,5,102,11
5,2,18,1,3,0,2,5,71,9
5,2,11,1,4,0,2,5,71,11
5,2,12,1,5,1,2,5,71,11
5,2,0,0,6,1,2,5,71,11
5,2,4,0,6,1,2,5,102,11
5,2,20,1,6,1,2,5,95,11
5,2,13,1,0,0,2,5,95,11
5,2,14,1,3,0,2,5,102,11
5,2,23,0,5,1,2,5,93,11
5,2,13,1,6,1,2,5,93,11
5,2,0,0,0,0,2,5,107,11
5,2,13,1,5,1,2,5,41,11
5,2,1,0,5,1,2,5,71,11
5,2,17,1,2,0,2,5,93,11
6,3,16,1,3,0,2,5,71,11
6,3,11,1,3,0,2,5,71,11
6,3,0,0,5,1,2,5,71,11
6,3,17,1,5,1,2,5,95,11
6,3,23,0,6,1,2,5,71,11
6,3,20,1,6,1,2,5,82,11
6,3,6,0,1,0,2,5,79,11
6,3,21,0,2,0,2,5,8,11
6,3,17,1,3,0,2,5,51,11
6,3,16,1,3,0,2,5,71,11
6,3,14,1,2,0,2,5,20,11
6,3,19,1,3,0,2,5,71,11
6,3,13,1,3,0,2,5,102,11
6,3,15,1,0,0,2,5,71,11
6,3,0,0,1,0,2,5,93,11
6,3,20,1,3,0,2,5,93,11
6,3,22,0,4,0,2,5,90,11
6,3,9,1,4,0,2,5,93,9
6,3,9,1,4,0,2,5,71,11
6,3,18,1,5,1,2,5,71,11
6,3,13,1,5,1,2,5,93,11
6,3,1,0,6,1,2,5,102,11
6,3,17,1,0,0,2,5,71,11
6,3,14,1,0,0,2,5,113,11
6,3,2,0,0,0,2,5,102,11
6,3,10,1,1,0,2,5,102,11
6,3,4,0,3,0,2,5,20,11
6,3,2,0,3,0,2,5,132,11
6,3,4,0,3,0,2,5,20,11
7,3,10,1,6,1,3,5,41,11
7,3,11,1,2,0,3,5,93,11
7,3,19,1,2,0,3,5,51,11
7,3,11,1,2,0,3,5,105,11
7,3,21,0,4,0,3,5,93,11
7,3,7,1,4,0,3,5,71,11
7,3,3,0,5,1,3,5,119,11
7,3,4,0,5,1,3,5,93,9
7,3,15,1,0,0,3,5,71,11
7,3,0,0,3,0,3,5,102,11
7,3,23,0,4,0,3,5,41,11
7,3,17,1,0,0,3,5,71,11
7,3,22,0,0,0,3,5,62,11
7,3,5,0,3,0,3,5,71,11
7,3,5,0,6,1,3,5,20,11
7,3,3,0,6,1,3,5,20,11
7,3,3,0,6,1,3,5,20,11
7,3,19,1,1,0,3,5,71,11
7,3,17,1,1,0,3,5,81,11
7,3,9,1,1,0,3,5,93,11
7,3,5,0,1,0,3,5,71,11
7,3,17,1,2,0,3,5,41,11
7,3,17,1,5,1,3,5,102,11
7,3,15,1,0,0,3,5,62,11
7,3,12,1,0,0,3,5,71,11
8,3,16,1,5,1,3,5,62,11
8,3,19,1,6,1,3,5,88,11
8,3,2,0,0,0,3,5,93,11
8,3,0,0,0,0,3,5,71,11
8,3,12,1,1,0,3,5,93,11
8,3,13,1,2,0,3,5,79,11
8,3,15,1,2,0,3,5,107,11
8,3,2,0,2,0,3,5,20,11
8,3,19,1,4,0,3,5,102,11
8,3,16,1,5,1,3,5,107,11
8,3,20,1,4,0,3,5,71,11
8,3,12,1,4,0,3,5,71,11
8,3,13,1,0,0,3,5,8,11
8,3,17,1,1,0,3,5,93,11
8,3,8,1,3,0,3,5,33,11
9,4,11,1,5,1,3,5,71,11
9,4,3,0,5,1,3,5,102,11
9,4,12,1,6,1,3,5,71,11
9,4,7,1,6,1,3,5,71,11
9,4,17,1,1,0,3,5,71,11
9,4,15,1,3,0,3,5,20,11
9,4,11,1,6,1,3,5,86,11
9,4,18,1,0,0,3,5,71,11
9,4,0,0,2,0,3,5,71,11
9,4,13,1,3,0,3,5,95,9
9,4,14,1,4,0,3,5,41,11
9,4,21,0,5,1,3,5,93,11
9,4,14,1,6,1,3,5,93,11
9,4,11,1,0,0,3,5,71,11
9,4,11,1,1,0,3,5,71,11
9,4,18,1,4,0,3,5,71,11
9,4,12,1,6,1,3,5,107,11
9,4,13,1,6,1,3,5,41,11
9,4,21,0,0,0,3,5,71,11
9,4,12,1,0,0,3,5,102,11
9,4,13,1,1,0,3,5,71,11
9,4,7,1,1,0,3,5,20,11
10,4,12,1,0,0,4,5,8,11
10,4,2,0,2,0,4,5,71,11
10,4,13,1,2,0,4,5,71,11
10,4,13,1,3,0,4,5,8,9
10,4,18,1,5,1,4,5,62,11
10,4,18,1,1,0,4,5,71,11
10,4,11,1,2,0,4,5,93,11
10,4,3,0,3,0,4,5,30,11
10,4,8,1,4,0,4,5,71,9
10,4,15,1,5,1,4,5,29,11
10,4,3,0,5,1,4,5,51,11
10,4,18,1,0,0,4,5,71,11
10,4,17,1,1,0,4,5,95,11
10,4,19,1,2,0,4,5,71,11
10,4,8,1,3,0,4,5,71,11
10,4,12,1,4,0,4,5,71,11
10,4,15,1,4,0,4,5,71,11
10,4,20,1,6,1,4,5,130,11
10,4,16,1,6,1,4,5,95,11
10,4,13,1,0,0,4,5,71,11
10,4,8,1,1,0,4,5,30,11
10,4,15,1,1,0,4,5,8,11
10,4,3,0,5,1,4,5,20,11
10,4,2,0,5,1,4,5,20,11
10,4,9,1,5,1,4,5,20,11
10,4,20,1,6,1,4,5,71,11
10,4,8,1,1,0,4,5,71,11
10,4,11,1,1,0,4,5,71,11
11,4,4,0,3,0,4,5,71,11
11,4,16,1,4,0,4,5,71,11
11,4,21,0,5,1,4,5,71,11
11,4,2,0,1,0,4,5,102,11
11,4,18,1,3,0,4,5,93,11
11,4,4,0,5,1,4,5,105,11
11,4,0,0,6,1,4,5,71,11
11,4,5,0,0,0,4,5,51,11
11,4,8,1,0,0,4,5,93,11
11,4,16,1,3,0,4,5,71,11
11,4,14,1,3,0,4,5,71,11
11,4,14,1,3,0,4,5,20,11
11,4,10,1,3,0,4,5,71,11
11,4,4,0,3,0,4,5,71,11
11,4,20,1,4,0,4,5,130,11
11,4,1,0,6,1,4,5,105,11
11,4,2,0,3,0,4,5,93,11
11,4,13,1,4,0,4,5,71,11
11,4,23,0,4,0,4,5,107,11
11,4,6,0,6,1,4,5,71,9
11,4,14,1,0,0,4,5,71,11
11,4,17,1,1,0,4,5,71,11
12,1,13,1,5,1,4,5,107,11
12,1,11,1,5,1,4,5,93,11
12,1,21,0,5,1,4,5,8,11
12,1,19,1,2,0,4,5,7,11
12,1,19,1,3,0,4,5,93,11
12,1,13,1,3,0,4,5,71,11
12,1,20,1,4,0,4,5,102,11
12,1,2,0,4,0,4,5,93,11
12,1,13,1,6,1,4,5,71,11
12,1,10,1,6,1,4,5,71,11
12,1,7,1,0,0,4,5,81,11
12,1,15,1,1,0,4,5,105,11
12,1,1,0,1,0,4,5,107,11
12,1,22,0,1,0,4,5,107,11
12,1,1,0,2,0,4,5,107,11
12,1,4,0,2,0,4,5,71,11
12,1,17,1,2,0,4,5,93,11
12,1,3,0,3,0,4,5,107,11
12,1,21,0,4,0,4,5,71,11
12,1,8,1,5,1,4,5,51,11
12,1,1,0,5,1,4,5,107,11
12,1,17,1,6,1,4,5,102,11
12,1,18,1,0,0,4,5,71,11
12,1,0,0,3,0,4,5,102,11
12,1,2,0,5,1,4,5,93,11
12,1,19,1,6,1,4,5,132,11
12,1,17,1,6,1,4,5,81,11
1,1,19,1,2,0,1,5,95,11
1,1,17,1,4,0,1,5,95,11
1,1,14,1,0,0,1,5,3,11
1,1,12,1,6,1,1,5,93,11
2,1,13,1,6,1,1,5,95,11
3,2,11,1,1,0,1,5,93,11
4,2,18,1,3,0,2,5,95,11
5,2,0,0,0,0,2,5,93,11
5,2,9,1,2,0,2,5,95,11
6,3,19,1,3,0,2,5,93,11
6,3,20,1,2,0,2,5,107,11
7,3,20,1,0,0,3,5,95,11
7,3,11,1,1,0,3,5,93,11
8,3,16,1,1,0,3,5,95,9
10,4,8,1,3,0,4,5,95,11
10,4,13,1,4,0,4,5,107,11
10,4,23,0,4,0,4,5,1,11
11,4,17,1,1,0,4,5,93,11
12,1,20,1,2,0,4,5,71,11
12,1,11,1,5,1,4,5,93,11
1,1,8,1,6,1,1,5,89,11
1,1,22,0,0,0,1,5,134,11
1,1,14,1,5,1,1,5,71,11
1,1,21,0,2,0,1,5,71,11
1,1,13,1,2,0,1,5,102,11
1,1,9,1,3,0,1,5,71,11
1,1,11,1,0,0,1,5,102,11
1,1,3,0,0,0,1,5,41,11
1,1,12,1,1,0,1,5,20,11
1,1,20,1,3,0,1,5,102,11
1,1,14,1,4,0,1,5,71,11
1,1,0,0,4,0,1,5,102,11
1,1,17,1,0,0,1,5,93,11
1,1,12,1,3,0,1,5,71,11
1,1,17,1,4,0,1,5,71,11
1,1,14,1,5,1,1,5,71,11
1,1,23,0,5,1,1,5,102,11
1,1,7,1,0,0,1,5,7,11
2,1,17,1,2,0,1,5,93,11
2,1,21,0,2,0,1,5,64,8
2,1,17,1,5,1,1,5,93,11
2,1,13,1,1,0,1,5,70,11
2,1,17,1,3,0,1,5,71,11
2,1,4,0,5,1,1,5,93,11
2,1,19,1,6,1,1,5,102,11
2,1,6,0,4,0,1,5,93,11
2,1,10,1,2,0,1,5,71,11
2,1,7,1,2,0,1,5,7,11
2,1,7,1,6,1,1,5,71,11
2,1,0,0,1,0,1,5,93,11
3,2,15,1,3,0,1,5,71,11
3,2,18,1,5,1,1,5,107,11
3,2,13,1,6,1,1,5,41,11
3,2,7,1,0,0,1,5,71,11
3,2,16,1,3,0,1,5,102,11
3,2,17,1,4,0,1,5,102,11
3,2,17,1,4,0,1,5,102,11
3,2,9,1,6,1,1,5,71,11
3,2,23,0,6,1,1,5,71,11
3,2,10,1,3,0,1,5,71,11
3,2,11,1,5,1,1,5,79,11
3,2,11,1,3,0,1,5,71,11
3,2,4,0,3,0,1,5,93,11
3,2,12,1,4,0,1,5,81,11
3,2,20,1,0,0,1,5,93,11
3,2,1,0,1,0,1,5,93,11
3,2,15,1,3,0,1,5,51,8
3,2,16,1,4,0,1,5,71,8
4,2,11,1,2,0,2,5,79,11
4,2,16,1,3,0,2,5,71,11
4,2,13,1,5,1,2,5,1,11
4,2,22,0,6,1,2,5,71,11
4,2,16,1,1,0,2,5,95,11
4,2,20,1,2,0,2,5,102,11
4,2,0,0,3,0,2,5,93,11
4,2,0,0,4,0,2,5,93,11
4,2,2,0,5,1,2,5,93,11
4,2,16,1,1,0,2,5,93,11
4,2,4,0,3,0,2,5,102,11
4,2,12,1,1,0,2,5,71,11
4,2,0,0,2,0,2,5,93,11
4,2,14,1,3,0,2,5,82,11
4,2,16,1,3,0,2,5,71,11
4,2,4,0,6,1,2,5,93,11
4,2,2,0,6,1,2,5,93,11
4,2,2,0,6,1,2,5,71,11
4,2,22,0,6,1,2,5,71,11
5,2,21,0,1,0,2,5,33,11
5,2,12,1,2,0,2,5,62,11
5,2,12,1,2,0,2,5,71,11
5,2,17,1,4,0,2,5,70,11
5,2,21,0,0,0,2,5,71,11
5,2,17,1,0,0,2,5,93,11
5,2,20,1,3,0,2,5,70,11
5,2,13,1,1,0,2,5,62,11
5,2,5,0,2,0,2,5,71,11
5,2,18,1,6,1,2,5,95,11
5,2,13,1,0,0,2,5,20,11
5,2,13,1,4,0,2,5,93,11
6,3,3,0,4,0,2,5,79,11
6,3,13,1,1,0,2,5,71,11
6,3,16,1,2,0,2,5,79,11
6,3,13,1,1,0,2,5,71,11
6,3,8,1,3,0,2,5,71,11
6,3,23,0,1,0,2,5,71,11
6,3,18,1,2,0,2,5,71,11
6,3,9,1,3,0,2,5,71,11
6,3,4,0,5,1,2,5,102,11
6,3,22,0,6,1,2,5,71,11
6,3,1,0,1,0,2,5,93,11
6,3,0,0,1,0,2,5,107,11
6,3,4,0,2,0,2,5,71,11
6,3,0,0,4,0,2,5,93,11
7,3,20,1,6,1,3,5,71,11
7,3,13,1,1,0,3,5,8,11
7,3,15,1,2,0,3,5,93,11
7,3,15,1,2,0,3,5,79,11
7,3,19,1,3,0,3,5,71,11
7,3,18,1,4,0,3,5,102,11
7,3,19,1,4,0,3,5,102,11
7,3,22,0,5,1,3,5,71,11
7,3,17,1,6,1,3,5,71,11
7,3,1,0,0,0,3,5,1,11
7,3,10,1,0,0,3,5,1,9
7,3,16,1,0,0,3,5,93,11
8,3,12,1,5,1,3,5,93,11
8,3,19,1,0,0,3,5,71,11
8,3,1,0,5,1,3,5,102,11
8,3,11,1,0,0,3,5,83,8
8,3,6,0,3,0,3,5,71,11
8,3,9,1,4,0,3,5,105,11
8,3,18,1,0,0,3,5,71,11
8,3,8,1,0,0,3,5,20,11
8,3,21,0,2,0,3,5,70,11
8,3,13,1,3,0,3,5,107,11
9,4,2,0,4,0,3,5,102,11
9,4,5,0,5,1,3,5,102,11
9,4,12,1,1,0,3,5,71,11
9,4,21,0,2,0,3,5,93,11
9,4,20,1,3,0,3,5,71,11
9,4,19,1,3,0,3,5,71,11
9,4,1,0,5,1,3,5,93,11
9,4,3,0,5,1,3,5,93,11
9,4,3,0,5,1,3,5,93,11
9,4,4,0,0,0,3,5,79,11
9,4,1,0,1,0,3,5,93,11
9,4,3,0,3,0,3,5,107,11
9,4,3,0,3,0,3,5,102,11
9,4,23,0,5,1,3,5,71,11
9,4,4,0,0,0,3,5,93,11
9,4,3,0,2,0,3,5,107,11
9,4,11,1,3,0,3,5,71,11
9,4,3,0,3,0,3,5,71,11
9,4,7,1,4,0,3,5,71,11
9,4,4,0,5,1,3,5,93,11
10,4,17,1,6,1,4,5,62,11
10,4,17,1,0,0,4,5,93,11
10,4,0,0,0,0,4,5,102,11
10,4,11,1,1,0,4,5,71,11
10,4,4,0,5,1,4,5,1,11
10,4,3,0,0,0,4,5,93,11
10,4,11,1,1,0,4,5,102,11
10,4,21,0,2,0,4,5,2,11
10,4,7,1,2,0,4,5,64,11
10,4,8,1,5,1,4,5,20,11
10,4,1,0,5,1,4,5,102,11
10,4,17,1,5,1,4,5,71,11
10,4,22,0,0,0,4,5,70,11
10,4,5,0,1,0,4,5,20,11
10,4,22,0,1,0,4,5,71,11
10,4,23,0,1,0,4,5,102,11
10,4,21,0,3,0,4,5,20,11
10,4,13,1,4,0,4,5,84,11
10,4,0,0,4,0,4,5,102,11
10,4,4,0,6,1,4,5,93,11
10,4,5,0,6,1,4,5,93,11
10,4,18,1,0,0,4,5,71,11
10,4,16,1,1,0,4,5,71,11
10,4,16,1,2,0,4,5,71,11
10,4,22,0,5,1,4,5,71,11
11,4,17,1,2,0,4,5,71,11
11,4,16,1,3,0,4,5,71,11
11,4,0,0,5,1,4,5,102,11
11,4,22,0,5,1,4,5,102,11
11,4,19,1,6,1,4,5,71,11
11,4,6,0,6,1,4,5,93,11
11,4,0,0,1,0,4,5,102,11
11,4,16,1,2,0,4,5,20,11
11,4,17,1,4,0,4,5,70,11
11,4,18,1,5,1,4,5,51,11
11,4,0,0,6,1,4,5,102,11
11,4,0,0,6,1,4,5,102,11
11,4,0,0,6,1,4,5,102,11
11,4,22,0,6,1,4,5,102,11
11,4,11,1,0,0,4,5,81,11
11,4,16,1,1,0,4,5,71,11
11,4,17,1,1,0,4,5,20,11
11,4,20,1,6,1,4,5,71,11
11,4,20,1,2,0,4,5,71,11
11,4,21,0,3,0,4,5,71,11
11,4,6,0,5,1,4,5,71,11
11,4,23,0,5,1,4,5,102,11
12,1,15,1,4,0,4,5,71,11
12,1,3,0,5,1,4,5,33,11
12,1,8,1,3,0,4,5,102,11
12,1,23,0,3,0,4,5,71,11
12,1,23,0,5,1,4,5,20,11
12,1,14,1,6,1,4,5,71,11
12,1,19,1,2,0,4,5,71,11
12,1,20,1,5,1,4,5,102,11
12,1,16,1,6,1,4,5,71,11
12,1,9,1,6,1,4,5,71,11
12,1,17,1,6,1,4,5,20,11
12,1,19,1,1,0,4,5,71,11
12,1,19,1,3,0,4,5,71,11
12,1,10,1,4,0,4,5,33,11
12,1,11,1,5,1,4,5,51,11
12,1,11,1,0,0,4,5,93,11
12,1,9,1,5,1,4,5,71,11
1,1,14,1,6,1,1,5,107,11
1,1,20,1,2,0,1,5,107,11
1,1,16,1,5,1,1,5,81,11
1,1,12,1,5,1,1,5,95,11
1,1,16,1,5,1,1,5,107,11
1,1,4,0,0,0,1,5,93,11
1,1,20,1,1,0,1,5,20,11
1,1,5,0,3,0,1,5,81,9
1,1,15,1,4,0,1,5,41,11
1,1,5,0,4,0,1,5,93,11
1,1,16,1,5,1,1,5,95,11
1,1,13,1,6,1,1,5,95,11
1,1,14,1,6,1,1,5,95,11
1,1,14,1,6,1,1,5,20,11
1,1,15,1,6,1,1,5,107,11
1,1,1,0,1,0,1,5,20,11
1,1,4,0,3,0,1,5,20,11
1,1,12,1,5,1,1,5,95,11
1,1,12,1,6,1,1,5,107,11
1,1,14,1,6,1,1,5,95,11
1,1,8,1,6,1,1,5,95,11
1,1,3,0,4,0,1,5,95,11
1,1,22,0,5,1,1,5,24,9
1,1,21,0,6,1,1,5,107,11
1,1,4,0,6,1,1,5,81,11
1,1,17,1,0,0,1,5,79,11
1,1,17,1,0,0,1,5,81,11
2,1,18,1,4,0,1,5,107,11
2,1,2,0,4,0,1,5,107,11
2,1,12,1,5,1,1,5,107,11
2,1,4,0,5,1,1,5,95,11
2,1,13,1,6,1,1,5,95,11
2,1,4,0,1,0,1,5,95,11
2,1,17,1,5,1,1,5,71,9
2,1,19,1,5,1,1,5,95,11
2,1,4,0,6,1,1,5,81,9
2,1,10,1,0,0,1,5,7,11
2,1,23,0,1,0,1,5,81,11
2,1,13,1,2,0,1,5,95,11
2,1,20,1,5,1,1,5,95,11
2,1,6,0,6,1,1,5,95,11
2,1,15,1,6,1,1,5,95,11
2,1,15,1,6,1,1,5,81,11
2,1,16,1,2,0,1,5,95,11
2,1,17,1,2,0,1,5,95,11
2,1,12,1,3,0,1,5,95,11
2,1,13,1,4,0,1,5,95,11
2,1,15,1,4,0,1,5,95,11
2,1,14,1,4,0,1,5,95,11
2,1,0,0,4,0,1,5,95,11
2,1,9,1,6,1,1,5,95,11
2,1,5,0,0,0,1,5,95,11
3,2,18,1,4,0,1,5,95,11
3,2,21,0,4,0,1,5,95,11
3,2,5,0,5,1,1,5,95,11
3,2,21,0,1,0,1,5,95,11
3,2,23,0,2,0,1,5,95,11
3,2,18,1,0,0,1,5,95,11
3,2,19,1,1,0,1,5,41,11
3,2,7,1,2,0,1,5,71,11
3,2,17,1,2,0,1,5,71,11
3,2,3,0,5,1,1,5,95,11
3,2,21,0,5,1,1,5,95,11
3,2,20,1,6,1,1,5,95,11
3,2,21,0,1,0,1,5,95,11
3,2,0,0,2,0,1,5,95,11
3,2,8,1,2,0,1,5,81,11
3,2,13,1,3,0,1,5,41,9
3,2,19,1,5,1,1,5,95,11
3,2,12,1,1,0,1,5,95,11
3,2,1,0,2,0,1,5,95,11
3,2,0,0,2,0,1,5,81,11
4,2,3,0,5,1,2,5,95,11
4,2,22,0,6,1,2,5,79,11
4,2,5,0,3,0,2,5,95,11
4,2,4,0,3,0,2,5,95,11
4,2,21,0,3,0,2,5,95,11
4,2,11,1,6,1,2,5,95,11
4,2,2,0,6,1,2,5,95,11
4,2,2,0,2,0,2,5,95,11
4,2,19,1,2,0,2,5,95,11
4,2,23,0,2,0,2,5,102,11
4,2,4,0,3,0,2,5,95,11
4,2,19,1,3,0,2,5,95,11
4,2,13,1,3,0,2,5,79,11
4,2,13,1,4,0,2,5,95,11
4,2,18,1,5,1,2,5,95,11
4,2,20,1,6,1,2,5,107,11
4,2,16,1,6,1,2,5,95,11
4,2,2,0,6,1,2,5,95,11
4,2,21,0,1,0,2,5,71,9
4,2,17,1,1,0,2,5,95,11
4,2,14,1,1,0,2,5,95,11
4,2,4,0,4,0,2,5,79,11
4,2,2,0,0,0,2,5,95,11
4,2,1,0,0,0,2,5,79,9
4,2,14,1,0,0,2,5,95,11
4,2,16,1,1,0,2,5,95,11
4,2,4,0,2,0,2,5,79,11
4,2,5,0,2,0,2,5,95,11
4,2,22,0,3,0,2,5,95,11
4,2,11,1,3,0,2,5,95,11
4,2,14,1,3,0,2,5,70,11
4,2,16,1,4,0,2,5,93,11
4,2,17,1,6,1,2,5,95,11
4,2,19,1,6,1,2,5,95,11
4,2,6,0,6,1,2,5,95,11
5,2,1,0,0,0,2,5,51,11
5,2,17,1,0,0,2,5,95,11
5,2,21,0,1,0,2,5,71,11
5,2,2,0,1,0,2,5,79,11
5,2,10,1,2,0,2,5,7,11
5,2,15,1,3,0,2,5,107,11
5,2,12,1,3,0,2,5,95,11
5,2,15,1,5,1,2,5,95,11
5,2,2,0,0,0,2,5,95,11
5,2,13,1,1,0,2,5,95,11
5,2,8,1,1,0,2,5,95,11
5,2,1,0,2,0,2,5,95,11
5,2,15,1,2,0,2,5,95,11
5,2,10,1,4,0,2,5,95,11
5,2,16,1,4,0,2,5,93,11
5,2,18,1,4,0,2,5,95,11
5,2,18,1,6,1,2,5,95,11
5,2,19,1,5,1,2,5,107,9
5,2,5,0,5,1,2,5,93,11
5,2,20,1,6,1,2,5,95,11
5,2,13,1,6,1,2,5,95,9
5,2,14,1,6,1,2,5,95,11
5,2,13,1,6,1,2,5,95,11
5,2,11,1,6,1,2,5,107,11
5,2,23,0,1,0,2,5,93,11
5,2,16,1,1,0,2,5,95,11
5,2,7,1,2,0,2,5,1,11
5,2,1,0,3,0,2,5,93,11
5,2,16,1,3,0,2,5,81,11
5,2,15,1,4,0,2,5,20,11
5,2,2,0,1,0,2,5,121,11
5,2,0,0,1,0,2,5,94,11
5,2,16,1,1,0,2,5,95,11
5,2,16,1,1,0,2,5,95,11
5,2,20,1,2,0,2,5,95,11
5,2,19,1,2,0,2,5,95,11
6,3,2,0,3,0,2,5,79,11
6,3,15,1,4,0,2,5,95,11
6,3,20,1,4,0,2,5,95,11
6,3,11,1,4,0,2,5,95,11
6,3,16,1,0,0,2,5,95,11
6,3,0,0,1,0,2,5,95,11
6,3,16,1,2,0,2,5,95,11
6,3,23,0,3,0,2,5,95,11
6,3,1,0,5,1,2,5,89,11
6,3,21,0,6,1,2,5,41,8
6,3,0,0,6,1,2,5,95,11
6,3,14,1,0,0,2,5,93,11
6,3,23,0,0,0,2,5,93,11
6,3,14,1,1,0,2,5,95,11
6,3,0,0,3,0,2,5,95,11
6,3,23,0,5,1,2,5,41,11
6,3,16,1,1,0,2,5,95,11
6,3,17,1,4,0,2,5,95,11
6,3,12,1,0,0,2,5,95,11
6,3,2,0,1,0,2,5,95,11
6,3,5,0,2,0,2,5,95,11
6,3,4,0,2,0,2,5,95,11
6,3,7,1,2,0,2,5,95,11
6,3,18,1,3,0,2,5,95,11
6,3,12,1,3,0,2,5,62,8
6,3,12,1,4,0,2,5,71,11
6,3,15,1,4,0,2,5,95,11
7,3,19,1,6,1,3,5,95,11
7,3,15,1,6,1,3,5,11,11
7,3,4,0,6,1,3,5,95,11
7,3,19,1,0,0,3,5,95,11
7,3,23,0,1,0,3,5,113,11
7,3,23,0,1,0,3,5,20,11
7,3,10,1,1,0,3,5,95,11
7,3,21,0,2,0,3,5,107,11
7,3,13,1,2,0,3,5,132,11
7,3,7,1,2,0,3,5,132,11
7,3,3,0,3,0,3,5,107,11
7,3,0,0,4,0,3,5,95,11
7,3,1,0,4,0,3,5,81,11
7,3,1,0,4,0,3,5,105,11
7,3,12,1,5,1,3,5,107,11
7,3,23,0,5,1,3,5,107,11
7,3,23,0,6,1,3,5,107,11
7,3,18,1,6,1,3,5,117,8
7,3,15,1,6,1,3,5,95,11
7,3,20,1,0,0,3,5,95,11
7,3,20,1,0,0,3,5,95,11
7,3,19,1,1,0,3,5,41,11
7,3,6,0,2,0,3,5,95,11
7,3,21,0,2,0,3,5,79,11
7,3,4,0,2,0,3,5,81,8
7,3,15,1,3,0,3,5,24,8
7,3,16,1,3,0,3,5,95,11
7,3,18,1,4,0,3,5,95,11
7,3,4,0,4,0,3,5,95,11
7,3,23,0,5,1,3,5,95,11
7,3,13,1,5,1,3,5,95,11
7,3,19,1,6,1,3,5,24,11
7,3,14,1,6,1,3,5,95,11
7,3,13,1,6,1,3,5,95,11
7,3,8,1,6,1,3,5,95,11
7,3,21,0,0,0,3,5,20,11
7,3,1,0,2,0,3,5,95,11
7,3,14,1,3,0,3,5,95,8
7,3,14,1,3,0,3,5,95,11
7,3,10,1,4,0,3,5,81,9
7,3,21,0,6,1,3,5,95,11
7,3,1,0,0,0,3,5,20,11
7,3,7,1,0,0,3,5,95,11
7,3,2,0,1,0,3,5,79,11
7,3,22,0,1,0,3,5,95,11
7,3,18,1,2,0,3,5,95,11
7,3,13,1,2,0,3,5,95,11
7,3,10,1,3,0,3,5,95,11
7,3,20,1,3,0,3,5,95,11
7,3,21,0,5,1,3,5,95,11
7,3,22,0,5,1,3,5,95,11
7,3,11,1,6,1,3,5,95,11
7,3,5,0,0,0,3,5,95,11
8,3,18,1,1,0,3,5,81,11
8,3,12,1,2,0,3,5,107,11
8,3,20,1,2,0,3,5,95,11
8,3,14,1,2,0,3,5,95,11
8,3,13,1,2,0,3,5,95,11
8,3,0,0,3,0,3,5,95,11
8,3,21,0,3,0,3,5,95,11
8,3,5,0,3,0,3,5,95,11
8,3,2,0,4,0,3,5,95,11
8,3,22,0,4,0,3,5,95,11
8,3,21,0,4,0,3,5,94,11
8,3,21,0,4,0,3,5,95,11
8,3,18,1,4,0,3,5,107,11
8,3,21,0,4,0,3,5,95,11
8,3,20,1,4,0,3,5,95,9
8,3,16,1,4,0,3,5,95,9
8,3,0,0,5,1,3,5,107,11
8,3,4,0,5,1,3,5,81,8
8,3,3,0,0,0,3,5,81,8
8,3,12,1,0,0,3,5,95,8
8,3,15,1,0,0,3,5,95,11
8,3,20,1,0,0,3,5,95,11
8,3,3,0,1,0,3,5,20,11
8,3,2,0,1,0,3,5,95,9
8,3,19,1,1,0,3,5,95,8
8,3,12,1,1,0,3,5,107,11
8,3,13,1,1,0,3,5,20,11
8,3,22,0,3,0,3,5,93,11
8,3,0,0,4,0,3,5,95,9
8,3,19,1,4,0,3,5,95,11
8,3,12,1,4,0,3,5,95,11
8,3,14,1,5,1,3,5,95,11
8,3,21,0,5,1,3,5,95,11
8,3,21,0,6,1,3,5,95,11
8,3,14,1,6,1,3,5,107,9
8,3,15,1,0,0,3,5,95,11
8,3,14,1,1,0,3,5,79,11
8,3,16,1,2,0,3,5,95,11
8,3,17,1,2,0,3,5,95,11
8,3,12,1,2,0,3,5,41,11
8,3,17,1,2,0,3,5,95,11
8,3,16,1,4,0,3,5,95,8
8,3,15,1,4,0,3,5,71,11
8,3,10,1,4,0,3,5,95,11
8,3,21,0,5,1,3,5,95,11
8,3,20,1,6,1,3,5,95,11
8,3,19,1,0,0,3,5,95,11
8,3,16,1,1,0,3,5,95,11
8,3,5,0,2,0,3,5,20,11
8,3,0,0,3,0,3,5,95,11
8,3,1,0,3,0,3,5,95,11
8,3,20,1,3,0,3,5,95,11
8,3,23,0,4,0,3,5,95,11
8,3,2,0,4,0,3,5,95,11
8,3,1,0,5,1,3,5,95,11
8,3,13,1,6,1,3,5,95,11
8,3,20,1,6,1,3,5,95,11
8,3,3,0,6,1,3,5,95,11
8,3,19,1,0,0,3,5,95,11
8,3,20,1,0,0,3,5,95,11
8,3,19,1,1,0,3,5,95,11
8,3,21,0,1,0,3,5,14,8
8,3,9,1,2,0,3,5,95,11
8,3,21,0,3,0,3,5,95,11
8,3,18,1,3,0,3,5,95,11
9,4,8,1,4,0,3,5,68,11
9,4,16,1,4,0,3,5,95,11
9,4,2,0,5,1,3,5,79,11
9,4,9,1,5,1,3,5,95,11
9,4,17,1,6,1,3,5,95,11
9,4,23,0,0,0,3,5,95,11
9,4,16,1,0,0,3,5,95,11
9,4,18,1,0,0,3,5,95,11
9,4,15,1,0,0,3,5,95,11
9,4,14,1,0,0,3,5,95,11
9,4,11,1,0,0,3,5,24,11
9,4,10,1,0,0,3,5,79,11
9,4,17,1,1,0,3,5,95,11
9,4,3,0,3,0,3,5,93,11
9,4,3,0,3,0,3,5,95,11
9,4,4,0,3,0,3,5,107,11
9,4,16,1,3,0,3,5,95,11
9,4,11,1,4,0,3,5,71,11
9,4,20,1,5,1,3,5,95,11
9,4,5,0,5,1,3,5,95,11
9,4,23,0,6,1,3,5,79,11
9,4,12,1,0,0,3,5,95,11
9,4,12,1,0,0,3,5,95,11
9,4,5,0,1,0,3,5,95,11
9,4,17,1,1,0,3,5,95,11
9,4,12,1,1,0,3,5,46,8
9,4,9,1,2,0,3,5,95,11
9,4,12,1,2,0,3,5,95,11
9,4,13,1,2,0,3,5,95,11
9,4,20,1,3,0,3,5,95,11
9,4,8,1,3,0,3,5,95,11
9,4,4,0,5,1,3,5,95,11
9,4,12,1,5,1,3,5,95,11
9,4,12,1,0,0,3,5,95,11
9,4,14,1,1,0,3,5,95,11
9,4,16,1,1,0,3,5,95,11
9,4,2,0,2,0,3,5,107,11
9,4,20,1,3,0,3,5,95,11
9,4,17,1,3,0,3,5,107,11
9,4,3,0,5,1,3,5,113,11
9,4,20,1,6,1,3,5,95,11
9,4,10,1,6,1,3,5,95,11
9,4,23,0,0,0,3,5,14,11
9,4,15,1,0,0,3,5,95,11
9,4,3,0,1,0,3,5,79,11
9,4,18,1,3,0,3,5,95,11
9,4,9,1,5,1,3,5,95,11
10,4,4,0,6,1,4,5,95,11
10,4,22,0,6,1,4,5,95,11
10,4,0,0,0,0,4,5,79,11
10,4,11,1,2,0,4,5,95,11
10,4,6,0,2,0,4,5,95,11
10,4,11,1,2,0,4,5,95,11
10,4,10,1,2,0,4,5,95,11
10,4,19,1,3,0,4,5,95,11
10,4,14,1,3,0,4,5,41,11
10,4,20,1,4,0,4,5,95,11
10,4,21,0,4,0,4,5,95,11
10,4,2,0,6,1,4,5,79,11
10,4,16,1,0,0,4,5,81,11
10,4,16,1,0,0,4,5,81,11
10,4,16,1,0,0,4,5,95,11
10,4,16,1,1,0,4,5,81,11
10,4,14,1,1,0,4,5,95,11
10,4,15,1,2,0,4,5,95,11
10,4,9,1,2,0,4,5,24,11
10,4,22,0,3,0,4,5,95,11
10,4,18,1,3,0,4,5,95,11
10,4,4,0,4,0,4,5,95,11
10,4,2,0,4,0,4,5,95,11
10,4,18,1,5,1,4,5,95,11
10,4,1,0,5,1,4,5,95,11
10,4,21,0,0,0,4,5,95,11
10,4,19,1,0,0,4,5,95,11
10,4,14,1,0,0,4,5,95,11
10,4,17,1,0,0,4,5,95,11
10,4,1,0,1,0,4,5,95,11
10,4,21,0,5,1,4,5,95,11
10,4,16,1,6,1,4,5,95,11
10,4,6,0,0,0,4,5,95,11
10,4,3,0,0,0,4,5,79,11
10,4,17,1,2,0,4,5,95,11
10,4,19,1,4,0,4,5,95,11
10,4,8,1,5,1,4,5,95,11
11,4,20,1,2,0,4,5,95,11
11,4,18,1,2,0,4,5,95,11
11,4,22,0,3,0,4,5,95,11
11,4,23,0,3,0,4,5,95,11
11,4,18,1,3,0,4,5,95,11
11,4,16,1,3,0,4,5,95,11
11,4,20,1,4,0,4,5,95,11
11,4,16,1,4,0,4,5,95,11
11,4,16,1,5,1,4,5,41,11
11,4,15,1,5,1,4,5,95,11
11,4,3,0,5,1,4,5,95,11
11,4,16,1,6,1,4,5,95,11
11,4,8,1,2,0,4,5,95,11
11,4,4,0,4,0,4,5,24,8
11,4,18,1,5,1,4,5,95,11
11,4,13,1,5,1,4,5,95,11
11,4,13,1,5,1,4,5,95,11
11,4,8,1,6,1,4,5,95,11
11,4,17,1,6,1,4,5,95,11
11,4,17,1,6,1,4,5,95,11
11,4,23,0,0,0,4,5,95,11
11,4,11,1,2,0,4,5,107,11
11,4,15,1,1,0,4,5,95,11
11,4,6,0,2,0,4,5,81,11
11,4,22,0,4,0,4,5,68,11
11,4,22,0,4,0,4,5,95,11
11,4,20,1,2,0,4,5,95,11
11,4,23,0,3,0,4,5,95,11
12,1,12,1,5,1,4,5,95,11
12,1,12,1,5,1,4,5,95,11
12,1,7,1,5,1,4,5,95,11
12,1,4,0,6,1,4,5,95,11
12,1,4,0,2,0,4,5,95,11
12,1,6,0,2,0,4,5,79,11
12,1,17,1,4,0,4,5,107,11
12,1,17,1,4,0,4,5,107,11
12,1,0,0,5,1,4,5,107,11
12,1,23,0,5,1,4,5,20,11
12,1,18,1,0,0,4,5,107,11
12,1,14,1,2,0,4,5,95,11
12,1,11,1,3,0,4,5,95,11
12,1,11,1,5,1,4,5,95,11
12,1,13,1,0,0,4,5,24,11
12,1,18,1,2,0,4,5,107,11
12,1,15,1,3,0,4,5,107,11
12,1,14,1,3,0,4,5,107,11
12,1,4,0,4,0,4,5,20,11
12,1,14,1,5,1,4,5,95,11
12,1,10,1,5,1,4,5,95,11
12,1,6,0,5,1,4,5,95,11
12,1,6,0,5,1,4,5,95,11
12,1,2,0,0,0,4,5,79,11
12,1,3,0,2,0,4,5,107,11
12,1,22,0,2,0,4,5,95,11
1,1,1,0,0,0,1,5,102,11
1,1,15,1,0,0,1,5,71,11
1,1,23,0,0,0,1,5,93,11
1,1,15,1,1,0,1,5,70,11
1,1,23,0,4,0,1,5,102,11
1,1,14,1,5,1,1,5,71,11
1,1,17,1,5,1,1,5,41,11
1,1,20,1,5,1,1,5,93,11
1,1,22,0,5,1,1,5,71,11
1,1,15,1,6,1,1,5,93,11
1,1,17,1,0,0,1,5,92,11
1,1,21,0,3,0,1,5,102,11
1,1,18,1,5,1,1,5,71,11
1,1,18,1,6,1,1,5,71,11
1,1,1,0,2,0,1,5,41,11
1,1,10,1,4,0,1,5,93,11
1,1,8,1,5,1,1,5,93,11
1,1,21,0,2,0,1,5,71,11
1,1,15,1,4,0,1,5,71,11
1,1,22,0,5,1,1,5,71,11
1,1,20,1,5,1,1,5,71,11
1,1,4,0,6,1,1,5,93,11
1,1,15,1,0,0,1,5,93,11
2,1,10,1,6,1,1,5,71,9
2,1,13,1,0,0,1,5,71,11
2,1,2,0,5,1,1,5,71,11
2,1,17,1,5,1,1,5,81,11
2,1,21,0,1,0,1,5,71,11
2,1,15,1,2,0,1,5,24,11
2,1,15,1,2,0,1,5,102,11
2,1,20,1,2,0,1,5,102,11
2,1,21,0,2,0,1,5,93,11
2,1,0,0,3,0,1,5,41,8
2,1,20,1,3,0,1,5,93,11
2,1,16,1,3,0,1,5,71,11
2,1,22,0,5,1,1,5,93,11
2,1,14,1,5,1,1,5,71,11
2,1,3,0,6,1,1,5,93,11
2,1,2,0,6,1,1,5,93,11
2,1,21,0,3,0,1,5,20,11
2,1,13,1,4,0,1,5,95,11
2,1,23,0,4,0,1,5,71,11
2,1,0,0,5,1,1,5,93,11
2,1,23,0,5,1,1,5,70,11
2,1,0,0,0,0,1,5,93,11
2,1,17,1,1,0,1,5,71,11
3,2,18,1,2,0,1,5,71,11
3,2,16,1,3,0,1,5,71,11
3,2,22,0,0,0,1,5,93,11
3,2,9,1,3,0,1,5,93,11
3,2,4,0,4,0,1,5,35,11
3,2,18,1,6,1,1,5,71,11
3,2,21,0,6,1,1,5,93,11
3,2,16,1,0,0,1,5,71,11
3,2,21,0,0,0,1,5,93,11
3,2,21,0,0,0,1,5,93,11
3,2,21,0,0,0,1,5,93,11
3,2,11,1,1,0,1,5,71,11
3,2,21,0,1,0,1,5,93,11
3,2,15,1,2,0,1,5,93,11
3,2,17,1,5,1,1,5,81,11
3,2,1,0,6,1,1,5,71,11
3,2,10,1,6,1,1,5,71,11
3,2,21,0,6,1,1,5,71,11
3,2,23,0,2,0,1,5,102,11
3,2,19,1,3,0,1,5,63,11
3,2,23,0,4,0,1,5,93,11
3,2,3,0,0,0,1,5,102,11
3,2,15,1,0,0,1,5,32,11
3,2,13,1,4,0,1,5,93,11
4,2,21,0,5,1,2,5,70,11
4,2,5,0,1,0,2,5,92,8
4,2,14,1,4,0,2,5,78,11
4,2,2,0,0,0,2,5,93,11
4,2,1,0,0,0,2,5,93,11
4,2,7,1,0,0,2,5,94,11
4,2,7,1,1,0,2,5,41,11
4,2,14,1,1,0,2,5,71,11
4,2,1,0,2,0,2,5,102,11
4,2,3,0,3,0,2,5,107,11
4,2,21,0,5,1,2,5,70,11
4,2,7,1,6,1,2,5,71,11
4,2,19,1,0,0,2,5,93,11
4,2,23,0,0,0,2,5,93,11
4,2,23,0,0,0,2,5,93,11
4,2,15,1,1,0,2,5,32,11
4,2,3,0,2,0,2,5,93,11
4,2,20,1,3,0,2,5,8,8
4,2,20,1,4,0,2,5,70,11
4,2,14,1,5,1,2,5,71,11
4,2,0,0,6,1,2,5,93,11
4,2,0,0,6,1,2,5,93,11
4,2,1,0,1,0,2,5,93,11
4,2,0,0,1,0,2,5,93,11
4,2,1,0,1,0,2,5,93,11
4,2,22,0,1,0,2,5,93,11
4,2,20,1,4,0,2,5,71,11
4,2,17,1,4,0,2,5,1,11
4,2,9,1,4,0,2,5,71,11
5,2,21,0,0,0,2,5,8,11
5,2,15,1,1,0,2,5,93,11
5,2,2,0,2,0,2,5,93,11
5,2,2,0,2,0,2,5,93,11
5,2,16,1,4,0,2,5,71,11
5,2,21,0,4,0,2,5,95,11
5,2,1,0,0,0,2,5,81,11
5,2,15,1,0,0,2,5,102,11
5,2,22,0,0,0,2,5,93,11
5,2,16,1,2,0,2,5,93,11
5,2,13,1,2,0,2,5,93,11
5,2,11,1,4,0,2,5,71,11
5,2,18,1,5,1,2,5,93,11
5,2,21,0,4,0,2,5,71,11
5,2,21,0,0,0,2,5,102,11
5,2,12,1,1,0,2,5,71,11
6,3,11,1,4,0,2,5,130,11
6,3,22,0,5,1,2,5,70,11
6,3,21,0,0,0,2,5,71,11
6,3,15,1,0,0,2,5,41,11
6,3,12,1,2,0,2,5,71,11
6,3,2,0,1,0,2,5,93,11
6,3,15,1,1,0,2,5,71,11
6,3,14,1,2,0,2,5,117,11
6,3,11,1,4,0,2,5,93,11
6,3,21,0,5,1,2,5,105,11
6,3,1,0,6,1,2,5,93,11
6,3,13,1,0,0,2,5,14,11
6,3,4,0,1,0,2,5,93,11
6,3,15,1,1,0,2,5,102,11
6,3,5,0,3,0,2,5,93,11
6,3,7,1,3,0,2,5,93,11
6,3,8,1,4,0,2,5,93,11
6,3,21,0,4,0,2,5,93,11
7,3,21,0,0,0,3,5,113,11
7,3,0,0,1,0,3,5,102,11
7,3,15,1,1,0,3,5,71,11
7,3,18,1,2,0,3,5,62,8
7,3,15,1,3,0,3,5,93,11
7,3,19,1,5,1,3,5,71,11
7,3,6,0,6,1,3,5,93,11
7,3,19,1,0,0,3,5,71,11
7,3,15,1,1,0,3,5,93,11
7,3,8,1,2,0,3,5,93,11
7,3,18,1,3,0,3,5,71,11
7,3,21,0,4,0,3,5,93,11
7,3,3,0,5,1,3,5,95,11
7,3,13,1,5,1,3,5,107,11
7,3,5,0,2,0,3,5,12,11
7,3,15,1,0,0,3,5,93,11
8,3,14,1,1,0,3,5,107,11
8,3,9,1,2,0,3,5,93,11
8,3,10,1,3,0,3,5,71,11
8,3,11,1,3,0,3,5,71,11
8,3,1,0,4,0,3,5,117,11
8,3,7,1,0,0,3,5,93,11
8,3,10,1,1,0,3,5,93,11
8,3,7,1,3,0,3,5,93,11
8,3,13,1,6,1,3,5,71,11
8,3,6,0,6,1,3,5,20,11
8,3,19,1,0,0,3,5,71,11
8,3,4,0,1,0,3,5,51,11
8,3,15,1,2,0,3,5,71,11
8,3,9,1,3,0,3,5,93,11
8,3,23,0,3,0,3,5,70,11
8,3,13,1,3,0,3,5,93,11
8,3,2,0,4,0,3,5,112,11
8,3,14,1,4,0,3,5,81,11
8,3,18,1,0,0,3,5,71,11
8,3,2,0,3,0,3,5,8,11
8,3,6,0,3,0,3,5,93,11
8,3,8,1,4,0,3,5,95,11
8,3,15,1,4,0,3,5,102,11
8,3,15,1,4,0,3,5,71,11
8,3,16,1,4,0,3,5,93,11
8,3,16,1,4,0,3,5,81,9
8,3,17,1,4,0,3,5,71,11
8,3,0,0,5,1,3,5,95,11
8,3,7,1,6,1,3,5,71,11
8,3,11,1,6,1,3,5,41,11
8,3,3,0,0,0,3,5,93,11
9,4,11,1,4,0,3,5,93,11
9,4,22,0,6,1,3,5,102,11
9,4,14,1,2,0,3,5,93,11
9,4,20,1,2,0,3,5,95,11
9,4,3,0,3,0,3,5,71,11
9,4,4,0,3,0,3,5,93,11
9,4,6,0,4,0,3,5,81,11
9,4,14,1,4,0,3,5,71,11
9,4,20,1,4,0,3,5,41,11
9,4,6,0,5,1,3,5,102,11
9,4,15,1,2,0,3,5,93,11
9,4,10,1,2,0,3,5,8,11
9,4,11,1,3,0,3,5,64,11
9,4,17,1,2,0,3,5,107,11
9,4,14,1,3,0,3,5,71,11
9,4,3,0,4,0,3,5,93,11
9,4,2,0,6,1,3,5,93,11
9,4,15,1,3,0,3,5,81,11
9,4,12,1,4,0,3,5,95,11
10,4,21,0,1,0,4,5,107,11
10,4,21,0,1,0,4,5,102,11
10,4,22,0,2,0,4,5,93,11
10,4,17,1,1,0,4,5,110,11
10,4,5,0,2,0,4,5,93,11
10,4,21,0,2,0,4,5,93,11
10,4,2,0,6,1,4,5,102,11
10,4,7,1,0,0,4,5,107,11
10,4,7,1,1,0,4,5,71,11
10,4,16,1,4,0,4,5,93,11
10,4,14,1,4,0,4,5,95,11
10,4,14,1,4,0,4,5,107,11
10,4,19,1,1,0,4,5,93,11
10,4,23,0,0,0,4,5,93,11
10,4,21,0,0,0,4,5,93,11
10,4,13,1,0,0,4,5,93,11
11,4,14,1,2,0,4,5,93,11
11,4,14,1,2,0,4,5,71,11
11,4,15,1,6,1,4,5,71,11
11,4,15,1,6,1,4,5,93,11
11,4,18,1,6,1,4,5,71,11
11,4,18,1,2,0,4,5,93,11
11,4,1,0,3,0,4,5,71,11
11,4,19,1,3,0,4,5,71,11
11,4,22,0,5,1,4,5,20,11
11,4,16,1,6,1,4,5,1,11
11,4,15,1,1,0,4,5,20,11
11,4,19,1,2,0,4,5,79,11
11,4,16,1,3,0,4,5,93,11
11,4,21,0,6,1,4,5,70,11
11,4,4,0,2,0,4,5,110,11
11,4,16,1,2,0,4,5,22,11
12,1,3,0,6,1,4,5,20,11
12,1,22,0,6,1,4,5,70,11
12,1,22,0,6,1,4,5,93,11
12,1,7,1,2,0,4,5,62,11
12,1,22,0,2,0,4,5,93,11
12,1,2,0,3,0,4,5,95,11
12,1,18,1,3,0,4,5,71,11
12,1,23,0,4,0,4,5,71,11
12,1,19,1,5,1,4,5,71,11
12,1,19,1,5,1,4,5,70,11
12,1,22,0,5,1,4,5,93,11
12,1,23,0,5,1,4,5,41,11
12,1,23,0,5,1,4,5,93,11
12,1,16,1,6,1,4,5,93,11
12,1,7,1,0,0,4,5,71,11
12,1,5,0,1,0,4,5,71,11
12,1,15,1,1,0,4,5,93,11
12,1,20,1,2,0,4,5,71,11
12,1,21,0,3,0,4,5,93,11
12,1,0,0,4,0,4,5,71,11
12,1,18,1,6,1,4,5,93,11
12,1,22,0,6,1,4,5,93,11
12,1,23,0,6,1,4,5,102,11
12,1,23,0,6,1,4,5,93,11
12,1,23,0,6,1,4,5,93,11
12,1,2,0,1,0,4,5,20,11
12,1,9,1,4,0,4,5,20,11
12,1,21,0,4,0,4,5,41,11
12,1,19,1,5,1,4,5,82,11
12,1,21,0,5,1,4,5,71,11
12,1,7,1,6,1,4,5,20,11
12,1,9,1,6,1,4,5,71,11
12,1,14,1,6,1,4,5,71,11
12,1,8,1,0,0,4,5,41,11
12,1,0,0,0,0,4,5,70,11
12,1,8,1,4,0,4,5,102,11
12,1,0,0,6,1,4,5,131,11
1,1,23,0,6,1,1,5,132,11
1,1,21,0,6,1,1,5,20,11
1,1,17,1,6,1,1,5,71,11
1,1,3,0,0,0,1,5,71,11
1,1,20,1,0,0,1,5,130,11
1,1,17,1,2,0,1,5,132,11
1,1,16,1,2,0,1,5,71,11
1,1,22,0,5,1,1,5,132,11
1,1,22,0,5,1,1,5,132,11
1,1,0,0,6,1,1,5,132,11
1,1,16,1,6,1,1,5,132,11
1,1,3,0,6,1,1,5,20,11
1,1,14,1,0,0,1,5,132,11
1,1,21,0,1,0,1,5,132,11
1,1,0,0,1,0,1,5,132,11
1,1,2,0,2,0,1,5,132,11
1,1,16,1,2,0,1,5,132,11
1,1,8,1,2,0,1,5,41,11
1,1,14,1,3,0,1,5,132,11
1,1,11,1,3,0,1,5,71,11
1,1,15,1,4,0,1,5,132,11
1,1,14,1,4,0,1,5,132,11
1,1,17,1,4,0,1,5,132,11
1,1,14,1,5,1,1,5,53,11
1,1,21,0,5,1,1,5,89,11
1,1,22,0,5,1,1,5,71,11
1,1,14,1,0,0,1,5,71,11
1,1,14,1,3,0,1,5,14,8
1,1,1,0,5,1,1,5,71,11
1,1,1,0,5,1,1,5,41,11
1,1,4,0,6,1,1,5,20,11
1,1,21,0,0,0,1,5,20,11
2,1,0,0,2,0,1,5,93,11
2,1,11,1,2,0,1,5,132,11
2,1,13,1,3,0,1,5,20,11
2,1,14,1,3,0,1,5,20,11
2,1,16,1,2,0,1,5,132,11
2,1,14,1,3,0,1,5,132,11
2,1,11,1,4,0,1,5,71,11
2,1,15,1,5,1,1,5,51,11
2,1,20,1,0,0,1,5,81,11
2,1,15,1,0,0,1,5,132,11
2,1,4,0,2,0,1,5,94,11
2,1,18,1,4,0,1,5,71,11
2,1,21,0,6,1,1,5,71,11
2,1,11,1,1,0,1,5,71,11
2,1,16,1,2,0,1,5,95,11
2,1,19,1,3,0,1,5,81,11
2,1,19,1,5,1,1,5,132,11
2,1,22,0,1,0,1,5,117,11
2,1,21,0,1,0,1,5,30,11
3,2,1,0,3,0,1,5,20,11
3,2,11,1,6,1,1,5,132,11
3,2,11,1,1,0,1,5,71,11
3,2,6,0,3,0,1,5,81,11
3,2,20,1,6,1,1,5,95,11
3,2,0,0,3,0,1,5,132,11
3,2,17,1,4,0,1,5,132,11
3,2,20,1,5,1,1,5,71,11
3,2,8,1,5,1,1,5,71,11
3,2,23,0,6,1,1,5,132,11
3,2,1,0,6,1,1,5,82,11
3,2,19,1,2,0,1,5,130,11
4,2,8,1,2,0,2,5,41,11
4,2,6,0,4,0,2,5,20,11
4,2,11,1,4,0,2,5,4,11
4,2,19,1,5,1,2,5,95,11
4,2,13,1,5,1,2,5,81,11
4,2,20,1,0,0,2,5,105,11
4,2,2,0,2,0,2,5,107,11
4,2,3,0,2,0,2,5,20,9
4,2,0,0,5,1,2,5,132,11
4,2,0,0,6,1,2,5,84,11
4,2,13,1,4,0,2,5,93,11
4,2,3,0,4,0,2,5,95,11
4,2,11,1,3,0,2,5,33,11
4,2,11,1,3,0,2,5,132,11
4,2,19,1,6,1,2,5,132,11
5,2,13,1,0,0,2,5,107,11
5,2,23,0,0,0,2,5,131,11
5,2,20,1,5,1,2,5,41,11
5,2,0,0,0,0,2,5,20,11
5,2,14,1,0,0,2,5,95,11
5,2,20,1,1,0,2,5,95,11
5,2,10,1,2,0,2,5,115,11
5,2,19,1,3,0,2,5,20,11
5,2,16,1,0,0,2,5,71,11
5,2,17,1,1,0,2,5,95,11
5,2,17,1,1,0,2,5,8,11
5,2,5,0,2,0,2,5,20,11
5,2,21,0,2,0,2,5,115,11
5,2,19,1,5,1,2,5,53,11
5,2,11,1,1,0,2,5,15,9
5,2,11,1,2,0,2,5,81,11
6,3,18,1,4,0,2,5,20,11
6,3,20,1,6,1,2,5,95,11
6,3,22,0,1,0,2,5,14,11
6,3,13,1,5,1,2,5,95,11
6,3,17,1,1,0,2,5,1,11
6,3,18,1,1,0,2,5,71,11
6,3,16,1,2,0,2,5,95,11
6,3,18,1,3,0,2,5,93,11
6,3,19,1,3,0,2,5,62,11
6,3,23,0,3,0,2,5,41,11
6,3,18,1,5,1,2,5,95,11
6,3,1,0,1,0,2,5,70,11
6,3,14,1,2,0,2,5,41,11
6,3,2,0,6,1,2,5,132,11
6,3,0,0,0,0,2,5,132,11
6,3,0,0,0,0,2,5,132,11
6,3,1,0,1,0,2,5,132,11
6,3,2,0,1,0,2,5,132,11
6,3,1,0,2,0,2,5,132,11
6,3,18,1,2,0,2,5,132,11
7,3,7,1,5,1,3,5,66,11
7,3,13,1,5,1,3,5,95,11
7,3,23,0,5,1,3,5,20,11
7,3,2,0,6,1,3,5,20,11
7,3,0,0,0,0,3,5,132,11
7,3,1,0,0,0,3,5,132,11
7,3,1,0,0,0,3,5,132,11
7,3,17,1,2,0,3,5,95,11
7,3,17,1,2,0,3,5,20,11
7,3,13,1,1,0,3,5,20,11
7,3,20,1,1,0,3,5,20,11
7,3,21,0,3,0,3,5,71,11
7,3,22,0,5,1,3,5,63,11
7,3,15,1,6,1,3,5,95,8
7,3,15,1,3,0,3,5,71,11
7,3,8,1,6,1,3,5,71,11
7,3,6,0,6,1,3,5,132,11
8,3,1,0,1,0,3,5,71,11
8,3,9,1,1,0,3,5,20,11
8,3,6,0,2,0,3,5,62,11
8,3,13,1,6,1,3,5,95,11
8,3,13,1,0,0,3,5,53,11
8,3,16,1,1,0,3,5,102,11
8,3,9,1,2,0,3,5,95,11
8,3,16,1,3,0,3,5,71,11
8,3,13,1,3,0,3,5,107,11
8,3,22,0,4,0,3,5,93,11
8,3,7,1,6,1,3,5,132,11
8,3,6,0,6,1,3,5,21,11
8,3,2,0,1,0,3,5,82,11
8,3,3,0,1,0,3,5,62,9
8,3,19,1,4,0,3,5,51,11
8,3,16,1,0,0,3,5,95,11
8,3,22,0,3,0,3,5,20,11
8,3,7,1,4,0,3,5,71,8
8,3,0,0,4,0,3,5,14,8
8,3,18,1,0,0,3,5,132,11
9,4,19,1,5,1,3,5,132,11
9,4,13,1,5,1,3,5,51,11
9,4,2,0,2,0,3,5,93,11
9,4,13,1,6,1,3,5,102,11
9,4,14,1,5,1,3,5,93,11
9,4,19,1,0,0,3,5,95,11
9,4,15,1,1,0,3,5,95,11
9,4,21,0,2,0,3,5,64,8
9,4,16,1,3,0,3,5,132,11
9,4,16,1,5,1,3,5,40,11
9,4,6,0,6,1,3,5,132,11
9,4,19,1,3,0,3,5,107,11
9,4,13,1,3,0,3,5,105,11
10,4,18,1,0,0,4,5,95,11
10,4,1,0,1,0,4,5,132,11
10,4,15,1,2,0,4,5,95,11
10,4,15,1,5,1,4,5,81,11
10,4,19,1,2,0,4,5,132,11
10,4,17,1,4,0,4,5,33,11
10,4,21,0,4,0,4,5,70,11
10,4,15,1,5,1,4,5,4,11
10,4,16,1,0,0,4,5,108,11
10,4,16,1,1,0,4,5,117,11
10,4,3,0,2,0,4,5,62,11
10,4,13,1,4,0,4,5,71,11
10,4,19,1,5,1,4,5,107,11
10,4,14,1,6,1,4,5,20,11
10,4,20,1,0,0,4,5,93,11
10,4,11,1,0,0,4,5,93,11
10,4,20,1,1,0,4,5,95,11
10,4,12,1,5,1,4,5,93,11
10,4,9,1,5,1,4,5,71,11
10,4,12,1,6,1,4,5,95,11
10,4,14,1,6,1,4,5,93,11
11,4,13,1,5,1,4,5,71,11
11,4,18,1,6,1,4,5,107,11
11,4,13,1,6,1,4,5,132,11
11,4,21,0,6,1,4,5,20,11
11,4,1,0,4,0,4,5,132,11
11,4,0,0,6,1,4,5,81,11
11,4,13,1,1,0,4,5,71,11
11,4,16,1,1,0,4,5,107,11
11,4,21,0,2,0,4,5,71,11
11,4,10,1,3,0,4,5,20,11
11,4,13,1,3,0,4,5,113,11
11,4,7,1,5,1,4,5,41,11
11,4,0,0,5,1,4,5,82,11
11,4,22,0,0,0,4,5,71,11
11,4,14,1,1,0,4,5,81,11
11,4,2,0,2,0,4,5,78,8
11,4,1,0,2,0,4,5,20,11
11,4,5,0,4,0,4,5,132,11
11,4,5,0,4,0,4,5,132,11
11,4,4,0,4,0,4,5,132,11
11,4,23,0,6,1,4,5,71,11
11,4,19,1,6,1,4,5,95,11
11,4,1,0,6,1,4,5,132,11
11,4,1,0,6,1,4,5,132,11
11,4,19,1,1,0,4,5,71,11
11,4,22,0,1,0,4,5,132,11
12,1,11,1,6,1,4,5,71,11
12,1,4,0,4,0,4,5,64,8
12,1,15,1,5,1,4,5,71,11
12,1,5,0,6,1,4,5,132,11
12,1,17,1,4,0,4,5,41,11
12,1,20,1,1,0,4,5,71,11
12,1,22,0,2,0,4,5,132,11
12,1,18,1,5,1,4,5,81,11
12,1,6,0,6,1,4,5,82,11
12,1,17,1,6,1,4,5,132,11
12,1,11,1,0,0,4,5,132,11
12,1,15,1,0,0,4,5,89,11
12,1,3,0,1,0,4,5,71,11
12,1,13,1,1,0,4,5,71,11
12,1,20,1,1,0,4,5,132,11
12,1,13,1,1,0,4,5,132,11
12,1,1,0,2,0,4,5,41,11
12,1,1,0,4,0,4,5,81,11
1,1,13,1,6,1,1,5,71,11
1,1,17,1,6,1,1,5,20,11
1,1,2,0,0,0,1,5,93,11
1,1,19,1,0,0,1,5,81,11
1,1,18,1,0,0,1,5,62,11
1,1,17,1,0,0,1,5,95,11
1,1,17,1,0,0,1,5,93,11
1,1,2,0,1,0,1,5,71,11
1,1,18,1,1,0,1,5,71,11
1,1,13,1,2,0,1,5,41,11
1,1,14,1,3,0,1,5,63,11
1,1,16,1,4,0,1,5,130,11
1,1,20,1,4,0,1,5,71,11
1,1,11,1,4,0,1,5,41,11
1,1,17,1,5,1,1,5,71,11
1,1,20,1,5,1,1,5,81,11
1,1,13,1,6,1,1,5,71,11
1,1,11,1,6,1,1,5,71,9
1,1,13,1,6,1,1,5,93,11
1,1,18,1,6,1,1,5,41,11
1,1,18,1,6,1,1,5,71,11
1,1,17,1,6,1,1,5,41,11
1,1,3,0,0,0,1,5,83,11
1,1,14,1,0,0,1,5,33,11
1,1,15,1,1,0,1,5,71,11
1,1,1,0,1,0,1,5,81,11
1,1,19,1,2,0,1,5,20,11
1,1,11,1,3,0,1,5,115,11
1,1,16,1,4,0,1,5,93,11
1,1,20,1,4,0,1,5,111,11
1,1,18,1,4,0,1,5,71,11
1,1,6,0,5,1,1,5,93,11
1,1,20,1,5,1,1,5,81,11
1,1,23,0,5,1,1,5,71,11
1,1,23,0,5,1,1,5,93,11
1,1,18,1,5,1,1,5,93,11
1,1,13,1,5,1,1,5,71,11
1,1,12,1,5,1,1,5,93,11
1,1,12,1,6,1,1,5,95,11
1,1,1,0,6,1,1,5,20,11
1,1,13,1,6,1,1,5,20,11
1,1,16,1,6,1,1,5,93,11
1,1,16,1,6,1,1,5,93,11
1,1,11,1,6,1,1,5,71,11
1,1,14,1,0,0,1,5,95,11
1,1,2,0,2,0,1,5,33,11
1,1,3,0,2,0,1,5,20,9
1,1,18,1,5,1,1,5,71,11
1,1,18,1,5,1,1,5,94,11
1,1,17,1,6,1,1,5,93,11
1,1,22,0,0,0,1,5,93,11
1,1,12,1,1,0,1,5,93,11
1,1,12,1,1,0,1,5,33,8
1,1,0,0,2,0,1,5,93,11
1,1,17,1,3,0,1,5,86,11
1,1,18,1,4,0,1,5,93,11
1,1,0,0,6,1,1,5,24,11
1,1,2,0,0,0,1,5,93,11
1,1,9,1,0,0,1,5,71,11
1,1,7,1,1,0,1,5,81,11
1,1,15,1,1,0,1,5,95,11
2,1,9,1,2,0,1,5,20,11
2,1,4,0,3,0,1,5,20,9
2,1,11,1,3,0,1,5,46,11
2,1,19,1,3,0,1,5,63,11
2,1,23,0,4,0,1,5,107,11
2,1,22,0,4,0,1,5,107,11
2,1,9,1,5,1,1,5,71,11
2,1,20,1,0,0,1,5,71,11
2,1,14,1,2,0,1,5,71,11
2,1,15,1,4,0,1,5,71,11
2,1,22,0,4,0,1,5,71,11
2,1,4,0,5,1,1,5,93,9
2,1,13,1,5,1,1,5,71,11
2,1,12,1,6,1,1,5,71,11
2,1,20,1,0,0,1,5,71,11
2,1,19,1,2,0,1,5,81,11
2,1,21,0,4,0,1,5,93,11
2,1,21,0,4,0,1,5,93,11
2,1,5,0,5,1,1,5,93,11
2,1,7,1,5,1,1,5,93,11
2,1,20,1,2,0,1,5,95,11
2,1,10,1,0,0,1,5,71,11
2,1,3,0,0,0,1,5,20,11
2,1,4,0,1,0,1,5,93,11
3,2,15,1,2,0,1,5,93,11
3,2,16,1,3,0,1,5,93,11
3,2,8,1,4,0,1,5,14,9
3,2,3,0,6,1,1,5,93,11
3,2,8,1,6,1,1,5,71,11
3,2,1,0,0,0,1,5,95,9
3,2,15,1,0,0,1,5,95,11
3,2,19,1,2,0,1,5,71,11
3,2,19,1,2,0,1,5,111,9
3,2,4,0,5,1,1,5,20,9
3,2,13,1,5,1,1,5,115,11
3,2,8,1,6,1,1,5,81,11
3,2,10,1,0,0,1,5,51,11
3,2,18,1,0,0,1,5,71,11
3,2,13,1,0,0,1,5,71,11
3,2,11,1,1,0,1,5,81,11
3,2,15,1,3,0,1,5,107,11
3,2,22,0,3,0,1,5,8,11
3,2,17,1,4,0,1,5,95,11
3,2,23,0,4,0,1,5,107,11
3,2,15,1,4,0,1,5,93,11
3,2,14,1,6,1,1,5,81,11
3,2,20,1,6,1,1,5,20,11
3,2,13,1,6,1,1,5,107,11
3,2,11,1,6,1,1,5,107,11
3,2,12,1,0,0,1,5,71,11
3,2,2,0,2,0,1,5,20,11
3,2,12,1,3,0,1,5,51,11
3,2,11,1,3,0,1,5,71,11
3,2,12,1,3,0,1,5,51,11
3,2,7,1,4,0,1,5,20,11
3,2,18,1,4,0,1,5,71,11
3,2,11,1,5,1,1,5,95,11
3,2,3,0,5,1,1,5,107,11
3,2,10,1,5,1,1,5,107,11
3,2,18,1,5,1,1,5,107,11
3,2,22,0,6,1,1,5,107,11
3,2,1,0,6,1,1,5,95,11
3,2,13,1,6,1,1,5,81,11
3,2,16,1,6,1,1,5,107,11
3,2,22,0,6,1,1,5,107,11
3,2,5,0,0,0,1,5,107,11
3,2,17,1,0,0,1,5,46,8
3,2,13,1,0,0,1,5,93,11
3,2,13,1,1,0,1,5,107,11
3,2,14,1,2,0,1,5,71,11
3,2,17,1,3,0,1,5,81,11
4,2,18,1,5,1,2,5,107,11
4,2,3,0,5,1,2,5,93,11
4,2,3,0,5,1,2,5,93,11
4,2,15,1,5,1,2,5,93,11
4,2,4,0,6,1,2,5,71,11
4,2,16,1,0,0,2,5,20,11
4,2,23,0,0,0,2,5,71,11
4,2,18,1,1,0,2,5,93,11
4,2,10,1,1,0,2,5,95,11
4,2,1,0,4,0,2,5,20,11
4,2,21,0,4,0,2,5,81,11
4,2,20,1,4,0,2,5,41,11
4,2,17,1,5,1,2,5,93,11
4,2,4,0,5,1,2,5,20,9
4,2,0,0,6,1,2,5,81,11
4,2,5,0,0,0,2,5,93,11
4,2,3,0,0,0,2,5,20,11
4,2,20,1,1,0,2,5,71,11
4,2,19,1,2,0,2,5,8,11
4,2,17,1,3,0,2,5,95,11
4,2,13,1,3,0,2,5,20,11
4,2,6,0,5,1,2,5,93,11
4,2,20,1,6,1,2,5,93,11
4,2,4,0,6,1,2,5,93,11
4,2,2,0,6,1,2,5,71,11
4,2,0,0,6,1,2,5,93,11
4,2,0,0,6,1,2,5,93,9
4,2,23,0,6,1,2,5,71,11
4,2,12,1,0,0,2,5,93,11
4,2,16,1,0,0,2,5,8,11
4,2,16,1,0,0,2,5,84,11
4,2,23,0,0,0,2,5,93,11
4,2,10,1,1,0,2,5,71,11
4,2,20,1,2,0,2,5,71,11
4,2,22,0,2,0,2,5,93,11
4,2,9,1,3,0,2,5,81,11
4,2,23,0,3,0,2,5,107,11
4,2,3,0,4,0,2,5,107,11
4,2,22,0,4,0,2,5,93,11
4,2,10,1,4,0,2,5,79,11
4,2,23,0,5,1,2,5,93,11
4,2,11,1,5,1,2,5,41,11
4,2,18,1,6,1,2,5,93,11
4,2,14,1,6,1,2,5,107,11
4,2,12,1,0,0,2,5,81,11
4,2,13,1,1,0,2,5,71,11
4,2,19,1,4,0,2,5,95,11
4,2,0,0,5,1,2,5,93,11
5,2,15,1,0,0,2,5,93,11
5,2,19,1,0,0,2,5,105,11
5,2,22,0,0,0,2,5,93,9
5,2,21,0,3,0,2,5,81,11
5,2,5,0,4,0,2,5,81,11
5,2,1,0,4,0,2,5,71,11
5,2,14,1,4,0,2,5,71,11
5,2,17,1,5,1,2,5,107,11
5,2,18,1,6,1,2,5,52,11
5,2,11,1,1,0,2,5,93,11
5,2,1,0,5,1,2,5,95,11
5,2,9,1,5,1,2,5,93,11
5,2,1,0,6,1,2,5,71,11
5,2,0,0,1,0,2,5,8,11
5,2,14,1,3,0,2,5,71,11
5,2,15,1,3,0,2,5,71,9
5,2,0,0,4,0,2,5,93,11
5,2,13,1,4,0,2,5,88,11
5,2,13,1,4,0,2,5,131,11
5,2,9,1,4,0,2,5,107,11
5,2,23,0,5,1,2,5,71,11
5,2,9,1,5,1,2,5,33,11
5,2,16,1,0,0,2,5,71,11
5,2,21,0,0,0,2,5,93,11
5,2,16,1,2,0,2,5,93,11
5,2,4,0,4,0,2,5,102,11
5,2,22,0,4,0,2,5,93,11
5,2,15,1,4,0,2,5,71,11
5,2,13,1,0,0,2,5,51,11
5,2,15,1,0,0,2,5,95,11
5,2,21,0,0,0,2,5,93,11
5,2,1,0,2,0,2,5,93,11
5,2,1,0,2,0,2,5,93,11
6,3,19,1,3,0,2,5,72,11
6,3,5,0,4,0,2,5,93,11
6,3,22,0,4,0,2,5,95,11
6,3,9,1,4,0,2,5,93,11
6,3,21,0,4,0,2,5,24,8
6,3,12,1,0,0,2,5,95,11
6,3,15,1,2,0,2,5,71,9
6,3,22,0,2,0,2,5,93,11
6,3,0,0,2,0,2,5,102,11
6,3,10,1,3,0,2,5,71,11
6,3,23,0,4,0,2,5,93,11
6,3,0,0,5,1,2,5,93,11
6,3,22,0,5,1,2,5,93,11
6,3,12,1,5,1,2,5,8,11
6,3,16,1,6,1,2,5,7,11
6,3,3,0,1,0,2,5,93,11
6,3,4,0,1,0,2,5,93,11
6,3,0,0,6,1,2,5,71,9
6,3,9,1,0,0,2,5,41,11
6,3,5,0,0,0,2,5,71,9
6,3,23,0,1,0,2,5,41,11
6,3,11,1,3,0,2,5,71,11
6,3,22,0,4,0,2,5,8,11
6,3,18,1,6,1,2,5,107,11
6,3,19,1,0,0,2,5,81,11
6,3,3,0,1,0,2,5,93,11
6,3,15,1,2,0,2,5,71,11
6,3,10,1,3,0,2,5,115,11
6,3,14,1,3,0,2,5,110,11
6,3,4,0,4,0,2,5,93,11
6,3,18,1,4,0,2,5,107,11
6,3,15,1,4,0,2,5,8,11
6,3,18,1,4,0,2,5,71,11
7,3,6,0,5,1,3,5,71,11
7,3,3,0,5,1,3,5,93,11
7,3,2,0,5,1,3,5,93,11
7,3,11,1,5,1,3,5,62,11
7,3,21,0,5,1,3,5,8,11
7,3,15,1,5,1,3,5,81,11
7,3,11,1,5,1,3,5,93,11
7,3,0,0,6,1,3,5,93,11
7,3,15,1,6,1,3,5,95,11
7,3,21,0,0,0,3,5,102,11
7,3,13,1,0,0,3,5,95,11
7,3,12,1,0,0,3,5,95,11
7,3,3,0,1,0,3,5,8,11
7,3,3,0,2,0,3,5,71,11
7,3,8,1,2,0,3,5,41,11
7,3,14,1,2,0,3,5,95,11
7,3,10,1,3,0,3,5,95,11
7,3,12,1,3,0,3,5,95,9
7,3,0,0,4,0,3,5,95,11
7,3,2,0,5,1,3,5,95,11
7,3,18,1,5,1,3,5,95,11
7,3,17,1,6,1,3,5,86,11
7,3,23,0,0,0,3,5,93,11
7,3,21,0,0,0,3,5,71,11
7,3,20,1,1,0,3,5,81,11
7,3,20,1,2,0,3,5,72,11
7,3,16,1,3,0,3,5,107,11
7,3,18,1,3,0,3,5,20,11
7,3,12,1,6,1,3,5,81,11
7,3,21,0,6,1,3,5,81,11
7,3,4,0,1,0,3,5,93,11
7,3,0,0,2,0,3,5,107,11
7,3,21,0,2,0,3,5,95,11
7,3,13,1,3,0,3,5,71,11
7,3,14,1,5,1,3,5,95,9
7,3,14,1,5,1,3,5,95,11
7,3,15,1,5,1,3,5,95,8
7,3,20,1,6,1,3,5,95,11
7,3,16,1,0,0,3,5,107,11
7,3,22,0,1,0,3,5,93,11
7,3,13,1,1,0,3,5,93,11
7,3,16,1,2,0,3,5,40,11
7,3,16,1,3,0,3,5,107,11
7,3,17,1,4,0,3,5,107,11
7,3,15,1,4,0,3,5,93,11
7,3,19,1,4,0,3,5,92,11
7,3,23,0,4,0,3,5,107,11
7,3,14,1,5,1,3,5,130,11
8,3,4,0,1,0,3,5,102,11
8,3,16,1,1,0,3,5,115,11
8,3,20,1,1,0,3,5,8,11
8,3,14,1,2,0,3,5,95,11
8,3,3,0,3,0,3,5,8,11
8,3,15,1,3,0,3,5,95,9
8,3,16,1,3,0,3,5,81,11
8,3,15,1,4,0,3,5,71,11
8,3,14,1,4,0,3,5,95,8
8,3,15,1,5,1,3,5,95,11
8,3,15,1,0,0,3,5,40,11
8,3,9,1,1,0,3,5,41,11
8,3,1,0,1,0,3,5,41,11
8,3,22,0,1,0,3,5,70,11
8,3,22,0,1,0,3,5,8,9
8,3,4,0,2,0,3,5,8,11
8,3,4,0,2,0,3,5,93,11
8,3,20,1,2,0,3,5,81,11
8,3,23,0,2,0,3,5,20,11
8,3,8,1,3,0,3,5,107,11
8,3,2,0,4,0,3,5,113,11
8,3,3,0,5,1,3,5,81,8
8,3,8,1,6,1,3,5,134,9
8,3,14,1,0,0,3,5,93,11
8,3,7,1,0,0,3,5,95,9
8,3,12,1,1,0,3,5,8,11
8,3,19,1,1,0,3,5,95,11
8,3,22,0,2,0,3,5,71,11
8,3,21,0,2,0,3,5,81,11
8,3,14,1,3,0,3,5,95,11
8,3,23,0,4,0,3,5,107,11
8,3,23,0,4,0,3,5,107,11
8,3,18,1,4,0,3,5,95,11
8,3,0,0,6,1,3,5,93,11
8,3,1,0,6,1,3,5,71,11
8,3,20,1,0,0,3,5,20,11
8,3,15,1,0,0,3,5,115,11
8,3,3,0,1,0,3,5,62,11
8,3,21,0,1,0,3,5,93,11
8,3,19,1,4,0,3,5,51,11
8,3,13,1,5,1,3,5,95,11
8,3,22,0,5,1,3,5,71,11
8,3,14,1,6,1,3,5,71,11
8,3,16,1,6,1,3,5,71,9
8,3,12,1,1,0,3,5,41,11
8,3,4,0,1,0,3,5,20,11
8,3,22,0,1,0,3,5,107,11
8,3,15,1,2,0,3,5,24,11
8,3,17,1,2,0,3,5,107,11
8,3,3,0,3,0,3,5,93,9
8,3,22,0,3,0,3,5,93,11
9,4,3,0,4,0,3,5,93,11
9,4,5,0,4,0,3,5,70,11
9,4,6,0,5,1,3,5,20,11
9,4,15,1,1,0,3,5,107,11
9,4,10,1,2,0,3,5,24,11
9,4,2,0,2,0,3,5,81,11
9,4,20,1,2,0,3,5,93,11
9,4,9,1,3,0,3,5,71,11
9,4,15,1,3,0,3,5,93,11
9,4,17,1,3,0,3,5,95,11
9,4,1,0,4,0,3,5,102,11
9,4,14,1,4,0,3,5,95,9
9,4,17,1,4,0,3,5,70,11
9,4,17,1,5,1,3,5,95,9
9,4,18,1,5,1,3,5,95,11
9,4,20,1,5,1,3,5,107,11
9,4,13,1,6,1,3,5,95,9
9,4,13,1,6,1,3,5,71,11
9,4,17,1,6,1,3,5,41,11
9,4,10,1,0,0,3,5,82,11
9,4,23,0,1,0,3,5,71,11
9,4,14,1,1,0,3,5,81,11
9,4,12,1,1,0,3,5,71,11
9,4,11,1,2,0,3,5,71,11
9,4,0,0,2,0,3,5,20,11
9,4,10,1,2,0,3,5,81,11
9,4,19,1,3,0,3,5,20,9
9,4,17,1,4,0,3,5,81,11
9,4,8,1,4,0,3,5,107,11
9,4,1,0,5,1,3,5,107,11
9,4,20,1,6,1,3,5,8,11
9,4,5,0,6,1,3,5,20,11
9,4,1,0,6,1,3,5,71,9
9,4,21,0,6,1,3,5,33,11
9,4,1,0,0,0,3,5,20,11
9,4,22,0,0,0,3,5,71,11
9,4,2,0,1,0,3,5,107,11
9,4,5,0,1,0,3,5,71,11
9,4,16,1,1,0,3,5,107,9
9,4,20,1,1,0,3,5,93,11
9,4,17,1,2,0,3,5,107,11
9,4,11,1,2,0,3,5,81,11
9,4,14,1,3,0,3,5,95,11
9,4,22,0,3,0,3,5,95,11
9,4,14,1,3,0,3,5,70,11
9,4,5,0,4,0,3,5,20,11
9,4,14,1,5,1,3,5,24,11
9,4,0,0,6,1,3,5,93,11
9,4,9,1,6,1,3,5,51,11
9,4,21,0,0,0,3,5,20,11
9,4,4,0,1,0,3,5,93,11
9,4,23,0,2,0,3,5,24,11
9,4,12,1,4,0,3,5,8,11
9,4,23,0,4,0,3,5,41,11
9,4,20,1,4,0,3,5,8,9
9,4,19,1,4,0,3,5,107,11
9,4,11,1,4,0,3,5,71,11
10,4,2,0,0,0,4,5,107,9
10,4,18,1,0,0,4,5,71,11
10,4,14,1,1,0,4,5,71,11
10,4,14,1,1,0,4,5,95,11
10,4,22,0,2,0,4,5,107,11
10,4,19,1,3,0,4,5,103,11
10,4,19,1,4,0,4,5,81,11
10,4,21,0,4,0,4,5,81,11
10,4,22,0,6,1,4,5,107,11
10,4,2,0,6,1,4,5,107,11
10,4,21,0,0,0,4,5,71,11
10,4,11,1,1,0,4,5,107,11
10,4,11,1,3,0,4,5,107,11
10,4,11,1,3,0,4,5,81,11
10,4,14,1,4,0,4,5,71,11
10,4,12,1,4,0,4,5,107,11
10,4,12,1,6,1,4,5,8,11
10,4,16,1,6,1,4,5,95,11
10,4,23,0,1,0,4,5,71,11
10,4,6,0,1,0,4,5,33,11
10,4,4,0,1,0,4,5,33,11
10,4,17,1,1,0,4,5,71,11
10,4,11,1,2,0,4,5,24,11
10,4,10,1,2,0,4,5,8,11
10,4,0,0,4,0,4,5,33,11
10,4,15,1,5,1,4,5,107,11
10,4,22,0,6,1,4,5,107,11
10,4,16,1,0,0,4,5,71,11
10,4,21,0,0,0,4,5,95,11
10,4,13,1,1,0,4,5,71,11
10,4,23,0,3,0,4,5,93,11
10,4,13,1,3,0,4,5,30,9
10,4,13,1,3,0,4,5,8,11
10,4,15,1,4,0,4,5,71,11
10,4,21,0,6,1,4,5,107,11
10,4,22,0,6,1,4,5,93,11
10,4,13,1,6,1,4,5,95,9
10,4,21,0,1,0,4,5,71,11
11,4,7,1,2,0,4,5,20,11
11,4,9,1,2,0,4,5,93,11
11,4,21,0,2,0,4,5,105,11
11,4,19,1,3,0,4,5,71,11
11,4,21,0,3,0,4,5,112,11
11,4,18,1,4,0,4,5,20,11
11,4,21,0,5,1,4,5,20,11
11,4,12,1,5,1,4,5,51,11
11,4,4,0,6,1,4,5,41,11
11,4,21,0,6,1,4,5,41,11
11,4,23,0,6,1,4,5,93,11
11,4,5,0,0,0,4,5,107,11
11,4,9,1,0,0,4,5,81,11
11,4,2,0,1,0,4,5,93,11
11,4,2,0,1,0,4,5,93,11
11,4,23,0,1,0,4,5,93,11
11,4,4,0,3,0,4,5,93,11
11,4,0,0,5,1,4,5,8,11
11,4,12,1,5,1,4,5,71,11
11,4,11,1,5,1,4,5,95,11
11,4,12,1,5,1,4,5,93,11
11,4,4,0,5,1,4,5,71,11
11,4,16,1,5,1,4,5,71,11
11,4,18,1,5,1,4,5,81,11
11,4,17,1,5,1,4,5,93,11
11,4,23,0,0,0,4,5,41,11
11,4,10,1,1,0,4,5,95,11
11,4,19,1,1,0,4,5,71,11
11,4,21,0,1,0,4,5,115,11
11,4,18,1,2,0,4,5,20,11
11,4,13,1,2,0,4,5,20,11
11,4,9,1,3,0,4,5,107,11
11,4,1,0,3,0,4,5,97,11
11,4,23,0,3,0,4,5,102,11
11,4,11,1,4,0,4,5,115,11
11,4,0,0,5,1,4,5,107,11
11,4,13,1,6,1,4,5,71,11
11,4,7,1,0,0,4,5,95,11
11,4,1,0,0,0,4,5,107,11
11,4,4,0,0,0,4,5,71,11
11,4,14,1,1,0,4,5,71,11
11,4,12,1,1,0,4,5,71,11
11,4,15,1,1,0,4,5,93,11
11,4,14,1,3,0,4,5,95,11
11,4,13,1,3,0,4,5,20,11
11,4,10,1,3,0,4,5,93,11
11,4,15,1,4,0,4,5,20,11
11,4,20,1,4,0,4,5,93,11
11,4,19,1,4,0,4,5,93,11
11,4,0,0,5,1,4,5,93,11
11,4,10,1,6,1,4,5,107,11
11,4,20,1,6,1,4,5,20,11
11,4,14,1,6,1,4,5,71,11
11,4,7,1,0,0,4,5,20,11
11,4,17,1,1,0,4,5,20,11
11,4,7,1,2,0,4,5,93,11
11,4,22,0,2,0,4,5,93,11
11,4,10,1,3,0,4,5,95,11
11,4,13,1,3,0,4,5,93,11
11,4,0,0,3,0,4,5,115,11
12,1,12,1,5,1,4,5,81,11
12,1,12,1,5,1,4,5,81,11
12,1,19,1,5,1,4,5,71,11
12,1,18,1,5,1,4,5,107,11
12,1,11,1,5,1,4,5,95,11
12,1,19,1,6,1,4,5,94,11
12,1,17,1,6,1,4,5,81,11
12,1,4,0,6,1,4,5,93,11
12,1,20,1,0,0,4,5,81,11
12,1,21,0,3,0,4,5,102,11
12,1,20,1,3,0,4,5,81,11
12,1,14,1,4,0,4,5,95,11
12,1,17,1,4,0,4,5,93,11
12,1,17,1,4,0,4,5,20,9
12,1,1,0,5,1,4,5,81,11
12,1,21,0,5,1,4,5,93,11
12,1,21,0,5,1,4,5,93,11
12,1,19,1,6,1,4,5,105,11
12,1,20,1,6,1,4,5,71,11
12,1,13,1,6,1,4,5,41,11
12,1,23,0,0,0,4,5,41,9
12,1,11,1,1,0,4,5,81,11
12,1,5,0,1,0,4,5,93,11
12,1,1,0,2,0,4,5,71,11
12,1,0,0,3,0,4,5,105,11
12,1,16,1,3,0,4,5,95,11
12,1,22,0,3,0,4,5,71,11
12,1,23,0,3,0,4,5,107,11
12,1,22,0,3,0,4,5,71,11
12,1,2,0,4,0,4,5,93,11
12,1,4,0,4,0,4,5,93,11
12,1,18,1,4,0,4,5,41,11
12,1,13,1,5,1,4,5,93,11
12,1,13,1,5,1,4,5,93,11
12,1,12,1,5,1,4,5,107,9
12,1,12,1,6,1,4,5,81,11
12,1,13,1,6,1,4,5,93,11
12,1,6,0,0,0,4,5,108,11
12,1,19,1,0,0,4,5,93,11
12,1,6,0,0,0,4,5,81,11
12,1,18,1,1,0,4,5,95,11
12,1,7,1,1,0,4,5,81,11
12,1,16,1,1,0,4,5,81,9
12,1,16,1,2,0,4,5,95,11
12,1,13,1,2,0,4,5,71,11
12,1,2,0,3,0,4,5,94,11
12,1,0,0,3,0,4,5,81,11
12,1,3,0,3,0,4,5,93,11
12,1,0,0,3,0,4,5,71,9
12,1,3,0,3,0,4,5,94,11
12,1,4,0,3,0,4,5,93,11
12,1,4,0,3,0,4,5,93,11
12,1,4,0,3,0,4,5,93,11
12,1,3,0,3,0,4,5,20,9
12,1,2,0,3,0,4,5,81,11
12,1,23,0,4,0,4,5,81,11
12,1,22,0,5,1,4,5,71,11
12,1,20,1,5,1,4,5,93,11
12,1,19,1,6,1,4,5,81,11
12,1,17,1,6,1,4,5,20,11
12,1,21,0,0,0,4,5,93,11
12,1,23,0,0,0,4,5,95,11
12,1,22,0,0,0,4,5,63,11
12,1,16,1,0,0,4,5,93,11
12,1,22,0,1,0,4,5,93,11
12,1,12,1,2,0,4,5,71,11
12,1,12,1,2,0,4,5,81,11
12,1,13,1,2,0,4,5,71,11
12,1,10,1,3,0,4,5,112,11
12,1,23,0,3,0,4,5,71,11
12,1,16,1,4,0,4,5,93,11
12,1,18,1,5,1,4,5,71,11
12,1,16,1,5,1,4,5,81,11
12,1,16,1,6,1,4,5,71,11
1,1,14,1,6,1,1,5,84,11
1,1,14,1,6,1,1,5,93,11
1,1,5,0,6,1,1,5,79,11
1,1,2,0,6,1,1,5,79,11
1,1,16,1,0,0,1,5,71,11
1,1,13,1,1,0,1,5,95,11
1,1,13,1,1,0,1,5,93,11
1,1,5,0,1,0,1,5,93,11
1,1,20,1,2,0,1,5,93,11
1,1,21,0,2,0,1,5,93,11
1,1,21,0,4,0,1,5,93,11
1,1,15,1,4,0,1,5,71,11
1,1,20,1,0,0,1,5,71,11
1,1,11,1,0,0,1,5,71,11
1,1,18,1,0,0,1,5,71,11
1,1,8,1,0,0,1,5,79,11
1,1,23,0,1,0,1,5,93,11
1,1,3,0,1,0,1,5,71,9
1,1,2,0,2,0,1,5,79,9
1,1,16,1,2,0,1,5,95,11
1,1,14,1,3,0,1,5,1,11
1,1,17,1,3,0,1,5,93,11
1,1,20,1,3,0,1,5,71,11
1,1,13,1,4,0,1,5,95,11
1,1,22,0,4,0,1,5,7,11
1,1,19,1,5,1,1,5,82,11
1,1,21,0,6,1,1,5,81,11
1,1,22,0,6,1,1,5,71,11
1,1,19,1,6,1,1,5,71,11
1,1,15,1,6,1,1,5,93,11
1,1,15,1,6,1,1,5,93,11
1,1,21,0,1,0,1,5,81,11
1,1,23,0,1,0,1,5,95,11
1,1,18,1,2,0,1,5,95,11
1,1,2,0,3,0,1,5,30,9
1,1,23,0,4,0,1,5,81,11
1,1,15,1,4,0,1,5,95,9
1,1,15,1,4,0,1,5,71,11
1,1,22,0,5,1,1,5,71,11
1,1,22,0,5,1,1,5,93,11
1,1,16,1,5,1,1,5,81,11
1,1,14,1,5,1,1,5,95,11
1,1,14,1,5,1,1,5,93,11
1,1,7,1,5,1,1,5,79,11
1,1,21,0,6,1,1,5,93,11
1,1,17,1,0,0,1,5,41,11
1,1,9,1,0,0,1,5,71,9
1,1,3,0,1,0,1,5,79,8
1,1,22,0,4,0,1,5,71,11
1,1,9,1,4,0,1,5,93,11
1,1,3,0,5,1,1,5,93,11
1,1,3,0,5,1,1,5,132,11
1,1,19,1,5,1,1,5,93,11
1,1,22,0,5,1,1,5,41,11
1,1,19,1,0,0,1,5,93,11
1,1,18,1,0,0,1,5,79,11
1,1,12,1,0,0,1,5,71,11
1,1,5,0,1,0,1,5,79,11
1,1,7,1,1,0,1,5,95,11
2,1,19,1,2,0,1,5,93,11
2,1,18,1,2,0,1,5,93,11
2,1,4,0,2,0,1,5,93,11
2,1,15,1,3,0,1,5,113,11
2,1,0,0,4,0,1,5,63,11
2,1,22,0,4,0,1,5,93,11
2,1,21,0,4,0,1,5,93,11
2,1,0,0,5,1,1,5,41,11
2,1,22,0,6,1,1,5,102,11
2,1,1,0,0,0,1,5,102,11
2,1,21,0,0,0,1,5,79,11
2,1,12,1,0,0,1,5,1,11
2,1,8,1,1,0,1,5,71,11
2,1,1,0,2,0,1,5,79,11
2,1,13,1,2,0,1,5,115,11
2,1,17,1,5,1,1,5,95,11
2,1,18,1,0,0,1,5,71,11
2,1,19,1,0,0,1,5,71,11
2,1,22,0,1,0,1,5,95,11
2,1,4,0,2,0,1,5,79,8
2,1,13,1,2,0,1,5,7,9
2,1,22,0,2,0,1,5,93,11
2,1,14,1,3,0,1,5,93,11
2,1,22,0,4,0,1,5,93,11
2,1,23,0,4,0,1,5,95,11
2,1,22,0,5,1,1,5,41,11
2,1,3,0,6,1,1,5,79,11
2,1,22,0,0,0,1,5,79,11
2,1,12,1,0,0,1,5,95,11
2,1,0,0,1,0,1,5,79,11
2,1,12,1,1,0,1,5,81,11
2,1,21,0,3,0,1,5,93,11
2,1,5,0,4,0,1,5,107,11
2,1,7,1,6,1,1,5,79,11
3,2,0,0,2,0,1,5,81,9
3,2,14,1,2,0,1,5,79,11
3,2,23,0,5,1,1,5,93,11
3,2,22,0,5,1,1,5,95,11
3,2,6,0,5,1,1,5,95,11
3,2,22,0,6,1,1,5,41,11
3,2,0,0,6,1,1,5,93,11
3,2,7,1,6,1,1,5,93,11
3,2,0,0,0,0,1,5,93,11
3,2,4,0,1,0,1,5,79,9
3,2,15,1,1,0,1,5,81,11
3,2,2,0,3,0,1,5,79,11
3,2,1,0,3,0,1,5,132,11
3,2,7,1,3,0,1,5,71,11
3,2,4,0,4,0,1,5,62,11
3,2,4,0,4,0,1,5,71,9
3,2,18,1,4,0,1,5,41,11
3,2,23,0,4,0,1,5,71,11
3,2,13,1,5,1,1,5,93,11
3,2,14,1,6,1,1,5,71,11
3,2,3,0,0,0,1,5,93,11
3,2,17,1,0,0,1,5,93,11
3,2,19,1,2,0,1,5,71,11
3,2,17,1,2,0,1,5,95,11
3,2,0,0,3,0,1,5,65,11
3,2,23,0,3,0,1,5,93,11
3,2,18,1,4,0,1,5,102,11
3,2,23,0,5,1,1,5,93,11
3,2,23,0,6,1,1,5,93,11
3,2,17,1,6,1,1,5,95,11
3,2,17,1,6,1,1,5,102,11
3,2,3,0,0,0,1,5,93,9
3,2,12,1,0,0,1,5,95,11
3,2,16,1,1,0,1,5,132,11
3,2,1,0,2,0,1,5,93,11
3,2,19,1,3,0,1,5,41,11
3,2,7,1,4,0,1,5,110,11
3,2,0,0,4,0,1,5,93,11
3,2,3,0,4,0,1,5,132,11
3,2,12,1,4,0,1,5,71,11
3,2,17,1,0,0,1,5,105,11
3,2,21,0,1,0,1,5,132,9
3,2,21,0,2,0,1,5,71,11
3,2,16,1,2,0,1,5,71,11
3,2,18,1,3,0,1,5,49,11
4,2,18,1,5,1,2,5,95,11
4,2,7,1,6,1,2,5,95,11
4,2,22,0,0,0,2,5,79,11
4,2,19,1,0,0,2,5,7,11
4,2,6,0,0,0,2,5,95,11
4,2,22,0,1,0,2,5,95,9
4,2,22,0,1,0,2,5,93,11
4,2,23,0,3,0,2,5,95,11
4,2,11,1,3,0,2,5,71,11
4,2,21,0,4,0,2,5,93,11
4,2,12,1,4,0,2,5,95,11
4,2,13,1,5,1,2,5,41,11
4,2,14,1,5,1,2,5,95,11
4,2,23,0,6,1,2,5,79,9
4,2,20,1,6,1,2,5,79,11
4,2,14,1,6,1,2,5,95,11
4,2,20,1,0,0,2,5,107,11
4,2,13,1,0,0,2,5,7,11
4,2,15,1,1,0,2,5,95,11
4,2,17,1,2,0,2,5,88,11
4,2,12,1,2,0,2,5,93,11
4,2,8,1,3,0,2,5,132,11
4,2,14,1,4,0,2,5,37,11
4,2,20,1,5,1,2,5,93,11
4,2,16,1,6,1,2,5,93,11
4,2,9,1,6,1,2,5,71,11
4,2,1,0,6,1,2,5,71,11
4,2,0,0,6,1,2,5,8,11
4,2,21,0,2,0,2,5,81,11
4,2,12,1,2,0,2,5,71,11
4,2,3,0,3,0,2,5,81,11
4,2,20,1,4,0,2,5,41,11
4,2,22,0,4,0,2,5,102,11
4,2,18,1,4,0,2,5,70,11
4,2,1,0,6,1,2,5,93,11
4,2,0,0,6,1,2,5,79,11
4,2,12,1,0,0,2,5,132,11
4,2,21,0,1,0,2,5,107,11
4,2,22,0,1,0,2,5,93,11
4,2,22,0,3,0,2,5,93,11
4,2,11,1,3,0,2,5,95,11
4,2,14,1,3,0,2,5,71,11
4,2,2,0,3,0,2,5,79,11
4,2,23,0,4,0,2,5,95,11
4,2,21,0,4,0,2,5,107,11
4,2,12,1,4,0,2,5,71,11
4,2,22,0,6,1,2,5,7,11
5,2,22,0,0,0,2,5,1,11
5,2,1,0,0,0,2,5,79,11
5,2,1,0,0,0,2,5,95,11
5,2,19,1,1,0,2,5,102,11
5,2,15,1,2,0,2,5,120,11
5,2,20,1,2,0,2,5,8,11
5,2,10,1,3,0,2,5,41,11
5,2,21,0,4,0,2,5,95,11
5,2,22,0,5,1,2,5,93,11
5,2,17,1,5,1,2,5,95,11
5,2,21,0,6,1,2,5,95,11
5,2,1,0,6,1,2,5,95,11
5,2,10,1,1,0,2,5,107,11
5,2,15,1,1,0,2,5,81,11
5,2,16,1,1,0,2,5,71,11
5,2,22,0,2,0,2,5,95,11
5,2,23,0,4,0,2,5,79,11
5,2,18,1,4,0,2,5,93,11
5,2,18,1,4,0,2,5,95,11
5,2,13,1,5,1,2,5,70,11
5,2,19,1,5,1,2,5,95,11
5,2,0,0,0,0,2,5,79,11
5,2,17,1,0,0,2,5,93,11
5,2,21,0,0,0,2,5,107,11
5,2,16,1,0,0,2,5,95,11
5,2,12,1,0,0,2,5,95,11
5,2,1,0,1,0,2,5,95,11
5,2,22,0,1,0,2,5,93,11
5,2,17,1,1,0,2,5,95,11
5,2,12,1,4,0,2,5,95,11
5,2,18,1,4,0,2,5,41,11
5,2,13,1,5,1,2,5,95,11
5,2,18,1,6,1,2,5,95,11
5,2,3,0,6,1,2,5,107,11
5,2,22,0,0,0,2,5,95,11
5,2,22,0,1,0,2,5,95,11
5,2,16,1,1,0,2,5,117,11
5,2,3,0,2,0,2,5,93,11
5,2,18,1,3,0,2,5,95,11
5,2,16,1,3,0,2,5,81,11
5,2,18,1,4,0,2,5,95,11
5,2,12,1,4,0,2,5,95,11
5,2,23,0,6,1,2,5,107,11
5,2,17,1,2,0,2,5,107,11
6,3,4,0,3,0,2,5,95,11
6,3,4,0,3,0,2,5,95,9
6,3,17,1,4,0,2,5,107,11
6,3,14,1,4,0,2,5,93,9
6,3,13,1,4,0,2,5,79,11
6,3,12,1,4,0,2,5,71,11
6,3,17,1,5,1,2,5,95,11
6,3,19,1,5,1,2,5,95,11
6,3,0,0,5,1,2,5,93,11
6,3,1,0,5,1,2,5,102,11
6,3,21,0,6,1,2,5,107,11
6,3,0,0,6,1,2,5,95,11
6,3,0,0,6,1,2,5,81,9
6,3,4,0,1,0,2,5,79,11
6,3,2,0,1,0,2,5,93,11
6,3,14,1,1,0,2,5,71,11
6,3,4,0,2,0,2,5,71,9
6,3,0,0,3,0,2,5,95,11
6,3,11,1,3,0,2,5,14,9
6,3,20,1,3,0,2,5,71,8
6,3,15,1,4,0,2,5,95,11
6,3,4,0,4,0,2,5,79,11
6,3,20,1,5,1,2,5,95,11
6,3,14,1,5,1,2,5,95,9
6,3,18,1,1,0,2,5,115,11
6,3,13,1,1,0,2,5,95,11
6,3,10,1,1,0,2,5,95,11
6,3,12,1,1,0,2,5,95,11
6,3,9,1,1,0,2,5,79,11
6,3,15,1,2,0,2,5,95,11
6,3,20,1,2,0,2,5,95,11
6,3,1,0,3,0,2,5,95,11
6,3,16,1,3,0,2,5,95,9
6,3,21,0,4,0,2,5,71,11
6,3,9,1,4,0,2,5,95,11
6,3,22,0,5,1,2,5,79,11
6,3,19,1,0,0,2,5,107,11
6,3,22,0,1,0,2,5,79,11
6,3,1,0,3,0,2,5,93,11
6,3,22,0,5,1,2,5,95,11
6,3,2,0,5,1,2,5,1,11
6,3,6,0,6,1,2,5,71,11
6,3,0,0,0,0,2,5,132,11
6,3,23,0,0,0,2,5,102,11
6,3,4,0,1,0,2,5,132,11
6,3,3,0,1,0,2,5,132,11
6,3,21,0,1,0,2,5,95,11
6,3,4,0,1,0,2,5,102,11
6,3,9,1,3,0,2,5,8,11
6,3,1,0,4,0,2,5,71,11
6,3,11,1,4,0,2,5,24,11
7,3,17,1,6,1,3,5,71,11
7,3,4,0,0,0,3,5,79,11
7,3,11,1,2,0,3,5,95,11
7,3,20,1,2,0,3,5,71,11
7,3,21,0,2,0,3,5,95,9
7,3,22,0,2,0,3,5,117,11
7,3,21,0,2,0,3,5,95,11
7,3,22,0,3,0,3,5,7,11
7,3,18,1,4,0,3,5,95,11
7,3,4,0,5,1,3,5,93,11
7,3,19,1,5,1,3,5,132,11
7,3,20,1,0,0,3,5,95,11
7,3,20,1,0,0,3,5,81,11
7,3,2,0,3,0,3,5,93,11
7,3,18,1,6,1,3,5,95,9
7,3,19,1,0,0,3,5,95,11
7,3,16,1,0,0,3,5,95,11
7,3,17,1,1,0,3,5,95,11
7,3,12,1,1,0,3,5,7,11
7,3,14,1,2,0,3,5,95,8
7,3,20,1,3,0,3,5,95,11
7,3,18,1,3,0,3,5,107,11
7,3,18,1,4,0,3,5,95,11
7,3,11,1,4,0,3,5,95,11
7,3,13,1,4,0,3,5,95,11
7,3,10,1,5,1,3,5,79,11
7,3,11,1,5,1,3,5,79,11
7,3,19,1,6,1,3,5,93,11
7,3,15,1,6,1,3,5,93,11
7,3,4,0,6,1,3,5,95,11
7,3,7,1,0,0,3,5,81,11
7,3,16,1,0,0,3,5,95,11
7,3,18,1,0,0,3,5,70,11
7,3,13,1,2,0,3,5,95,11
7,3,6,0,3,0,3,5,79,9
7,3,20,1,5,1,3,5,95,11
7,3,9,1,6,1,3,5,95,11
7,3,1,0,6,1,3,5,95,11
7,3,22,0,0,0,3,5,79,11
7,3,13,1,0,0,3,5,95,11
7,3,13,1,0,0,3,5,95,11
8,3,11,1,2,0,3,5,79,11
8,3,18,1,2,0,3,5,95,11
8,3,22,0,3,0,3,5,95,11
8,3,20,1,3,0,3,5,70,11
8,3,21,0,3,0,3,5,95,11
8,3,13,1,3,0,3,5,8,11
8,3,3,0,3,0,3,5,95,11
8,3,17,1,4,0,3,5,93,11
8,3,18,1,4,0,3,5,95,11
8,3,6,0,4,0,3,5,79,11
8,3,0,0,4,0,3,5,93,11
8,3,22,0,5,1,3,5,95,11
8,3,15,1,6,1,3,5,95,11
8,3,16,1,6,1,3,5,95,11
8,3,18,1,6,1,3,5,95,11
8,3,17,1,6,1,3,5,95,11
8,3,1,0,0,0,3,5,93,11
8,3,1,0,0,0,3,5,79,11
8,3,6,0,1,0,3,5,95,11
8,3,15,1,2,0,3,5,95,11
8,3,3,0,2,0,3,5,93,11
8,3,20,1,3,0,3,5,95,11
8,3,20,1,4,0,3,5,95,9
8,3,17,1,5,1,3,5,95,11
8,3,13,1,5,1,3,5,81,9
8,3,11,1,2,0,3,5,71,9
8,3,4,0,3,0,3,5,132,11
8,3,20,1,4,0,3,5,95,11
8,3,16,1,5,1,3,5,8,11
8,3,7,1,6,1,3,5,79,11
8,3,2,0,6,1,3,5,95,11
8,3,1,0,2,0,3,5,93,11
8,3,22,0,3,0,3,5,70,11
8,3,16,1,4,0,3,5,95,11
8,3,20,1,5,1,3,5,95,11
8,3,12,1,5,1,3,5,8,11
8,3,4,0,5,1,3,5,102,11
8,3,15,1,0,0,3,5,95,11
8,3,3,0,1,0,3,5,24,9
8,3,18,1,1,0,3,5,95,11
8,3,10,1,2,0,3,5,71,11
8,3,21,0,3,0,3,5,93,11
8,3,19,1,3,0,3,5,95,11
8,3,14,1,3,0,3,5,95,11
9,4,20,1,4,0,3,5,88,11
9,4,3,0,4,0,3,5,79,11
9,4,12,1,5,1,3,5,88,11
9,4,22,0,5,1,3,5,70,11
9,4,23,0,5,1,3,5,95,11
9,4,6,0,6,1,3,5,86,11
9,4,12,1,6,1,3,5,93,11
9,4,11,1,6,1,3,5,71,11
9,4,21,0,2,0,3,5,70,11
9,4,14,1,3,0,3,5,71,9
9,4,14,1,4,0,3,5,81,11
9,4,19,1,5,1,3,5,95,11
9,4,13,1,5,1,3,5,93,11
9,4,13,1,5,1,3,5,84,11
9,4,16,1,6,1,3,5,95,11
9,4,7,1,6,1,3,5,95,9
9,4,9,1,2,0,3,5,93,11
9,4,20,1,3,0,3,5,95,11
9,4,22,0,4,0,3,5,95,11
9,4,22,0,4,0,3,5,102,11
9,4,18,1,5,1,3,5,95,11
9,4,19,1,6,1,3,5,95,11
9,4,22,0,1,0,3,5,95,11
9,4,17,1,1,0,3,5,95,11
9,4,11,1,2,0,3,5,95,11
9,4,17,1,3,0,3,5,132,11
9,4,12,1,3,0,3,5,107,11
9,4,23,0,3,0,3,5,94,11
9,4,21,0,5,1,3,5,95,11
9,4,15,1,5,1,3,5,70,11
9,4,14,1,5,1,3,5,71,9
9,4,15,1,6,1,3,5,95,11
9,4,15,1,0,0,3,5,95,11
9,4,16,1,0,0,3,5,71,11
9,4,22,0,1,0,3,5,70,11
9,4,3,0,3,0,3,5,79,11
9,4,2,0,3,0,3,5,79,11
9,4,20,1,3,0,3,5,95,11
9,4,4,0,4,0,3,5,79,11
9,4,21,0,5,1,3,5,71,11
10,4,9,1,6,1,4,5,95,11
10,4,19,1,6,1,4,5,79,11
10,4,10,1,6,1,4,5,95,11
10,4,0,0,1,0,4,5,95,11
10,4,13,1,1,0,4,5,95,11
10,4,21,0,1,0,4,5,95,11
10,4,11,1,2,0,4,5,95,11
10,4,19,1,2,0,4,5,93,11
10,4,13,1,3,0,4,5,41,11
10,4,9,1,3,0,4,5,33,11
10,4,5,0,3,0,4,5,41,11
10,4,21,0,4,0,4,5,95,11
10,4,17,1,5,1,4,5,95,11
10,4,1,0,0,0,4,5,7,11
10,4,16,1,0,0,4,5,51,9
10,4,15,1,0,0,4,5,79,11
10,4,9,1,1,0,4,5,132,11
10,4,1,0,1,0,4,5,102,11
10,4,22,0,2,0,4,5,71,11
10,4,2,0,2,0,4,5,81,9
10,4,6,0,3,0,4,5,103,11
10,4,0,0,3,0,4,5,79,11
10,4,22,0,3,0,4,5,93,11
10,4,18,1,3,0,4,5,95,11
10,4,4,0,4,0,4,5,79,11
10,4,17,1,6,1,4,5,93,11
10,4,20,1,0,0,4,5,79,11
10,4,17,1,2,0,4,5,95,11
10,4,0,0,3,0,4,5,93,11
10,4,15,1,3,0,4,5,71,11
10,4,11,1,5,1,4,5,93,11
10,4,11,1,5,1,4,5,71,11
10,4,10,1,6,1,4,5,95,11
10,4,3,0,0,0,4,5,103,11
10,4,14,1,0,0,4,5,95,11
10,4,3,0,0,0,4,5,93,11
11,4,16,1,2,0,4,5,116,11
11,4,23,0,4,0,4,5,63,9
11,4,3,0,4,0,4,5,103,11
11,4,10,1,6,1,4,5,95,11
11,4,10,1,6,1,4,5,95,11
11,4,7,1,6,1,4,5,93,11
11,4,5,0,0,0,4,5,132,11
11,4,4,0,0,0,4,5,102,11
11,4,18,1,5,1,4,5,71,11
11,4,4,0,5,1,4,5,107,11
11,4,23,0,5,1,4,5,95,11
11,4,18,1,6,1,4,5,130,11
11,4,20,1,1,0,4,5,71,11
11,4,13,1,1,0,4,5,70,11
11,4,11,1,2,0,4,5,70,11
11,4,23,0,0,0,4,5,79,11
11,4,17,1,3,0,4,5,95,11
11,4,17,1,6,1,4,5,71,11
11,4,16,1,6,1,4,5,71,11
11,4,2,0,6,1,4,5,132,9
11,4,5,0,0,0,4,5,93,11
11,4,1,0,0,0,4,5,79,11
11,4,17,1,3,0,4,5,41,11
11,4,10,1,3,0,4,5,81,9
12,1,4,0,4,0,4,5,79,11
12,1,15,1,4,0,4,5,93,11
12,1,20,1,5,1,4,5,93,11
12,1,19,1,5,1,4,5,93,11
12,1,2,0,5,1,4,5,93,11
12,1,22,0,2,0,4,5,79,11
12,1,18,1,2,0,4,5,71,11
12,1,18,1,2,0,4,5,79,11
12,1,17,1,2,0,4,5,71,11
12,1,1,0,2,0,4,5,79,11
12,1,2,0,3,0,4,5,71,9
12,1,21,0,4,0,4,5,71,11
12,1,12,1,4,0,4,5,95,11
12,1,18,1,4,0,4,5,93,11
12,1,19,1,5,1,4,5,102,11
12,1,17,1,6,1,4,5,107,11
12,1,12,1,6,1,4,5,71,11
12,1,15,1,0,0,4,5,62,11
12,1,20,1,1,0,4,5,84,11
12,1,11,1,2,0,4,5,79,11
12,1,10,1,2,0,4,5,95,11
12,1,18,1,5,1,4,5,79,9
12,1,17,1,6,1,4,5,71,11
12,1,20,1,6,1,4,5,79,11
12,1,6,0,6,1,4,5,93,11
12,1,2,0,0,0,4,5,41,11
12,1,19,1,0,0,4,5,120,9
12,1,2,0,1,0,4,5,79,11
12,1,0,0,2,0,4,5,79,11
12,1,22,0,5,1,4,5,93,11
12,1,16,1,5,1,4,5,93,11
12,1,6,0,5,1,4,5,95,11
12,1,20,1,6,1,4,5,71,11
12,1,16,1,6,1,4,5,71,11
12,1,20,1,2,0,4,5,71,11
12,1,5,0,2,0,4,5,93,11
12,1,20,1,3,0,4,5,81,11
12,1,6,0,6,1,4,5,93,11
1,1,18,1,0,0,1,5,71,11
1,1,15,1,0,0,1,5,20,9
1,1,20,1,1,0,1,5,93,11
1,1,1,0,1,0,1,5,95,11
1,1,22,0,2,0,1,5,71,11
1,1,17,1,2,0,1,5,95,11
1,1,4,0,2,0,1,5,20,11
1,1,4,0,3,0,1,5,107,11
1,1,4,0,3,0,1,5,71,11
1,1,12,1,5,1,1,5,71,11
1,1,17,1,5,1,1,5,95,11
1,1,13,1,5,1,1,5,71,11
1,1,19,1,5,1,1,5,102,11
1,1,12,1,5,1,1,5,71,11
1,1,10,1,6,1,1,5,95,11
1,1,11,1,3,0,1,5,71,11
1,1,20,1,6,1,1,5,81,11
1,1,1,0,2,0,1,5,33,11
1,1,17,1,3,0,1,5,71,11
1,1,12,1,3,0,1,5,71,11
1,1,16,1,3,0,1,5,93,11
1,1,23,0,4,0,1,5,93,11
1,1,9,1,5,1,1,5,3,11
1,1,14,1,6,1,1,5,93,11
1,1,11,1,6,1,1,5,93,11
1,1,11,1,0,0,1,5,3,11
1,1,12,1,3,0,1,5,95,11
2,1,14,1,2,0,1,5,95,11
2,1,18,1,6,1,1,5,93,11
2,1,16,1,0,0,1,5,93,11
2,1,4,0,1,0,1,5,93,11
2,1,17,1,2,0,1,5,81,11
2,1,18,1,6,1,1,5,71,11
2,1,23,0,5,1,1,5,93,11
3,2,11,1,3,0,1,5,83,11
3,2,19,1,0,0,1,5,95,11
3,2,17,1,0,0,1,5,93,11
3,2,16,1,1,0,1,5,95,11
3,2,2,0,6,1,1,5,1,11
3,2,11,1,1,0,1,5,95,11
3,2,20,1,2,0,1,5,41,11
3,2,15,1,3,0,1,5,93,11
3,2,19,1,5,1,1,5,93,11
3,2,14,1,1,0,1,5,93,11
3,2,21,0,3,0,1,5,67,11
3,2,15,1,6,1,1,5,95,11
3,2,14,1,0,0,1,5,95,11
3,2,12,1,2,0,1,5,20,11
3,2,2,0,4,0,1,5,95,11
3,2,12,1,4,0,1,5,81,11
4,2,2,0,6,1,2,5,95,11
4,2,3,0,0,0,2,5,95,11
4,2,21,0,3,0,2,5,95,11
4,2,14,1,4,0,2,5,95,11
4,2,21,0,4,0,2,5,95,11
4,2,0,0,1,0,2,5,132,11
4,2,0,0,2,0,2,5,93,11
4,2,18,1,1,0,2,5,95,11
4,2,0,0,2,0,2,5,93,11
4,2,3,0,2,0,2,5,95,11
4,2,3,0,2,0,2,5,93,11
4,2,10,1,2,0,2,5,95,11
4,2,17,1,3,0,2,5,93,11
4,2,23,0,3,0,2,5,93,11
4,2,1,0,5,1,2,5,93,11
4,2,5,0,5,1,2,5,93,11
5,2,23,0,0,0,2,5,95,11
5,2,0,0,0,0,2,5,95,11
5,2,5,0,1,0,2,5,24,8
5,2,13,1,1,0,2,5,95,11
5,2,8,1,2,0,2,5,93,11
5,2,0,0,4,0,2,5,93,11
5,2,13,1,6,1,2,5,95,11
5,2,5,0,0,0,2,5,41,11
5,2,1,0,0,0,2,5,95,11
5,2,13,1,4,0,2,5,95,11
5,2,13,1,4,0,2,5,107,11
5,2,7,1,5,1,2,5,95,11
5,2,20,1,5,1,2,5,95,11
5,2,3,0,2,0,2,5,93,11
6,3,23,0,3,0,2,5,93,11
6,3,13,1,4,0,2,5,81,11
6,3,22,0,4,0,2,5,41,11
6,3,18,1,2,0,2,5,93,11
6,3,10,1,1,0,2,5,71,11
6,3,1,0,2,0,2,5,93,11
6,3,11,1,6,1,2,5,93,11
6,3,19,1,2,0,2,5,71,11
6,3,4,0,4,0,2,5,93,11
6,3,17,1,5,1,2,5,71,11
6,3,3,0,5,1,2,5,93,11
6,3,3,0,0,0,2,5,93,11
6,3,3,0,3,0,2,5,93,11
6,3,20,1,3,0,2,5,93,11
6,3,2,0,4,0,2,5,93,11
7,3,20,1,0,0,3,5,62,11
7,3,21,0,0,0,3,5,62,11
7,3,18,1,1,0,3,5,95,11
7,3,16,1,2,0,3,5,93,11
7,3,1,0,3,0,3,5,95,11
7,3,22,0,3,0,3,5,95,11
7,3,23,0,3,0,3,5,95,11
7,3,11,1,1,0,3,5,93,8
7,3,11,1,5,1,3,5,71,11
7,3,23,0,5,1,3,5,95,11
7,3,6,0,6,1,3,5,71,11
7,3,5,0,6,1,3,5,105,11
7,3,13,1,6,1,3,5,20,11
7,3,22,0,6,1,3,5,95,8
7,3,15,1,0,0,3,5,89,11
7,3,19,1,0,0,3,5,20,11
7,3,1,0,0,0,3,5,95,8
7,3,4,0,5,1,3,5,93,11
7,3,11,1,4,0,3,5,93,11
7,3,4,0,5,1,3,5,93,11
7,3,22,0,6,1,3,5,95,11
7,3,17,1,0,0,3,5,95,8
8,3,2,0,1,0,3,5,107,11
8,3,10,1,2,0,3,5,71,9
8,3,13,1,3,0,3,5,95,11
8,3,7,1,1,0,3,5,107,11
8,3,14,1,3,0,3,5,95,11
8,3,1,0,3,0,3,5,95,11
8,3,11,1,5,1,3,5,81,11
8,3,21,0,5,1,3,5,93,11
8,3,14,1,0,0,3,5,95,11
8,3,10,1,0,0,3,5,93,11
8,3,8,1,1,0,3,5,93,11
8,3,11,1,2,0,3,5,95,11
8,3,0,0,6,1,3,5,95,11
8,3,11,1,1,0,3,5,81,11
9,4,21,0,1,0,3,5,93,11
9,4,5,0,4,0,3,5,93,11
9,4,8,1,4,0,3,5,41,11
9,4,13,1,4,0,3,5,81,11
9,4,15,1,4,0,3,5,93,11
9,4,9,1,4,0,3,5,93,11
9,4,21,0,5,1,3,5,95,11
9,4,3,0,5,1,3,5,81,8
9,4,16,1,6,1,3,5,95,11
9,4,11,1,1,0,3,5,93,11
9,4,15,1,1,0,3,5,93,11
9,4,11,1,3,0,3,5,71,11
9,4,19,1,4,0,3,5,81,11
9,4,9,1,4,0,3,5,71,11
9,4,23,0,4,0,3,5,70,11
9,4,14,1,1,0,3,5,95,11
9,4,19,1,4,0,3,5,95,11
9,4,12,1,6,1,3,5,71,11
9,4,10,1,6,1,3,5,81,11
9,4,17,1,0,0,3,5,81,11
9,4,9,1,2,0,3,5,71,11
9,4,17,1,5,1,3,5,71,11
9,4,16,1,5,1,3,5,95,11
9,4,10,1,5,1,3,5,93,11
10,4,3,0,6,1,4,5,71,11
10,4,5,0,6,1,4,5,93,11
10,4,23,0,2,0,4,5,81,11
10,4,14,1,4,0,4,5,81,11
10,4,13,1,5,1,4,5,95,11
10,4,16,1,0,0,4,5,95,11
10,4,9,1,3,0,4,5,95,11
10,4,11,1,5,1,4,5,107,11
10,4,17,1,6,1,4,5,95,11
10,4,14,1,0,0,4,5,93,11
10,4,16,1,0,0,4,5,93,11
10,4,18,1,3,0,4,5,95,11
10,4,14,1,3,0,4,5,95,11
10,4,17,1,1,0,4,5,33,11
10,4,9,1,1,0,4,5,50,11
10,4,22,0,6,1,4,5,95,11
10,4,19,1,6,1,4,5,95,11
10,4,20,1,6,1,4,5,105,11
10,4,20,1,6,1,4,5,107,11
10,4,22,0,6,1,4,5,95,8
10,4,17,1,1,0,4,5,93,11
11,4,8,1,2,0,4,5,95,11
11,4,14,1,2,0,4,5,95,11
11,4,17,1,2,0,4,5,95,11
11,4,11,1,2,0,4,5,95,11
11,4,10,1,2,0,4,5,95,11
11,4,14,1,3,0,4,5,95,11
11,4,13,1,4,0,4,5,95,11
11,4,18,1,5,1,4,5,71,11
11,4,4,0,6,1,4,5,81,11
11,4,22,0,0,0,4,5,41,11
11,4,13,1,2,0,4,5,95,11
11,4,10,1,3,0,4,5,107,11
11,4,13,1,3,0,4,5,24,11
11,4,10,1,5,1,4,5,95,11
11,4,23,0,0,0,4,5,93,11
11,4,17,1,2,0,4,5,93,11
11,4,18,1,3,0,4,5,71,11
11,4,15,1,3,0,4,5,95,11
11,4,13,1,6,1,4,5,93,11
11,4,21,0,1,0,4,5,93,11
11,4,21,0,1,0,4,5,71,11
11,4,17,1,1,0,4,5,95,11
11,4,2,0,2,0,4,5,93,11
12,1,16,1,0,0,4,5,95,11
12,1,8,1,0,0,4,5,93,11
12,1,16,1,0,0,4,5,93,11
12,1,17,1,1,0,4,5,107,11
12,1,8,1,1,0,4,5,93,11
12,1,15,1,3,0,4,5,95,11
12,1,19,1,4,0,4,5,71,11
12,1,7,1,5,1,4,5,107,11
12,1,9,1,5,1,4,5,81,11
12,1,20,1,6,1,4,5,71,11
12,1,8,1,6,1,4,5,71,11
12,1,17,1,4,0,4,5,95,11
12,1,21,0,4,0,4,5,95,11
12,1,23,0,4,0,4,5,28,11
12,1,23,0,4,0,4,5,107,11
12,1,13,1,4,0,4,5,107,11
12,1,20,1,4,0,4,5,130,11
12,1,0,0,5,1,4,5,107,11
12,1,21,0,1,0,4,5,20,11
12,1,13,1,3,0,4,5,71,11
12,1,13,1,3,0,4,5,41,11
12,1,10,1,3,0,4,5,41,11
12,1,11,1,4,0,4,5,94,11
12,1,15,1,5,1,4,5,93,11
12,1,5,0,6,1,4,5,46,11
12,1,23,0,1,0,4,5,41,11
12,1,17,1,2,0,4,5,20,11
12,1,20,1,6,1,4,5,95,11
12,1,19,1,6,1,4,5,71,11
12,1,16,1,6,1,4,5,93,11
1,1,21,0,4,0,1,5,107,11
1,1,23,0,6,1,1,5,107,11
1,1,23,0,6,1,1,5,107,11
1,1,16,1,3,0,1,5,81,8
1,1,17,1,5,1,1,5,107,11
2,1,21,0,0,0,1,5,93,9
2,1,17,1,4,0,1,5,95,11
2,1,14,1,6,1,1,5,81,9
3,2,16,1,0,0,1,5,95,11
3,2,22,0,1,0,1,5,95,11
3,2,1,0,6,1,1,5,95,11
3,2,13,1,4,0,1,5,3,11
3,2,20,1,1,0,1,5,95,11
3,2,4,0,2,0,1,5,95,11
4,2,20,1,6,1,2,5,95,11
4,2,10,1,1,0,2,5,20,11
4,2,3,0,3,0,2,5,107,11
4,2,9,1,4,0,2,5,95,11
4,2,23,0,0,0,2,5,95,11
4,2,3,0,1,0,2,5,93,11
4,2,21,0,3,0,2,5,132,11
4,2,19,1,4,0,2,5,81,11
4,2,20,1,5,1,2,5,81,11
4,2,22,0,0,0,2,5,81,11
4,2,8,1,3,0,2,5,107,11
4,2,12,1,3,0,2,5,107,11
4,2,11,1,3,0,2,5,95,11
4,2,16,1,6,1,2,5,95,11
4,2,20,1,6,1,2,5,20,11
5,2,18,1,0,0,2,5,95,11
5,2,13,1,1,0,2,5,95,11
5,2,17,1,4,0,2,5,20,11
6,3,3,0,3,0,2,5,102,11
6,3,15,1,4,0,2,5,95,11
7,3,17,1,3,0,3,5,107,11
7,3,1,0,5,1,3,5,20,11
7,3,17,1,5,1,3,5,95,11
7,3,11,1,6,1,3,5,20,11
7,3,12,1,2,0,3,5,107,11
7,3,12,1,3,0,3,5,107,11
7,3,13,1,4,0,3,5,95,9
7,3,18,1,4,0,3,5,95,9
7,3,12,1,4,0,3,5,95,11
7,3,11,1,6,1,3,5,81,9
7,3,8,1,3,0,3,5,81,9
8,3,16,1,1,0,3,5,95,11
8,3,7,1,6,1,3,5,107,11
8,3,14,1,0,0,3,5,107,11
8,3,8,1,1,0,3,5,113,11
8,3,7,1,1,0,3,5,107,11
8,3,11,1,1,0,3,5,95,11
8,3,15,1,1,0,3,5,95,11
8,3,14,1,3,0,3,5,95,11
9,4,3,0,1,0,3,5,28,11
10,4,14,1,4,0,4,5,20,11
10,4,21,0,6,1,4,5,95,11
10,4,13,1,1,0,4,5,107,11
10,4,19,1,3,0,4,5,95,11
10,4,14,1,2,0,4,5,81,11
11,4,18,1,4,0,4,5,107,11
11,4,14,1,4,0,4,5,102,11
11,4,11,1,5,1,4,5,81,11
11,4,10,1,1,0,4,5,95,11
11,4,16,1,2,0,4,5,107,11
11,4,14,1,6,1,4,5,55,11
12,1,13,1,2,0,4,5,95,11
12,1,2,0,0,0,4,5,20,11
12,1,13,1,3,0,4,5,81,11
12,1,10,1,6,1,4,5,107,11
1,1,13,1,2,0,1,5,81,11
1,1,7,1,5,1,1,5,81,9
1,1,15,1,6,1,1,5,41,11
1,1,17,1,6,1,1,5,107,11
2,1,15,1,1,0,1,5,95,11
2,1,16,1,1,0,1,5,95,11
3,2,11,1,3,0,1,5,95,11
3,2,14,1,4,0,1,5,95,11
3,2,19,1,4,0,1,5,95,11
4,2,18,1,3,0,2,5,95,11
4,2,14,1,1,0,2,5,95,9
4,2,18,1,4,0,2,5,95,11
4,2,18,1,6,1,2,5,95,11
5,2,23,0,6,1,2,5,107,11
5,2,13,1,5,1,2,5,107,11
5,2,13,1,0,0,2,5,107,11
6,3,11,1,6,1,2,5,81,11
6,3,8,1,0,0,2,5,78,11
7,3,17,1,4,0,3,5,36,11
7,3,18,1,1,0,3,5,84,11
7,3,12,1,0,0,3,5,95,11
8,3,11,1,1,0,3,5,51,11
8,3,9,1,0,0,3,5,71,11
8,3,16,1,5,1,3,5,132,11
9,4,9,1,5,1,3,5,20,11
9,4,17,1,1,0,3,5,81,11
9,4,12,1,2,0,3,5,95,11
10,4,14,1,1,0,4,5,95,11
10,4,8,1,3,0,4,5,95,11
11,4,15,1,3,0,4,5,95,11
11,4,15,1,4,0,4,5,95,11
11,4,19,1,0,0,4,5,95,11
11,4,16,1,0,0,4,5,71,11
12,1,15,1,4,0,4,5,82,11
12,1,0,0,1,0,4,5,132,11
12,1,18,1,5,1,4,5,95,11
1,1,13,1,6,1,1,5,71,11
1,1,0,0,6,1,1,5,71,11
1,1,9,1,1,0,1,5,71,11
1,1,12,1,2,0,1,5,71,11
1,1,15,1,5,1,1,5,71,11
1,1,3,0,5,1,1,5,62,11
1,1,11,1,6,1,1,5,93,11
1,1,21,0,4,0,1,5,20,11
1,1,19,1,4,0,1,5,20,11
2,1,1,0,0,0,1,5,93,11
2,1,13,1,4,0,1,5,62,11
2,1,8,1,4,0,1,5,62,11
2,1,15,1,5,1,1,5,71,11
2,1,18,1,2,0,1,5,93,11
2,1,14,1,2,0,1,5,93,11
2,1,9,1,4,0,1,5,107,11
3,2,0,0,2,0,1,5,81,11
3,2,17,1,3,0,1,5,107,11
3,2,22,0,3,0,1,5,93,11
3,2,19,1,0,0,1,5,107,11
3,2,19,1,1,0,1,5,71,11
3,2,15,1,2,0,1,5,71,11
4,2,21,0,4,0,2,5,107,11
4,2,15,1,4,0,2,5,107,11
4,2,0,0,4,0,2,5,81,11
4,2,6,0,6,1,2,5,71,11
4,2,0,0,6,1,2,5,105,11
4,2,22,0,0,0,2,5,93,11
4,2,15,1,1,0,2,5,71,11
4,2,15,1,5,1,2,5,93,11
4,2,10,1,0,0,2,5,95,11
4,2,18,1,2,0,2,5,71,11
4,2,2,0,3,0,2,5,95,11
4,2,1,0,5,1,2,5,93,11
5,2,16,1,1,0,2,5,93,11
5,2,20,1,5,1,2,5,93,11
5,2,6,0,0,0,2,5,71,11
5,2,2,0,0,0,2,5,107,11
5,2,2,0,0,0,2,5,93,11
5,2,19,1,0,0,2,5,93,11
5,2,8,1,0,0,2,5,93,11
6,3,5,0,5,1,2,5,93,11
6,3,19,1,1,0,2,5,24,11
6,3,23,0,4,0,2,5,93,11
6,3,15,1,2,0,2,5,93,11
6,3,12,1,5,1,2,5,71,11
6,3,3,0,2,0,2,5,93,11
6,3,11,1,4,0,2,5,93,11
6,3,12,1,2,0,2,5,93,11
7,3,19,1,2,0,3,5,107,11
7,3,20,1,3,0,3,5,71,11
7,3,8,1,0,0,3,5,93,11
7,3,0,0,0,0,3,5,93,11
7,3,14,1,4,0,3,5,107,11
7,3,11,1,3,0,3,5,93,11
7,3,8,1,3,0,3,5,93,9
7,3,18,1,4,0,3,5,93,9
7,3,15,1,5,1,3,5,103,11
8,3,15,1,1,0,3,5,93,11
8,3,18,1,1,0,3,5,93,11
8,3,16,1,3,0,3,5,93,11
8,3,17,1,4,0,3,5,93,11
8,3,14,1,6,1,3,5,93,11
8,3,14,1,6,1,3,5,71,11
8,3,15,1,0,0,3,5,93,11
8,3,13,1,5,1,3,5,93,11
9,4,20,1,1,0,3,5,95,11
9,4,19,1,2,0,3,5,93,11
9,4,13,1,2,0,3,5,107,11
9,4,12,1,5,1,3,5,93,11
9,4,5,0,5,1,3,5,93,11
9,4,8,1,0,0,3,5,95,11
9,4,13,1,1,0,3,5,93,11
9,4,21,0,2,0,3,5,93,11
9,4,4,0,2,0,3,5,105,11
9,4,17,1,6,1,3,5,93,11
10,4,14,1,4,0,4,5,93,11
10,4,10,1,6,1,4,5,95,11
10,4,18,1,6,1,4,5,93,11
10,4,22,0,1,0,4,5,93,11
10,4,3,0,0,0,4,5,93,11
10,4,19,1,4,0,4,5,93,11
10,4,13,1,0,0,4,5,24,11
11,4,3,0,0,0,4,5,24,11
11,4,18,1,1,0,4,5,71,11
12,1,22,0,0,0,4,5,93,11
12,1,13,1,3,0,4,5,71,11
12,1,2,0,4,0,4,5,93,11
12,1,15,1,6,1,4,5,71,11
12,1,19,1,3,0,4,5,93,11
12,1,3,0,5,1,4,5,62,8
12,1,18,1,6,1,4,5,71,11
1,1,19,1,6,1,1,5,93,11
1,1,0,0,2,0,1,5,71,8
1,1,23,0,0,0,1,5,93,11
1,1,6,0,5,1,1,5,41,9
1,1,17,1,6,1,1,5,81,11
1,1,20,1,0,0,1,5,132,11
1,1,23,0,6,1,1,5,93,11
1,1,1,0,3,0,1,5,93,11
1,1,10,1,6,1,1,5,71,11
2,1,23,0,6,1,1,5,93,11
2,1,12,1,4,0,1,5,81,9
2,1,22,0,5,1,1,5,71,11
2,1,10,1,6,1,1,5,7,11
2,1,10,1,0,0,1,5,93,11
2,1,12,1,4,0,1,5,93,11
2,1,1,0,6,1,1,5,93,11
2,1,13,1,1,0,1,5,71,11
2,1,19,1,0,0,1,5,53,11
3,2,3,0,2,0,1,5,80,11
3,2,12,1,2,0,1,5,71,11
3,2,0,0,3,0,1,5,93,11
3,2,5,0,3,0,1,5,93,11
3,2,0,0,0,0,1,5,93,11
3,2,6,0,3,0,1,5,94,11
3,2,14,1,3,0,1,5,93,11
3,2,13,1,4,0,1,5,105,11
3,2,20,1,4,0,1,5,102,11
3,2,5,0,6,1,1,5,93,11
3,2,5,0,6,1,1,5,93,11
4,2,1,0,4,0,2,5,93,11
4,2,18,1,0,0,2,5,93,11
4,2,16,1,0,0,2,5,7,11
4,2,5,0,1,0,2,5,93,11
4,2,20,1,3,0,2,5,71,11
4,2,20,1,4,0,2,5,24,9
4,2,14,1,6,1,2,5,93,11
4,2,5,0,6,1,2,5,49,9
4,2,14,1,6,1,2,5,49,8
4,2,1,0,0,0,2,5,93,11
4,2,1,0,0,0,2,5,93,11
4,2,16,1,1,0,2,5,93,11
4,2,22,0,4,0,2,5,41,9
4,2,14,1,5,1,2,5,71,11
4,2,23,0,5,1,2,5,93,11
5,2,13,1,2,0,2,5,20,11
5,2,21,0,2,0,2,5,71,11
5,2,10,1,0,0,2,5,30,11
5,2,21,0,1,0,2,5,71,11
5,2,22,0,4,0,2,5,93,11
5,2,23,0,6,1,2,5,93,11
6,3,16,1,4,0,2,5,71,11
6,3,13,1,0,0,2,5,41,11
6,3,23,0,2,0,2,5,71,8
6,3,15,1,6,1,2,5,71,11
6,3,16,1,0,0,2,5,102,11
6,3,11,1,0,0,2,5,82,11
6,3,0,0,2,0,2,5,93,11
7,3,18,1,1,0,3,5,93,11
7,3,20,1,1,0,3,5,93,11
7,3,0,0,4,0,3,5,93,11
7,3,21,0,4,0,3,5,93,11
7,3,17,1,6,1,3,5,41,11
8,3,0,0,3,0,3,5,93,11
8,3,12,1,3,0,3,5,71,11
8,3,19,1,5,1,3,5,95,11
8,3,6,0,5,1,3,5,93,11
8,3,6,0,1,0,3,5,8,9
8,3,3,0,1,0,3,5,41,11
8,3,15,1,2,0,3,5,71,11
8,3,12,1,2,0,3,5,132,11
8,3,21,0,3,0,3,5,71,11
8,3,5,0,3,0,3,5,33,11
9,4,17,1,3,0,3,5,112,11
9,4,17,1,3,0,3,5,93,11
9,4,7,1,1,0,3,5,51,9
9,4,13,1,1,0,3,5,93,11
9,4,12,1,2,0,3,5,71,11
9,4,21,0,3,0,3,5,71,9
9,4,17,1,6,1,3,5,120,11
9,4,13,1,3,0,3,5,93,11
9,4,10,1,3,0,3,5,20,11
9,4,18,1,5,1,3,5,105,11
9,4,14,1,5,1,3,5,105,11
10,4,2,0,6,1,4,5,93,11
10,4,13,1,3,0,4,5,71,11
10,4,10,1,6,1,4,5,20,11
10,4,19,1,6,1,4,5,130,11
10,4,19,1,5,1,4,5,7,11
10,4,18,1,0,0,4,5,71,11
10,4,11,1,2,0,4,5,49,9
10,4,2,0,3,0,4,5,93,11
10,4,15,1,6,1,4,5,71,11
10,4,10,1,0,0,4,5,95,11
11,4,5,0,2,0,4,5,107,11
11,4,17,1,6,1,4,5,93,11
11,4,3,0,1,0,4,5,107,11
11,4,4,0,3,0,4,5,20,9
11,4,10,1,4,0,4,5,71,11
11,4,1,0,4,0,4,5,107,11
11,4,21,0,6,1,4,5,93,11
11,4,21,0,6,1,4,5,8,11
11,4,7,1,0,0,4,5,105,11
11,4,2,0,1,0,4,5,93,11
11,4,12,1,5,1,4,5,93,11
11,4,1,0,6,1,4,5,71,11
11,4,12,1,4,0,4,5,41,11
11,4,7,1,4,0,4,5,93,11
11,4,2,0,3,0,4,5,93,11
12,1,13,1,2,0,4,5,102,11
12,1,13,1,2,0,4,5,93,11
12,1,19,1,3,0,4,5,93,11
12,1,17,1,4,0,4,5,8,11
12,1,20,1,5,1,4,5,93,11
12,1,14,1,6,1,4,5,71,9
12,1,23,0,2,0,4,5,93,11
12,1,10,1,2,0,4,5,95,11
12,1,21,0,5,1,4,5,93,11
12,1,20,1,5,1,4,5,73,11
12,1,8,1,6,1,4,5,71,11
1,1,12,1,6,1,1,5,102,11
1,1,19,1,1,0,1,5,71,11
1,1,21,0,2,0,1,5,93,11
1,1,2,0,0,0,1,5,102,11
1,1,20,1,1,0,1,5,93,11
1,1,20,1,2,0,1,5,130,11
1,1,14,1,2,0,1,5,102,11
1,1,23,0,4,0,1,5,9,9
1,1,12,1,5,1,1,5,9,11
1,1,12,1,5,1,1,5,102,11
1,1,2,0,6,1,1,5,93,11
1,1,19,1,6,1,1,5,93,11
1,1,20,1,0,0,1,5,107,11
2,1,4,0,6,1,1,5,93,11
2,1,23,0,6,1,1,5,78,11
2,1,23,0,6,1,1,5,82,11
2,1,16,1,0,0,1,5,105,11
2,1,15,1,5,1,1,5,71,11
2,1,19,1,3,0,1,5,93,11
2,1,9,1,3,0,1,5,93,11
3,2,8,1,2,0,1,5,71,11
3,2,0,0,4,0,1,5,93,11
3,2,2,0,0,0,1,5,93,11
3,2,19,1,1,0,1,5,95,11
3,2,20,1,4,0,1,5,71,9
3,2,7,1,5,1,1,5,93,11
3,2,11,1,5,1,1,5,93,11
3,2,13,1,0,0,1,5,102,11
3,2,22,0,5,1,1,5,107,11
3,2,3,0,0,0,1,5,93,11
3,2,18,1,4,0,1,5,130,11
4,2,18,1,5,1,2,5,8,11
4,2,3,0,3,0,2,5,20,11
4,2,10,1,4,0,2,5,24,11
4,2,15,1,5,1,2,5,71,11
4,2,10,1,1,0,2,5,20,11
4,2,11,1,2,0,2,5,117,11
4,2,1,0,0,0,2,5,102,11
4,2,22,0,2,0,2,5,71,11
4,2,4,0,4,0,2,5,20,11
4,2,12,1,5,1,2,5,95,11
4,2,19,1,5,1,2,5,41,11
4,2,12,1,3,0,2,5,65,11
4,2,17,1,4,0,2,5,71,11
5,2,14,1,4,0,2,5,49,11
5,2,14,1,6,1,2,5,107,11
5,2,8,1,0,0,2,5,95,11
5,2,17,1,1,0,2,5,130,11
5,2,16,1,4,0,2,5,107,11
5,2,14,1,5,1,2,5,95,11
5,2,0,0,2,0,2,5,81,11
6,3,18,1,1,0,2,5,102,11
6,3,11,1,4,0,2,5,102,11
6,3,13,1,5,1,2,5,95,11
6,3,22,0,3,0,2,5,7,11
6,3,2,0,3,0,2,5,102,11
7,3,18,1,5,1,3,5,93,11
7,3,15,1,6,1,3,5,107,11
7,3,21,0,1,0,3,5,20,11
7,3,21,0,1,0,3,5,93,11
7,3,22,0,1,0,3,5,93,11
7,3,22,0,3,0,3,5,107,11
7,3,15,1,3,0,3,5,93,11
7,3,15,1,4,0,3,5,3,9
7,3,16,1,5,1,3,5,129,9
7,3,20,1,1,0,3,5,81,11
7,3,16,1,3,0,3,5,95,11
7,3,1,0,0,0,3,5,93,11
7,3,1,0,0,0,3,5,93,11
7,3,1,0,0,0,3,5,93,11
8,3,13,1,4,0,3,5,107,11
8,3,21,0,6,1,3,5,71,11
8,3,4,0,0,0,3,5,71,11
8,3,15,1,4,0,3,5,95,11
8,3,21,0,6,1,3,5,8,11
8,3,13,1,0,0,3,5,93,11
9,4,2,0,4,0,3,5,82,11
9,4,21,0,0,0,3,5,95,11
9,4,1,0,6,1,3,5,71,11
9,4,8,1,0,0,3,5,71,11
9,4,1,0,4,0,3,5,105,11
9,4,15,1,0,0,3,5,117,9
10,4,23,0,6,1,4,5,20,9
10,4,5,0,4,0,4,5,93,11
10,4,13,1,5,1,4,5,20,11
10,4,7,1,1,0,4,5,93,11
10,4,18,1,2,0,4,5,20,11
10,4,4,0,5,1,4,5,63,11
10,4,4,0,1,0,4,5,71,11
10,4,11,1,4,0,4,5,20,11
10,4,2,0,6,1,4,5,102,11
10,4,20,1,4,0,4,5,102,11
11,4,1,0,6,1,4,5,8,11
11,4,8,1,6,1,4,5,8,11
11,4,16,1,5,1,4,5,107,11
11,4,11,1,4,0,4,5,20,11
11,4,11,1,6,1,4,5,71,11
11,4,13,1,0,0,4,5,71,11
11,4,19,1,1,0,4,5,102,11
11,4,19,1,1,0,4,5,102,11
11,4,19,1,0,0,4,5,71,11
11,4,23,0,0,0,4,5,81,11
11,4,2,0,2,0,4,5,93,11
11,4,15,1,3,0,4,5,93,11
12,1,7,1,6,1,4,5,71,9
12,1,12,1,1,0,4,5,81,11
12,1,4,0,2,0,4,5,93,11
12,1,19,1,6,1,4,5,132,11
12,1,1,0,1,0,4,5,132,11
1,1,0,0,6,1,1,5,95,11
1,1,12,1,0,0,1,5,95,11
1,1,15,1,6,1,1,5,102,11
1,1,4,0,6,1,1,5,30,11
1,1,4,0,1,0,1,5,95,11
1,1,13,1,5,1,1,5,71,11
1,1,10,1,5,1,1,5,107,11
2,1,13,1,4,0,1,5,81,9
3,2,4,0,5,1,1,5,81,11
4,2,19,1,3,0,2,5,71,11
4,2,3,0,0,0,2,5,95,11
4,2,11,1,1,0,2,5,14,11
4,2,15,1,5,1,2,5,107,11
4,2,2,0,1,0,2,5,93,11
4,2,21,0,6,1,2,5,107,11
4,2,3,0,6,1,2,5,93,11
5,2,7,1,0,0,2,5,20,11
5,2,3,0,1,0,2,5,107,11
5,2,15,1,1,0,2,5,81,11
5,2,16,1,2,0,2,5,20,11
5,2,2,0,2,0,2,5,20,11
5,2,18,1,2,0,2,5,86,11
5,2,16,1,2,0,2,5,95,11
5,2,9,1,1,0,2,5,71,9
6,3,17,1,3,0,2,5,58,11
6,3,13,1,3,0,2,5,20,11
6,3,0,0,4,0,2,5,95,11
6,3,12,1,4,0,2,5,20,11
7,3,15,1,5,1,3,5,107,11
7,3,21,0,2,0,3,5,95,11
7,3,13,1,2,0,3,5,95,11
7,3,12,1,5,1,3,5,95,11
7,3,18,1,6,1,3,5,129,11
7,3,21,0,6,1,3,5,107,11
7,3,9,1,1,0,3,5,20,11
7,3,12,1,3,0,3,5,14,11
8,3,20,1,2,0,3,5,20,11
8,3,23,0,2,0,3,5,53,11
8,3,6,0,0,0,3,5,8,11
8,3,13,1,1,0,3,5,93,11
8,3,2,0,5,1,3,5,14,11
8,3,1,0,5,1,3,5,62,9
8,3,18,1,1,0,3,5,86,11
8,3,23,0,2,0,3,5,132,11
8,3,21,0,3,0,3,5,93,11
9,4,18,1,4,0,3,5,71,11
9,4,1,0,4,0,3,5,20,11
9,4,0,0,4,0,3,5,95,11
10,4,19,1,3,0,4,5,20,11
10,4,9,1,2,0,4,5,20,11
10,4,21,0,4,0,4,5,107,11
11,4,18,1,6,1,4,5,107,11
11,4,21,0,1,0,4,5,71,11
11,4,16,1,2,0,4,5,81,9
11,4,12,1,3,0,4,5,71,11
11,4,22,0,2,0,4,5,70,11
11,4,17,1,3,0,4,5,1,11
12,1,16,1,5,1,4,5,95,11
12,1,2,0,2,0,4,5,20,11
1,1,12,1,0,0,1,5,95,11
1,1,22,0,0,0,1,5,20,11
1,1,18,1,3,0,1,5,107,11
1,1,17,1,5,1,1,5,95,11
1,1,22,0,6,1,1,5,81,11
1,1,18,1,4,0,1,5,79,11
1,1,16,1,0,0,1,5,14,11
1,1,23,0,1,0,1,5,107,11
1,1,5,0,2,0,1,5,95,11
1,1,19,1,4,0,1,5,81,11
1,1,2,0,3,0,1,5,82,11
2,1,4,0,5,1,1,5,95,11
2,1,0,0,0,0,1,5,70,11
2,1,23,0,0,0,1,5,81,11
2,1,6,0,0,0,1,5,14,11
2,1,20,1,5,1,1,5,93,11
2,1,11,1,6,1,1,5,20,11
2,1,3,0,1,0,1,5,95,11
2,1,4,0,3,0,1,5,95,11
2,1,5,0,5,1,1,5,63,11
2,1,19,1,6,1,1,5,107,11
2,1,22,0,5,1,1,5,81,9
2,1,6,0,1,0,1,5,20,11
3,2,4,0,2,0,1,5,46,11
3,2,4,0,2,0,1,5,93,11
3,2,8,1,6,1,1,5,107,11
3,2,3,0,0,0,1,5,95,11
3,2,6,0,5,1,1,5,20,11
3,2,11,1,6,1,1,5,79,9
3,2,5,0,4,0,1,5,93,11
3,2,4,0,5,1,1,5,93,11
3,2,1,0,0,0,1,5,81,11
3,2,15,1,0,0,1,5,79,11
3,2,21,0,0,0,1,5,81,11
3,2,4,0,2,0,1,5,107,11
3,2,22,0,2,0,1,5,95,11
3,2,17,1,4,0,1,5,79,11
4,2,10,1,5,1,2,5,95,11
4,2,2,0,1,0,2,5,20,11
4,2,14,1,1,0,2,5,79,11
4,2,23,0,1,0,2,5,95,11
4,2,15,1,2,0,2,5,78,11
4,2,9,1,3,0,2,5,95,11
4,2,0,0,6,1,2,5,14,9
4,2,4,0,6,1,2,5,93,11
4,2,14,1,1,0,2,5,79,11
4,2,2,0,2,0,2,5,93,11
4,2,6,0,3,0,2,5,20,11
4,2,12,1,4,0,2,5,107,11
4,2,0,0,6,1,2,5,41,11
4,2,21,0,1,0,2,5,79,11
4,2,6,0,4,0,2,5,95,11
4,2,19,1,6,1,2,5,20,11
4,2,1,0,0,0,2,5,107,11
4,2,20,1,2,0,2,5,95,11
4,2,23,0,2,0,2,5,70,11
4,2,9,1,5,1,2,5,95,11
4,2,7,1,6,1,2,5,79,11
5,2,13,1,1,0,2,5,95,11
5,2,19,1,3,0,2,5,51,9
5,2,12,1,6,1,2,5,95,11
5,2,13,1,6,1,2,5,95,11
5,2,16,1,6,1,2,5,95,11
5,2,12,1,0,0,2,5,71,11
5,2,10,1,2,0,2,5,95,11
5,2,11,1,2,0,2,5,93,11
5,2,14,1,2,0,2,5,95,11
5,2,17,1,3,0,2,5,95,11
5,2,0,0,4,0,2,5,95,11
5,2,13,1,5,1,2,5,95,9
5,2,14,1,1,0,2,5,95,11
5,2,14,1,4,0,2,5,95,11
5,2,22,0,4,0,2,5,95,11
5,2,19,1,5,1,2,5,95,11
5,2,4,0,6,1,2,5,95,11
5,2,7,1,1,0,2,5,49,11
5,2,16,1,1,0,2,5,95,11
5,2,14,1,1,0,2,5,95,11
5,2,8,1,4,0,2,5,95,11
5,2,12,1,4,0,2,5,95,11
5,2,12,1,4,0,2,5,95,11
5,2,17,1,1,0,2,5,95,11
5,2,15,1,2,0,2,5,95,11
5,2,20,1,2,0,2,5,95,11
6,3,11,1,5,1,2,5,95,11
6,3,15,1,5,1,2,5,95,11
6,3,19,1,5,1,2,5,95,11
6,3,13,1,6,1,2,5,95,11
6,3,3,0,2,0,2,5,62,11
6,3,3,0,6,1,2,5,71,9
6,3,6,0,6,1,2,5,3,11
6,3,14,1,6,1,2,5,95,9
6,3,4,0,3,0,2,5,14,11
6,3,4,0,5,1,2,5,20,11
6,3,21,0,0,0,2,5,95,11
6,3,8,1,0,0,2,5,79,11
6,3,8,1,0,0,2,5,95,11
6,3,19,1,1,0,2,5,95,11
6,3,9,1,3,0,2,5,17,9
6,3,16,1,4,0,2,5,95,11
6,3,16,1,5,1,2,5,93,11
6,3,14,1,6,1,2,5,8,11
6,3,15,1,6,1,2,5,112,9
6,3,9,1,6,1,2,5,95,11
6,3,0,0,2,0,2,5,95,11
6,3,22,0,2,0,2,5,95,11
6,3,23,0,2,0,2,5,3,11
6,3,6,0,2,0,2,5,95,11
7,3,5,0,5,1,3,5,95,11
7,3,10,1,5,1,3,5,95,11
7,3,16,1,5,1,3,5,3,11
7,3,13,1,6,1,3,5,95,11
7,3,14,1,6,1,3,5,95,9
7,3,15,1,6,1,3,5,107,11
7,3,15,1,6,1,3,5,107,11
7,3,19,1,0,0,3,5,95,11
7,3,18,1,1,0,3,5,81,11
7,3,7,1,1,0,3,5,95,9
7,3,0,0,2,0,3,5,93,11
7,3,9,1,4,0,3,5,95,11
7,3,16,1,5,1,3,5,20,11
7,3,7,1,0,0,3,5,95,11
7,3,23,0,0,0,3,5,95,11
7,3,23,0,0,0,3,5,95,11
7,3,1,0,1,0,3,5,95,11
7,3,5,0,1,0,3,5,81,11
7,3,12,1,2,0,3,5,95,11
7,3,6,0,3,0,3,5,20,11
7,3,10,1,3,0,3,5,95,11
7,3,9,1,3,0,3,5,20,11
7,3,18,1,3,0,3,5,20,11
7,3,10,1,4,0,3,5,93,11
7,3,10,1,5,1,3,5,93,11
7,3,14,1,5,1,3,5,95,11
7,3,17,1,5,1,3,5,95,11
7,3,20,1,6,1,3,5,95,9
7,3,17,1,6,1,3,5,95,11
7,3,19,1,0,0,3,5,81,9
7,3,16,1,1,0,3,5,20,11
7,3,14,1,2,0,3,5,95,11
7,3,14,1,2,0,3,5,95,11
7,3,17,1,3,0,3,5,95,11
7,3,17,1,5,1,3,5,95,11
7,3,5,0,6,1,3,5,95,11
7,3,21,0,6,1,3,5,95,11
7,3,20,1,0,0,3,5,93,11
7,3,13,1,2,0,3,5,15,11
7,3,8,1,3,0,3,5,95,11
7,3,13,1,4,0,3,5,95,11
7,3,16,1,4,0,3,5,95,11
7,3,22,0,4,0,3,5,95,9
7,3,11,1,6,1,3,5,95,11
7,3,21,0,6,1,3,5,95,9
7,3,16,1,0,0,3,5,95,11
7,3,19,1,0,0,3,5,95,9
8,3,2,0,1,0,3,5,95,11
8,3,6,0,1,0,3,5,95,11
8,3,22,0,1,0,3,5,95,11
8,3,3,0,4,0,3,5,95,11
8,3,2,0,4,0,3,5,7,11
8,3,12,1,4,0,3,5,95,11
8,3,16,1,5,1,3,5,20,11
8,3,19,1,6,1,3,5,95,9
8,3,4,0,0,0,3,5,95,11
8,3,13,1,1,0,3,5,107,11
8,3,16,1,1,0,3,5,95,11
8,3,16,1,2,0,3,5,107,11
8,3,22,0,2,0,3,5,81,11
8,3,21,0,3,0,3,5,95,11
8,3,13,1,4,0,3,5,49,11
8,3,21,0,4,0,3,5,14,9
8,3,9,1,5,1,3,5,95,11
8,3,9,1,0,0,3,5,79,11
8,3,17,1,1,0,3,5,79,11
8,3,2,0,2,0,3,5,49,8
8,3,10,1,2,0,3,5,95,11
8,3,8,1,4,0,3,5,95,11
8,3,6,0,5,1,3,5,20,11
8,3,16,1,5,1,3,5,95,9
8,3,22,0,5,1,3,5,14,9
8,3,22,0,5,1,3,5,95,11
8,3,13,1,3,0,3,5,14,11
8,3,13,1,4,0,3,5,95,11
8,3,1,0,4,0,3,5,81,11
8,3,1,0,6,1,3,5,81,9
8,3,17,1,6,1,3,5,95,11
8,3,1,0,0,0,3,5,20,11
8,3,8,1,1,0,3,5,93,11
8,3,10,1,2,0,3,5,95,11
8,3,15,1,2,0,3,5,95,9
9,4,21,0,4,0,3,5,95,11
9,4,20,1,4,0,3,5,95,11
9,4,4,0,5,1,3,5,93,11
9,4,22,0,5,1,3,5,95,11
9,4,0,0,6,1,3,5,95,11
9,4,14,1,6,1,3,5,95,11
9,4,19,1,3,0,3,5,79,11
9,4,21,0,3,0,3,5,93,9
9,4,7,1,6,1,3,5,93,11
9,4,20,1,6,1,3,5,79,11
9,4,13,1,0,0,3,5,95,11
9,4,14,1,2,0,3,5,95,11
9,4,15,1,2,0,3,5,95,11
9,4,3,0,5,1,3,5,95,11
9,4,3,0,0,0,3,5,95,11
9,4,2,0,2,0,3,5,67,9
10,4,18,1,0,0,4,5,107,11
10,4,11,1,1,0,4,5,41,11
10,4,12,1,3,0,4,5,95,11
10,4,16,1,3,0,4,5,24,11
10,4,13,1,4,0,4,5,95,11
10,4,12,1,5,1,4,5,95,11
10,4,14,1,6,1,4,5,95,11
10,4,19,1,1,0,4,5,95,11
10,4,4,0,3,0,4,5,79,11
10,4,18,1,6,1,4,5,93,11
10,4,7,1,0,0,4,5,95,11
10,4,19,1,1,0,4,5,95,11
10,4,8,1,5,1,4,5,24,11
10,4,11,1,0,0,4,5,112,9
10,4,0,0,2,0,4,5,62,11
10,4,16,1,4,0,4,5,14,11
10,4,7,1,5,1,4,5,93,11
10,4,7,1,5,1,4,5,93,9
11,4,1,0,2,0,4,5,93,11
11,4,5,0,5,1,4,5,93,11
11,4,6,0,5,1,4,5,93,11
11,4,21,0,5,1,4,5,20,11
11,4,23,0,0,0,4,5,95,11
11,4,5,0,0,0,4,5,95,11
11,4,14,1,0,0,4,5,24,11
11,4,20,1,0,0,4,5,14,11
11,4,9,1,1,0,4,5,49,11
11,4,22,0,2,0,4,5,81,11
12,1,20,1,5,1,4,5,20,11
12,1,6,0,5,1,4,5,20,11
12,1,13,1,6,1,4,5,95,11
12,1,23,0,0,0,4,5,132,9
12,1,9,1,3,0,4,5,50,9
12,1,0,0,6,1,4,5,95,11
12,1,20,1,6,1,4,5,79,11
12,1,5,0,0,0,4,5,21,11
12,1,19,1,5,1,4,5,81,11
12,1,11,1,1,0,4,5,20,11
12,1,8,1,5,1,4,5,93,11
12,1,18,1,0,0,4,5,93,11
12,1,16,1,2,0,4,5,49,11
12,1,19,1,4,0,4,5,49,11
1,1,21,0,4,0,1,5,95,11
1,1,20,1,5,1,1,5,95,11
1,1,22,0,3,0,1,5,20,11
1,1,20,1,5,1,1,5,79,11
1,1,10,1,6,1,1,5,132,11
1,1,15,1,3,0,1,5,20,11
1,1,21,0,6,1,1,5,72,11
1,1,21,0,1,0,1,5,71,11
2,1,18,1,6,1,1,5,28,11
2,1,19,1,5,1,1,5,95,11
3,2,23,0,2,0,1,5,94,11
3,2,15,1,3,0,1,5,95,11
3,2,13,1,3,0,1,5,14,11
3,2,12,1,5,1,1,5,132,11
3,2,20,1,5,1,1,5,95,11
3,2,19,1,1,0,1,5,93,11
3,2,10,1,4,0,1,5,95,11
3,2,15,1,4,0,1,5,79,11
3,2,18,1,1,0,1,5,95,11
3,2,12,1,2,0,1,5,95,11
3,2,3,0,3,0,1,5,95,11
3,2,8,1,3,0,1,5,95,11
3,2,8,1,3,0,1,5,95,11
4,2,14,1,3,0,2,5,107,11
4,2,14,1,5,1,2,5,95,11
4,2,22,0,1,0,2,5,132,11
4,2,17,1,4,0,2,5,95,11
4,2,19,1,5,1,2,5,132,11
5,2,15,1,3,0,2,5,95,11
5,2,20,1,3,0,2,5,95,11
5,2,23,0,4,0,2,5,107,9
5,2,16,1,0,0,2,5,95,11
5,2,18,1,1,0,2,5,107,11
5,2,21,0,2,0,2,5,72,11
5,2,14,1,3,0,2,5,95,11
5,2,16,1,3,0,2,5,95,11
6,3,15,1,0,0,2,5,3,11
6,3,10,1,3,0,2,5,95,11
6,3,10,1,2,0,2,5,95,11
6,3,20,1,2,0,2,5,20,11
7,3,5,0,0,0,3,5,95,11
7,3,18,1,2,0,3,5,95,11
7,3,19,1,3,0,3,5,84,11
7,3,18,1,1,0,3,5,49,11
7,3,11,1,2,0,3,5,132,11
7,3,14,1,3,0,3,5,95,11
7,3,14,1,4,0,3,5,107,11
8,3,3,0,3,0,3,5,79,11
8,3,21,0,3,0,3,5,81,8
8,3,1,0,4,0,3,5,81,9
8,3,21,0,6,1,3,5,95,11
8,3,13,1,6,1,3,5,24,8
8,3,6,0,0,0,3,5,95,11
8,3,1,0,3,0,3,5,93,11
8,3,17,1,1,0,3,5,107,11
8,3,16,1,3,0,3,5,129,11
8,3,22,0,3,0,3,5,95,11
8,3,16,1,2,0,3,5,95,11
8,3,20,1,3,0,3,5,95,11
9,4,4,0,6,1,3,5,83,9
9,4,19,1,6,1,3,5,95,11
9,4,1,0,0,0,3,5,95,11
9,4,12,1,5,1,3,5,95,11
9,4,11,1,5,1,3,5,95,11
9,4,23,0,0,0,3,5,81,11
9,4,1,0,4,0,3,5,95,11
10,4,16,1,6,1,4,5,3,11
10,4,1,0,0,0,4,5,20,11
10,4,19,1,4,0,4,5,95,11
10,4,19,1,0,0,4,5,129,11
10,4,13,1,3,0,4,5,95,11
10,4,8,1,2,0,4,5,95,11
10,4,2,0,5,1,4,5,95,11
11,4,14,1,3,0,4,5,28,11
11,4,11,1,3,0,4,5,71,11
11,4,20,1,6,1,4,5,3,11
11,4,11,1,3,0,4,5,95,9
12,1,5,0,5,1,4,5,107,11
1,1,21,0,1,0,1,5,132,11
2,1,21,0,2,0,1,5,107,11
4,2,10,1,1,0,2,5,107,11
7,3,8,1,4,0,3,5,41,11
8,3,12,1,0,0,3,5,93,11
9,4,9,1,3,0,3,5,3,11
9,4,19,1,0,0,3,5,93,11
10,4,15,1,0,0,4,5,107,11
10,4,18,1,1,0,4,5,20,11
10,4,12,1,2,0,4,5,3,11
11,4,17,1,4,0,4,5,107,11
1,1,12,1,6,1,1,5,93,11
1,1,11,1,0,0,1,5,93,11
1,1,19,1,3,0,1,5,107,11
1,1,19,1,5,1,1,5,132,11
1,1,13,1,6,1,1,5,132,11
1,1,14,1,6,1,1,5,132,11
1,1,21,0,0,0,1,5,132,11
1,1,14,1,5,1,1,5,107,11
1,1,2,0,6,1,1,5,95,11
2,1,15,1,3,0,1,5,107,11
2,1,18,1,3,0,1,5,93,11
2,1,21,0,3,0,1,5,95,11
2,1,9,1,2,0,1,5,95,11
2,1,18,1,1,0,1,5,107,11
2,1,15,1,4,0,1,5,107,11
3,2,20,1,2,0,1,5,20,11
3,2,16,1,4,0,1,5,95,11
3,2,11,1,5,1,1,5,95,11
3,2,18,1,1,0,1,5,95,11
3,2,18,1,6,1,1,5,71,11
3,2,12,1,1,0,1,5,20,11
3,2,9,1,1,0,1,5,81,9
3,2,10,1,6,1,1,5,107,11
4,2,16,1,5,1,2,5,95,11
4,2,7,1,3,0,2,5,95,11
4,2,7,1,3,0,2,5,95,11
4,2,19,1,3,0,2,5,95,11
4,2,0,0,4,0,2,5,20,11
4,2,15,1,5,1,2,5,71,11
4,2,13,1,5,1,2,5,71,11
4,2,3,0,3,0,2,5,95,11
4,2,11,1,4,0,2,5,95,11
4,2,23,0,5,1,2,5,95,11
4,2,17,1,5,1,2,5,107,11
4,2,1,0,5,1,2,5,93,11
4,2,2,0,6,1,2,5,93,11
4,2,2,0,0,0,2,5,131,11
4,2,11,1,1,0,2,5,107,11
4,2,14,1,2,0,2,5,95,11
4,2,16,1,2,0,2,5,95,11
4,2,20,1,5,1,2,5,93,11
4,2,11,1,0,0,2,5,95,11
4,2,18,1,1,0,2,5,95,11
4,2,14,1,2,0,2,5,81,11
5,2,16,1,1,0,2,5,95,11
5,2,0,0,3,0,2,5,107,11
5,2,17,1,6,1,2,5,70,11
5,2,23,0,6,1,2,5,81,11
5,2,13,1,4,0,2,5,71,11
5,2,13,1,5,1,2,5,107,11
5,2,1,0,3,0,2,5,107,11
5,2,3,0,4,0,2,5,130,11
5,2,0,0,4,0,2,5,70,11
6,3,19,1,4,0,2,5,107,11
6,3,15,1,1,0,2,5,95,11
6,3,23,0,5,1,2,5,93,11
7,3,18,1,0,0,3,5,93,11
7,3,12,1,0,0,3,5,1,11
7,3,11,1,5,1,3,5,107,11
7,3,23,0,0,0,3,5,82,11
7,3,10,1,3,0,3,5,95,11
7,3,19,1,4,0,3,5,93,11
8,3,20,1,6,1,3,5,132,11
8,3,18,1,4,0,3,5,95,11
8,3,1,0,6,1,3,5,93,11
8,3,21,0,6,1,3,5,84,11
9,4,23,0,4,0,3,5,20,11
9,4,6,0,6,1,3,5,20,11
9,4,13,1,1,0,3,5,71,11
9,4,7,1,3,0,3,5,95,11
10,4,15,1,1,0,4,5,95,11
10,4,2,0,2,0,4,5,95,11
10,4,7,1,3,0,4,5,95,11
10,4,1,0,4,0,4,5,95,11
10,4,13,1,5,1,4,5,95,11
10,4,9,1,5,1,4,5,95,11
10,4,10,1,5,1,4,5,93,11
10,4,16,1,3,0,4,5,95,11
10,4,18,1,2,0,4,5,115,11
11,4,8,1,0,0,4,5,122,11
11,4,3,0,2,0,4,5,62,11
11,4,8,1,6,1,4,5,81,11
11,4,16,1,5,1,4,5,70,11
11,4,17,1,3,0,4,5,95,11
11,4,2,0,1,0,4,5,93,11
12,1,19,1,6,1,4,5,93,11
12,1,5,0,1,0,4,5,108,9
12,1,21,0,5,1,4,5,115,11
12,1,7,1,1,0,4,5,95,11
1,1,4,0,6,1,1,5,81,11
1,1,17,1,0,0,1,5,132,11
1,1,13,1,1,0,1,5,132,11
1,1,3,0,1,0,1,5,132,11
1,1,15,1,1,0,1,5,95,11
1,1,13,1,4,0,1,5,95,11
1,1,15,1,4,0,1,5,81,11
1,1,2,0,4,0,1,5,132,11
1,1,14,1,6,1,1,5,95,11
1,1,15,1,0,0,1,5,95,11
1,1,9,1,3,0,1,5,95,11
1,1,17,1,5,1,1,5,95,11
1,1,22,0,1,0,1,5,20,11
1,1,19,1,5,1,1,5,89,11
1,1,19,1,5,1,1,5,95,11
1,1,13,1,6,1,1,5,132,11
1,1,18,1,1,0,1,5,62,11
1,1,20,1,1,0,1,5,95,11
2,1,16,1,3,0,1,5,95,11
2,1,13,1,4,0,1,5,95,11
2,1,17,1,4,0,1,5,95,11
2,1,18,1,2,0,1,5,95,11
2,1,16,1,2,0,1,5,95,11
2,1,12,1,2,0,1,5,95,11
2,1,11,1,5,1,1,5,95,11
2,1,12,1,5,1,1,5,95,11
2,1,22,0,5,1,1,5,107,11
2,1,2,0,2,0,1,5,81,11
2,1,13,1,2,0,1,5,95,11
2,1,17,1,3,0,1,5,95,11
2,1,9,1,3,0,1,5,95,11
2,1,13,1,4,0,1,5,95,11
2,1,19,1,2,0,1,5,81,11
2,1,12,1,2,0,1,5,95,11
2,1,19,1,4,0,1,5,95,11
2,1,18,1,5,1,1,5,107,11
3,2,20,1,3,0,1,5,95,11
3,2,12,1,3,0,1,5,41,8
3,2,19,1,6,1,1,5,107,11
3,2,15,1,6,1,1,5,107,11
3,2,18,1,0,0,1,5,41,11
3,2,22,0,5,1,1,5,95,11
3,2,12,1,5,1,1,5,3,11
3,2,18,1,0,0,1,5,79,11
3,2,16,1,1,0,1,5,95,11
3,2,23,0,1,0,1,5,132,11
3,2,20,1,6,1,1,5,107,11
3,2,23,0,6,1,1,5,107,11
3,2,18,1,6,1,1,5,18,11
3,2,7,1,0,0,1,5,95,11
3,2,23,0,2,0,1,5,79,11
3,2,1,0,4,0,1,5,116,11
4,2,10,1,5,1,2,5,95,11
4,2,21,0,5,1,2,5,95,11
4,2,13,1,5,1,2,5,81,9
4,2,18,1,6,1,2,5,95,11
4,2,18,1,0,0,2,5,95,11
4,2,21,0,2,0,2,5,95,11
4,2,10,1,4,0,2,5,107,11
4,2,21,0,4,0,2,5,81,11
4,2,9,1,4,0,2,5,95,11
4,2,16,1,0,0,2,5,95,11
4,2,15,1,2,0,2,5,93,11
4,2,19,1,3,0,2,5,95,11
4,2,3,0,5,1,2,5,95,11
4,2,13,1,5,1,2,5,84,9
4,2,20,1,6,1,2,5,3,11
4,2,11,1,4,0,2,5,95,11
4,2,19,1,4,0,2,5,132,11
5,2,21,0,6,1,2,5,95,11
5,2,18,1,3,0,2,5,95,11
5,2,20,1,3,0,2,5,95,11
5,2,20,1,4,0,2,5,95,11
5,2,18,1,5,1,2,5,62,11
6,3,17,1,3,0,2,5,41,11
6,3,11,1,4,0,2,5,37,11
6,3,11,1,5,1,2,5,107,11
6,3,10,1,4,0,2,5,107,11
7,3,6,0,2,0,3,5,81,11
7,3,20,1,2,0,3,5,93,11
7,3,13,1,3,0,3,5,95,11
7,3,20,1,1,0,3,5,93,11
7,3,16,1,2,0,3,5,95,11
8,3,5,0,3,0,3,5,95,11
8,3,12,1,4,0,3,5,88,11
8,3,23,0,4,0,3,5,41,11
8,3,19,1,0,0,3,5,28,11
8,3,9,1,2,0,3,5,93,11
8,3,4,0,5,1,3,5,95,11
8,3,23,0,5,1,3,5,93,11
8,3,11,1,0,0,3,5,3,11
8,3,15,1,0,0,3,5,95,11
8,3,12,1,1,0,3,5,81,11
8,3,21,0,3,0,3,5,107,11
8,3,21,0,4,0,3,5,107,11
8,3,10,1,1,0,3,5,95,11
8,3,21,0,3,0,3,5,107,11
9,4,13,1,4,0,3,5,93,11
9,4,14,1,5,1,3,5,81,11
9,4,13,1,2,0,3,5,84,11
9,4,13,1,3,0,3,5,95,11
9,4,14,1,5,1,3,5,107,11
9,4,8,1,2,0,3,5,95,11
9,4,8,1,2,0,3,5,93,11
9,4,6,0,5,1,3,5,107,11
9,4,14,1,0,0,3,5,95,11
9,4,13,1,1,0,3,5,3,11
9,4,12,1,4,0,3,5,95,11
9,4,8,1,0,0,3,5,107,11
9,4,9,1,0,0,3,5,95,11
9,4,7,1,3,0,3,5,95,11
9,4,9,1,5,1,3,5,49,11
10,4,15,1,6,1,4,5,95,11
10,4,18,1,0,0,4,5,20,11
10,4,12,1,5,1,4,5,95,11
10,4,16,1,6,1,4,5,41,11
10,4,12,1,0,0,4,5,95,11
10,4,11,1,3,0,4,5,95,11
10,4,5,0,1,0,4,5,95,11
10,4,9,1,3,0,4,5,107,11
10,4,19,1,0,0,4,5,107,11
10,4,19,1,1,0,4,5,95,11
10,4,9,1,5,1,4,5,107,11
10,4,12,1,5,1,4,5,95,11
10,4,12,1,6,1,4,5,93,11
10,4,9,1,1,0,4,5,95,11
11,4,4,0,4,0,4,5,95,11
11,4,11,1,4,0,4,5,95,11
11,4,9,1,5,1,4,5,95,11
11,4,14,1,6,1,4,5,107,11
11,4,22,0,3,0,4,5,107,11
11,4,19,1,5,1,4,5,97,11
11,4,11,1,6,1,4,5,95,11
11,4,3,0,0,0,4,5,102,11
11,4,4,0,3,0,4,5,132,11
11,4,9,1,6,1,4,5,107,11
11,4,3,0,0,0,4,5,20,11
11,4,17,1,0,0,4,5,81,11
11,4,18,1,2,0,4,5,93,11
11,4,10,1,3,0,4,5,95,11
11,4,14,1,4,0,4,5,93,11
11,4,15,1,4,0,4,5,95,11
11,4,6,0,5,1,4,5,95,11
12,1,15,1,4,0,4,5,95,11
12,1,18,1,5,1,4,5,95,11
12,1,19,1,6,1,4,5,81,11
12,1,20,1,6,1,4,5,132,11
12,1,16,1,0,0,4,5,95,11
12,1,15,1,1,0,4,5,81,11
12,1,13,1,2,0,4,5,132,11
12,1,20,1,2,0,4,5,62,11
12,1,17,1,3,0,4,5,95,11
12,1,19,1,4,0,4,5,95,11
12,1,13,1,6,1,4,5,95,11
12,1,22,0,0,0,4,5,41,11
12,1,8,1,1,0,4,5,95,11
12,1,22,0,2,0,4,5,95,11
12,1,11,1,4,0,4,5,95,11
12,1,8,1,6,1,4,5,62,11
12,1,9,1,0,0,4,5,95,9
12,1,17,1,4,0,4,5,62,11
12,1,16,1,6,1,4,5,95,11
12,1,0,0,0,0,4,5,62,11
12,1,14,1,0,0,4,5,95,11
1,1,22,0,0,0,1,5,81,9
1,1,21,0,0,0,1,5,95,11
1,1,14,1,1,0,1,5,95,11
1,1,17,1,1,0,1,5,95,11
1,1,19,1,2,0,1,5,107,11
1,1,18,1,3,0,1,5,95,11
1,1,8,1,0,0,1,5,95,11
1,1,13,1,0,0,1,5,93,11
1,1,13,1,6,1,1,5,95,11
1,1,16,1,6,1,1,5,95,11
1,1,17,1,5,1,1,5,95,11
1,1,11,1,6,1,1,5,107,11
2,1,18,1,3,0,1,5,107,11
2,1,19,1,5,1,1,5,95,11
2,1,11,1,5,1,1,5,131,11
2,1,10,1,5,1,1,5,95,11
2,1,19,1,1,0,1,5,107,11
2,1,11,1,6,1,1,5,95,11
2,1,16,1,2,0,1,5,95,11
2,1,21,0,2,0,1,5,95,11
2,1,8,1,0,0,1,5,95,11
2,1,22,0,0,0,1,5,95,11
2,1,14,1,1,0,1,5,95,11
2,1,17,1,3,0,1,5,95,11
2,1,11,1,4,0,1,5,95,11
2,1,18,1,4,0,1,5,95,11
2,1,18,1,5,1,1,5,95,11
3,2,1,0,2,0,1,5,95,11
3,2,12,1,3,0,1,5,95,11
3,2,18,1,3,0,1,5,95,11
3,2,12,1,6,1,1,5,95,11
3,2,18,1,0,0,1,5,95,11
3,2,18,1,1,0,1,5,71,11
3,2,10,1,2,0,1,5,93,11
3,2,0,0,2,0,1,5,81,11
3,2,13,1,3,0,1,5,95,11
3,2,1,0,0,0,1,5,95,11
3,2,17,1,0,0,1,5,71,11
3,2,12,1,3,0,1,5,95,11
3,2,5,0,3,0,1,5,95,11
3,2,17,1,3,0,1,5,95,11
3,2,17,1,4,0,1,5,95,11
4,2,16,1,0,0,2,5,95,11
4,2,21,0,2,0,2,5,71,11
4,2,13,1,2,0,2,5,95,11
4,2,1,0,3,0,2,5,95,11
4,2,12,1,6,1,2,5,95,9
4,2,21,0,6,1,2,5,71,11
4,2,17,1,2,0,2,5,95,11
4,2,18,1,1,0,2,5,107,11
4,2,20,1,3,0,2,5,14,11
4,2,3,0,5,1,2,5,107,11
4,2,14,1,0,0,2,5,95,11
4,2,9,1,3,0,2,5,95,11
4,2,21,0,3,0,2,5,95,11
4,2,13,1,6,1,2,5,95,11
5,2,12,1,0,0,2,5,95,11
5,2,13,1,0,0,2,5,95,11
5,2,14,1,0,0,2,5,71,11
5,2,19,1,4,0,2,5,95,11
5,2,19,1,4,0,2,5,95,11
5,2,15,1,0,0,2,5,95,11
5,2,19,1,0,0,2,5,95,11
5,2,23,0,5,1,2,5,95,11
5,2,11,1,6,1,2,5,28,11
5,2,15,1,4,0,2,5,95,11
5,2,16,1,6,1,2,5,95,8
5,2,2,0,1,0,2,5,110,9
5,2,5,0,1,0,2,5,95,9
5,2,12,1,3,0,2,5,95,11
5,2,19,1,6,1,2,5,81,11
6,3,9,1,5,1,2,5,95,11
6,3,11,1,3,0,2,5,95,11
6,3,19,1,3,0,2,5,95,11
6,3,13,1,5,1,2,5,95,11
6,3,17,1,0,0,2,5,95,11
6,3,13,1,1,0,2,5,95,11
6,3,21,0,1,0,2,5,95,11
6,3,22,0,1,0,2,5,95,11
6,3,13,1,3,0,2,5,107,11
6,3,10,1,0,0,2,5,95,11
6,3,18,1,2,0,2,5,95,11
6,3,14,1,2,0,2,5,95,9
6,3,18,1,5,1,2,5,81,11
6,3,19,1,2,0,2,5,95,11
6,3,12,1,3,0,2,5,95,11
6,3,21,0,3,0,2,5,95,11
6,3,15,1,4,0,2,5,95,11
6,3,16,1,4,0,2,5,95,11
6,3,20,1,4,0,2,5,49,11
7,3,10,1,6,1,3,5,81,11
7,3,18,1,5,1,3,5,81,9
7,3,11,1,5,1,3,5,24,11
7,3,13,1,0,0,3,5,95,11
7,3,16,1,1,0,3,5,95,11
7,3,1,0,1,0,3,5,107,11
7,3,11,1,4,0,3,5,95,9
7,3,18,1,6,1,3,5,95,9
7,3,12,1,0,0,3,5,107,11
7,3,21,0,0,0,3,5,81,11
7,3,12,1,2,0,3,5,93,11
7,3,11,1,0,0,3,5,95,11
8,3,8,1,3,0,3,5,95,11
8,3,9,1,6,1,3,5,107,11
8,3,6,0,0,0,3,5,81,11
8,3,18,1,2,0,3,5,95,11
8,3,22,0,3,0,3,5,95,11
8,3,4,0,4,0,3,5,81,9
8,3,14,1,4,0,3,5,95,11
8,3,4,0,4,0,3,5,81,9
8,3,16,1,6,1,3,5,95,9
8,3,23,0,2,0,3,5,95,11
8,3,15,1,3,0,3,5,95,9
8,3,21,0,6,1,3,5,95,11
8,3,20,1,0,0,3,5,95,11
8,3,19,1,1,0,3,5,95,11
8,3,14,1,4,0,3,5,95,9
8,3,12,1,4,0,3,5,107,11
8,3,17,1,0,0,3,5,107,11
9,4,9,1,4,0,3,5,95,11
9,4,9,1,2,0,3,5,95,11
9,4,12,1,4,0,3,5,107,11
9,4,17,1,4,0,3,5,95,11
9,4,17,1,6,1,3,5,95,11
9,4,11,1,0,0,3,5,95,11
9,4,20,1,0,0,3,5,125,11
9,4,12,1,4,0,3,5,95,11
9,4,23,0,6,1,3,5,95,9
9,4,11,1,0,0,3,5,95,11
10,4,15,1,6,1,4,5,95,11
10,4,15,1,6,1,4,5,95,11
10,4,18,1,1,0,4,5,79,9
10,4,15,1,2,0,4,5,95,11
10,4,15,1,3,0,4,5,95,11
10,4,21,0,3,0,4,5,95,11
10,4,10,1,6,1,4,5,95,11
10,4,15,1,6,1,4,5,95,11
10,4,6,0,0,0,4,5,1,11
10,4,16,1,4,0,4,5,95,11
10,4,14,1,6,1,4,5,95,11
10,4,8,1,3,0,4,5,95,11
10,4,18,1,3,0,4,5,95,11
10,4,20,1,6,1,4,5,95,11
10,4,17,1,6,1,4,5,95,11
10,4,11,1,0,0,4,5,95,11
10,4,9,1,1,0,4,5,95,11
10,4,16,1,1,0,4,5,95,11
10,4,11,1,2,0,4,5,95,11
10,4,16,1,5,1,4,5,95,9
10,4,22,0,6,1,4,5,107,11
10,4,7,1,1,0,4,5,71,11
10,4,15,1,1,0,4,5,46,11
11,4,12,1,1,0,4,5,95,11
11,4,9,1,2,0,4,5,95,11
11,4,11,1,6,1,4,5,95,11
11,4,2,0,2,0,4,5,28,11
11,4,17,1,4,0,4,5,79,11
11,4,13,1,5,1,4,5,81,11
11,4,23,0,1,0,4,5,79,11
11,4,7,1,3,0,4,5,93,11
11,4,14,1,3,0,4,5,95,11
11,4,16,1,5,1,4,5,1,11
11,4,4,0,0,0,4,5,95,11
11,4,15,1,3,0,4,5,129,11
12,1,22,0,4,0,4,5,107,11
12,1,18,1,5,1,4,5,1,11
12,1,18,1,6,1,4,5,95,11
12,1,22,0,6,1,4,5,95,11
12,1,20,1,2,0,4,5,95,11
12,1,19,1,4,0,4,5,107,11
12,1,20,1,5,1,4,5,95,11
12,1,16,1,3,0,4,5,107,11
12,1,18,1,3,0,4,5,61,11
12,1,7,1,4,0,4,5,7,11
12,1,15,1,5,1,4,5,95,11
12,1,3,0,6,1,4,5,95,11
12,1,11,1,0,0,4,5,81,11
12,1,21,0,2,0,4,5,95,11
12,1,17,1,4,0,4,5,117,11
12,1,18,1,0,0,4,5,81,11
12,1,10,1,2,0,4,5,95,11
12,1,17,1,4,0,4,5,107,11
1,1,0,0,0,0,1,5,93,11
1,1,15,1,4,0,1,5,81,11
1,1,23,0,5,1,1,5,93,11
1,1,16,1,6,1,1,5,20,11
1,1,10,1,1,0,1,5,95,11
1,1,11,1,4,0,1,5,95,11
2,1,11,1,3,0,1,5,95,11
2,1,16,1,4,0,1,5,73,11
2,1,14,1,6,1,1,5,81,11
2,1,18,1,0,0,1,5,95,11
2,1,16,1,1,0,1,5,93,11
2,1,11,1,5,1,1,5,107,11
2,1,17,1,6,1,1,5,107,11
2,1,21,0,4,0,1,5,95,11
2,1,23,0,5,1,1,5,107,11
2,1,17,1,5,1,1,5,107,11
2,1,18,1,6,1,1,5,95,11
2,1,17,1,0,0,1,5,95,11
3,2,2,0,6,1,1,5,107,11
3,2,18,1,0,0,1,5,95,11
3,2,18,1,0,0,1,5,95,11
3,2,17,1,4,0,1,5,95,11
3,2,18,1,4,0,1,5,132,11
3,2,22,0,6,1,1,5,107,11
3,2,16,1,3,0,1,5,95,11
3,2,17,1,3,0,1,5,95,11
3,2,8,1,4,0,1,5,95,11
4,2,17,1,3,0,2,5,95,11
4,2,13,1,6,1,2,5,95,11
4,2,9,1,1,0,2,5,93,11
4,2,17,1,1,0,2,5,95,11
4,2,20,1,4,0,2,5,95,11
4,2,5,0,6,1,2,5,14,11
4,2,14,1,6,1,2,5,107,11
5,2,16,1,1,0,2,5,132,8
5,2,12,1,3,0,2,5,95,11
5,2,10,1,0,0,2,5,95,11
5,2,7,1,2,0,2,5,132,11
5,2,17,1,4,0,2,5,132,11
5,2,18,1,3,0,2,5,95,11
5,2,17,1,4,0,2,5,94,11
5,2,2,0,4,0,2,5,132,11
5,2,20,1,2,0,2,5,132,11
6,3,11,1,3,0,2,5,95,11
6,3,18,1,3,0,2,5,24,11
6,3,14,1,6,1,2,5,62,11
6,3,14,1,0,0,2,5,95,11
6,3,5,0,1,0,2,5,107,11
6,3,12,1,3,0,2,5,81,11
6,3,17,1,2,0,2,5,28,11
6,3,2,0,5,1,2,5,95,11
6,3,14,1,6,1,2,5,95,11
6,3,14,1,6,1,2,5,95,11
6,3,20,1,6,1,2,5,81,11
6,3,19,1,2,0,2,5,95,11
6,3,1,0,4,0,2,5,95,11
7,3,2,0,1,0,3,5,95,11
7,3,23,0,2,0,3,5,107,11
7,3,18,1,2,0,3,5,132,11
7,3,18,1,2,0,3,5,41,11
7,3,15,1,3,0,3,5,71,11
7,3,1,0,5,1,3,5,95,11
7,3,0,0,6,1,3,5,95,11
7,3,0,0,2,0,3,5,81,11
7,3,18,1,3,0,3,5,95,11
7,3,12,1,6,1,3,5,107,11
7,3,17,1,6,1,3,5,95,11
7,3,23,0,0,0,3,5,20,11
7,3,9,1,6,1,3,5,107,11
7,3,8,1,6,1,3,5,107,11
7,3,17,1,6,1,3,5,95,11
8,3,14,1,1,0,3,5,107,11
8,3,19,1,5,1,3,5,72,11
8,3,16,1,5,1,3,5,95,11
8,3,11,1,0,0,3,5,95,8
8,3,17,1,0,0,3,5,95,11
9,4,23,0,4,0,3,5,95,11
9,4,21,0,2,0,3,5,71,11
9,4,2,0,4,0,3,5,93,11
9,4,20,1,1,0,3,5,95,11
9,4,0,0,4,0,3,5,95,11
9,4,0,0,2,0,3,5,95,11
9,4,2,0,2,0,3,5,20,11
10,4,9,1,3,0,4,5,95,11
10,4,2,0,3,0,4,5,81,11
10,4,6,0,6,1,4,5,95,11
10,4,15,1,1,0,4,5,95,11
10,4,18,1,2,0,4,5,8,11
10,4,15,1,5,1,4,5,81,11
10,4,12,1,6,1,4,5,132,11
10,4,8,1,2,0,4,5,81,11
11,4,10,1,4,0,4,5,95,11
11,4,22,0,4,0,4,5,107,11
11,4,0,0,6,1,4,5,107,11
11,4,0,0,1,0,4,5,107,11
11,4,1,0,1,0,4,5,93,11
11,4,14,1,1,0,4,5,95,11
11,4,11,1,2,0,4,5,20,11
11,4,11,1,4,0,4,5,95,11
11,4,15,1,6,1,4,5,132,11
11,4,5,0,6,1,4,5,95,11
11,4,10,1,0,0,4,5,24,11
11,4,0,0,1,0,4,5,107,11
12,1,6,0,4,0,4,5,95,11
12,1,12,1,5,1,4,5,107,11
12,1,3,0,6,1,4,5,93,11
12,1,11,1,0,0,4,5,95,11
12,1,15,1,1,0,4,5,14,11
12,1,17,1,2,0,4,5,95,11
12,1,1,0,5,1,4,5,76,11
12,1,23,0,6,1,4,5,95,11
12,1,12,1,0,0,4,5,95,11
12,1,17,1,0,0,4,5,95,11
12,1,0,0,4,0,4,5,93,11
12,1,11,1,4,0,4,5,95,11
12,1,12,1,5,1,4,5,107,11
12,1,4,0,1,0,4,5,89,11
12,1,16,1,4,0,4,5,76,8
12,1,13,1,1,0,4,5,95,11
12,1,6,0,2,0,4,5,107,11
1,1,0,0,6,1,1,42,102,11
1,1,11,1,6,1,1,42,102,11
1,1,12,1,6,1,1,42,81,9
1,1,1,0,0,0,1,42,41,11
1,1,1,0,1,0,1,42,20,11
1,1,8,1,6,1,1,42,71,11
1,1,11,1,6,1,1,42,102,11
1,1,19,1,0,0,1,42,102,11
1,1,12,1,1,0,1,42,102,11
1,1,14,1,1,0,1,42,41,11
1,1,3,0,4,0,1,42,102,11
1,1,9,1,4,0,1,42,81,11
1,1,14,1,3,0,1,42,71,11
1,1,1,0,4,0,1,42,102,11
1,1,16,1,5,1,1,42,71,11
1,1,4,0,6,1,1,42,109,11
1,1,20,1,6,1,1,42,132,11
1,1,1,0,1,0,1,42,132,11
1,1,2,0,1,0,1,42,132,11
1,1,2,0,1,0,1,42,132,11
2,1,22,0,6,1,1,42,81,9
2,1,3,0,2,0,1,42,20,11
2,1,15,1,2,0,1,42,95,11
2,1,17,1,3,0,1,42,95,11
3,2,0,0,2,0,1,42,93,11
3,2,1,0,6,1,1,42,93,11
3,2,2,0,5,1,1,42,93,11
3,2,2,0,5,1,1,42,93,11
3,2,3,0,5,1,1,42,93,11
3,2,23,0,5,1,1,42,93,11
3,2,1,0,6,1,1,42,93,11
3,2,1,0,6,1,1,42,93,11
3,2,13,1,6,1,1,42,107,11
3,2,21,0,6,1,1,42,93,11
3,2,22,0,6,1,1,42,93,11
3,2,22,0,5,1,1,42,93,11
3,2,13,1,6,1,1,42,93,11
3,2,21,0,6,1,1,42,81,11
3,2,12,1,2,0,1,42,20,9
4,2,20,1,6,1,2,42,93,11
4,2,14,1,3,0,2,42,115,11
4,2,21,0,2,0,2,42,71,11
4,2,22,0,6,1,2,42,93,11
4,2,15,1,0,0,2,42,115,11
4,2,9,1,1,0,2,42,115,11
5,2,0,0,2,0,2,42,114,11
5,2,6,0,6,1,2,42,93,11
5,2,16,1,6,1,2,42,71,11
5,2,17,1,5,1,2,42,71,11
5,2,21,0,1,0,2,42,115,11
5,2,11,1,0,0,2,42,82,11
6,3,0,0,6,1,2,42,14,11
6,3,11,1,1,0,2,42,81,11
6,3,8,1,2,0,2,42,95,11
6,3,12,1,2,0,2,42,20,11
6,3,1,0,3,0,2,42,95,11
6,3,22,0,1,0,2,42,95,9
6,3,13,1,2,0,2,42,86,11
6,3,16,1,6,1,2,42,3,11
6,3,0,0,0,0,2,42,93,11
6,3,9,1,1,0,2,42,95,11
6,3,12,1,3,0,2,42,20,11
6,3,13,1,4,0,2,42,3,9
7,3,12,1,2,0,3,42,20,9
7,3,1,0,6,1,3,42,130,11
7,3,20,1,3,0,3,42,93,11
7,3,9,1,0,0,3,42,115,11
7,3,15,1,0,0,3,42,115,11
7,3,13,1,0,0,3,42,107,11
7,3,19,1,0,0,3,42,3,11
7,3,15,1,2,0,3,42,95,11
8,3,12,1,1,0,3,42,95,11
8,3,16,1,1,0,3,42,95,11
8,3,14,1,4,0,3,42,95,11
8,3,4,0,5,1,3,42,93,11
8,3,17,1,5,1,3,42,93,11
8,3,2,0,4,0,3,42,95,11
8,3,15,1,4,0,3,42,107,11
8,3,19,1,4,0,3,42,107,11
8,3,8,1,5,1,3,42,95,11
8,3,10,1,3,0,3,42,81,9
8,3,12,1,4,0,3,42,51,11
8,3,17,1,5,1,3,42,95,11
8,3,12,1,3,0,3,42,115,11
9,4,18,1,1,0,3,42,115,11
9,4,2,0,2,0,3,42,93,11
9,4,3,0,6,1,3,42,95,11
9,4,18,1,0,0,3,42,95,11
9,4,14,1,3,0,3,42,51,9
10,4,13,1,6,1,4,42,20,11
10,4,19,1,5,1,4,42,20,11
10,4,4,0,1,0,4,42,93,11
10,4,10,1,4,0,4,42,20,11
10,4,0,0,0,0,4,42,20,11
10,4,14,1,0,0,4,42,20,11
10,4,17,1,3,0,4,42,3,11
10,4,17,1,4,0,4,42,26,11
10,4,18,1,4,0,4,42,30,11
10,4,14,1,5,1,4,42,15,11
10,4,10,1,6,1,4,42,26,11
10,4,15,1,0,0,4,42,95,11
10,4,19,1,1,0,4,42,93,11
10,4,14,1,3,0,4,42,79,11
10,4,5,0,0,0,4,42,14,11
11,4,20,1,6,1,4,42,93,11
11,4,0,0,1,0,4,42,14,9
11,4,21,0,5,1,4,42,93,11
11,4,17,1,2,0,4,42,93,11
11,4,15,1,0,0,4,42,71,11
11,4,19,1,3,0,4,42,81,11
12,1,18,1,0,0,4,42,81,11
12,1,14,1,2,0,4,42,20,11
12,1,22,0,5,1,4,42,71,11
12,1,11,1,6,1,4,42,30,11
12,1,3,0,6,1,4,42,20,11
12,1,16,1,2,0,4,42,71,11
12,1,17,1,2,0,4,42,93,11
1,1,15,1,2,0,1,42,81,11
1,1,5,0,4,0,1,42,81,9
2,1,22,0,4,0,1,42,81,8
2,1,22,0,5,1,1,42,81,11
3,2,7,1,6,1,1,42,107,11
3,2,7,1,4,0,1,42,107,11
3,2,13,1,3,0,1,42,107,11
3,2,14,1,4,0,1,42,107,11
4,2,20,1,1,0,2,42,81,11
4,2,21,0,0,0,2,42,81,9
5,2,14,1,4,0,2,42,115,11
5,2,17,1,4,0,2,42,115,11
6,3,21,0,3,0,2,42,26,9
7,3,22,0,1,0,3,42,93,11
7,3,15,1,3,0,3,42,26,11
8,3,12,1,0,0,3,42,43,11
9,4,18,1,3,0,3,42,26,11
9,4,12,1,0,0,3,42,109,11
9,4,17,1,5,1,3,42,51,9
9,4,8,1,4,0,3,42,81,9
10,4,16,1,5,1,4,42,26,11
10,4,17,1,2,0,4,42,13,11
11,4,10,1,6,1,4,42,93,11
12,1,20,1,5,1,4,42,115,11
2,1,19,1,2,0,1,42,26,11
2,1,23,0,2,0,1,42,95,11
2,1,15,1,4,0,1,42,95,11
4,2,11,1,6,1,2,42,115,11
4,2,23,0,6,1,2,42,81,11
4,2,16,1,2,0,2,42,81,9
4,2,10,1,2,0,2,42,84,11
6,3,8,1,6,1,2,42,13,9
8,3,17,1,6,1,3,42,13,9
8,3,15,1,5,1,3,42,81,9
9,4,15,1,3,0,3,42,93,11
1,1,14,1,4,0,1,42,81,11
1,1,11,1,5,1,1,42,41,11
2,1,17,1,4,0,1,42,3,11
3,2,18,1,1,0,1,42,107,11
4,2,14,1,3,0,2,42,129,11
5,2,14,1,1,0,2,42,95,11
6,3,22,0,2,0,2,42,107,11
6,3,13,1,2,0,2,42,107,11
7,3,18,1,1,0,3,42,107,11
7,3,17,1,2,0,3,42,105,11
7,3,7,1,3,0,3,42,49,11
8,3,13,1,1,0,3,42,49,11
9,4,16,1,1,0,3,42,95,11
9,4,14,1,3,0,3,42,93,11
9,4,15,1,2,0,3,42,26,11
10,4,20,1,0,0,4,42,115,11
11,4,12,1,6,1,4,42,26,11
12,1,21,0,5,1,4,42,115,11
1,1,12,1,5,1,1,21,81,8
1,1,12,1,5,1,1,21,81,8
1,1,12,1,5,1,1,21,81,8
1,1,0,0,0,0,1,21,62,8
1,1,16,1,5,1,1,21,107,11
1,1,4,0,3,0,1,21,121,11
2,1,10,1,2,0,1,21,51,11
2,1,12,1,1,0,1,21,79,11
2,1,14,1,6,1,1,21,107,11
2,1,3,0,4,0,1,21,79,11
2,1,20,1,4,0,1,21,95,9
2,1,11,1,6,1,1,21,81,11
2,1,20,1,1,0,1,21,79,11
3,2,14,1,6,1,1,21,71,11
3,2,20,1,1,0,1,21,107,11
3,2,12,1,2,0,1,21,14,11
4,2,20,1,0,0,2,21,13,11
4,2,17,1,3,0,2,21,79,11
4,2,14,1,2,0,2,21,71,11
4,2,18,1,4,0,2,21,79,11
5,2,17,1,4,0,2,21,95,11
5,2,0,0,4,0,2,21,93,11
5,2,16,1,2,0,2,21,95,11
5,2,21,0,0,0,2,21,93,11
6,3,11,1,6,1,2,21,107,11
7,3,18,1,5,1,3,21,95,8
8,3,15,1,2,0,3,21,79,11
8,3,14,1,3,0,3,21,79,11
8,3,23,0,2,0,3,21,7,11
8,3,0,0,4,0,3,21,41,9
8,3,13,1,2,0,3,21,95,9
9,4,13,1,1,0,3,21,114,11
9,4,10,1,2,0,3,21,81,9
9,4,12,1,0,0,3,21,51,11
10,4,19,1,6,1,4,21,71,11
10,4,11,1,0,0,4,21,93,11
10,4,12,1,2,0,4,21,95,11
10,4,12,1,4,0,4,21,79,9
11,4,6,0,5,1,4,21,41,11
11,4,22,0,6,1,4,21,102,11
11,4,17,1,3,0,4,21,93,11
12,1,22,0,5,1,4,21,81,11
12,1,15,1,6,1,4,21,116,11
12,1,11,1,0,0,4,21,14,11
12,1,9,1,5,1,4,21,93,11
12,1,11,1,1,0,4,21,93,11
12,1,1,0,3,0,4,21,79,9
12,1,23,0,6,1,4,21,93,11
12,1,18,1,0,0,4,21,71,11
3,2,21,0,1,0,1,21,41,9
6,3,11,1,2,0,2,21,3,11
7,3,13,1,0,0,3,21,79,11
7,3,9,1,0,0,3,21,79,11
8,3,19,1,5,1,3,21,95,11
11,4,13,1,5,1,4,21,13,8
8,3,8,1,0,0,3,21,4,11
1,1,21,0,2,0,1,21,81,11
1,1,3,0,4,0,1,21,41,11
1,1,19,1,2,0,1,21,81,9
1,1,20,1,3,0,1,21,1,11
1,1,8,1,4,0,1,21,41,9
1,1,21,0,6,1,1,21,79,11
1,1,14,1,5,1,1,21,41,11
1,1,9,1,5,1,1,21,79,11
1,1,21,0,6,1,1,21,41,11
1,1,18,1,0,0,1,21,81,11
2,1,18,1,4,0,1,21,1,11
2,1,6,0,5,1,1,21,132,11
2,1,14,1,2,0,1,21,81,11
2,1,18,1,3,0,1,21,14,11
2,1,22,0,5,1,1,21,73,11
3,2,18,1,3,0,1,21,7,9
3,2,7,1,1,0,1,21,20,9
4,2,15,1,5,1,2,21,14,11
4,2,18,1,1,0,2,21,79,11
4,2,2,0,3,0,2,21,14,11
4,2,12,1,5,1,2,21,79,11
4,2,18,1,5,1,2,21,79,11
4,2,10,1,1,0,2,21,81,9
4,2,14,1,4,0,2,21,119,11
5,2,1,0,5,1,2,21,53,9
6,3,12,1,5,1,2,21,40,11
6,3,14,1,6,1,2,21,69,11
6,3,7,1,0,0,2,21,107,11
6,3,2,0,4,0,2,21,20,11
7,3,19,1,3,0,3,21,95,11
7,3,6,0,6,1,3,21,93,11
7,3,0,0,0,0,3,21,79,11
7,3,21,0,4,0,3,21,116,11
8,3,21,0,2,0,3,21,79,11
8,3,15,1,6,1,3,21,95,11
8,3,10,1,1,0,3,21,107,11
8,3,17,1,3,0,3,21,95,11
9,4,10,1,4,0,3,21,1,11
9,4,5,0,1,0,3,21,89,9
10,4,20,1,3,0,4,21,81,11
10,4,18,1,5,1,4,21,13,11
10,4,13,1,2,0,4,21,95,11
10,4,7,1,4,0,4,21,81,9
10,4,10,1,6,1,4,21,115,11
11,4,19,1,6,1,4,21,1,11
11,4,1,0,1,0,4,21,41,11
11,4,2,0,2,0,4,21,81,11
11,4,10,1,2,0,4,21,41,11
11,4,16,1,0,0,4,21,79,11
12,1,1,0,6,1,4,21,107,11
12,1,9,1,4,0,4,21,41,11
12,1,17,1,4,0,4,21,41,11
2,1,16,1,5,1,1,21,20,11
2,1,10,1,6,1,1,21,81,8
2,1,10,1,6,1,1,21,81,11
2,1,0,0,0,0,1,21,106,11
2,1,13,1,2,0,1,21,95,11
2,1,14,1,2,0,1,21,95,11
2,1,14,1,3,0,1,21,14,9
3,2,7,1,1,0,1,21,73,9
3,2,0,0,6,1,1,21,81,8
3,2,18,1,4,0,1,21,20,11
4,2,13,1,1,0,2,21,115,11
4,2,10,1,2,0,2,21,81,11
5,2,18,1,6,1,2,21,115,11
7,3,3,0,0,0,3,21,20,9
7,3,13,1,2,0,3,21,95,11
8,3,12,1,5,1,3,21,81,9
8,3,16,1,4,0,3,21,20,11
8,3,15,1,5,1,3,21,107,11
8,3,20,1,0,0,3,21,132,11
8,3,12,1,2,0,3,21,95,11
9,4,20,1,2,0,3,21,93,11
10,4,10,1,5,1,4,21,14,9
10,4,0,0,4,0,4,21,70,11
11,4,6,0,2,0,4,21,81,11
11,4,5,0,3,0,4,21,93,11
12,1,9,1,6,1,4,21,41,11
1,1,12,1,0,0,1,9,95,11
1,1,9,1,1,0,1,9,41,11
1,1,22,0,1,0,1,9,81,9
1,1,16,1,5,1,1,9,81,9
1,1,7,1,0,0,1,9,81,11
1,1,13,1,0,0,1,9,20,11
1,1,3,0,4,0,1,9,132,11
1,1,6,0,4,0,1,9,95,11
1,1,4,0,5,1,1,9,71,11
1,1,1,0,0,0,1,9,81,11
1,1,0,0,1,0,1,9,132,11
2,1,0,0,2,0,1,9,132,11
2,1,1,0,2,0,1,9,132,11
2,1,23,0,0,0,1,9,132,11
2,1,13,1,3,0,1,9,95,11
2,1,13,1,5,1,1,9,95,11
2,1,23,0,5,1,1,9,69,11
2,1,14,1,0,0,1,9,95,11
2,1,4,0,4,0,1,9,81,9
2,1,5,0,0,0,1,9,93,11
3,2,22,0,3,0,1,9,81,11
3,2,18,1,3,0,1,9,95,11
3,2,0,0,5,1,1,9,132,11
3,2,10,1,0,0,1,9,71,11
4,2,9,1,5,1,2,9,81,11
4,2,22,0,1,0,2,9,71,11
4,2,14,1,0,0,2,9,51,11
4,2,22,0,0,0,2,9,83,11
4,2,13,1,1,0,2,9,107,11
5,2,2,0,4,0,2,9,132,11
5,2,12,1,1,0,2,9,81,11
5,2,4,0,0,0,2,9,93,11
6,3,4,0,4,0,2,9,132,11
6,3,15,1,0,0,2,9,95,11
6,3,16,1,1,0,2,9,95,11
6,3,21,0,0,0,2,9,26,11
6,3,12,1,4,0,2,9,131,11
6,3,18,1,6,1,2,9,115,11
6,3,19,1,2,0,2,9,71,11
6,3,19,1,3,0,2,9,93,11
6,3,4,0,5,1,2,9,20,11
6,3,18,1,6,1,2,9,95,11
6,3,11,1,2,0,2,9,62,11
7,3,14,1,6,1,3,9,95,11
7,3,9,1,0,0,3,9,95,11
7,3,14,1,0,0,3,9,95,11
7,3,22,0,2,0,3,9,81,11
7,3,2,0,0,0,3,9,115,11
8,3,22,0,1,0,3,9,71,11
8,3,2,0,5,1,3,9,20,11
8,3,16,1,5,1,3,9,111,8
8,3,19,1,1,0,3,9,95,11
8,3,22,0,3,0,3,9,132,11
8,3,21,0,2,0,3,9,95,11
8,3,20,1,1,0,3,9,95,11
8,3,15,1,3,0,3,9,107,11
8,3,8,1,4,0,3,9,20,11
8,3,12,1,5,1,3,9,94,11
8,3,11,1,3,0,3,9,14,11
8,3,17,1,3,0,3,9,81,9
8,3,18,1,3,0,3,9,95,11
9,4,13,1,4,0,3,9,95,11
9,4,23,0,1,0,3,9,93,11
9,4,0,0,2,0,3,9,93,11
9,4,1,0,2,0,3,9,93,11
9,4,1,0,2,0,3,9,93,11
9,4,7,1,5,1,3,9,20,11
9,4,16,1,0,0,3,9,24,9
9,4,11,1,2,0,3,9,95,11
9,4,16,1,3,0,3,9,95,11
10,4,15,1,6,1,4,9,130,11
10,4,13,1,1,0,4,9,81,11
10,4,17,1,2,0,4,9,107,11
10,4,2,0,1,0,4,9,132,11
10,4,13,1,4,0,4,9,114,9
11,4,12,1,2,0,4,9,26,11
11,4,10,1,5,1,4,9,81,11
11,4,11,1,0,0,4,9,20,11
11,4,21,0,4,0,4,9,132,11
11,4,20,1,6,1,4,9,132,11
11,4,13,1,3,0,4,9,81,9
11,4,10,1,3,0,4,9,71,11
11,4,19,1,0,0,4,9,20,11
12,1,3,0,3,0,4,9,132,11
12,1,11,1,3,0,4,9,70,11
12,1,9,1,6,1,4,9,14,9
12,1,22,0,4,0,4,9,71,11
12,1,20,1,5,1,4,9,71,11
12,1,9,1,1,0,4,9,20,11
12,1,12,1,1,0,4,9,132,11
12,1,23,0,2,0,4,9,132,11
12,1,2,0,3,0,4,9,132,11
12,1,1,0,5,1,4,9,132,11
1,1,11,1,5,1,1,9,14,9
3,2,18,1,0,0,1,9,81,11
5,2,11,1,5,1,2,9,49,11
5,2,12,1,5,1,2,9,115,11
6,3,11,1,3,0,2,9,107,11
7,3,18,1,3,0,3,9,95,11
8,3,21,0,1,0,3,9,93,11
9,4,14,1,6,1,3,9,84,11
9,4,11,1,1,0,3,9,69,11
9,4,12,1,3,0,3,9,95,9
10,4,15,1,6,1,4,9,107,11
11,4,19,1,3,0,4,9,41,11
11,4,2,0,0,0,4,9,81,11
12,1,19,1,3,0,4,9,81,11
12,1,19,1,2,0,4,9,81,9
8,3,20,1,2,0,3,9,95,11
1,1,10,1,2,0,1,37,81,11
1,1,2,0,3,0,1,37,102,11
1,1,11,1,6,1,1,37,41,9
1,1,18,1,6,1,1,37,20,11
1,1,11,1,0,0,1,37,102,11
1,1,19,1,0,0,1,37,102,11
1,1,22,0,0,0,1,37,71,11
1,1,1,0,1,0,1,37,41,11
1,1,10,1,1,0,1,37,102,11
1,1,19,1,1,0,1,37,71,11
1,1,3,0,2,0,1,37,71,11
1,1,11,1,0,0,1,37,115,11
1,1,15,1,0,0,1,37,71,11
1,1,15,1,0,0,1,37,41,11
1,1,22,0,1,0,1,37,71,11
1,1,10,1,5,1,1,37,81,11
1,1,13,1,0,0,1,37,71,11
1,1,18,1,0,0,1,37,95,11
1,1,12,1,3,0,1,37,102,11
1,1,12,1,3,0,1,37,95,11
1,1,9,1,4,0,1,37,102,11
1,1,15,1,5,1,1,37,95,11
1,1,8,1,0,0,1,37,95,11
2,1,20,1,3,0,1,37,81,11
2,1,0,0,5,1,1,37,102,11
2,1,16,1,5,1,1,37,71,11
2,1,11,1,2,0,1,37,114,11
2,1,20,1,2,0,1,37,71,11
2,1,17,1,3,0,1,37,41,11
2,1,18,1,6,1,1,37,81,11
2,1,16,1,0,0,1,37,71,11
2,1,17,1,2,0,1,37,71,11
2,1,13,1,2,0,1,37,107,11
2,1,15,1,3,0,1,37,95,11
2,1,19,1,3,0,1,37,71,11
2,1,13,1,4,0,1,37,95,11
2,1,18,1,4,0,1,37,71,11
2,1,15,1,5,1,1,37,71,11
2,1,3,0,5,1,1,37,20,11
2,1,7,1,0,0,1,37,81,11
2,1,14,1,0,0,1,37,107,11
2,1,12,1,1,0,1,37,81,11
3,2,1,0,2,0,1,37,102,11
3,2,1,0,5,1,1,37,41,11
3,2,8,1,5,1,1,37,73,11
3,2,2,0,0,0,1,37,14,11
3,2,8,1,3,0,1,37,73,8
3,2,19,1,5,1,1,37,71,11
3,2,0,0,6,1,1,37,102,11
3,2,18,1,0,0,1,37,81,11
3,2,18,1,6,1,1,37,102,11
3,2,20,1,0,0,1,37,81,11
3,2,21,0,0,0,1,37,81,11
3,2,8,1,3,0,1,37,41,11
3,2,13,1,3,0,1,37,81,11
3,2,18,1,3,0,1,37,115,11
3,2,20,1,3,0,1,37,81,11
3,2,1,0,4,0,1,37,20,11
3,2,8,1,4,0,1,37,81,11
3,2,9,1,5,1,1,37,95,11
3,2,12,1,5,1,1,37,81,11
3,2,20,1,5,1,1,37,26,11
3,2,1,0,6,1,1,37,20,11
3,2,12,1,6,1,1,37,95,11
4,2,12,1,5,1,2,37,102,11
4,2,1,0,4,0,2,37,41,9
4,2,2,0,1,0,2,37,107,11
4,2,9,1,4,0,2,37,79,11
4,2,14,1,5,1,2,37,79,11
4,2,13,1,0,0,2,37,3,11
4,2,18,1,5,1,2,37,81,11
4,2,0,0,1,0,2,37,102,11
4,2,3,0,3,0,2,37,102,11
4,2,11,1,4,0,2,37,107,11
4,2,13,1,4,0,2,37,95,11
4,2,14,1,5,1,2,37,20,11
5,2,13,1,3,0,2,37,107,11
5,2,20,1,3,0,2,37,107,11
5,2,20,1,4,0,2,37,107,11
5,2,17,1,2,0,2,37,107,11
5,2,22,0,0,0,2,37,71,11
5,2,22,0,6,1,2,37,70,11
5,2,6,0,1,0,2,37,102,11
5,2,20,1,1,0,2,37,95,11
5,2,16,1,3,0,2,37,81,9
5,2,0,0,2,0,2,37,20,11
5,2,10,1,2,0,2,37,107,11
5,2,13,1,2,0,2,37,95,11
6,3,15,1,3,0,2,37,13,8
6,3,18,1,3,0,2,37,95,11
6,3,10,1,4,0,2,37,95,11
6,3,17,1,5,1,2,37,95,11
6,3,10,1,1,0,2,37,107,11
6,3,12,1,1,0,2,37,107,11
6,3,15,1,1,0,2,37,107,11
6,3,23,0,1,0,2,37,107,11
6,3,10,1,2,0,2,37,95,11
6,3,21,0,2,0,2,37,107,11
6,3,13,1,4,0,2,37,95,11
6,3,17,1,4,0,2,37,95,11
6,3,19,1,4,0,2,37,95,11
6,3,14,1,5,1,2,37,107,11
6,3,9,1,6,1,2,37,107,11
6,3,16,1,0,0,2,37,95,11
6,3,13,1,1,0,2,37,107,11
6,3,12,1,4,0,2,37,107,11
6,3,15,1,4,0,2,37,95,11
6,3,20,1,4,0,2,37,95,11
6,3,13,1,1,0,2,37,95,11
6,3,12,1,2,0,2,37,107,11
6,3,18,1,2,0,2,37,95,11
6,3,11,1,3,0,2,37,71,11
6,3,3,0,4,0,2,37,102,11
6,3,18,1,6,1,2,37,49,11
6,3,12,1,0,0,2,37,107,11
6,3,15,1,0,0,2,37,95,11
6,3,18,1,1,0,2,37,107,11
6,3,9,1,4,0,2,37,95,11
6,3,19,1,4,0,2,37,107,11
7,3,18,1,5,1,3,37,95,11
7,3,16,1,1,0,3,37,3,11
7,3,21,0,1,0,3,37,95,11
7,3,10,1,2,0,3,37,107,11
7,3,20,1,3,0,3,37,95,11
7,3,11,1,3,0,3,37,95,11
7,3,12,1,3,0,3,37,107,11
7,3,20,1,3,0,3,37,95,11
7,3,14,1,4,0,3,37,95,11
7,3,15,1,5,1,3,37,107,11
7,3,14,1,6,1,3,37,95,8
7,3,9,1,2,0,3,37,95,11
7,3,1,0,3,0,3,37,107,11
7,3,10,1,3,0,3,37,95,11
7,3,2,0,1,0,3,37,115,11
7,3,13,1,2,0,3,37,95,11
7,3,21,0,4,0,3,37,95,11
7,3,8,1,5,1,3,37,107,11
7,3,19,1,5,1,3,37,95,11
7,3,12,1,0,0,3,37,95,11
7,3,10,1,1,0,3,37,95,11
7,3,13,1,6,1,3,37,95,11
7,3,17,1,6,1,3,37,95,11
7,3,23,0,6,1,3,37,41,11
8,3,11,1,4,0,3,37,107,11
8,3,21,0,4,0,3,37,95,11
8,3,11,1,0,0,3,37,107,11
8,3,11,1,0,0,3,37,63,11
8,3,22,0,0,0,3,37,81,9
8,3,10,1,1,0,3,37,95,11
8,3,15,1,1,0,3,37,107,11
8,3,19,1,1,0,3,37,95,11
8,3,13,1,4,0,3,37,95,11
8,3,20,1,4,0,3,37,95,11
8,3,21,0,4,0,3,37,82,11
8,3,20,1,0,0,3,37,107,11
8,3,2,0,1,0,3,37,20,11
8,3,17,1,1,0,3,37,95,11
8,3,0,0,2,0,3,37,107,11
8,3,16,1,2,0,3,37,107,11
8,3,8,1,3,0,3,37,95,11
8,3,15,1,4,0,3,37,95,11
8,3,17,1,4,0,3,37,107,11
8,3,0,0,0,0,3,37,95,11
8,3,15,1,1,0,3,37,95,11
8,3,14,1,3,0,3,37,95,11
8,3,13,1,4,0,3,37,81,11
8,3,23,0,5,1,3,37,71,11
8,3,4,0,6,1,3,37,62,9
8,3,16,1,6,1,3,37,20,11
8,3,6,0,0,0,3,37,102,11
8,3,18,1,2,0,3,37,95,11
8,3,2,0,3,0,3,37,95,11
8,3,11,1,3,0,3,37,107,11
9,4,4,0,5,1,3,37,95,11
9,4,16,1,6,1,3,37,95,11
9,4,15,1,0,0,3,37,107,11
9,4,16,1,0,0,3,37,107,11
9,4,12,1,1,0,3,37,107,11
9,4,12,1,1,0,3,37,95,11
9,4,13,1,2,0,3,37,107,11
9,4,14,1,2,0,3,37,107,11
9,4,16,1,3,0,3,37,95,11
9,4,14,1,4,0,3,37,41,11
9,4,19,1,4,0,3,37,95,11
9,4,17,1,6,1,3,37,107,11
9,4,11,1,0,0,3,37,107,11
9,4,20,1,0,0,3,37,115,11
9,4,20,1,2,0,3,37,107,11
9,4,15,1,3,0,3,37,95,11
9,4,22,0,5,1,3,37,95,11
9,4,9,1,6,1,3,37,107,11
9,4,19,1,6,1,3,37,71,11
9,4,15,1,1,0,3,37,107,11
9,4,19,1,1,0,3,37,107,11
9,4,19,1,2,0,3,37,107,11
9,4,16,1,2,0,3,37,107,11
9,4,12,1,4,0,3,37,95,11
9,4,3,0,6,1,3,37,81,8
9,4,20,1,6,1,3,37,71,11
9,4,17,1,6,1,3,37,95,11
9,4,12,1,3,0,3,37,13,11
9,4,12,1,4,0,3,37,95,11
9,4,23,0,4,0,3,37,107,11
10,4,16,1,2,0,4,37,107,11
10,4,20,1,2,0,4,37,56,11
10,4,6,0,4,0,4,37,20,11
10,4,20,1,6,1,4,37,81,11
10,4,23,0,0,0,4,37,20,11
10,4,15,1,4,0,4,37,107,11
10,4,16,1,3,0,4,37,107,11
10,4,18,1,4,0,4,37,107,11
10,4,19,1,5,1,4,37,20,11
10,4,10,1,6,1,4,37,95,11
10,4,13,1,5,1,4,37,13,11
10,4,10,1,6,1,4,37,20,11
11,4,17,1,2,0,4,37,41,11
11,4,6,0,3,0,4,37,81,11
11,4,16,1,5,1,4,37,41,11
11,4,20,1,1,0,4,37,71,11
11,4,23,0,1,0,4,37,13,11
11,4,13,1,2,0,4,37,71,11
11,4,16,1,5,1,4,37,20,11
11,4,16,1,5,1,4,37,24,11
11,4,17,1,1,0,4,37,102,11
11,4,11,1,5,1,4,37,62,11
11,4,21,0,1,0,4,37,95,11
11,4,6,0,3,0,4,37,45,11
12,1,15,1,6,1,4,37,14,11
12,1,14,1,4,0,4,37,81,11
12,1,18,1,5,1,4,37,107,11
12,1,5,0,0,0,4,37,102,11
12,1,18,1,2,0,4,37,41,11
12,1,17,1,4,0,4,37,107,11
12,1,22,0,4,0,4,37,107,11
12,1,19,1,3,0,4,37,102,11
12,1,8,1,5,1,4,37,41,8
12,1,20,1,0,0,4,37,20,11
12,1,10,1,0,0,4,37,41,11
12,1,12,1,1,0,4,37,20,11
1,1,7,1,3,0,1,37,95,11
2,1,9,1,3,0,1,37,81,8
7,3,18,1,5,1,3,37,114,11
7,3,18,1,1,0,3,37,13,11
8,3,11,1,5,1,3,37,95,11
8,3,11,1,5,1,3,37,95,11
9,4,23,0,0,0,3,37,51,11
11,4,11,1,4,0,4,37,114,11
1,1,22,0,4,0,1,37,81,11
1,1,13,1,1,0,1,37,24,11
2,1,2,0,0,0,1,37,20,11
2,1,4,0,3,0,1,37,132,11
2,1,16,1,3,0,1,37,95,11
2,1,13,1,5,1,1,37,107,11
3,2,15,1,4,0,1,37,107,11
4,2,13,1,6,1,2,37,95,11
4,2,12,1,2,0,2,37,81,11
4,2,23,0,0,0,2,37,73,11
5,2,18,1,1,0,2,37,20,11
6,3,22,0,1,0,2,37,20,11
7,3,14,1,2,0,3,37,95,11
7,3,10,1,4,0,3,37,112,11
7,3,18,1,0,0,3,37,81,11
7,3,17,1,3,0,3,37,107,11
8,3,20,1,1,0,3,37,95,11
8,3,17,1,6,1,3,37,95,11
10,4,20,1,3,0,4,37,107,11
12,1,10,1,4,0,4,37,20,11
1,1,9,1,1,0,1,11,14,11
1,1,16,1,1,0,1,11,3,11
1,1,15,1,2,0,1,11,132,11
1,1,21,0,0,0,1,11,71,9
1,1,16,1,0,0,1,11,132,11
1,1,7,1,0,0,1,11,20,11
2,1,13,1,4,0,1,11,114,11
2,1,16,1,4,0,1,11,13,11
2,1,5,0,6,1,1,11,74,11
2,1,5,0,6,1,1,11,14,9
2,1,14,1,2,0,1,11,41,11
2,1,12,1,3,0,1,11,81,9
2,1,18,1,3,0,1,11,122,11
3,2,2,0,5,1,1,11,93,11
3,2,3,0,5,1,1,11,93,11
3,2,9,1,6,1,1,11,107,11
3,2,10,1,5,1,1,11,94,11
4,2,14,1,6,1,2,11,81,11
4,2,18,1,1,0,2,11,20,11
4,2,20,1,0,0,2,11,84,11
4,2,12,1,2,0,2,11,81,11
4,2,4,0,5,1,2,11,93,11
5,2,18,1,0,0,2,11,115,11
5,2,7,1,1,0,2,11,76,11
5,2,8,1,2,0,2,11,93,11
5,2,13,1,1,0,2,11,41,11
5,2,6,0,2,0,2,11,41,11
6,3,18,1,5,1,2,11,3,11
6,3,12,1,5,1,2,11,71,11
7,3,2,0,4,0,3,11,132,11
7,3,19,1,5,1,3,11,26,11
7,3,12,1,2,0,3,11,107,11
7,3,23,0,3,0,3,11,130,11
7,3,2,0,5,1,3,11,49,11
7,3,18,1,5,1,3,11,82,11
7,3,10,1,0,0,3,11,95,11
7,3,2,0,1,0,3,11,115,11
7,3,20,1,1,0,3,11,107,11
7,3,14,1,5,1,3,11,93,11
7,3,15,1,5,1,3,11,51,11
7,3,18,1,6,1,3,11,132,11
8,3,10,1,2,0,3,11,28,11
8,3,21,0,1,0,3,11,95,11
8,3,22,0,2,0,3,11,108,11
8,3,15,1,3,0,3,11,71,9
8,3,17,1,5,1,3,11,95,11
8,3,17,1,4,0,3,11,93,11
8,3,16,1,0,0,3,11,98,11
8,3,13,1,2,0,3,11,95,11
9,4,16,1,5,1,3,11,95,11
9,4,20,1,4,0,3,11,71,11
9,4,15,1,5,1,3,11,95,11
9,4,17,1,6,1,3,11,120,9
9,4,14,1,3,0,3,11,83,9
9,4,4,0,4,0,3,11,20,11
9,4,13,1,4,0,3,11,51,8
9,4,11,1,5,1,3,11,71,9
9,4,1,0,1,0,3,11,13,11
9,4,21,0,5,1,3,11,115,11
10,4,16,1,0,0,4,11,110,11
10,4,15,1,4,0,4,11,79,8
10,4,20,1,4,0,4,11,93,9
10,4,17,1,0,0,4,11,44,11
10,4,14,1,0,0,4,11,93,11
11,4,10,1,2,0,4,11,8,11
11,4,15,1,4,0,4,11,41,11
11,4,12,1,6,1,4,11,81,9
11,4,4,0,3,0,4,11,82,11
12,1,8,1,6,1,4,11,115,11
12,1,4,0,3,0,4,11,20,11
12,1,23,0,3,0,4,11,93,11
12,1,18,1,3,0,4,11,81,11
12,1,17,1,1,0,4,11,81,9
12,1,23,0,4,0,4,11,115,11
1,1,21,0,1,0,1,11,103,11
2,1,12,1,6,1,1,11,115,11
3,2,10,1,6,1,1,11,107,11
3,2,12,1,3,0,1,11,95,11
7,3,10,1,5,1,3,11,51,11
8,3,13,1,1,0,3,11,93,11
8,3,4,0,2,0,3,11,106,9
8,3,4,0,4,0,3,11,74,11
9,4,12,1,1,0,3,11,115,11
12,1,11,1,3,0,4,11,95,11
12,1,3,0,5,1,4,11,93,11
6,3,10,1,4,0,2,11,20,11
7,3,16,1,0,0,3,11,93,11
1,1,12,1,5,1,1,11,132,11
1,1,20,1,5,1,1,11,132,11
1,1,22,0,6,1,1,11,132,11
1,1,16,1,0,0,1,11,132,11
1,1,8,1,6,1,1,11,41,11
1,1,3,0,6,1,1,11,132,11
2,1,4,0,6,1,1,11,132,11
2,1,1,0,6,1,1,11,132,11
2,1,10,1,3,0,1,11,95,11
2,1,20,1,5,1,1,11,41,11
3,2,1,0,6,1,1,11,75,11
3,2,22,0,0,0,1,11,81,11
3,2,6,0,5,1,1,11,132,11
3,2,20,1,4,0,1,11,132,11
3,2,20,1,4,0,1,11,132,11
3,2,4,0,5,1,1,11,55,8
3,2,13,1,3,0,1,11,95,11
3,2,15,1,0,0,1,11,71,11
3,2,8,1,1,0,1,11,132,11
4,2,16,1,6,1,2,11,95,11
4,2,14,1,1,0,2,11,95,11
4,2,16,1,1,0,2,11,3,11
4,2,2,0,5,1,2,11,132,11
4,2,10,1,3,0,2,11,41,11
5,2,11,1,0,0,2,11,95,11
5,2,17,1,2,0,2,11,89,11
5,2,20,1,1,0,2,11,107,11
5,2,12,1,3,0,2,11,107,11
7,3,12,1,5,1,3,11,71,11
7,3,9,1,3,0,3,11,3,11
7,3,14,1,4,0,3,11,107,11
7,3,9,1,5,1,3,11,86,11
7,3,13,1,0,0,3,11,51,11
8,3,5,0,1,0,3,11,21,11
8,3,5,0,3,0,3,11,55,11
8,3,12,1,0,0,3,11,107,11
8,3,16,1,0,0,3,11,95,11
9,4,12,1,1,0,3,11,95,11
9,4,16,1,5,1,3,11,95,11
9,4,12,1,5,1,3,11,20,11
9,4,16,1,5,1,3,11,95,11
10,4,16,1,3,0,4,11,107,11
10,4,2,0,5,1,4,11,81,8
10,4,21,0,0,0,4,11,132,11
10,4,0,0,1,0,4,11,41,11
11,4,19,1,0,0,4,11,132,11
11,4,18,1,5,1,4,11,132,11
11,4,14,1,6,1,4,11,81,9
12,1,17,1,2,0,4,11,132,11
12,1,21,0,0,0,4,11,81,11
12,1,10,1,5,1,4,11,13,9
12,1,16,1,5,1,4,11,132,11
2,1,17,1,5,1,1,11,43,11
2,1,13,1,4,0,1,11,79,9
3,2,12,1,6,1,1,11,107,11
3,2,11,1,1,0,1,11,81,9
4,2,18,1,0,0,2,11,95,11
5,2,17,1,6,1,2,11,112,8
7,3,21,0,4,0,3,11,107,11
10,4,21,0,6,1,4,11,81,8
10,4,19,1,1,0,4,11,41,11
1,1,6,0,1,0,1,11,89,11
1,1,20,1,4,0,1,11,41,11
1,1,2,0,4,0,1,11,81,9
1,1,18,1,4,0,1,11,93,11
2,1,13,1,3,0,1,11,41,11
3,2,3,0,1,0,1,11,50,11
3,2,2,0,2,0,1,11,18,8
3,2,13,1,0,0,1,11,41,11
3,2,18,1,1,0,1,11,81,11
3,2,20,1,1,0,1,11,81,11
4,2,14,1,0,0,2,11,95,11
4,2,19,1,2,0,2,11,41,11
4,2,21,0,2,0,2,11,41,11
6,3,19,1,5,1,2,11,95,11
6,3,1,0,3,0,2,11,26,11
6,3,11,1,3,0,2,11,95,11
6,3,19,1,3,0,2,11,95,11
7,3,20,1,3,0,3,11,115,11
7,3,12,1,4,0,3,11,50,8
7,3,18,1,0,0,3,11,107,11
7,3,18,1,2,0,3,11,95,11
8,3,18,1,1,0,3,11,89,9
8,3,20,1,1,0,3,11,20,11
8,3,20,1,0,0,3,11,62,9
8,3,20,1,6,1,3,11,107,11
8,3,16,1,2,0,3,11,95,11
10,4,9,1,6,1,4,11,115,11
10,4,14,1,0,0,4,11,117,11
10,4,12,1,3,0,4,11,3,11
10,4,9,1,4,0,4,11,41,11
10,4,15,1,4,0,4,11,3,11
11,4,11,1,0,0,4,11,81,11
12,1,4,0,4,0,4,11,14,9
12,1,17,1,4,0,4,11,41,11
3,2,10,1,0,0,1,11,81,11
3,2,15,1,6,1,1,11,26,11
4,2,14,1,5,1,2,11,3,11
5,2,14,1,0,0,2,11,107,11
8,3,12,1,5,1,3,11,95,11
1,1,0,0,6,1,1,19,95,9
1,1,0,0,1,0,1,19,62,11
1,1,23,0,4,0,1,19,93,11
1,1,9,1,1,0,1,19,132,11
1,1,1,0,4,0,1,19,71,11
1,1,13,1,5,1,1,19,79,11
1,1,19,1,6,1,1,19,71,11
1,1,7,1,0,0,1,19,81,9
1,1,20,1,2,0,1,19,71,11
1,1,1,0,2,0,1,19,71,11
1,1,1,0,4,0,1,19,122,9
1,1,1,0,6,1,1,19,71,11
1,1,15,1,0,0,1,19,132,11
1,1,5,0,1,0,1,19,132,11
1,1,22,0,1,0,1,19,71,11
1,1,15,1,5,1,1,19,132,11
1,1,15,1,6,1,1,19,71,9
1,1,3,0,6,1,1,19,115,9
1,1,5,0,6,1,1,19,62,11
2,1,2,0,2,0,1,19,71,11
2,1,1,0,0,0,1,19,82,11
2,1,15,1,3,0,1,19,71,11
2,1,16,1,3,0,1,19,132,11
2,1,2,0,3,0,1,19,93,11
2,1,20,1,5,1,1,19,132,11
2,1,3,0,6,1,1,19,132,11
2,1,5,0,6,1,1,19,132,11
2,1,23,0,6,1,1,19,71,11
2,1,5,0,6,1,1,19,132,11
2,1,4,0,6,1,1,19,132,11
2,1,1,0,0,0,1,19,102,11
2,1,20,1,1,0,1,19,132,11
2,1,14,1,1,0,1,19,71,11
2,1,2,0,2,0,1,19,132,11
2,1,6,0,2,0,1,19,62,11
2,1,7,1,4,0,1,19,71,9
2,1,16,1,6,1,1,19,132,11
2,1,21,0,0,0,1,19,71,9
3,2,19,1,4,0,1,19,132,11
3,2,20,1,4,0,1,19,71,11
3,2,12,1,6,1,1,19,93,11
3,2,4,0,1,0,1,19,23,11
3,2,8,1,3,0,1,19,83,11
3,2,15,1,6,1,1,19,71,11
3,2,17,1,5,1,1,19,102,11
3,2,13,1,2,0,1,19,51,11
3,2,22,0,4,0,1,19,71,9
3,2,3,0,5,1,1,19,102,9
3,2,4,0,5,1,1,19,102,11
4,2,17,1,6,1,2,19,62,11
4,2,17,1,6,1,2,19,79,11
4,2,1,0,2,0,2,19,132,11
4,2,13,1,4,0,2,19,97,11
4,2,15,1,4,0,2,19,132,11
4,2,2,0,3,0,2,19,79,11
5,2,4,0,4,0,2,19,62,11
5,2,16,1,5,1,2,19,132,11
5,2,16,1,0,0,2,19,107,11
5,2,19,1,5,1,2,19,71,11
5,2,1,0,5,1,2,19,2,11
5,2,20,1,6,1,2,19,102,11
5,2,15,1,2,0,2,19,71,11
5,2,2,0,3,0,2,19,79,11
5,2,4,0,1,0,2,19,71,11
5,2,2,0,5,1,2,19,132,11
5,2,9,1,1,0,2,19,71,11
5,2,14,1,2,0,2,19,62,11
5,2,16,1,2,0,2,19,62,11
6,3,1,0,5,1,2,19,102,11
6,3,23,0,6,1,2,19,51,9
6,3,23,0,3,0,2,19,71,11
6,3,1,0,6,1,2,19,79,11
6,3,4,0,0,0,2,19,20,11
6,3,2,0,3,0,2,19,20,11
6,3,6,0,4,0,2,19,51,11
6,3,16,1,5,1,2,19,102,11
6,3,1,0,6,1,2,19,51,11
6,3,8,1,2,0,2,19,71,11
6,3,1,0,5,1,2,19,71,11
6,3,19,1,6,1,2,19,107,11
6,3,13,1,1,0,2,19,70,11
6,3,14,1,1,0,2,19,132,11
6,3,19,1,2,0,2,19,113,11
6,3,3,0,2,0,2,19,132,11
6,3,7,1,3,0,2,19,102,11
7,3,10,1,0,0,3,19,32,11
7,3,16,1,0,0,3,19,71,9
7,3,4,0,2,0,3,19,79,11
7,3,23,0,3,0,3,19,132,11
7,3,12,1,0,0,3,19,71,11
7,3,6,0,1,0,3,19,71,11
7,3,21,0,2,0,3,19,132,11
7,3,0,0,5,1,3,19,20,11
7,3,11,1,0,0,3,19,62,11
8,3,20,1,6,1,3,19,71,9
8,3,1,0,3,0,3,19,102,11
8,3,17,1,3,0,3,19,102,11
8,3,12,1,6,1,3,19,71,11
8,3,18,1,2,0,3,19,71,11
8,3,2,0,0,0,3,19,132,11
8,3,2,0,1,0,3,19,63,11
9,4,14,1,6,1,3,19,71,11
9,4,13,1,2,0,3,19,71,11
9,4,0,0,5,1,3,19,71,11
9,4,22,0,6,1,3,19,71,11
9,4,5,0,6,1,3,19,132,11
9,4,5,0,1,0,3,19,132,9
9,4,3,0,5,1,3,19,79,11
9,4,7,1,5,1,3,19,132,11
9,4,5,0,6,1,3,19,132,11
9,4,8,1,3,0,3,19,70,11
10,4,15,1,6,1,4,19,132,11
10,4,6,0,3,0,4,19,132,11
10,4,6,0,4,0,4,19,132,11
10,4,13,1,0,0,4,19,51,11
10,4,1,0,4,0,4,19,71,11
10,4,12,1,5,1,4,19,132,11
10,4,16,1,5,1,4,19,79,11
10,4,4,0,5,1,4,19,71,11
10,4,5,0,0,0,4,19,132,11
10,4,6,0,0,0,4,19,132,11
10,4,0,0,1,0,4,19,79,11
10,4,18,1,1,0,4,19,71,11
10,4,7,1,6,1,4,19,64,11
10,4,22,0,0,0,4,19,102,9
10,4,3,0,6,1,4,19,51,8
10,4,22,0,0,0,4,19,105,11
11,4,13,1,2,0,4,19,71,11
11,4,11,1,3,0,4,19,51,11
11,4,20,1,3,0,4,19,71,11
11,4,20,1,1,0,4,19,63,11
11,4,22,0,3,0,4,19,71,11
11,4,0,0,1,0,4,19,71,11
11,4,12,1,4,0,4,19,111,11
11,4,18,1,5,1,4,19,71,11
11,4,21,0,1,0,4,19,71,11
12,1,22,0,6,1,4,19,81,9
12,1,3,0,0,0,4,19,132,11
12,1,22,0,2,0,4,19,20,11
12,1,23,0,2,0,4,19,132,11
12,1,23,0,4,0,4,19,132,11
12,1,15,1,4,0,4,19,71,11
12,1,3,0,5,1,4,19,132,11
12,1,5,0,5,1,4,19,132,11
12,1,8,1,6,1,4,19,81,11
12,1,23,0,6,1,4,19,132,11
12,1,7,1,3,0,4,19,93,11
12,1,21,0,3,0,4,19,71,11
1,1,11,1,6,1,1,19,107,11
1,1,17,1,0,0,1,19,71,11
1,1,15,1,1,0,1,19,95,11
1,1,20,1,2,0,1,19,107,11
1,1,14,1,2,0,1,19,81,9
1,1,18,1,4,0,1,19,107,11
1,1,14,1,4,0,1,19,20,11
1,1,8,1,4,0,1,19,71,11
1,1,23,0,4,0,1,19,7,11
1,1,1,0,4,0,1,19,71,11
1,1,19,1,5,1,1,19,71,8
1,1,9,1,5,1,1,19,81,11
1,1,21,0,6,1,1,19,20,11
1,1,14,1,0,0,1,19,81,11
1,1,12,1,0,0,1,19,71,11
1,1,17,1,0,0,1,19,102,11
1,1,14,1,0,0,1,19,102,11
1,1,20,1,0,0,1,19,41,11
1,1,11,1,2,0,1,19,71,11
1,1,8,1,2,0,1,19,41,11
1,1,11,1,2,0,1,19,107,11
1,1,2,0,3,0,1,19,102,11
1,1,2,0,3,0,1,19,81,11
1,1,19,1,3,0,1,19,132,11
1,1,10,1,6,1,1,19,81,11
1,1,13,1,6,1,1,19,41,11
1,1,4,0,0,0,1,19,107,11
1,1,4,0,0,0,1,19,132,11
1,1,19,1,1,0,1,19,41,11
1,1,8,1,1,0,1,19,71,11
1,1,2,0,2,0,1,19,71,11
1,1,15,1,4,0,1,19,41,11
1,1,17,1,5,1,1,19,107,11
1,1,14,1,0,0,1,19,107,11
1,1,16,1,2,0,1,19,71,11
1,1,8,1,3,0,1,19,107,11
1,1,21,0,3,0,1,19,130,11
1,1,14,1,3,0,1,19,95,8
1,1,14,1,4,0,1,19,81,9
1,1,2,0,4,0,1,19,95,9
1,1,17,1,5,1,1,19,81,11
1,1,3,0,6,1,1,19,70,9
1,1,12,1,6,1,1,19,71,11
1,1,13,1,0,0,1,19,41,11
1,1,13,1,0,0,1,19,41,11
1,1,20,1,0,0,1,19,3,11
1,1,6,0,0,0,1,19,20,11
1,1,1,0,1,0,1,19,71,11
2,1,16,1,4,0,1,19,81,11
2,1,15,1,5,1,1,19,107,9
2,1,15,1,5,1,1,19,71,11
2,1,10,1,0,0,1,19,20,11
2,1,9,1,2,0,1,19,71,11
2,1,9,1,5,1,1,19,81,11
2,1,18,1,5,1,1,19,24,11
2,1,18,1,5,1,1,19,107,11
2,1,17,1,6,1,1,19,107,11
2,1,1,0,6,1,1,19,20,11
2,1,13,1,0,0,1,19,71,11
2,1,13,1,1,0,1,19,94,11
2,1,8,1,2,0,1,19,81,11
2,1,13,1,3,0,1,19,81,9
2,1,21,0,3,0,1,19,71,11
2,1,3,0,4,0,1,19,63,11
2,1,5,0,5,1,1,19,62,11
2,1,11,1,5,1,1,19,71,11
2,1,8,1,0,0,1,19,20,11
2,1,21,0,0,0,1,19,102,11
2,1,9,1,2,0,1,19,81,11
2,1,16,1,4,0,1,19,95,11
2,1,10,1,6,1,1,19,95,11
3,2,18,1,2,0,1,19,107,11
3,2,11,1,2,0,1,19,20,11
3,2,20,1,2,0,1,19,41,11
3,2,18,1,3,0,1,19,61,11
3,2,10,1,4,0,1,19,95,11
3,2,0,0,0,0,1,19,13,11
3,2,14,1,1,0,1,19,107,11
3,2,22,0,3,0,1,19,102,11
3,2,21,0,3,0,1,19,81,11
3,2,19,1,4,0,1,19,3,11
3,2,13,1,4,0,1,19,20,11
3,2,1,0,4,0,1,19,20,11
3,2,16,1,5,1,1,19,71,11
3,2,7,1,6,1,1,19,81,11
3,2,18,1,6,1,1,19,36,11
3,2,21,0,1,0,1,19,20,8
3,2,19,1,1,0,1,19,62,11
3,2,17,1,4,0,1,19,81,11
3,2,9,1,6,1,1,19,71,11
3,2,12,1,6,1,1,19,14,11
3,2,19,1,0,0,1,19,95,11
3,2,19,1,0,0,1,19,132,11
3,2,17,1,0,0,1,19,71,11
3,2,19,1,1,0,1,19,71,11
3,2,16,1,2,0,1,19,49,9
3,2,19,1,2,0,1,19,95,11
3,2,12,1,3,0,1,19,107,11
3,2,13,1,3,0,1,19,107,11
3,2,22,0,5,1,1,19,20,11
3,2,20,1,6,1,1,19,107,8
3,2,1,0,0,0,1,19,81,11
3,2,23,0,0,0,1,19,107,11
3,2,12,1,1,0,1,19,71,11
3,2,18,1,2,0,1,19,49,11
3,2,17,1,2,0,1,19,107,11
3,2,2,0,3,0,1,19,107,11
4,2,23,0,5,1,2,19,95,11
4,2,19,1,5,1,2,19,107,11
4,2,5,0,5,1,2,19,120,9
4,2,16,1,6,1,2,19,107,11
4,2,22,0,0,0,2,19,107,11
4,2,16,1,3,0,2,19,102,11
4,2,20,1,4,0,2,19,7,11
4,2,21,0,0,0,2,19,81,11
4,2,12,1,1,0,2,19,107,11
4,2,9,1,6,1,2,19,71,11
4,2,17,1,6,1,2,19,107,11
4,2,13,1,1,0,2,19,20,11
4,2,18,1,2,0,2,19,24,11
4,2,17,1,5,1,2,19,95,11
4,2,20,1,5,1,2,19,71,11
4,2,6,0,5,1,2,19,95,11
4,2,1,0,5,1,2,19,14,11
4,2,11,1,6,1,2,19,102,11
4,2,7,1,6,1,2,19,84,11
4,2,11,1,0,0,2,19,20,11
4,2,17,1,0,0,2,19,20,11
4,2,13,1,2,0,2,19,72,11
4,2,18,1,3,0,2,19,107,11
4,2,16,1,3,0,2,19,107,11
4,2,23,0,3,0,2,19,71,11
4,2,4,0,3,0,2,19,81,11
4,2,5,0,4,0,2,19,20,11
4,2,5,0,4,0,2,19,102,11
4,2,17,1,5,1,2,19,107,11
5,2,15,1,0,0,2,19,95,11
5,2,22,0,2,0,2,19,3,11
5,2,14,1,2,0,2,19,3,9
5,2,8,1,2,0,2,19,62,11
5,2,14,1,3,0,2,19,95,11
5,2,7,1,3,0,2,19,132,9
5,2,2,0,3,0,2,19,20,11
5,2,0,0,4,0,2,19,107,11
5,2,18,1,4,0,2,19,95,11
5,2,13,1,5,1,2,19,3,11
5,2,12,1,5,1,2,19,3,9
5,2,23,0,5,1,2,19,107,11
5,2,19,1,5,1,2,19,95,11
5,2,19,1,6,1,2,19,8,11
5,2,2,0,0,0,2,19,102,11
5,2,15,1,2,0,2,19,71,11
5,2,3,0,2,0,2,19,107,11
5,2,17,1,2,0,2,19,95,11
5,2,18,1,2,0,2,19,8,11
5,2,20,1,3,0,2,19,84,11
5,2,8,1,3,0,2,19,107,11
5,2,4,0,4,0,2,19,20,11
5,2,21,0,4,0,2,19,102,11
5,2,22,0,4,0,2,19,7,9
5,2,10,1,5,1,2,19,51,11
5,2,20,1,5,1,2,19,95,11
5,2,16,1,5,1,2,19,107,11
5,2,12,1,2,0,2,19,102,11
5,2,13,1,2,0,2,19,24,11
5,2,14,1,4,0,2,19,107,11
5,2,12,1,5,1,2,19,41,11
5,2,12,1,5,1,2,19,102,11
5,2,12,1,5,1,2,19,41,11
5,2,20,1,5,1,2,19,95,11
5,2,18,1,6,1,2,19,7,11
5,2,13,1,2,0,2,19,132,9
5,2,20,1,5,1,2,19,41,11
5,2,12,1,0,0,2,19,81,11
5,2,19,1,1,0,2,19,71,11
5,2,14,1,1,0,2,19,95,11
5,2,18,1,2,0,2,19,107,11
6,3,1,0,3,0,2,19,102,11
6,3,22,0,3,0,2,19,102,11
6,3,15,1,0,0,2,19,107,11
6,3,16,1,0,0,2,19,102,11
6,3,0,0,0,0,2,19,20,11
6,3,17,1,1,0,2,19,102,11
6,3,4,0,4,0,2,19,7,11
6,3,17,1,6,1,2,19,95,11
6,3,10,1,1,0,2,19,94,11
6,3,17,1,2,0,2,19,102,11
6,3,22,0,2,0,2,19,95,11
6,3,1,0,5,1,2,19,95,11
6,3,23,0,5,1,2,19,102,11
6,3,16,1,5,1,2,19,95,11
6,3,0,0,0,0,2,19,115,11
6,3,12,1,0,0,2,19,81,11
6,3,19,1,3,0,2,19,71,11
6,3,2,0,4,0,2,19,95,11
6,3,16,1,5,1,2,19,107,11
6,3,8,1,5,1,2,19,132,11
6,3,20,1,5,1,2,19,107,11
6,3,7,1,6,1,2,19,24,11
6,3,13,1,6,1,2,19,107,11
6,3,0,0,6,1,2,19,102,11
6,3,9,1,6,1,2,19,20,9
6,3,1,0,1,0,2,19,132,11
6,3,3,0,1,0,2,19,132,11
6,3,23,0,1,0,2,19,95,11
6,3,13,1,1,0,2,19,122,11
6,3,2,0,2,0,2,19,20,11
7,3,1,0,5,1,3,19,94,11
7,3,3,0,0,0,3,19,71,11
7,3,0,0,0,0,3,19,7,11
7,3,9,1,0,0,3,19,132,8
7,3,17,1,0,0,3,19,129,8
7,3,23,0,0,0,3,19,102,11
7,3,0,0,1,0,3,19,95,11
7,3,3,0,2,0,3,19,102,11
7,3,11,1,2,0,3,19,95,11
7,3,12,1,2,0,3,19,71,11
7,3,13,1,2,0,3,19,20,11
7,3,11,1,3,0,3,19,107,11
7,3,15,1,0,0,3,19,20,9
7,3,15,1,1,0,3,19,107,11
7,3,16,1,1,0,3,19,95,11
7,3,0,0,2,0,3,19,107,11
7,3,12,1,2,0,3,19,95,11
7,3,2,0,3,0,3,19,102,11
7,3,2,0,3,0,3,19,102,11
7,3,1,0,3,0,3,19,102,11
7,3,0,0,6,1,3,19,7,11
7,3,18,1,0,0,3,19,81,11
7,3,7,1,1,0,3,19,20,11
7,3,18,1,4,0,3,19,62,11
7,3,12,1,4,0,3,19,107,11
7,3,18,1,5,1,3,19,71,11
7,3,14,1,6,1,3,19,3,11
7,3,1,0,0,0,3,19,102,11
7,3,17,1,3,0,3,19,20,11
7,3,19,1,3,0,3,19,71,11
7,3,14,1,5,1,3,19,107,11
7,3,16,1,5,1,3,19,107,11
8,3,6,0,1,0,3,19,90,9
8,3,2,0,1,0,3,19,41,11
8,3,20,1,2,0,3,19,95,9
8,3,23,0,3,0,3,19,71,8
8,3,13,1,4,0,3,19,20,11
8,3,21,0,6,1,3,19,81,9
8,3,21,0,0,0,3,19,107,11
8,3,8,1,0,0,3,19,14,11
8,3,6,0,0,0,3,19,41,9
8,3,12,1,0,0,3,19,107,11
8,3,3,0,1,0,3,19,20,11
8,3,16,1,1,0,3,19,71,11
8,3,21,0,1,0,3,19,107,11
8,3,10,1,1,0,3,19,95,11
8,3,20,1,1,0,3,19,107,11
8,3,15,1,2,0,3,19,95,8
8,3,14,1,3,0,3,19,107,11
8,3,10,1,3,0,3,19,20,11
8,3,15,1,3,0,3,19,107,11
8,3,3,0,3,0,3,19,71,11
8,3,11,1,4,0,3,19,20,11
8,3,0,0,4,0,3,19,71,11
8,3,9,1,4,0,3,19,71,11
8,3,14,1,4,0,3,19,107,11
8,3,17,1,4,0,3,19,20,11
8,3,14,1,5,1,3,19,102,11
8,3,21,0,5,1,3,19,107,11
8,3,17,1,6,1,3,19,95,11
8,3,21,0,0,0,3,19,116,11
8,3,19,1,1,0,3,19,116,11
8,3,22,0,2,0,3,19,107,11
8,3,12,1,3,0,3,19,95,11
8,3,2,0,3,0,3,19,49,11
8,3,19,1,4,0,3,19,20,11
8,3,14,1,5,1,3,19,107,11
8,3,18,1,5,1,3,19,3,11
8,3,18,1,5,1,3,19,3,11
8,3,19,1,0,0,3,19,95,9
8,3,19,1,0,0,3,19,20,11
8,3,15,1,3,0,3,19,95,11
8,3,19,1,6,1,3,19,81,11
8,3,18,1,0,0,3,19,70,11
8,3,14,1,0,0,3,19,14,9
8,3,13,1,1,0,3,19,107,11
8,3,3,0,1,0,3,19,102,11
8,3,16,1,3,0,3,19,95,11
9,4,7,1,5,1,3,19,20,11
9,4,17,1,5,1,3,19,95,11
9,4,4,0,6,1,3,19,71,8
9,4,15,1,2,0,3,19,71,9
9,4,15,1,2,0,3,19,71,11
9,4,0,0,5,1,3,19,107,11
9,4,4,0,3,0,3,19,94,9
9,4,4,0,5,1,3,19,7,8
9,4,12,1,0,0,3,19,95,11
9,4,14,1,1,0,3,19,95,11
9,4,17,1,2,0,3,19,95,11
9,4,13,1,3,0,3,19,107,11
9,4,17,1,3,0,3,19,114,11
9,4,13,1,4,0,3,19,107,11
9,4,15,1,4,0,3,19,20,11
9,4,19,1,5,1,3,19,107,11
9,4,0,0,0,0,3,19,107,11
9,4,14,1,1,0,3,19,95,11
9,4,1,0,2,0,3,19,3,9
9,4,19,1,2,0,3,19,132,11
9,4,16,1,2,0,3,19,20,11
9,4,17,1,2,0,3,19,107,11
9,4,14,1,2,0,3,19,107,11
9,4,12,1,5,1,3,19,71,11
10,4,13,1,6,1,4,19,107,11
10,4,18,1,1,0,4,19,3,11
10,4,4,0,1,0,4,19,20,11
10,4,22,0,2,0,4,19,102,11
10,4,22,0,2,0,4,19,102,11
10,4,4,0,3,0,4,19,20,11
10,4,8,1,4,0,4,19,120,11
10,4,19,1,2,0,4,19,107,11
10,4,18,1,3,0,4,19,41,11
10,4,18,1,3,0,4,19,107,11
10,4,20,1,5,1,4,19,107,11
10,4,19,1,5,1,4,19,95,11
10,4,3,0,6,1,4,19,71,11
10,4,1,0,0,0,4,19,82,11
10,4,14,1,0,0,4,19,82,11
10,4,23,0,0,0,4,19,71,11
10,4,3,0,1,0,4,19,102,11
10,4,5,0,1,0,4,19,102,11
10,4,4,0,1,0,4,19,102,11
10,4,18,1,1,0,4,19,107,11
10,4,5,0,2,0,4,19,102,11
10,4,21,0,4,0,4,19,107,11
10,4,19,1,5,1,4,19,107,11
10,4,20,1,5,1,4,19,107,11
10,4,4,0,5,1,4,19,107,11
10,4,3,0,5,1,4,19,107,11
10,4,15,1,6,1,4,19,71,11
10,4,11,1,0,0,4,19,56,11
10,4,23,0,2,0,4,19,102,11
10,4,23,0,2,0,4,19,102,11
10,4,5,0,2,0,4,19,20,11
10,4,13,1,3,0,4,19,71,11
10,4,20,1,0,0,4,19,41,11
10,4,14,1,0,0,4,19,71,11
10,4,18,1,1,0,4,19,62,11
10,4,21,0,1,0,4,19,71,11
11,4,23,0,4,0,4,19,71,11
11,4,13,1,4,0,4,19,35,11
11,4,15,1,6,1,4,19,107,11
11,4,4,0,6,1,4,19,49,11
11,4,15,1,0,0,4,19,107,11
11,4,14,1,1,0,4,19,107,11
11,4,21,0,2,0,4,19,20,11
11,4,23,0,2,0,4,19,20,11
11,4,18,1,5,1,4,19,20,11
11,4,8,1,0,0,4,19,81,11
11,4,1,0,3,0,4,19,41,11
11,4,18,1,3,0,4,19,81,11
11,4,7,1,4,0,4,19,20,11
11,4,1,0,5,1,4,19,20,11
11,4,10,1,6,1,4,19,63,11
11,4,13,1,2,0,4,19,3,11
11,4,23,0,5,1,4,19,120,9
11,4,23,0,5,1,4,19,41,11
11,4,20,1,5,1,4,19,107,11
11,4,1,0,6,1,4,19,107,11
11,4,22,0,0,0,4,19,41,11
11,4,23,0,1,0,4,19,107,11
11,4,11,1,2,0,4,19,51,11
11,4,14,1,3,0,4,19,81,11
12,1,10,1,4,0,4,19,107,11
12,1,4,0,4,0,4,19,102,11
12,1,14,1,0,0,4,19,71,11
12,1,20,1,4,0,4,19,132,11
12,1,18,1,5,1,4,19,81,11
12,1,20,1,5,1,4,19,102,11
12,1,16,1,6,1,4,19,7,11
12,1,22,0,6,1,4,19,107,11
12,1,23,0,6,1,4,19,107,11
12,1,13,1,0,0,4,19,95,11
12,1,0,0,0,0,4,19,107,11
12,1,5,0,2,0,4,19,102,11
12,1,4,0,2,0,4,19,102,11
12,1,0,0,2,0,4,19,102,11
12,1,3,0,2,0,4,19,102,11
12,1,22,0,3,0,4,19,102,11
12,1,0,0,3,0,4,19,102,11
12,1,4,0,4,0,4,19,71,11
12,1,1,0,4,0,4,19,81,11
12,1,15,1,4,0,4,19,95,11
12,1,4,0,6,1,4,19,102,11
12,1,3,0,6,1,4,19,102,11
12,1,7,1,6,1,4,19,102,11
12,1,23,0,6,1,4,19,132,11
12,1,10,1,0,0,4,19,102,11
12,1,12,1,0,0,4,19,107,11
12,1,4,0,0,0,4,19,20,11
12,1,11,1,3,0,4,19,107,11
12,1,22,0,4,0,4,19,7,11
12,1,17,1,4,0,4,19,107,11
12,1,2,0,4,0,4,19,102,11
12,1,15,1,5,1,4,19,71,11
12,1,20,1,5,1,4,19,41,11
12,1,20,1,5,1,4,19,107,11
12,1,11,1,6,1,4,19,102,11
12,1,18,1,6,1,4,19,81,11
12,1,12,1,6,1,4,19,107,11
12,1,13,1,6,1,4,19,71,11
12,1,9,1,6,1,4,19,107,11
12,1,21,0,4,0,4,19,62,9
12,1,23,0,5,1,4,19,107,11
12,1,21,0,6,1,4,19,107,11
1,1,19,1,3,0,1,19,3,11
1,1,8,1,5,1,1,19,102,11
1,1,17,1,6,1,1,19,107,11
1,1,12,1,0,0,1,19,107,11
1,1,18,1,5,1,1,19,81,9
1,1,12,1,6,1,1,19,102,11
1,1,19,1,0,0,1,19,71,11
1,1,13,1,2,0,1,19,102,11
1,1,18,1,3,0,1,19,14,11
1,1,11,1,4,0,1,19,81,11
1,1,6,0,0,0,1,19,102,11
1,1,11,1,2,0,1,19,81,11
1,1,13,1,2,0,1,19,115,11
1,1,22,0,4,0,1,19,102,9
1,1,11,1,5,1,1,19,83,9
1,1,7,1,5,1,1,19,81,11
1,1,7,1,5,1,1,19,102,11
2,1,15,1,6,1,1,19,95,11
2,1,8,1,4,0,1,19,81,11
2,1,10,1,6,1,1,19,95,11
2,1,10,1,6,1,1,19,107,11
2,1,15,1,0,0,1,19,102,11
2,1,18,1,1,0,1,19,95,11
2,1,17,1,1,0,1,19,107,11
2,1,19,1,1,0,1,19,94,11
2,1,13,1,2,0,1,19,107,11
2,1,23,0,5,1,1,19,95,11
2,1,22,0,2,0,1,19,20,11
2,1,8,1,6,1,1,19,81,11
2,1,21,0,0,0,1,19,107,11
3,2,11,1,3,0,1,19,107,11
3,2,18,1,6,1,1,19,81,11
3,2,7,1,1,0,1,19,122,11
3,2,19,1,4,0,1,19,95,11
3,2,15,1,2,0,1,19,95,11
3,2,14,1,5,1,1,19,107,11
3,2,19,1,5,1,1,19,107,11
3,2,17,1,6,1,1,19,95,11
3,2,12,1,4,0,1,19,95,11
3,2,13,1,4,0,1,19,3,11
5,2,14,1,0,0,2,19,20,11
5,2,21,0,3,0,2,19,95,11
5,2,13,1,5,1,2,19,107,11
5,2,12,1,1,0,2,19,107,11
5,2,11,1,2,0,2,19,95,11
5,2,19,1,5,1,2,19,81,11
6,3,21,0,3,0,2,19,15,11
7,3,21,0,1,0,3,19,95,9
7,3,4,0,2,0,3,19,20,9
7,3,19,1,6,1,3,19,20,11
7,3,13,1,2,0,3,19,107,11
7,3,14,1,6,1,3,19,81,11
8,3,19,1,5,1,3,19,20,11
8,3,20,1,2,0,3,19,90,11
8,3,10,1,2,0,3,19,51,11
8,3,8,1,4,0,3,19,71,11
8,3,21,0,2,0,3,19,95,11
8,3,15,1,3,0,3,19,20,11
8,3,5,0,3,0,3,19,35,11
9,4,18,1,0,0,3,19,13,11
9,4,20,1,2,0,3,19,95,11
9,4,19,1,0,0,3,19,95,11
10,4,16,1,3,0,4,19,107,11
10,4,20,1,0,0,4,19,71,11
10,4,18,1,0,0,4,19,95,11
10,4,18,1,5,1,4,19,95,11
10,4,23,0,6,1,4,19,107,11
10,4,19,1,1,0,4,19,81,11
10,4,11,1,0,0,4,19,107,11
10,4,21,0,1,0,4,19,107,11
10,4,17,1,1,0,4,19,95,11
11,4,0,0,3,0,4,19,84,9
11,4,13,1,4,0,4,19,3,11
11,4,18,1,5,1,4,19,95,11
11,4,19,1,5,1,4,19,20,11
11,4,17,1,1,0,4,19,81,11
11,4,9,1,3,0,4,19,20,11
12,1,13,1,0,0,4,19,107,11
12,1,17,1,4,0,4,19,107,11
12,1,17,1,5,1,4,19,107,11
12,1,12,1,0,0,4,19,107,11
1,1,17,1,6,1,1,19,81,11
1,1,15,1,0,0,1,19,107,11
1,1,2,0,0,0,1,19,14,11
1,1,19,1,1,0,1,19,3,11
1,1,17,1,2,0,1,19,107,11
1,1,18,1,4,0,1,19,3,11
1,1,23,0,5,1,1,19,71,11
1,1,21,0,5,1,1,19,41,11
1,1,14,1,6,1,1,19,107,11
1,1,23,0,6,1,1,19,102,11
1,1,12,1,1,0,1,19,20,11
1,1,3,0,3,0,1,19,102,11
1,1,10,1,2,0,1,19,81,11
1,1,14,1,3,0,1,19,81,11
1,1,2,0,6,1,1,19,41,11
1,1,23,0,2,0,1,19,81,11
1,1,10,1,4,0,1,19,71,11
1,1,14,1,5,1,1,19,81,9
2,1,18,1,5,1,1,19,102,11
2,1,0,0,1,0,1,19,14,9
2,1,5,0,1,0,1,19,14,11
2,1,0,0,2,0,1,19,20,11
2,1,15,1,3,0,1,19,14,9
2,1,18,1,4,0,1,19,41,11
2,1,10,1,0,0,1,19,107,11
2,1,15,1,1,0,1,19,107,11
2,1,18,1,4,0,1,19,107,11
2,1,15,1,5,1,1,19,107,11
2,1,14,1,3,0,1,19,107,11
2,1,15,1,5,1,1,19,41,11
2,1,0,0,5,1,1,19,20,11
2,1,23,0,5,1,1,19,102,11
2,1,14,1,0,0,1,19,81,11
2,1,20,1,1,0,1,19,71,11
2,1,15,1,1,0,1,19,14,11
3,2,21,0,2,0,1,19,115,11
3,2,18,1,3,0,1,19,107,11
3,2,15,1,3,0,1,19,107,11
3,2,13,1,4,0,1,19,107,11
3,2,14,1,5,1,1,19,95,11
3,2,13,1,5,1,1,19,107,11
3,2,12,1,5,1,1,19,107,11
3,2,15,1,6,1,1,19,81,11
3,2,10,1,6,1,1,19,102,11
3,2,21,0,1,0,1,19,107,11
3,2,8,1,4,0,1,19,107,11
3,2,20,1,5,1,1,19,71,11
3,2,16,1,0,0,1,19,107,11
3,2,19,1,3,0,1,19,107,11
4,2,18,1,5,1,2,19,81,11
4,2,14,1,6,1,2,19,107,11
4,2,16,1,0,0,2,19,95,11
4,2,15,1,2,0,2,19,107,11
4,2,13,1,4,0,2,19,107,11
4,2,14,1,4,0,2,19,95,11
4,2,13,1,0,0,2,19,107,11
4,2,14,1,3,0,2,19,107,11
4,2,20,1,4,0,2,19,3,11
4,2,19,1,2,0,2,19,41,11
4,2,17,1,3,0,2,19,107,11
4,2,12,1,5,1,2,19,107,9
4,2,16,1,5,1,2,19,107,11
4,2,13,1,6,1,2,19,107,11
4,2,20,1,6,1,2,19,49,11
4,2,18,1,0,0,2,19,107,11
4,2,21,0,1,0,2,19,107,11
4,2,10,1,2,0,2,19,107,11
4,2,18,1,3,0,2,19,107,11
5,2,14,1,3,0,2,19,107,11
5,2,21,0,3,0,2,19,107,11
5,2,21,0,4,0,2,19,82,11
5,2,10,1,1,0,2,19,107,11
5,2,12,1,2,0,2,19,107,11
5,2,17,1,6,1,2,19,95,11
5,2,15,1,6,1,2,19,107,11
5,2,14,1,0,0,2,19,107,11
5,2,14,1,3,0,2,19,63,11
6,3,0,0,1,0,2,19,102,11
6,3,2,0,4,0,2,19,20,11
6,3,16,1,1,0,2,19,107,11
6,3,16,1,1,0,2,19,107,11
6,3,12,1,3,0,2,19,114,11
6,3,21,0,2,0,2,19,107,11
6,3,11,1,3,0,2,19,24,11
6,3,12,1,5,1,2,19,107,11
6,3,21,0,6,1,2,19,126,11
6,3,18,1,1,0,2,19,107,11
6,3,15,1,2,0,2,19,20,11
7,3,22,0,6,1,3,19,3,11
7,3,13,1,0,0,3,19,107,11
7,3,19,1,3,0,3,19,107,11
7,3,18,1,5,1,3,19,3,11
7,3,20,1,6,1,3,19,102,11
7,3,17,1,0,0,3,19,107,11
7,3,18,1,1,0,3,19,3,11
7,3,19,1,2,0,3,19,107,11
7,3,18,1,4,0,3,19,95,11
7,3,16,1,4,0,3,19,107,11
7,3,10,1,4,0,3,19,81,11
7,3,21,0,2,0,3,19,73,11
7,3,21,0,4,0,3,19,95,11
7,3,15,1,5,1,3,19,95,11
8,3,9,1,4,0,3,19,3,11
8,3,15,1,5,1,3,19,20,9
8,3,12,1,6,1,3,19,20,11
8,3,11,1,0,0,3,19,3,11
8,3,8,1,4,0,3,19,62,11
8,3,16,1,5,1,3,19,107,11
8,3,16,1,0,0,3,19,107,11
8,3,19,1,0,0,3,19,107,11
8,3,12,1,0,0,3,19,107,11
8,3,13,1,1,0,3,19,107,11
8,3,1,0,2,0,3,19,3,11
8,3,15,1,3,0,3,19,107,11
8,3,11,1,1,0,3,19,107,11
8,3,20,1,1,0,3,19,107,11
8,3,9,1,4,0,3,19,132,11
8,3,18,1,6,1,3,19,107,11
8,3,21,0,6,1,3,19,107,11
8,3,17,1,1,0,3,19,107,11
9,4,19,1,3,0,3,19,116,11
9,4,14,1,5,1,3,19,3,11
9,4,17,1,5,1,3,19,3,11
9,4,3,0,2,0,3,19,107,11
9,4,6,0,0,0,3,19,107,11
9,4,12,1,1,0,3,19,3,11
9,4,13,1,2,0,3,19,3,11
9,4,10,1,3,0,3,19,3,11
9,4,17,1,4,0,3,19,107,11
9,4,17,1,5,1,3,19,107,11
10,4,14,1,6,1,4,19,95,11
10,4,14,1,1,0,4,19,95,11
10,4,8,1,1,0,4,19,20,11
10,4,17,1,3,0,4,19,107,11
10,4,19,1,4,0,4,19,3,11
10,4,15,1,1,0,4,19,107,11
10,4,16,1,2,0,4,19,107,11
10,4,23,0,5,1,4,19,107,11
10,4,18,1,5,1,4,19,3,11
10,4,14,1,5,1,4,19,14,11
10,4,13,1,6,1,4,19,107,11
10,4,19,1,6,1,4,19,107,11
10,4,19,1,0,0,4,19,107,11
10,4,18,1,0,0,4,19,102,11
10,4,12,1,1,0,4,19,3,11
10,4,15,1,2,0,4,19,3,11
10,4,18,1,2,0,4,19,3,11
10,4,17,1,2,0,4,19,3,11
10,4,7,1,3,0,4,19,63,11
10,4,14,1,3,0,4,19,107,11
10,4,12,1,4,0,4,19,20,11
10,4,8,1,4,0,4,19,20,11
10,4,14,1,5,1,4,19,3,11
10,4,19,1,6,1,4,19,107,11
10,4,16,1,6,1,4,19,107,11
10,4,21,0,4,0,4,19,81,11
10,4,10,1,4,0,4,19,107,11
10,4,11,1,5,1,4,19,81,8
10,4,16,1,6,1,4,19,81,11
10,4,13,1,1,0,4,19,107,11
10,4,12,1,1,0,4,19,107,11
10,4,15,1,1,0,4,19,107,11
11,4,19,1,2,0,4,19,81,11
11,4,3,0,3,0,4,19,107,11
11,4,23,0,5,1,4,19,81,11
11,4,13,1,6,1,4,19,132,11
11,4,11,1,6,1,4,19,132,11
11,4,13,1,6,1,4,19,63,11
11,4,10,1,5,1,4,19,20,11
11,4,18,1,5,1,4,19,81,11
11,4,20,1,2,0,4,19,81,11
11,4,13,1,2,0,4,19,71,11
11,4,17,1,3,0,4,19,107,11
12,1,17,1,0,0,4,19,107,11
12,1,18,1,3,0,4,19,107,11
12,1,18,1,5,1,4,19,3,11
12,1,12,1,5,1,4,19,3,11
12,1,11,1,5,1,4,19,107,11
12,1,14,1,5,1,4,19,95,11
12,1,18,1,5,1,4,19,107,11
12,1,15,1,5,1,4,19,107,11
12,1,18,1,6,1,4,19,3,11
12,1,22,0,5,1,4,19,81,11
1,1,22,0,0,0,1,19,71,11
1,1,19,1,0,0,1,19,71,11
1,1,13,1,0,0,1,19,71,11
1,1,14,1,1,0,1,19,35,11
1,1,16,1,3,0,1,19,102,11
1,1,15,1,3,0,1,19,102,11
1,1,13,1,3,0,1,19,24,11
1,1,19,1,3,0,1,19,41,11
1,1,9,1,4,0,1,19,71,9
1,1,22,0,5,1,1,19,94,11
1,1,21,0,5,1,1,19,94,11
1,1,13,1,6,1,1,19,102,11
1,1,22,0,0,0,1,19,79,9
1,1,14,1,0,0,1,19,102,11
1,1,9,1,0,0,1,19,71,11
1,1,17,1,0,0,1,19,35,11
1,1,11,1,0,0,1,19,107,11
1,1,20,1,0,0,1,19,95,11
1,1,22,0,4,0,1,19,81,8
1,1,11,1,5,1,1,19,71,11
1,1,12,1,6,1,1,19,102,11
1,1,17,1,0,0,1,19,71,11
1,1,3,0,0,0,1,19,102,11
1,1,10,1,1,0,1,19,71,11
1,1,9,1,1,0,1,19,93,11
1,1,6,0,2,0,1,19,102,11
1,1,17,1,3,0,1,19,71,11
1,1,0,0,3,0,1,19,70,11
1,1,14,1,6,1,1,19,71,11
1,1,0,0,1,0,1,19,71,11
1,1,18,1,3,0,1,19,71,11
1,1,20,1,5,1,1,19,81,11
1,1,12,1,6,1,1,19,102,11
2,1,1,0,2,0,1,19,71,11
2,1,17,1,2,0,1,19,102,11
2,1,2,0,3,0,1,19,102,11
2,1,2,0,3,0,1,19,71,11
2,1,23,0,6,1,1,19,71,11
2,1,22,0,3,0,1,19,102,11
2,1,7,1,4,0,1,19,102,11
2,1,11,1,4,0,1,19,71,11
2,1,10,1,5,1,1,19,102,11
2,1,1,0,6,1,1,19,102,11
2,1,2,0,6,1,1,19,102,11
2,1,1,0,1,0,1,19,121,11
2,1,12,1,1,0,1,19,71,11
2,1,20,1,1,0,1,19,110,11
2,1,8,1,4,0,1,19,71,11
2,1,23,0,5,1,1,19,112,11
2,1,22,0,5,1,1,19,112,11
2,1,5,0,5,1,1,19,79,11
2,1,14,1,0,0,1,19,71,11
2,1,4,0,0,0,1,19,95,9
2,1,11,1,1,0,1,19,71,11
2,1,4,0,2,0,1,19,102,11
2,1,4,0,2,0,1,19,20,9
2,1,1,0,3,0,1,19,93,11
2,1,9,1,3,0,1,19,71,11
2,1,23,0,5,1,1,19,71,11
2,1,12,1,5,1,1,19,71,11
2,1,23,0,5,1,1,19,71,11
2,1,18,1,5,1,1,19,107,9
3,2,21,0,3,0,1,19,71,11
3,2,12,1,4,0,1,19,71,11
3,2,12,1,6,1,1,19,81,11
3,2,7,1,1,0,1,19,95,11
3,2,5,0,3,0,1,19,20,11
3,2,10,1,4,0,1,19,81,11
3,2,20,1,6,1,1,19,70,11
3,2,21,0,6,1,1,19,71,11
3,2,13,1,6,1,1,19,71,11
3,2,6,0,0,0,1,19,102,11
3,2,20,1,1,0,1,19,71,11
3,2,17,1,3,0,1,19,102,11
3,2,23,0,5,1,1,19,71,11
3,2,10,1,6,1,1,19,81,11
3,2,14,1,2,0,1,19,71,11
3,2,20,1,3,0,1,19,71,11
3,2,17,1,6,1,1,19,51,11
3,2,4,0,1,0,1,19,71,11
3,2,11,1,1,0,1,19,79,11
3,2,2,0,1,0,1,19,102,11
3,2,20,1,2,0,1,19,79,11
4,2,20,1,6,1,2,19,71,11
4,2,0,0,6,1,2,19,102,11
4,2,1,0,6,1,2,19,102,11
4,2,13,1,3,0,2,19,71,11
4,2,21,0,4,0,2,19,81,9
4,2,13,1,5,1,2,19,93,11
4,2,6,0,6,1,2,19,93,11
4,2,21,0,0,0,2,19,81,9
4,2,2,0,0,0,2,19,102,11
4,2,2,0,0,0,2,19,130,11
4,2,11,1,2,0,2,19,71,9
4,2,0,0,3,0,2,19,102,11
4,2,18,1,3,0,2,19,20,11
4,2,18,1,3,0,2,19,71,11
4,2,10,1,5,1,2,19,71,11
4,2,12,1,6,1,2,19,71,11
4,2,21,0,0,0,2,19,24,9
4,2,21,0,0,0,2,19,71,11
4,2,16,1,0,0,2,19,71,11
4,2,23,0,0,0,2,19,3,11
4,2,9,1,5,1,2,19,81,9
4,2,13,1,5,1,2,19,71,11
4,2,2,0,6,1,2,19,20,11
4,2,6,0,3,0,2,19,102,11
4,2,23,0,4,0,2,19,81,11
4,2,20,1,6,1,2,19,71,11
4,2,0,0,6,1,2,19,93,11
5,2,1,0,0,0,2,19,71,11
5,2,4,0,1,0,2,19,20,9
5,2,21,0,2,0,2,19,95,11
5,2,13,1,3,0,2,19,20,11
5,2,6,0,4,0,2,19,84,11
5,2,20,1,5,1,2,19,95,11
5,2,21,0,5,1,2,19,95,11
5,2,17,1,5,1,2,19,95,11
5,2,0,0,0,0,2,19,102,11
5,2,12,1,1,0,2,19,71,11
5,2,15,1,2,0,2,19,107,11
5,2,22,0,4,0,2,19,113,11
5,2,1,0,6,1,2,19,71,11
5,2,2,0,3,0,2,19,33,11
5,2,11,1,3,0,2,19,71,11
5,2,19,1,3,0,2,19,71,11
5,2,12,1,5,1,2,19,71,11
5,2,4,0,3,0,2,19,20,11
5,2,7,1,3,0,2,19,102,11
5,2,13,1,6,1,2,19,71,11
5,2,9,1,1,0,2,19,95,11
5,2,16,1,1,0,2,19,71,11
5,2,17,1,2,0,2,19,102,11
6,3,23,0,5,1,2,19,102,11
6,3,2,0,6,1,2,19,102,11
6,3,21,0,6,1,2,19,102,11
6,3,13,1,6,1,2,19,95,11
6,3,8,1,0,0,2,19,71,11
6,3,13,1,1,0,2,19,107,11
6,3,17,1,2,0,2,19,71,11
6,3,19,1,3,0,2,19,20,11
6,3,12,1,3,0,2,19,95,11
6,3,20,1,4,0,2,19,20,11
6,3,11,1,4,0,2,19,71,11
6,3,12,1,5,1,2,19,20,11
6,3,2,0,6,1,2,19,41,9
6,3,3,0,6,1,2,19,20,11
6,3,8,1,1,0,2,19,95,11
6,3,11,1,1,0,2,19,102,11
6,3,2,0,2,0,2,19,102,11
6,3,16,1,5,1,2,19,20,11
6,3,0,0,5,1,2,19,71,11
6,3,19,1,1,0,2,19,71,11
6,3,20,1,4,0,2,19,71,11
6,3,20,1,4,0,2,19,95,11
6,3,9,1,5,1,2,19,71,8
6,3,3,0,5,1,2,19,102,11
6,3,2,0,5,1,2,19,102,11
6,3,14,1,6,1,2,19,52,11
6,3,12,1,6,1,2,19,71,11
6,3,4,0,6,1,2,19,102,11
6,3,21,0,6,1,2,19,102,11
6,3,17,1,0,0,2,19,102,11
6,3,17,1,1,0,2,19,70,11
6,3,6,0,1,0,2,19,102,11
6,3,22,0,2,0,2,19,107,11
6,3,5,0,3,0,2,19,102,11
7,3,16,1,5,1,3,19,102,11
7,3,8,1,5,1,3,19,102,11
7,3,10,1,6,1,3,19,107,11
7,3,0,0,0,0,3,19,71,11
7,3,17,1,0,0,3,19,95,11
7,3,4,0,1,0,3,19,95,11
7,3,10,1,2,0,3,19,107,11
7,3,10,1,2,0,3,19,71,11
7,3,0,0,2,0,3,19,102,11
7,3,22,0,2,0,3,19,103,11
7,3,1,0,3,0,3,19,95,9
7,3,12,1,4,0,3,19,95,9
7,3,17,1,6,1,3,19,79,11
7,3,17,1,1,0,3,19,107,11
7,3,18,1,4,0,3,19,3,11
7,3,19,1,4,0,3,19,20,11
7,3,0,0,5,1,3,19,71,11
7,3,6,0,6,1,3,19,71,11
8,3,0,0,3,0,3,19,20,11
8,3,16,1,5,1,3,19,71,11
8,3,14,1,6,1,3,19,20,11
8,3,0,0,6,1,3,19,95,11
8,3,1,0,2,0,3,19,20,11
8,3,20,1,3,0,3,19,71,11
8,3,17,1,3,0,3,19,20,11
8,3,2,0,4,0,3,19,71,11
8,3,22,0,4,0,3,19,102,11
8,3,6,0,0,0,3,19,8,11
8,3,18,1,0,0,3,19,8,11
8,3,14,1,4,0,3,19,102,11
8,3,18,1,1,0,3,19,71,11
8,3,2,0,4,0,3,19,102,11
8,3,18,1,0,0,3,19,3,11
8,3,13,1,0,0,3,19,95,11
8,3,12,1,3,0,3,19,71,11
8,3,20,1,3,0,3,19,102,11
9,4,1,0,0,0,3,19,102,11
9,4,18,1,2,0,3,19,95,11
9,4,11,1,2,0,3,19,71,11
9,4,20,1,2,0,3,19,71,11
9,4,9,1,4,0,3,19,71,11
9,4,15,1,1,0,3,19,115,11
9,4,0,0,2,0,3,19,51,11
9,4,20,1,3,0,3,19,133,11
9,4,2,0,3,0,3,19,20,11
9,4,5,0,6,1,3,19,102,11
9,4,16,1,1,0,3,19,62,11
9,4,18,1,1,0,3,19,107,11
9,4,17,1,2,0,3,19,3,11
9,4,23,0,2,0,3,19,20,11
9,4,4,0,4,0,3,19,102,11
9,4,2,0,4,0,3,19,102,11
9,4,21,0,4,0,3,19,71,11
9,4,15,1,0,0,3,19,95,11
9,4,23,0,2,0,3,19,102,11
9,4,12,1,2,0,3,19,71,11
9,4,21,0,3,0,3,19,95,11
9,4,22,0,3,0,3,19,70,11
9,4,13,1,5,1,3,19,71,11
10,4,21,0,6,1,4,19,102,11
10,4,21,0,6,1,4,19,102,11
10,4,8,1,6,1,4,19,71,11
10,4,7,1,1,0,4,19,102,11
10,4,13,1,1,0,4,19,20,11
10,4,15,1,1,0,4,19,20,11
10,4,1,0,2,0,4,19,95,11
10,4,10,1,3,0,4,19,14,11
10,4,8,1,4,0,4,19,95,11
10,4,13,1,0,0,4,19,107,11
10,4,16,1,0,0,4,19,107,11
10,4,1,0,0,0,4,19,71,9
10,4,16,1,2,0,4,19,71,11
10,4,16,1,2,0,4,19,107,11
10,4,23,0,2,0,4,19,51,11
10,4,3,0,2,0,4,19,102,11
10,4,6,0,2,0,4,19,102,11
10,4,18,1,4,0,4,19,108,11
10,4,18,1,6,1,4,19,79,11
10,4,15,1,0,0,4,19,95,11
10,4,8,1,0,0,4,19,111,11
10,4,14,1,0,0,4,19,102,11
10,4,5,0,1,0,4,19,92,11
10,4,3,0,2,0,4,19,92,11
10,4,10,1,2,0,4,19,20,11
10,4,15,1,3,0,4,19,71,11
10,4,10,1,3,0,4,19,71,11
10,4,13,1,3,0,4,19,3,11
10,4,5,0,3,0,4,19,71,11
10,4,20,1,4,0,4,19,102,11
10,4,21,0,4,0,4,19,3,11
10,4,22,0,4,0,4,19,71,11
10,4,4,0,6,1,4,19,71,9
10,4,20,1,6,1,4,19,8,11
10,4,10,1,6,1,4,19,71,11
10,4,10,1,0,0,4,19,71,11
10,4,21,0,0,0,4,19,71,11
10,4,21,0,4,0,4,19,71,11
10,4,10,1,4,0,4,19,20,11
10,4,19,1,5,1,4,19,102,11
10,4,6,0,6,1,4,19,102,11
10,4,21,0,0,0,4,19,102,11
10,4,8,1,0,0,4,19,71,11
11,4,6,0,2,0,4,19,102,11
11,4,14,1,3,0,4,19,107,9
11,4,13,1,3,0,4,19,51,11
11,4,15,1,3,0,4,19,95,9
11,4,19,1,3,0,4,19,49,11
11,4,20,1,4,0,4,19,20,11
11,4,20,1,4,0,4,19,102,11
11,4,21,0,5,1,4,19,71,11
11,4,13,1,6,1,4,19,8,11
11,4,20,1,6,1,4,19,110,11
11,4,19,1,6,1,4,19,105,11
11,4,17,1,0,0,4,19,21,9
11,4,16,1,0,0,4,19,95,11
11,4,16,1,3,0,4,19,122,11
11,4,14,1,3,0,4,19,71,9
11,4,22,0,3,0,4,19,82,11
11,4,7,1,6,1,4,19,71,11
11,4,22,0,6,1,4,19,71,11
11,4,4,0,0,0,4,19,71,11
11,4,8,1,5,1,4,19,71,11
11,4,21,0,6,1,4,19,71,11
11,4,19,1,6,1,4,19,102,11
11,4,18,1,6,1,4,19,102,11
11,4,14,1,6,1,4,19,71,11
11,4,20,1,1,0,4,19,62,11
11,4,13,1,1,0,4,19,71,11
11,4,14,1,3,0,4,19,71,11
11,4,10,1,6,1,4,19,51,11
11,4,13,1,1,0,4,19,81,11
11,4,19,1,1,0,4,19,71,11
11,4,12,1,1,0,4,19,20,11
11,4,11,1,2,0,4,19,102,11
11,4,19,1,2,0,4,19,95,11
11,4,12,1,3,0,4,19,71,11
12,1,10,1,4,0,4,19,81,11
12,1,21,0,6,1,4,19,71,11
12,1,4,0,0,0,4,19,20,11
12,1,0,0,0,0,4,19,114,11
12,1,19,1,0,0,4,19,102,11
12,1,21,0,0,0,4,19,102,11
12,1,14,1,2,0,4,19,95,11
12,1,12,1,2,0,4,19,81,11
12,1,1,0,3,0,4,19,20,11
12,1,22,0,4,0,4,19,71,11
12,1,14,1,4,0,4,19,81,11
12,1,3,0,5,1,4,19,102,11
12,1,3,0,5,1,4,19,102,11
12,1,11,1,5,1,4,19,71,11
12,1,10,1,5,1,4,19,94,11
12,1,16,1,6,1,4,19,102,11
12,1,14,1,1,0,4,19,71,11
12,1,12,1,4,0,4,19,71,11
12,1,20,1,4,0,4,19,71,11
12,1,14,1,4,0,4,19,71,11
12,1,20,1,5,1,4,19,81,11
12,1,13,1,5,1,4,19,102,11
12,1,4,0,6,1,4,19,20,11
12,1,21,0,6,1,4,19,102,11
12,1,10,1,0,0,4,19,71,11
12,1,9,1,3,0,4,19,71,11
12,1,16,1,4,0,4,19,41,11
12,1,16,1,5,1,4,19,51,9
12,1,14,1,6,1,4,19,102,11
12,1,10,1,6,1,4,19,95,11
12,1,3,0,6,1,4,19,20,11
12,1,15,1,0,0,4,19,107,11
12,1,14,1,1,0,4,19,95,11
12,1,3,0,1,0,4,19,102,11
12,1,17,1,3,0,4,19,71,9
12,1,3,0,4,0,4,19,71,11
12,1,8,1,5,1,4,19,20,11
12,1,17,1,6,1,4,19,71,11
1,1,13,1,6,1,1,19,79,11
10,4,9,1,1,0,4,19,112,11
1,1,14,1,6,1,1,19,35,11
1,1,13,1,0,0,1,19,107,11
1,1,13,1,0,0,1,19,95,11
1,1,17,1,0,0,1,19,107,11
1,1,14,1,1,0,1,19,107,11
1,1,16,1,2,0,1,19,107,11
1,1,10,1,2,0,1,19,3,11
1,1,2,0,2,0,1,19,20,11
1,1,15,1,3,0,1,19,107,11
1,1,1,0,3,0,1,19,107,11
1,1,12,1,5,1,1,19,71,11
1,1,15,1,5,1,1,19,71,11
1,1,21,0,0,0,1,19,95,11
1,1,12,1,2,0,1,19,71,8
1,1,16,1,0,0,1,19,81,9
1,1,4,0,1,0,1,19,79,11
1,1,17,1,2,0,1,19,128,11
1,1,10,1,2,0,1,19,71,11
1,1,5,0,5,1,1,19,93,11
1,1,10,1,4,0,1,19,95,11
1,1,18,1,5,1,1,19,132,11
2,1,11,1,2,0,1,19,132,11
2,1,18,1,2,0,1,19,107,11
2,1,15,1,4,0,1,19,95,11
2,1,3,0,5,1,1,19,81,11
2,1,16,1,6,1,1,19,107,11
2,1,19,1,6,1,1,19,107,11
2,1,7,1,3,0,1,19,20,11
2,1,14,1,3,0,1,19,3,11
2,1,11,1,1,0,1,19,3,11
2,1,15,1,2,0,1,19,107,11
2,1,16,1,2,0,1,19,132,9
2,1,17,1,2,0,1,19,107,11
2,1,15,1,3,0,1,19,107,11
2,1,17,1,4,0,1,19,3,11
2,1,14,1,5,1,1,19,112,11
2,1,21,0,5,1,1,19,132,9
2,1,23,0,6,1,1,19,71,9
2,1,18,1,1,0,1,19,3,9
3,2,11,1,3,0,1,19,81,11
3,2,12,1,3,0,1,19,107,11
3,2,9,1,4,0,1,19,107,11
3,2,13,1,4,0,1,19,3,11
3,2,16,1,4,0,1,19,107,11
3,2,12,1,4,0,1,19,107,11
3,2,15,1,4,0,1,19,107,9
3,2,14,1,5,1,1,19,114,9
3,2,19,1,5,1,1,19,107,11
3,2,5,0,0,0,1,19,20,11
3,2,3,0,3,0,1,19,20,11
3,2,6,0,3,0,1,19,20,11
3,2,9,1,4,0,1,19,41,11
3,2,19,1,2,0,1,19,107,11
3,2,14,1,2,0,1,19,107,11
3,2,13,1,2,0,1,19,107,11
3,2,1,0,4,0,1,19,81,11
3,2,14,1,4,0,1,19,107,11
3,2,12,1,4,0,1,19,3,11
3,2,17,1,4,0,1,19,95,9
3,2,19,1,5,1,1,19,107,9
3,2,15,1,5,1,1,19,107,11
3,2,17,1,5,1,1,19,95,9
3,2,15,1,5,1,1,19,107,11
3,2,23,0,6,1,1,19,107,11
3,2,0,0,6,1,1,19,3,9
3,2,22,0,0,0,1,19,3,11
3,2,17,1,1,0,1,19,107,11
3,2,14,1,1,0,1,19,107,11
3,2,15,1,1,0,1,19,3,11
3,2,14,1,2,0,1,19,107,11
3,2,6,0,4,0,1,19,61,11
3,2,19,1,4,0,1,19,24,11
3,2,12,1,5,1,1,19,71,11
3,2,19,1,6,1,1,19,13,8
3,2,16,1,6,1,1,19,3,11
3,2,18,1,1,0,1,19,20,11
3,2,17,1,2,0,1,19,95,11
3,2,16,1,3,0,1,19,107,11
3,2,13,1,3,0,1,19,107,11
3,2,17,1,3,0,1,19,107,11
3,2,14,1,4,0,1,19,107,11
4,2,17,1,5,1,2,19,107,11
4,2,3,0,5,1,2,19,107,11
4,2,7,1,5,1,2,19,20,11
4,2,15,1,6,1,2,19,114,9
4,2,2,0,6,1,2,19,49,8
4,2,18,1,6,1,2,19,107,11
4,2,16,1,6,1,2,19,95,11
4,2,9,1,6,1,2,19,26,11
4,2,13,1,2,0,2,19,107,11
4,2,2,0,3,0,2,19,95,11
4,2,6,0,3,0,2,19,107,11
4,2,10,1,3,0,2,19,107,11
4,2,15,1,4,0,2,19,107,9
4,2,15,1,5,1,2,19,3,11
4,2,13,1,5,1,2,19,3,11
4,2,14,1,6,1,2,19,95,11
4,2,20,1,6,1,2,19,107,11
4,2,7,1,6,1,2,19,20,11
4,2,11,1,2,0,2,19,107,11
4,2,20,1,2,0,2,19,81,8
4,2,15,1,4,0,2,19,107,11
4,2,0,0,4,0,2,19,41,8
4,2,14,1,1,0,2,19,107,11
4,2,13,1,3,0,2,19,107,11
4,2,15,1,3,0,2,19,79,11
4,2,13,1,4,0,2,19,107,11
4,2,16,1,4,0,2,19,114,9
4,2,12,1,5,1,2,19,132,11
4,2,15,1,5,1,2,19,3,11
4,2,17,1,5,1,2,19,115,11
4,2,16,1,6,1,2,19,95,11
4,2,16,1,6,1,2,19,107,9
4,2,15,1,0,0,2,19,26,11
4,2,21,0,0,0,2,19,107,11
4,2,21,0,0,0,2,19,3,11
4,2,20,1,1,0,2,19,41,11
4,2,13,1,1,0,2,19,107,11
4,2,12,1,1,0,2,19,61,11
4,2,11,1,1,0,2,19,107,11
4,2,13,1,1,0,2,19,95,11
4,2,15,1,1,0,2,19,3,11
4,2,0,0,2,0,2,19,132,8
4,2,0,0,2,0,2,19,107,9
4,2,13,1,2,0,2,19,107,11
4,2,14,1,3,0,2,19,107,11
4,2,22,0,5,1,2,19,95,11
4,2,18,1,5,1,2,19,107,11
4,2,7,1,6,1,2,19,121,11
5,2,16,1,1,0,2,19,95,11
5,2,23,0,1,0,2,19,107,11
5,2,16,1,2,0,2,19,95,11
5,2,16,1,2,0,2,19,95,11
5,2,19,1,2,0,2,19,13,11
5,2,14,1,2,0,2,19,107,11
5,2,16,1,2,0,2,19,95,11
5,2,22,0,2,0,2,19,115,11
5,2,4,0,5,1,2,19,131,11
5,2,11,1,5,1,2,19,95,11
5,2,17,1,5,1,2,19,3,11
5,2,10,1,5,1,2,19,95,8
5,2,14,1,5,1,2,19,107,11
5,2,15,1,6,1,2,19,107,11
5,2,15,1,0,0,2,19,107,11
5,2,14,1,0,0,2,19,95,11
5,2,17,1,0,0,2,19,107,11
5,2,11,1,0,0,2,19,107,11
5,2,19,1,2,0,2,19,115,11
5,2,16,1,3,0,2,19,107,11
5,2,16,1,5,1,2,19,107,11
5,2,11,1,0,0,2,19,107,11
5,2,16,1,0,0,2,19,95,11
5,2,14,1,0,0,2,19,107,11
5,2,13,1,6,1,2,19,107,11
5,2,12,1,6,1,2,19,3,9
5,2,10,1,6,1,2,19,11,8
5,2,12,1,2,0,2,19,95,11
5,2,21,0,3,0,2,19,95,11
6,3,14,1,3,0,2,19,95,11
6,3,23,0,3,0,2,19,107,11
6,3,18,1,4,0,2,19,79,11
6,3,10,1,4,0,2,19,107,11
6,3,17,1,0,0,2,19,51,11
6,3,0,0,4,0,2,19,107,11
6,3,23,0,4,0,2,19,79,11
6,3,10,1,4,0,2,19,79,11
6,3,21,0,5,1,2,19,107,11
6,3,22,0,5,1,2,19,95,8
6,3,16,1,6,1,2,19,107,11
6,3,18,1,3,0,2,19,61,11
6,3,21,0,5,1,2,19,107,11
6,3,22,0,3,0,2,19,95,11
6,3,16,1,4,0,2,19,79,11
6,3,11,1,4,0,2,19,107,11
6,3,16,1,5,1,2,19,95,11
6,3,16,1,0,0,2,19,107,11
6,3,0,0,0,0,2,19,107,11
6,3,16,1,1,0,2,19,95,11
6,3,13,1,1,0,2,19,107,11
6,3,15,1,2,0,2,19,95,11
7,3,16,1,5,1,3,19,107,11
7,3,9,1,6,1,3,19,107,11
7,3,15,1,6,1,3,19,107,9
7,3,9,1,6,1,3,19,109,9
7,3,12,1,0,0,3,19,49,8
7,3,16,1,1,0,3,19,95,11
7,3,4,0,1,0,3,19,95,8
7,3,10,1,2,0,3,19,107,9
7,3,18,1,2,0,3,19,95,11
7,3,21,0,4,0,3,19,20,11
7,3,14,1,5,1,3,19,95,11
7,3,13,1,0,0,3,19,107,11
7,3,11,1,1,0,3,19,107,11
7,3,22,0,1,0,3,19,20,9
7,3,17,1,1,0,3,19,95,11
7,3,8,1,4,0,3,19,95,11
7,3,19,1,0,0,3,19,79,9
7,3,17,1,2,0,3,19,81,11
7,3,18,1,6,1,3,19,107,11
7,3,12,1,1,0,3,19,107,11
7,3,23,0,3,0,3,19,95,11
7,3,22,0,5,1,3,19,107,11
7,3,15,1,5,1,3,19,132,9
8,3,22,0,1,0,3,19,107,11
8,3,13,1,4,0,3,19,107,11
8,3,17,1,5,1,3,19,95,9
8,3,22,0,0,0,3,19,95,9
8,3,15,1,1,0,3,19,132,11
8,3,12,1,1,0,3,19,107,11
8,3,20,1,4,0,3,19,132,9
8,3,17,1,5,1,3,19,129,11
8,3,17,1,2,0,3,19,107,11
8,3,18,1,3,0,3,19,132,9
8,3,19,1,4,0,3,19,3,11
8,3,14,1,5,1,3,19,107,11
8,3,3,0,5,1,3,19,93,11
8,3,3,0,6,1,3,19,3,11
8,3,19,1,0,0,3,19,132,11
8,3,9,1,2,0,3,19,107,11
8,3,21,0,2,0,3,19,95,11
8,3,15,1,2,0,3,19,107,11
8,3,8,1,3,0,3,19,95,11
8,3,12,1,4,0,3,19,132,8
8,3,17,1,0,0,3,19,107,11
8,3,13,1,3,0,3,19,107,11
9,4,9,1,5,1,3,19,91,11
9,4,9,1,6,1,3,19,79,11
9,4,13,1,0,0,3,19,107,11
9,4,2,0,0,0,3,19,95,9
9,4,14,1,1,0,3,19,81,11
9,4,13,1,1,0,3,19,14,9
9,4,20,1,2,0,3,19,107,11
9,4,23,0,5,1,3,19,20,11
9,4,14,1,6,1,3,19,120,9
9,4,1,0,3,0,3,19,71,11
9,4,16,1,4,0,3,19,95,9
9,4,14,1,4,0,3,19,107,11
9,4,16,1,5,1,3,19,95,9
9,4,19,1,6,1,3,19,132,11
9,4,17,1,0,0,3,19,95,11
9,4,18,1,2,0,3,19,95,11
9,4,21,0,2,0,3,19,107,9
9,4,12,1,2,0,3,19,107,11
9,4,18,1,3,0,3,19,95,11
9,4,13,1,5,1,3,19,81,11
9,4,23,0,6,1,3,19,107,11
9,4,21,0,1,0,3,19,95,11
9,4,19,1,2,0,3,19,107,11
9,4,20,1,3,0,3,19,132,11
9,4,12,1,5,1,3,19,93,11
10,4,22,0,6,1,4,19,105,11
10,4,12,1,2,0,4,19,3,11
10,4,2,0,5,1,4,19,132,11
10,4,19,1,5,1,4,19,93,11
10,4,14,1,0,0,4,19,95,11
10,4,17,1,2,0,4,19,132,11
10,4,0,0,4,0,4,19,68,11
10,4,17,1,4,0,4,19,95,11
10,4,0,0,4,0,4,19,95,11
10,4,20,1,6,1,4,19,95,11
10,4,17,1,6,1,4,19,95,11
10,4,13,1,0,0,4,19,71,9
10,4,12,1,0,0,4,19,3,9
10,4,14,1,0,0,4,19,3,11
10,4,13,1,1,0,4,19,107,11
10,4,18,1,2,0,4,19,107,11
10,4,14,1,2,0,4,19,107,11
10,4,20,1,2,0,4,19,95,11
10,4,17,1,2,0,4,19,107,11
10,4,17,1,4,0,4,19,107,11
10,4,14,1,5,1,4,19,107,11
10,4,15,1,6,1,4,19,3,8
10,4,16,1,3,0,4,19,107,11
10,4,5,0,5,1,4,19,107,11
10,4,11,1,0,0,4,19,107,11
10,4,14,1,0,0,4,19,49,8
11,4,13,1,3,0,4,19,107,11
11,4,14,1,3,0,4,19,107,11
11,4,21,0,4,0,4,19,3,11
11,4,17,1,5,1,4,19,3,11
11,4,9,1,6,1,4,19,107,11
11,4,10,1,6,1,4,19,49,8
11,4,16,1,1,0,4,19,95,11
11,4,18,1,2,0,4,19,81,11
11,4,20,1,5,1,4,19,81,11
11,4,21,0,0,0,4,19,93,11
11,4,6,0,3,0,4,19,115,11
11,4,3,0,4,0,4,19,95,11
11,4,18,1,2,0,4,19,107,11
11,4,15,1,3,0,4,19,24,11
11,4,16,1,1,0,4,19,81,11
12,1,13,1,0,0,4,19,20,11
12,1,18,1,2,0,4,19,79,11
12,1,8,1,3,0,4,19,79,9
12,1,16,1,0,0,4,19,95,9
12,1,18,1,2,0,4,19,107,11
12,1,9,1,3,0,4,19,95,11
12,1,17,1,4,0,4,19,41,9
12,1,10,1,5,1,4,19,127,11
12,1,14,1,5,1,4,19,107,11
12,1,20,1,5,1,4,19,107,11
12,1,13,1,0,0,4,19,81,11
12,1,1,0,4,0,4,19,49,8
12,1,16,1,6,1,4,19,107,11
12,1,17,1,6,1,4,19,107,11
1,1,19,1,6,1,1,19,81,11
1,1,14,1,0,0,1,19,3,11
1,1,18,1,3,0,1,19,71,11
1,1,13,1,0,0,1,19,3,11
1,1,13,1,6,1,1,19,107,11
2,1,13,1,0,0,1,19,132,11
2,1,13,1,0,0,1,19,81,9
2,1,6,0,2,0,1,19,3,11
2,1,11,1,5,1,1,19,24,11
2,1,22,0,1,0,1,19,102,11
2,1,17,1,1,0,1,19,3,11
3,2,15,1,4,0,1,19,3,11
3,2,14,1,4,0,1,19,3,11
3,2,14,1,5,1,1,19,107,11
3,2,16,1,6,1,1,19,3,11
3,2,2,0,0,0,1,19,107,11
3,2,10,1,0,0,1,19,3,11
3,2,11,1,0,0,1,19,3,11
3,2,3,0,0,0,1,19,102,11
3,2,6,0,0,0,1,19,71,8
3,2,14,1,3,0,1,19,81,11
3,2,17,1,3,0,1,19,81,11
3,2,15,1,4,0,1,19,107,11
3,2,17,1,4,0,1,19,107,11
3,2,13,1,5,1,1,19,132,9
3,2,13,1,5,1,1,19,95,11
3,2,11,1,5,1,1,19,95,11
3,2,2,0,6,1,1,19,81,9
3,2,19,1,6,1,1,19,41,11
3,2,17,1,0,0,1,19,81,9
3,2,19,1,1,0,1,19,20,11
3,2,13,1,1,0,1,19,95,11
3,2,11,1,2,0,1,19,107,11
3,2,1,0,3,0,1,19,79,11
3,2,2,0,5,1,1,19,132,11
3,2,15,1,5,1,1,19,95,11
3,2,21,0,0,0,1,19,20,11
3,2,14,1,3,0,1,19,107,11
4,2,23,0,6,1,2,19,41,11
4,2,23,0,2,0,2,19,132,11
4,2,14,1,5,1,2,19,107,11
4,2,10,1,5,1,2,19,132,11
4,2,10,1,6,1,2,19,95,11
4,2,20,1,0,0,2,19,95,11
4,2,21,0,1,0,2,19,3,11
4,2,17,1,6,1,2,19,62,11
4,2,2,0,6,1,2,19,71,11
4,2,11,1,2,0,2,19,71,11
4,2,19,1,6,1,2,19,107,11
4,2,7,1,0,0,2,19,79,11
4,2,9,1,0,0,2,19,107,9
4,2,17,1,3,0,2,19,107,11
4,2,2,0,5,1,2,19,20,11
4,2,12,1,5,1,2,19,132,9
4,2,0,0,5,1,2,19,81,9
5,2,10,1,1,0,2,19,20,11
5,2,22,0,6,1,2,19,132,9
5,2,10,1,4,0,2,19,107,11
5,2,12,1,6,1,2,19,3,11
5,2,17,1,1,0,2,19,81,11
5,2,18,1,4,0,2,19,20,11
5,2,16,1,0,0,2,19,41,11
5,2,22,0,2,0,2,19,95,11
6,3,11,1,1,0,2,19,3,11
6,3,17,1,3,0,2,19,107,11
6,3,14,1,3,0,2,19,95,11
6,3,16,1,0,0,2,19,3,11
6,3,20,1,4,0,2,19,95,11
6,3,15,1,5,1,2,19,95,9
6,3,1,0,6,1,2,19,28,11
6,3,13,1,1,0,2,19,3,11
6,3,16,1,1,0,2,19,3,9
6,3,16,1,1,0,2,19,95,11
6,3,21,0,4,0,2,19,107,11
6,3,14,1,4,0,2,19,93,9
6,3,21,0,4,0,2,19,81,9
6,3,18,1,4,0,2,19,107,11
7,3,20,1,5,1,3,19,41,11
7,3,9,1,5,1,3,19,115,11
7,3,4,0,6,1,3,19,55,11
7,3,2,0,6,1,3,19,14,9
7,3,14,1,1,0,3,19,3,11
7,3,17,1,4,0,3,19,3,11
7,3,0,0,6,1,3,19,107,11
7,3,23,0,0,0,3,19,107,11
7,3,7,1,0,0,3,19,3,11
7,3,22,0,1,0,3,19,20,11
7,3,16,1,2,0,3,19,95,11
7,3,18,1,5,1,3,19,95,11
7,3,14,1,3,0,3,19,132,11
7,3,2,0,4,0,3,19,102,11
7,3,5,0,4,0,3,19,85,9
7,3,13,1,4,0,3,19,107,11
7,3,15,1,4,0,3,19,107,11
7,3,16,1,6,1,3,19,3,11
7,3,23,0,5,1,3,19,107,11
7,3,17,1,6,1,3,19,95,11
7,3,13,1,6,1,3,19,89,11
7,3,14,1,0,0,3,19,132,11
7,3,22,0,0,0,3,19,79,11
8,3,11,1,1,0,3,19,107,11
8,3,16,1,2,0,3,19,3,11
8,3,13,1,2,0,3,19,20,11
8,3,11,1,3,0,3,19,95,11
8,3,14,1,4,0,3,19,95,11
8,3,19,1,5,1,3,19,95,11
8,3,21,0,0,0,3,19,102,11
8,3,5,0,2,0,3,19,132,11
8,3,20,1,2,0,3,19,3,11
8,3,18,1,5,1,3,19,107,11
8,3,18,1,2,0,3,19,3,11
8,3,8,1,3,0,3,19,20,11
8,3,9,1,5,1,3,19,81,11
8,3,19,1,0,0,3,19,3,11
8,3,2,0,3,0,3,19,81,11
9,4,18,1,2,0,3,19,95,11
9,4,23,0,5,1,3,19,107,11
9,4,23,0,6,1,3,19,107,11
9,4,18,1,0,0,3,19,3,11
9,4,14,1,0,0,3,19,95,11
9,4,13,1,1,0,3,19,79,11
9,4,18,1,2,0,3,19,107,11
9,4,7,1,3,0,3,19,95,11
9,4,13,1,0,0,3,19,95,11
9,4,14,1,0,0,3,19,95,11
9,4,16,1,1,0,3,19,3,11
9,4,21,0,1,0,3,19,3,11
9,4,11,1,2,0,3,19,102,11
10,4,21,0,0,0,4,19,3,11
10,4,14,1,1,0,4,19,107,11
10,4,10,1,1,0,4,19,107,11
10,4,16,1,2,0,4,19,95,11
10,4,16,1,2,0,4,19,95,11
10,4,1,0,4,0,4,19,132,11
10,4,14,1,5,1,4,19,14,9
10,4,14,1,5,1,4,19,95,11
10,4,18,1,0,0,4,19,107,11
10,4,14,1,2,0,4,19,132,11
10,4,18,1,3,0,4,19,81,9
10,4,12,1,5,1,4,19,3,11
10,4,1,0,0,0,4,19,20,11
10,4,14,1,1,0,4,19,3,9
10,4,13,1,1,0,4,19,132,11
10,4,16,1,2,0,4,19,3,11
10,4,18,1,2,0,4,19,107,11
10,4,4,0,3,0,4,19,107,11
10,4,17,1,3,0,4,19,95,9
10,4,15,1,3,0,4,19,3,9
10,4,13,1,4,0,4,19,3,11
10,4,16,1,4,0,4,19,95,11
10,4,20,1,5,1,4,19,107,11
10,4,21,0,5,1,4,19,107,11
10,4,14,1,5,1,4,19,95,11
10,4,19,1,6,1,4,19,107,11
10,4,18,1,1,0,4,19,95,11
10,4,21,0,3,0,4,19,93,11
10,4,15,1,4,0,4,19,95,11
10,4,10,1,0,0,4,19,95,11
10,4,12,1,0,0,4,19,3,11
10,4,17,1,1,0,4,19,3,11
11,4,10,1,2,0,4,19,107,11
11,4,11,1,3,0,4,19,3,11
11,4,15,1,4,0,4,19,107,11
11,4,11,1,6,1,4,19,3,11
11,4,5,0,0,0,4,19,81,9
11,4,4,0,0,0,4,19,95,11
11,4,23,0,1,0,4,19,41,11
11,4,20,1,3,0,4,19,71,11
11,4,19,1,4,0,4,19,107,11
11,4,13,1,2,0,4,19,3,11
11,4,12,1,3,0,4,19,115,11
11,4,16,1,4,0,4,19,41,11
11,4,0,0,5,1,4,19,107,11
11,4,4,0,3,0,4,19,107,11
12,1,23,0,0,0,4,19,81,9
12,1,16,1,1,0,4,19,107,11
12,1,17,1,3,0,4,19,132,11
12,1,0,0,4,0,4,19,71,11
12,1,5,0,5,1,4,19,132,11
12,1,13,1,4,0,4,19,3,9
12,1,18,1,6,1,4,19,41,11
12,1,1,0,0,0,4,19,81,9
12,1,9,1,1,0,4,19,132,11
12,1,13,1,1,0,4,19,81,11
12,1,14,1,2,0,4,19,132,11
12,1,10,1,4,0,4,19,132,11
12,1,16,1,5,1,4,19,3,11
12,1,13,1,6,1,4,19,132,11
12,1,18,1,0,0,4,19,3,11
12,1,14,1,1,0,4,19,3,11
12,1,1,0,2,0,4,19,132,11
12,1,19,1,3,0,4,19,107,11
12,1,20,1,4,0,4,19,107,11
12,1,23,0,4,0,4,19,41,9
12,1,16,1,5,1,4,19,107,11
1,1,13,1,6,1,1,44,107,11
1,1,18,1,6,1,1,44,51,11
1,1,22,0,0,0,1,44,71,11
1,1,14,1,0,0,1,44,107,11
1,1,14,1,2,0,1,44,3,11
1,1,9,1,2,0,1,44,3,11
1,1,10,1,2,0,1,44,64,9
1,1,6,0,3,0,1,44,95,11
1,1,14,1,4,0,1,44,71,11
1,1,12,1,5,1,1,44,95,11
1,1,2,0,5,1,1,44,95,11
1,1,20,1,0,0,1,44,102,11
1,1,7,1,2,0,1,44,107,11
1,1,18,1,5,1,1,44,93,11
1,1,23,0,1,0,1,44,41,11
1,1,5,0,1,0,1,44,102,11
1,1,15,1,2,0,1,44,102,11
1,1,18,1,2,0,1,44,107,11
1,1,10,1,2,0,1,44,71,11
1,1,14,1,4,0,1,44,107,11
1,1,17,1,0,0,1,44,81,11
2,1,15,1,3,0,1,44,41,11
2,1,5,0,3,0,1,44,79,11
2,1,23,0,4,0,1,44,71,11
2,1,16,1,0,0,1,44,107,11
2,1,14,1,5,1,1,44,71,11
2,1,15,1,6,1,1,44,95,11
2,1,11,1,3,0,1,44,107,11
2,1,17,1,3,0,1,44,107,11
2,1,1,0,4,0,1,44,102,11
2,1,0,0,4,0,1,44,102,11
2,1,15,1,6,1,1,44,102,11
2,1,13,1,1,0,1,44,107,11
2,1,16,1,1,0,1,44,3,11
2,1,12,1,2,0,1,44,3,11
2,1,12,1,3,0,1,44,107,11
2,1,20,1,1,0,1,44,79,11
3,2,18,1,4,0,1,44,55,11
3,2,14,1,5,1,1,44,93,11
3,2,9,1,6,1,1,44,3,11
3,2,22,0,6,1,1,44,81,11
3,2,3,0,2,0,1,44,102,11
3,2,12,1,5,1,1,44,107,11
3,2,1,0,6,1,1,44,102,11
3,2,12,1,6,1,1,44,93,11
3,2,20,1,6,1,1,44,107,11
3,2,6,0,6,1,1,44,3,11
3,2,13,1,2,0,1,44,95,11
3,2,14,1,3,0,1,44,107,11
3,2,16,1,3,0,1,44,107,11
3,2,18,1,4,0,1,44,107,11
3,2,8,1,3,0,1,44,81,11
3,2,14,1,3,0,1,44,41,11
3,2,21,0,4,0,1,44,41,11
4,2,15,1,5,1,2,44,107,11
4,2,0,0,0,0,2,44,102,11
4,2,20,1,0,0,2,44,107,11
4,2,11,1,0,0,2,44,107,11
4,2,19,1,4,0,2,44,14,11
4,2,13,1,5,1,2,44,102,11
4,2,15,1,6,1,2,44,107,11
4,2,4,0,0,0,2,44,102,11
4,2,18,1,4,0,2,44,107,11
4,2,4,0,6,1,2,44,71,11
4,2,13,1,3,0,2,44,71,11
4,2,13,1,1,0,2,44,107,11
4,2,14,1,1,0,2,44,107,11
4,2,21,0,4,0,2,44,107,11
5,2,1,0,1,0,2,44,102,11
5,2,15,1,3,0,2,44,3,11
5,2,17,1,6,1,2,44,93,11
5,2,21,0,6,1,2,44,95,11
5,2,13,1,6,1,2,44,71,11
5,2,12,1,2,0,2,44,107,11
5,2,11,1,4,0,2,44,3,11
5,2,22,0,2,0,2,44,102,11
6,3,18,1,4,0,2,44,3,11
6,3,15,1,5,1,2,44,102,11
6,3,22,0,2,0,2,44,107,11
6,3,20,1,2,0,2,44,3,11
6,3,15,1,2,0,2,44,107,11
6,3,18,1,6,1,2,44,24,8
6,3,16,1,0,0,2,44,3,11
6,3,17,1,1,0,2,44,107,11
6,3,18,1,4,0,2,44,107,11
7,3,17,1,6,1,3,44,95,9
7,3,12,1,0,0,3,44,107,11
7,3,16,1,2,0,3,44,107,11
7,3,11,1,3,0,3,44,107,11
7,3,18,1,3,0,3,44,95,11
7,3,13,1,4,0,3,44,107,11
7,3,22,0,4,0,3,44,107,11
7,3,12,1,5,1,3,44,107,11
7,3,18,1,6,1,3,44,107,11
7,3,8,1,2,0,3,44,95,11
7,3,23,0,4,0,3,44,115,11
7,3,22,0,4,0,3,44,107,11
7,3,13,1,4,0,3,44,107,11
7,3,14,1,2,0,3,44,94,11
7,3,12,1,2,0,3,44,79,11
7,3,19,1,5,1,3,44,41,11
7,3,18,1,0,0,3,44,95,11
8,3,10,1,5,1,3,44,107,11
8,3,14,1,0,0,3,44,131,11
8,3,19,1,1,0,3,44,81,11
8,3,11,1,3,0,3,44,107,11
8,3,19,1,6,1,3,44,107,11
8,3,16,1,6,1,3,44,107,11
8,3,10,1,1,0,3,44,20,11
8,3,18,1,1,0,3,44,107,11
8,3,12,1,2,0,3,44,107,11
8,3,1,0,5,1,3,44,107,11
8,3,11,1,6,1,3,44,95,11
8,3,12,1,6,1,3,44,107,11
8,3,9,1,1,0,3,44,79,11
8,3,9,1,4,0,3,44,107,11
8,3,18,1,5,1,3,44,3,11
8,3,4,0,5,1,3,44,62,11
8,3,17,1,0,0,3,44,15,11
8,3,8,1,1,0,3,44,20,11
8,3,12,1,1,0,3,44,115,11
8,3,17,1,2,0,3,44,107,11
8,3,17,1,2,0,3,44,107,11
9,4,21,0,4,0,3,44,107,11
9,4,20,1,4,0,3,44,107,11
9,4,15,1,5,1,3,44,107,11
9,4,13,1,6,1,3,44,26,11
9,4,13,1,6,1,3,44,107,11
9,4,9,1,0,0,3,44,79,11
9,4,14,1,1,0,3,44,95,11
9,4,15,1,2,0,3,44,107,11
9,4,19,1,6,1,3,44,107,11
9,4,18,1,2,0,3,44,3,11
9,4,12,1,2,0,3,44,107,11
9,4,19,1,4,0,3,44,107,11
9,4,17,1,4,0,3,44,107,11
9,4,12,1,0,0,3,44,107,11
9,4,11,1,1,0,3,44,95,11
9,4,22,0,2,0,3,44,94,11
9,4,13,1,2,0,3,44,71,11
10,4,12,1,2,0,4,44,116,11
10,4,12,1,3,0,4,44,95,11
10,4,20,1,3,0,4,44,93,11
10,4,10,1,5,1,4,44,69,9
10,4,6,0,5,1,4,44,14,9
10,4,18,1,6,1,4,44,107,11
10,4,20,1,0,0,4,44,79,9
10,4,8,1,0,0,4,44,20,11
10,4,23,0,1,0,4,44,94,9
10,4,19,1,5,1,4,44,107,11
10,4,17,1,0,0,4,44,71,11
10,4,18,1,4,0,4,44,71,11
10,4,6,0,6,1,4,44,107,11
10,4,14,1,0,0,4,44,107,11
10,4,13,1,0,0,4,44,107,11
11,4,9,1,2,0,4,44,71,9
11,4,12,1,3,0,4,44,84,11
11,4,14,1,5,1,4,44,107,11
11,4,20,1,6,1,4,44,71,11
11,4,22,0,5,1,4,44,107,11
11,4,15,1,3,0,4,44,115,11
11,4,16,1,5,1,4,44,41,11
11,4,18,1,1,0,4,44,95,11
12,1,19,1,4,0,4,44,115,11
12,1,3,0,5,1,4,44,81,11
12,1,15,1,5,1,4,44,79,11
12,1,11,1,6,1,4,44,94,11
12,1,8,1,0,0,4,44,73,11
12,1,21,0,0,0,4,44,41,11
12,1,20,1,5,1,4,44,79,9
12,1,20,1,0,0,4,44,81,8
12,1,10,1,2,0,4,44,14,11
12,1,14,1,2,0,4,44,95,11
12,1,18,1,1,0,4,44,3,11
12,1,10,1,6,1,4,44,81,11
1,1,3,0,6,1,1,44,81,11
1,1,17,1,6,1,1,44,107,11
1,1,2,0,0,0,1,44,81,11
1,1,22,0,0,0,1,44,102,11
1,1,16,1,0,0,1,44,107,11
1,1,10,1,2,0,1,44,81,11
1,1,7,1,5,1,1,44,81,11
2,1,17,1,2,0,1,44,3,11
2,1,6,0,2,0,1,44,102,11
2,1,9,1,5,1,1,44,79,11
3,2,14,1,4,0,1,44,3,11
3,2,19,1,6,1,1,44,3,11
4,2,17,1,1,0,2,44,3,11
4,2,17,1,1,0,2,44,52,11
4,2,11,1,2,0,2,44,3,11
4,2,14,1,3,0,2,44,3,11
4,2,15,1,3,0,2,44,107,11
5,2,12,1,4,0,2,44,3,11
5,2,9,1,6,1,2,44,3,11
5,2,9,1,6,1,2,44,81,11
6,3,14,1,3,0,2,44,81,11
6,3,21,0,0,0,2,44,115,11
6,3,21,0,1,0,2,44,3,11
7,3,13,1,0,0,3,44,107,11
7,3,14,1,1,0,3,44,107,11
7,3,20,1,2,0,3,44,81,11
7,3,10,1,6,1,3,44,3,11
7,3,23,0,3,0,3,44,107,11
7,3,23,0,4,0,3,44,115,11
7,3,23,0,4,0,3,44,107,11
7,3,0,0,5,1,3,44,115,11
7,3,15,1,0,0,3,44,3,11
8,3,20,1,5,1,3,44,70,11
8,3,10,1,5,1,3,44,3,11
8,3,13,1,6,1,3,44,107,11
8,3,18,1,1,0,3,44,81,11
8,3,13,1,2,0,3,44,3,11
9,4,19,1,1,0,3,44,13,11
9,4,4,0,2,0,3,44,121,11
9,4,15,1,2,0,3,44,13,11
9,4,13,1,4,0,3,44,61,11
9,4,10,1,4,0,3,44,3,11
9,4,11,1,3,0,3,44,107,11
9,4,18,1,6,1,3,44,107,11
10,4,14,1,3,0,4,44,107,11
10,4,16,1,2,0,4,44,107,11
10,4,15,1,2,0,4,44,107,11
11,4,17,1,4,0,4,44,3,11
11,4,18,1,5,1,4,44,81,11
11,4,18,1,3,0,4,44,14,11
12,1,13,1,3,0,4,44,107,11
12,1,12,1,4,0,4,44,107,11
12,1,13,1,6,1,4,44,21,11
12,1,18,1,2,0,4,44,107,11
12,1,14,1,3,0,4,44,107,11
12,1,18,1,3,0,4,44,107,11
12,1,16,1,3,0,4,44,71,11
1,1,22,0,3,0,1,44,13,9
1,1,21,0,2,0,1,44,102,11
1,1,14,1,5,1,1,44,71,9
1,1,0,0,5,1,1,44,81,11
1,1,11,1,0,0,1,44,107,11
2,1,7,1,5,1,1,44,93,11
2,1,11,1,0,0,1,44,95,11
2,1,18,1,0,0,1,44,107,11
2,1,14,1,2,0,1,44,95,11
2,1,17,1,2,0,1,44,107,11
2,1,12,1,3,0,1,44,107,11
2,1,16,1,5,1,1,44,3,11
3,2,17,1,4,0,1,44,107,11
3,2,17,1,1,0,1,44,107,11
3,2,17,1,2,0,1,44,107,11
3,2,11,1,3,0,1,44,107,11
3,2,15,1,4,0,1,44,93,11
3,2,15,1,6,1,1,44,107,11
3,2,20,1,6,1,1,44,107,11
3,2,19,1,1,0,1,44,107,11
3,2,23,0,2,0,1,44,79,11
3,2,0,0,4,0,1,44,81,11
3,2,14,1,4,0,1,44,3,11
3,2,13,1,5,1,1,44,107,11
3,2,12,1,3,0,1,44,3,11
3,2,16,1,3,0,1,44,107,11
4,2,16,1,5,1,2,44,107,11
4,2,21,0,6,1,2,44,81,11
4,2,5,0,4,0,2,44,79,11
4,2,22,0,5,1,2,44,107,11
5,2,12,1,1,0,2,44,3,11
5,2,21,0,2,0,2,44,3,11
5,2,3,0,5,1,2,44,21,11
5,2,15,1,5,1,2,44,3,11
5,2,11,1,1,0,2,44,107,11
5,2,1,0,4,0,2,44,3,11
5,2,10,1,4,0,2,44,3,11
6,3,12,1,0,0,2,44,20,11
6,3,0,0,1,0,2,44,51,11
6,3,14,1,5,1,2,44,20,11
6,3,11,1,6,1,2,44,92,11
6,3,16,1,1,0,2,44,81,11
7,3,13,1,6,1,3,44,107,11
7,3,12,1,4,0,3,44,107,11
7,3,20,1,0,0,3,44,107,11
7,3,15,1,2,0,3,44,93,11
7,3,12,1,0,0,3,44,81,11
8,3,21,0,3,0,3,44,107,11
8,3,19,1,2,0,3,44,107,11
8,3,19,1,3,0,3,44,107,11
8,3,10,1,3,0,3,44,107,11
8,3,17,1,5,1,3,44,118,11
8,3,11,1,6,1,3,44,107,11
9,4,11,1,0,0,3,44,95,11
9,4,12,1,1,0,3,44,107,11
9,4,12,1,2,0,3,44,107,11
9,4,16,1,3,0,3,44,107,11
9,4,14,1,4,0,3,44,3,9
9,4,19,1,4,0,3,44,95,11
10,4,12,1,3,0,4,44,21,11
10,4,14,1,5,1,4,44,3,11
10,4,9,1,5,1,4,44,107,11
10,4,20,1,6,1,4,44,14,11
10,4,14,1,1,0,4,44,107,11
11,4,22,0,2,0,4,44,24,9
11,4,20,1,3,0,4,44,102,11
12,1,18,1,4,0,4,44,115,11
12,1,23,0,6,1,4,44,13,9
12,1,12,1,1,0,4,44,41,11
1,1,20,1,6,1,1,44,21,9
2,1,19,1,4,0,1,44,41,11
3,2,11,1,4,0,1,44,81,11
4,2,1,0,5,1,2,44,41,11
4,2,13,1,3,0,2,44,81,11
5,2,22,0,0,0,2,44,107,11
7,3,1,0,3,0,3,44,21,11
8,3,19,1,2,0,3,44,20,11
9,4,13,1,4,0,3,44,107,11
9,4,13,1,3,0,3,44,107,11
9,4,17,1,3,0,3,44,95,11
9,4,21,0,1,0,3,44,69,11
10,4,10,1,5,1,4,44,81,11
10,4,9,1,6,1,4,44,132,11
12,1,9,1,5,1,4,44,81,11
1,1,17,1,3,0,1,44,81,11
1,1,9,1,6,1,1,44,81,11
2,1,20,1,2,0,1,44,81,11
3,2,17,1,2,0,1,44,81,11
3,2,18,1,6,1,1,44,20,11
4,2,7,1,1,0,2,44,13,11
5,2,16,1,5,1,2,44,130,11
5,2,15,1,3,0,2,44,107,11
6,3,20,1,4,0,2,44,81,11
7,3,15,1,6,1,3,44,107,11
7,3,8,1,4,0,3,44,107,11
8,3,14,1,6,1,3,44,132,11
8,3,11,1,3,0,3,44,20,11
8,3,19,1,0,0,3,44,107,11
9,4,1,0,4,0,3,44,107,11
9,4,17,1,2,0,3,44,95,11
10,4,11,1,1,0,4,44,95,11
10,4,10,1,3,0,4,44,13,9
10,4,14,1,0,0,4,44,81,11
11,4,11,1,6,1,4,44,107,11
11,4,17,1,1,0,4,44,41,11
12,1,19,1,3,0,4,44,107,11
12,1,1,0,0,0,4,44,132,11
1,1,16,1,0,0,1,44,41,9
1,1,17,1,5,1,1,44,93,11
1,1,8,1,6,1,1,44,41,8
2,1,18,1,4,0,1,44,107,11
2,1,20,1,4,0,1,44,81,11
2,1,14,1,0,0,1,44,107,11
2,1,12,1,0,0,1,44,107,11
2,1,17,1,4,0,1,44,3,11
3,2,18,1,4,0,1,44,107,11
4,2,15,1,5,1,2,44,107,11
4,2,14,1,6,1,2,44,107,11
4,2,21,0,0,0,2,44,3,11
4,2,9,1,1,0,2,44,93,11
4,2,2,0,1,0,2,44,79,11
4,2,13,1,2,0,2,44,107,11
4,2,19,1,4,0,2,44,107,11
4,2,15,1,1,0,2,44,107,11
4,2,13,1,3,0,2,44,107,11
4,2,14,1,3,0,2,44,107,11
4,2,13,1,5,1,2,44,3,11
5,2,11,1,2,0,2,44,81,9
7,3,6,0,0,0,3,44,79,11
7,3,11,1,2,0,3,44,107,11
7,3,19,1,2,0,3,44,81,9
7,3,9,1,3,0,3,44,115,11
8,3,10,1,3,0,3,44,81,9
9,4,3,0,5,1,3,44,14,11
9,4,18,1,0,0,3,44,14,9
9,4,8,1,0,0,3,44,21,9
9,4,2,0,0,0,3,44,107,11
9,4,14,1,2,0,3,44,107,11
9,4,19,1,5,1,3,44,107,11
10,4,17,1,3,0,4,44,107,11
10,4,10,1,6,1,4,44,3,11
10,4,19,1,1,0,4,44,107,11
10,4,8,1,3,0,4,44,95,11
10,4,2,0,2,0,4,44,93,9
10,4,7,1,1,0,4,44,3,11
11,4,18,1,4,0,4,44,81,11
11,4,0,0,6,1,4,44,81,9
1,1,5,0,5,1,1,49,103,11
1,1,5,0,0,0,1,49,81,11
1,1,19,1,2,0,1,49,20,11
2,1,9,1,3,0,1,49,14,11
2,1,10,1,1,0,1,49,20,11
4,2,17,1,3,0,2,49,81,11
5,2,10,1,4,0,2,49,79,11
6,3,22,0,1,0,2,49,81,11
7,3,16,1,6,1,3,49,95,11
7,3,3,0,2,0,3,49,122,9
7,3,2,0,4,0,3,49,81,11
7,3,4,0,6,1,3,49,20,11
8,3,13,1,1,0,3,49,79,11
9,4,3,0,0,0,3,49,20,11
9,4,8,1,4,0,3,49,95,11
11,4,14,1,5,1,4,49,13,8
11,4,9,1,0,0,4,49,79,9
11,4,17,1,1,0,4,49,20,11
11,4,14,1,1,0,4,49,81,11
12,1,0,0,5,1,4,49,115,11
12,1,23,0,3,0,4,49,81,11
12,1,11,1,6,1,4,49,14,11
12,1,2,0,6,1,4,49,95,11
9,4,13,1,4,0,3,49,20,11
1,1,0,0,6,1,1,49,41,11
2,1,0,0,6,1,1,49,132,11
3,2,12,1,5,1,1,49,95,11
3,2,16,1,6,1,1,49,95,11
3,2,12,1,6,1,1,49,95,9
4,2,20,1,2,0,2,49,132,11
4,2,12,1,1,0,2,49,122,11
4,2,14,1,3,0,2,49,95,11
6,3,10,1,5,1,2,49,95,11
7,3,13,1,1,0,3,49,20,9
9,4,8,1,0,0,3,49,71,9
10,4,16,1,3,0,4,49,20,11
12,1,8,1,5,1,4,49,20,11
1,1,19,1,0,0,1,49,95,11
1,1,11,1,2,0,1,49,107,11
1,1,20,1,2,0,1,49,107,11
1,1,23,0,6,1,1,49,41,11
1,1,11,1,0,0,1,49,132,11
1,1,19,1,2,0,1,49,13,11
1,1,19,1,5,1,1,49,132,11
1,1,19,1,4,0,1,49,13,9
2,1,16,1,4,0,1,49,95,9
2,1,0,0,6,1,1,49,95,11
2,1,10,1,1,0,1,49,20,9
2,1,13,1,2,0,1,49,95,11
2,1,18,1,2,0,1,49,95,11
2,1,20,1,5,1,1,49,95,11
2,1,3,0,0,0,1,49,79,11
2,1,15,1,6,1,1,49,132,11
3,2,21,0,5,1,1,49,132,11
3,2,10,1,6,1,1,49,95,11
3,2,14,1,0,0,1,49,95,11
3,2,12,1,6,1,1,49,41,9
3,2,22,0,0,0,1,49,107,11
3,2,15,1,2,0,1,49,95,11
3,2,15,1,1,0,1,49,107,11
4,2,18,1,0,0,2,49,71,11
4,2,21,0,2,0,2,49,132,11
4,2,16,1,0,0,2,49,95,11
4,2,11,1,2,0,2,49,95,11
4,2,0,0,3,0,2,49,132,11
4,2,21,0,2,0,2,49,132,11
4,2,13,1,3,0,2,49,95,9
4,2,17,1,5,1,2,49,95,11
4,2,12,1,3,0,2,49,95,9
4,2,9,1,4,0,2,49,107,11
5,2,5,0,3,0,2,49,121,11
5,2,12,1,3,0,2,49,132,11
5,2,10,1,3,0,2,49,95,11
5,2,18,1,1,0,2,49,95,11
5,2,15,1,2,0,2,49,95,11
6,3,7,1,0,0,2,49,122,11
6,3,14,1,3,0,2,49,132,11
6,3,9,1,1,0,2,49,19,11
6,3,20,1,3,0,2,49,107,11
6,3,12,1,0,0,2,49,81,11
6,3,9,1,2,0,2,49,122,9
7,3,13,1,5,1,3,49,55,11
7,3,6,0,0,0,3,49,41,9
7,3,19,1,2,0,3,49,95,11
7,3,17,1,6,1,3,49,50,11
7,3,7,1,2,0,3,49,95,11
8,3,3,0,6,1,3,49,132,11
8,3,23,0,1,0,3,49,132,11
8,3,18,1,5,1,3,49,95,11
9,4,7,1,0,0,3,49,132,11
9,4,23,0,2,0,3,49,20,11
10,4,22,0,4,0,4,49,20,11
10,4,13,1,0,0,4,49,107,11
10,4,14,1,0,0,4,49,95,11
10,4,18,1,0,0,4,49,95,11
10,4,20,1,2,0,4,49,81,11
10,4,7,1,0,0,4,49,41,11
10,4,7,1,0,0,4,49,95,11
10,4,13,1,1,0,4,49,107,11
11,4,16,1,5,1,4,49,41,11
12,1,14,1,2,0,4,49,107,11
12,1,18,1,3,0,4,49,20,11
12,1,0,0,3,0,4,49,41,11
12,1,15,1,6,1,4,49,95,11
12,1,3,0,0,0,4,49,81,9
1,1,3,0,0,0,1,49,122,11
2,1,22,0,1,0,1,49,79,11
3,2,12,1,5,1,1,49,69,11
4,2,11,1,2,0,2,49,71,11
5,2,11,1,6,1,2,49,51,11
6,3,9,1,5,1,2,49,81,11
7,3,19,1,0,0,3,49,20,11
7,3,15,1,1,0,3,49,51,11
10,4,14,1,1,0,4,49,20,11
10,4,15,1,5,1,4,49,95,11
10,4,13,1,1,0,4,49,132,9
11,4,1,0,4,0,4,49,13,11
12,1,11,1,1,0,4,49,41,11
1,1,22,0,6,1,1,49,81,11
1,1,12,1,3,0,1,49,115,11
2,1,20,1,4,0,1,49,81,11
2,1,11,1,2,0,1,49,81,11
2,1,23,0,6,1,1,49,41,11
5,2,18,1,2,0,2,49,115,11
5,2,19,1,4,0,2,49,81,11
6,3,11,1,5,1,2,49,41,11
8,3,13,1,2,0,3,49,41,11
10,4,14,1,6,1,4,49,95,11
10,4,14,1,0,0,4,49,33,11
10,4,14,1,1,0,4,49,77,11
12,1,7,1,0,0,4,49,81,11
12,1,15,1,2,0,4,49,81,11
1,1,12,1,6,1,1,26,102,11
1,1,12,1,6,1,1,26,102,11
1,1,17,1,6,1,1,26,102,11
1,1,16,1,0,0,1,26,93,11
1,1,10,1,1,0,1,26,73,11
1,1,4,0,0,0,1,26,102,11
1,1,15,1,3,0,1,26,107,11
1,1,4,0,3,0,1,26,95,9
1,1,12,1,6,1,1,26,41,11
1,1,8,1,1,0,1,26,81,11
1,1,17,1,1,0,1,26,14,9
2,1,1,0,3,0,1,26,81,11
2,1,6,0,0,0,1,26,94,11
2,1,18,1,2,0,1,26,95,11
2,1,17,1,5,1,1,26,95,11
3,2,13,1,4,0,1,26,95,11
3,2,11,1,2,0,1,26,115,11
3,2,9,1,1,0,1,26,93,11
3,2,15,1,2,0,1,26,79,11
3,2,10,1,3,0,1,26,95,11
4,2,14,1,6,1,2,26,95,11
4,2,4,0,6,1,2,26,81,11
4,2,14,1,6,1,2,26,41,11
4,2,3,0,3,0,2,26,95,11
4,2,4,0,6,1,2,26,93,11
4,2,23,0,6,1,2,26,41,11
4,2,9,1,1,0,2,26,79,11
4,2,11,1,2,0,2,26,107,11
4,2,15,1,2,0,2,26,95,11
4,2,21,0,3,0,2,26,79,11
4,2,11,1,4,0,2,26,41,11
6,3,22,0,6,1,2,26,115,11
6,3,18,1,1,0,2,26,26,11
6,3,9,1,5,1,2,26,71,11
6,3,14,1,0,0,2,26,95,11
7,3,13,1,6,1,3,26,81,11
7,3,12,1,0,0,3,26,95,11
7,3,16,1,3,0,3,26,81,11
7,3,15,1,5,1,3,26,95,11
7,3,7,1,2,0,3,26,79,11
7,3,16,1,3,0,3,26,20,11
7,3,6,0,5,1,3,26,115,11
7,3,22,0,2,0,3,26,62,11
7,3,15,1,3,0,3,26,107,11
8,3,19,1,3,0,3,26,93,11
8,3,17,1,5,1,3,26,95,11
8,3,16,1,6,1,3,26,95,11
8,3,7,1,3,0,3,26,79,11
9,4,8,1,1,0,3,26,93,11
9,4,19,1,1,0,3,26,95,11
9,4,2,0,5,1,3,26,102,11
9,4,16,1,2,0,3,26,107,11
9,4,12,1,2,0,3,26,49,8
10,4,16,1,4,0,4,26,95,11
10,4,18,1,6,1,4,26,95,11
10,4,9,1,1,0,4,26,81,11
10,4,12,1,1,0,4,26,95,11
10,4,18,1,1,0,4,26,107,11
10,4,9,1,3,0,4,26,79,11
10,4,15,1,3,0,4,26,95,11
11,4,12,1,4,0,4,26,107,11
11,4,3,0,6,1,4,26,81,8
11,4,1,0,0,0,4,26,51,11
11,4,22,0,1,0,4,26,81,8
11,4,12,1,3,0,4,26,71,11
11,4,21,0,4,0,4,26,102,11
11,4,5,0,2,0,4,26,115,11
11,4,11,1,0,0,4,26,115,11
11,4,10,1,4,0,4,26,79,11
11,4,9,1,0,0,4,26,115,11
12,1,10,1,1,0,4,26,41,11
12,1,21,0,1,0,4,26,41,11
12,1,15,1,3,0,4,26,71,11
12,1,1,0,4,0,4,26,81,11
12,1,18,1,6,1,4,26,79,11
12,1,14,1,4,0,4,26,102,11
12,1,14,1,6,1,4,26,71,11
1,1,5,0,0,0,1,26,81,9
3,2,22,0,5,1,1,26,107,11
4,2,23,0,6,1,2,26,105,11
10,4,13,1,5,1,4,26,81,11
11,4,9,1,1,0,4,26,115,11
12,1,19,1,0,0,4,26,81,11
12,1,14,1,6,1,4,26,63,11
2,1,19,1,6,1,1,26,107,11
2,1,5,0,0,0,1,26,13,8
2,1,5,0,0,0,1,26,13,8
3,2,16,1,5,1,1,26,14,11
3,2,12,1,4,0,1,26,20,11
4,2,15,1,6,1,2,26,107,11
6,3,18,1,5,1,2,26,24,11
6,3,21,0,1,0,2,26,107,11
7,3,11,1,0,0,3,26,107,11
8,3,4,0,2,0,3,26,69,11
8,3,15,1,3,0,3,26,12,11
8,3,12,1,5,1,3,26,132,11
8,3,17,1,0,0,3,26,95,11
9,4,15,1,1,0,3,26,49,8
10,4,19,1,2,0,4,26,107,11
10,4,19,1,5,1,4,26,3,11
11,4,13,1,6,1,4,26,81,11
11,4,18,1,4,0,4,26,81,11
1,1,12,1,6,1,1,26,14,9
1,1,5,0,0,0,1,26,81,11
1,1,18,1,4,0,1,26,81,9
1,1,22,0,4,0,1,26,93,11
1,1,23,0,1,0,1,26,102,11
1,1,21,0,2,0,1,26,107,11
1,1,3,0,0,0,1,26,71,11
2,1,15,1,3,0,1,26,107,11
2,1,17,1,6,1,1,26,95,11
2,1,21,0,0,0,1,26,118,9
2,1,0,0,5,1,1,26,101,11
2,1,13,1,6,1,1,26,95,11
2,1,17,1,3,0,1,26,95,9
2,1,6,0,1,0,1,26,81,11
3,2,18,1,6,1,1,26,14,11
3,2,6,0,2,0,1,26,115,11
3,2,11,1,1,0,1,26,81,11
3,2,23,0,3,0,1,26,20,11
6,3,14,1,3,0,2,26,115,11
6,3,4,0,4,0,2,26,15,11
6,3,3,0,5,1,2,26,20,11
7,3,14,1,2,0,3,26,3,11
8,3,16,1,6,1,3,26,95,11
8,3,5,0,3,0,3,26,95,11
8,3,20,1,1,0,3,26,95,11
9,4,14,1,2,0,3,26,91,8
10,4,1,0,6,1,4,26,20,11
12,1,23,0,2,0,4,26,41,11
1,1,0,0,0,0,1,38,93,11
1,1,10,1,1,0,1,38,81,11
1,1,15,1,6,1,1,38,81,11
1,1,14,1,0,0,1,38,93,11
1,1,5,0,1,0,1,38,45,11
1,1,19,1,3,0,1,38,132,11
1,1,11,1,6,1,1,38,41,11
2,1,12,1,2,0,1,38,71,11
2,1,15,1,2,0,1,38,79,11
3,2,13,1,3,0,1,38,95,11
3,2,20,1,1,0,1,38,71,11
4,2,12,1,4,0,2,38,20,11
5,2,13,1,1,0,2,38,81,11
6,3,18,1,2,0,2,38,20,11
6,3,23,0,1,0,2,38,41,11
6,3,21,0,3,0,2,38,79,9
7,3,13,1,0,0,3,38,95,11
7,3,17,1,2,0,3,38,124,11
7,3,10,1,3,0,3,38,71,11
7,3,12,1,0,0,3,38,81,11
7,3,12,1,4,0,3,38,93,11
8,3,13,1,1,0,3,38,95,11
8,3,13,1,4,0,3,38,81,11
8,3,15,1,0,0,3,38,95,11
8,3,20,1,6,1,3,38,107,11
8,3,11,1,1,0,3,38,93,11
9,4,20,1,5,1,3,38,107,11
9,4,18,1,0,0,3,38,81,11
9,4,17,1,1,0,3,38,107,11
9,4,18,1,1,0,3,38,3,11
10,4,23,0,6,1,4,38,41,8
11,4,3,0,3,0,4,38,14,11
11,4,23,0,2,0,4,38,93,11
11,4,0,0,6,1,4,38,71,11
12,1,11,1,5,1,4,38,93,11
12,1,11,1,1,0,4,38,71,11
12,1,18,1,6,1,4,38,107,11
1,1,6,0,3,0,1,38,81,8
1,1,17,1,4,0,1,38,41,11
1,1,10,1,3,0,1,38,41,11
1,1,18,1,6,1,1,38,81,11
1,1,2,0,4,0,1,38,102,11
1,1,14,1,5,1,1,38,95,11
1,1,17,1,2,0,1,38,41,11
1,1,4,0,1,0,1,38,102,11
2,1,3,0,2,0,1,19,79,11
3,2,23,0,3,0,1,38,71,9
3,2,0,0,2,0,1,19,13,11
4,2,20,1,0,0,2,19,81,11
4,2,4,0,2,0,2,38,81,11
4,2,8,1,6,1,2,38,113,8
4,2,17,1,6,1,2,38,102,11
5,2,1,0,0,0,2,38,114,11
5,2,12,1,2,0,2,38,93,11
5,2,21,0,6,1,2,38,102,11
6,3,21,0,5,1,2,38,81,11
6,3,1,0,1,0,2,38,95,11
6,3,12,1,5,1,2,38,13,9
7,3,18,1,5,1,3,38,116,11
7,3,16,1,2,0,3,19,26,11
7,3,10,1,5,1,3,38,81,11
7,3,14,1,4,0,3,38,14,11
7,3,15,1,0,0,3,38,20,11
7,3,17,1,5,1,3,19,95,11
8,3,7,1,4,0,3,38,20,11
8,3,8,1,5,1,3,19,102,11
8,3,21,0,3,0,3,38,102,11
8,3,2,0,0,0,3,38,62,11
9,4,10,1,4,0,3,38,71,11
9,4,18,1,6,1,3,38,81,11
9,4,0,0,1,0,3,38,81,11
9,4,13,1,3,0,3,38,95,11
9,4,7,1,3,0,3,38,114,8
9,4,13,1,6,1,3,38,81,11
10,4,22,0,5,1,4,38,21,11
10,4,3,0,5,1,4,38,95,11
10,4,17,1,1,0,4,38,41,11
10,4,23,0,5,1,4,38,79,11
10,4,12,1,6,1,4,19,79,11
10,4,15,1,3,0,4,38,95,11
10,4,21,0,3,0,4,38,26,11
10,4,11,1,1,0,4,38,95,11
10,4,15,1,1,0,4,38,95,11
11,4,12,1,2,0,4,38,95,11
11,4,14,1,6,1,4,38,26,11
11,4,0,0,6,1,4,19,115,11
11,4,18,1,1,0,4,38,81,11
11,4,11,1,1,0,4,38,13,11
11,4,21,0,6,1,4,38,115,11
12,1,0,0,1,0,4,19,81,11
12,1,18,1,4,0,4,19,41,11
12,1,0,0,6,1,4,38,81,11
12,1,21,0,6,1,4,38,41,11
12,1,5,0,0,0,4,38,102,11
1,1,2,0,6,1,1,38,93,11
1,1,19,1,2,0,1,38,93,11
2,1,10,1,6,1,1,38,107,11
2,1,18,1,3,0,1,38,71,11
2,1,23,0,6,1,1,38,109,11
3,2,11,1,5,1,1,38,107,11
3,2,14,1,1,0,1,38,13,8
4,2,19,1,6,1,2,38,41,9
4,2,20,1,1,0,2,38,95,11
6,3,0,0,2,0,2,38,102,11
6,3,6,0,3,0,2,38,41,11
6,3,17,1,3,0,2,38,95,9
6,3,7,1,0,0,2,38,50,11
7,3,10,1,3,0,3,38,45,11
7,3,21,0,6,1,3,38,3,11
8,3,12,1,4,0,3,38,14,8
10,4,5,0,5,1,4,38,20,9
10,4,13,1,5,1,4,38,114,11
10,4,8,1,1,0,4,38,41,8
10,4,3,0,6,1,4,38,20,11
10,4,11,1,6,1,4,38,13,11
11,4,11,1,3,0,4,38,41,11
11,4,9,1,0,0,4,38,115,11
12,1,14,1,4,0,4,38,41,11
12,1,19,1,6,1,4,38,102,11
12,1,18,1,2,0,4,38,82,11
1,1,16,1,0,0,1,16,71,11
1,1,17,1,0,0,1,16,81,11
1,1,2,0,1,0,1,16,71,11
1,1,21,0,3,0,1,16,81,11
1,1,14,1,5,1,1,16,71,11
1,1,18,1,5,1,1,16,73,9
1,1,17,1,0,0,1,16,81,9
1,1,2,0,3,0,1,16,13,11
1,1,13,1,1,0,1,16,20,11
1,1,14,1,3,0,1,16,71,11
1,1,20,1,3,0,1,16,81,9
1,1,21,0,3,0,1,16,71,11
2,1,19,1,1,0,1,16,62,11
2,1,13,1,3,0,1,16,81,9
2,1,6,0,5,1,1,16,20,11
2,1,23,0,6,1,1,16,55,11
2,1,21,0,0,0,1,16,95,11
2,1,15,1,1,0,1,16,62,11
2,1,11,1,3,0,1,16,81,9
2,1,9,1,1,0,1,16,81,11
2,1,9,1,3,0,1,16,20,11
2,1,3,0,5,1,1,16,20,11
3,2,17,1,2,0,1,16,71,11
4,2,20,1,4,0,2,16,130,11
4,2,14,1,4,0,2,16,95,11
4,2,16,1,3,0,2,16,81,11
4,2,13,1,4,0,2,16,71,11
4,2,14,1,5,1,2,16,107,11
4,2,10,1,0,0,2,16,79,11
4,2,20,1,2,0,2,16,81,11
5,2,12,1,0,0,2,16,69,11
5,2,9,1,0,0,2,16,71,9
5,2,20,1,5,1,2,16,71,11
5,2,9,1,6,1,2,16,20,11
5,2,8,1,0,0,2,16,20,11
5,2,5,0,2,0,2,16,95,11
5,2,18,1,2,0,2,16,93,11
5,2,9,1,4,0,2,16,24,11
6,3,20,1,2,0,2,16,71,11
6,3,9,1,3,0,2,16,79,11
6,3,18,1,3,0,2,16,81,11
6,3,11,1,3,0,2,16,24,11
7,3,18,1,6,1,3,16,93,11
7,3,2,0,5,1,3,16,92,11
7,3,15,1,1,0,3,16,107,11
7,3,18,1,4,0,3,16,81,11
7,3,11,1,5,1,3,16,79,11
7,3,21,0,1,0,3,16,107,11
7,3,6,0,5,1,3,16,81,11
7,3,20,1,0,0,3,16,95,11
8,3,14,1,2,0,3,16,95,11
8,3,20,1,3,0,3,16,93,11
8,3,11,1,1,0,3,16,86,11
8,3,20,1,6,1,3,16,95,11
8,3,14,1,3,0,3,16,20,11
9,4,23,0,4,0,3,16,56,11
9,4,0,0,4,0,3,16,103,11
9,4,3,0,4,0,3,16,81,9
9,4,20,1,2,0,3,16,93,11
9,4,2,0,3,0,3,16,62,11
9,4,14,1,1,0,3,16,81,11
10,4,3,0,1,0,4,16,24,8
10,4,14,1,4,0,4,16,95,11
10,4,14,1,2,0,4,16,95,11
10,4,1,0,3,0,4,16,79,11
11,4,3,0,6,1,4,16,79,11
11,4,10,1,6,1,4,16,71,11
11,4,14,1,3,0,4,16,81,11
11,4,9,1,3,0,4,16,71,11
12,1,16,1,4,0,4,16,14,11
12,1,9,1,0,0,4,16,71,9
12,1,22,0,2,0,4,16,20,11
12,1,18,1,3,0,4,16,71,11
12,1,3,0,5,1,4,16,81,11
12,1,19,1,5,1,4,16,107,11
12,1,18,1,0,0,4,16,49,8
12,1,15,1,2,0,4,16,79,11
12,1,13,1,4,0,4,16,71,11
12,1,17,1,0,0,4,16,71,11
12,1,14,1,4,0,4,16,71,11
12,1,1,0,1,0,4,16,95,11
12,1,11,1,1,0,4,16,13,9
10,4,20,1,6,1,4,16,107,11
1,1,4,0,3,0,1,16,81,11
1,1,15,1,5,1,1,16,81,11
1,1,18,1,1,0,1,16,115,11
1,1,16,1,5,1,1,16,71,11
3,2,8,1,4,0,1,16,81,11
3,2,14,1,0,0,1,16,3,11
4,2,13,1,3,0,2,16,24,11
5,2,16,1,0,0,2,16,107,11
6,3,14,1,3,0,2,16,71,11
6,3,4,0,1,0,2,16,81,8
7,3,14,1,3,0,3,16,132,11
7,3,11,1,2,0,3,16,107,11
9,4,14,1,2,0,3,16,95,11
9,4,18,1,5,1,3,16,107,11
9,4,21,0,0,0,3,16,95,11
9,4,15,1,2,0,3,16,51,11
9,4,13,1,2,0,3,16,81,11
10,4,8,1,0,0,4,16,95,11
11,4,10,1,6,1,4,16,107,11
11,4,21,0,2,0,4,16,81,8
11,4,5,0,3,0,4,16,81,11
12,1,9,1,2,0,4,16,13,11
12,1,21,0,4,0,4,16,14,11
1,1,16,1,0,0,1,16,95,11
1,1,23,0,2,0,1,16,81,11
1,1,22,0,0,0,1,16,81,8
1,1,2,0,0,0,1,16,13,9
1,1,11,1,1,0,1,16,20,11
2,1,15,1,6,1,1,19,95,11
2,1,7,1,4,0,1,16,20,11
3,2,16,1,4,0,1,16,14,9
3,2,9,1,6,1,1,16,81,11
3,2,17,1,0,0,1,16,13,11
3,2,13,1,1,0,1,16,95,11
3,2,0,0,3,0,1,16,93,11
3,2,14,1,5,1,1,16,14,8
3,2,4,0,0,0,1,16,93,11
4,2,2,0,3,0,2,16,79,9
4,2,12,1,0,0,2,16,79,11
4,2,16,1,1,0,2,16,41,9
4,2,11,1,4,0,2,16,86,11
5,2,22,0,0,0,2,16,95,11
5,2,5,0,4,0,2,16,3,11
6,3,13,1,0,0,2,16,81,11
6,3,1,0,5,1,2,16,20,11
6,3,10,1,1,0,2,19,81,11
6,3,20,1,4,0,2,16,49,9
6,3,1,0,6,1,2,16,14,11
6,3,14,1,3,0,2,16,93,11
6,3,20,1,3,0,2,16,95,11
7,3,13,1,1,0,3,19,95,11
7,3,21,0,2,0,3,16,12,11
9,4,2,0,1,0,3,16,20,11
9,4,15,1,4,0,3,16,26,11
9,4,13,1,1,0,3,16,13,11
9,4,19,1,1,0,3,16,7,9
10,4,17,1,0,0,4,16,95,11
10,4,23,0,3,0,4,16,95,11
10,4,12,1,2,0,4,16,21,11
10,4,15,1,4,0,4,16,114,9
10,4,19,1,3,0,4,16,13,11
10,4,23,0,6,1,4,16,20,11
11,4,12,1,2,0,4,16,95,11
11,4,23,0,6,1,4,19,20,11
11,4,14,1,4,0,4,16,20,11
12,1,17,1,4,0,4,16,73,11
12,1,6,0,2,0,4,16,102,11
1,1,17,1,0,0,1,39,95,11
1,1,13,1,0,0,1,39,132,11
1,1,12,1,5,1,1,39,41,11
1,1,19,1,6,1,1,39,107,11
1,1,11,1,6,1,1,39,41,11
1,1,12,1,0,0,1,39,71,11
1,1,12,1,2,0,1,39,81,11
1,1,20,1,2,0,1,39,81,11
1,1,1,0,2,0,1,39,78,9
1,1,0,0,5,1,1,39,71,11
1,1,22,0,6,1,1,39,71,8
2,1,19,1,3,0,1,39,132,11
2,1,13,1,0,0,1,39,95,11
2,1,23,0,1,0,1,39,71,11
2,1,18,1,0,0,1,39,71,11
2,1,20,1,3,0,1,39,71,11
2,1,3,0,4,0,1,39,41,9
2,1,23,0,5,1,1,39,81,11
3,2,17,1,4,0,1,39,107,11
3,2,12,1,6,1,1,39,95,11
3,2,13,1,0,0,1,39,95,11
3,2,22,0,6,1,1,39,71,11
3,2,4,0,6,1,1,39,132,11
3,2,19,1,1,0,1,39,71,11
3,2,23,0,2,0,1,39,20,11
3,2,12,1,2,0,1,39,95,11
3,2,0,0,0,0,1,39,132,11
3,2,1,0,2,0,1,39,2,11
3,2,16,1,6,1,1,39,95,11
3,2,6,0,1,0,1,39,132,11
4,2,18,1,5,1,2,39,95,9
4,2,12,1,5,1,2,39,95,11
4,2,1,0,5,1,2,39,132,11
4,2,1,0,5,1,2,39,132,11
4,2,2,0,5,1,2,39,132,11
4,2,2,0,5,1,2,39,132,11
4,2,4,0,1,0,2,39,132,11
4,2,3,0,2,0,2,39,132,11
4,2,14,1,6,1,2,39,95,11
4,2,19,1,5,1,2,39,107,11
4,2,17,1,1,0,2,39,114,11
4,2,6,0,2,0,2,39,95,11
5,2,19,1,1,0,2,39,95,11
5,2,17,1,4,0,2,39,79,11
5,2,1,0,5,1,2,39,107,11
5,2,14,1,5,1,2,39,95,11
5,2,1,0,6,1,2,39,93,11
5,2,11,1,1,0,2,39,20,11
5,2,13,1,4,0,2,39,79,11
5,2,10,1,0,0,2,39,24,9
6,3,7,1,3,0,2,39,84,11
6,3,16,1,6,1,2,39,107,11
6,3,21,0,0,0,2,39,95,11
6,3,12,1,6,1,2,39,115,11
6,3,22,0,1,0,2,39,95,11
6,3,15,1,2,0,2,39,115,11
6,3,11,1,5,1,2,39,95,11
6,3,18,1,3,0,2,39,107,11
6,3,7,1,3,0,2,39,81,11
6,3,22,0,4,0,2,39,41,9
7,3,19,1,5,1,3,39,107,11
7,3,15,1,5,1,3,39,95,11
7,3,19,1,0,0,3,39,93,11
7,3,16,1,0,0,3,39,115,11
7,3,14,1,4,0,3,39,107,11
7,3,7,1,4,0,3,39,71,9
7,3,22,0,0,0,3,39,95,11
7,3,11,1,2,0,3,39,114,11
7,3,15,1,3,0,3,39,107,11
7,3,20,1,4,0,3,39,115,11
7,3,10,1,2,0,3,39,81,11
7,3,20,1,4,0,3,39,95,11
7,3,20,1,6,1,3,39,132,11
7,3,19,1,1,0,3,39,95,11
7,3,10,1,3,0,3,39,90,11
7,3,21,0,4,0,3,39,107,11
7,3,0,0,6,1,3,39,95,11
7,3,14,1,0,0,3,39,107,11
7,3,12,1,0,0,3,39,95,11
7,3,17,1,0,0,3,39,99,11
7,3,18,1,0,0,3,39,81,11
8,3,18,1,1,0,3,39,95,11
8,3,17,1,2,0,3,39,84,11
8,3,20,1,3,0,3,39,107,11
8,3,4,0,4,0,3,39,49,11
8,3,10,1,6,1,3,39,81,9
8,3,10,1,1,0,3,39,95,11
8,3,17,1,2,0,3,39,61,9
8,3,16,1,5,1,3,39,107,11
8,3,20,1,5,1,3,39,95,11
8,3,20,1,4,0,3,39,95,11
8,3,20,1,0,0,3,39,79,11
8,3,15,1,1,0,3,39,20,11
8,3,16,1,5,1,3,39,107,11
9,4,23,0,0,0,3,39,95,11
9,4,11,1,1,0,3,39,71,11
9,4,19,1,1,0,3,39,95,11
9,4,20,1,4,0,3,39,107,11
9,4,21,0,4,0,3,39,107,11
9,4,10,1,0,0,3,39,71,11
9,4,14,1,3,0,3,39,107,11
9,4,12,1,6,1,3,39,107,11
9,4,15,1,2,0,3,39,95,11
9,4,14,1,4,0,3,39,107,11
9,4,15,1,4,0,3,39,13,11
9,4,16,1,4,0,3,39,107,11
9,4,13,1,5,1,3,39,95,11
9,4,11,1,1,0,3,39,81,11
9,4,17,1,1,0,3,39,81,9
9,4,6,0,2,0,3,39,107,11
9,4,4,0,3,0,3,39,35,11
9,4,21,0,4,0,3,39,71,11
10,4,2,0,3,0,4,39,132,11
10,4,19,1,2,0,4,39,20,11
10,4,19,1,2,0,4,39,97,11
10,4,18,1,3,0,4,39,14,11
10,4,14,1,4,0,4,39,95,11
10,4,20,1,1,0,4,39,115,11
10,4,16,1,4,0,4,39,107,11
10,4,18,1,4,0,4,39,107,11
10,4,19,1,4,0,4,39,107,11
10,4,0,0,6,1,4,39,71,11
10,4,12,1,0,0,4,39,95,11
10,4,19,1,0,0,4,39,71,11
11,4,17,1,2,0,4,39,107,11
11,4,5,0,4,0,4,39,83,11
11,4,7,1,4,0,4,39,71,9
11,4,18,1,4,0,4,39,41,11
11,4,19,1,5,1,4,39,129,11
11,4,22,0,1,0,4,39,81,11
11,4,10,1,5,1,4,39,81,11
11,4,0,0,3,0,4,39,81,11
11,4,4,0,3,0,4,39,51,9
11,4,13,1,3,0,4,39,49,11
11,4,6,0,6,1,4,39,89,11
11,4,20,1,2,0,4,39,70,11
11,4,16,1,6,1,4,39,81,11
11,4,13,1,1,0,4,39,107,11
11,4,22,0,2,0,4,39,81,11
11,4,21,0,3,0,4,39,71,11
12,1,17,1,5,1,4,39,71,11
12,1,18,1,6,1,4,39,81,11
12,1,3,0,2,0,4,39,93,11
12,1,11,1,6,1,4,39,103,11
12,1,15,1,6,1,4,39,107,11
12,1,16,1,2,0,4,39,79,11
12,1,10,1,3,0,4,39,41,8
12,1,12,1,5,1,4,39,70,11
12,1,23,0,5,1,4,39,107,11
12,1,17,1,6,1,4,39,41,11
12,1,5,0,6,1,4,39,71,8
12,1,5,0,6,1,4,39,71,8
12,1,17,1,1,0,4,39,107,11
12,1,20,1,1,0,4,39,20,11
12,1,20,1,1,0,4,39,71,11
12,1,22,0,2,0,4,39,71,11
12,1,7,1,0,0,4,39,71,11
1,1,17,1,0,0,1,39,107,11
2,1,17,1,4,0,1,39,81,11
3,2,13,1,4,0,1,39,13,11
3,2,14,1,6,1,1,39,107,11
3,2,15,1,2,0,1,39,107,11
4,2,17,1,4,0,2,39,107,11
4,2,14,1,5,1,2,39,107,11
5,2,12,1,6,1,2,39,13,11
6,3,20,1,5,1,2,39,20,11
6,3,11,1,1,0,2,39,95,11
8,3,16,1,5,1,3,39,26,11
8,3,5,0,6,1,3,39,26,11
9,4,18,1,2,0,3,39,51,11
9,4,19,1,5,1,3,39,95,11
9,4,15,1,5,1,3,39,95,9
11,4,11,1,6,1,4,39,81,11
11,4,19,1,1,0,4,39,81,11
12,1,23,0,5,1,4,39,41,11
2,1,20,1,3,0,1,39,94,11
2,1,11,1,2,0,1,39,122,11
2,1,16,1,2,0,1,39,14,11
2,1,19,1,6,1,1,39,20,11
3,2,23,0,3,0,1,39,79,11
3,2,21,0,3,0,1,39,71,11
4,2,17,1,0,0,2,39,71,11
4,2,23,0,6,1,2,39,81,11
4,2,3,0,0,0,2,39,81,11
4,2,18,1,5,1,2,39,81,11
4,2,21,0,3,0,2,39,81,9
6,3,0,0,4,0,2,39,132,11
6,3,0,0,4,0,2,39,1,9
7,3,10,1,6,1,3,39,52,11
9,4,15,1,4,0,3,39,71,11
9,4,11,1,5,1,3,39,115,11
10,4,20,1,1,0,4,39,20,9
11,4,18,1,2,0,4,39,20,11
12,1,9,1,4,0,4,39,83,11
12,1,7,1,6,1,4,39,122,9
4,2,16,1,1,0,2,39,20,11
8,3,1,0,1,0,3,39,20,11
8,3,1,0,4,0,3,39,93,11
10,4,14,1,1,0,4,39,108,11
12,1,7,1,3,0,4,39,93,11
1,1,22,0,0,0,1,27,71,11
1,1,13,1,4,0,1,27,41,11
1,1,22,0,4,0,1,27,14,11
1,1,23,0,1,0,1,27,41,11
1,1,17,1,4,0,1,27,41,9
1,1,17,1,5,1,1,27,3,11
2,1,18,1,1,0,1,27,81,11
2,1,23,0,2,0,1,27,102,11
2,1,16,1,4,0,1,27,3,11
3,2,23,0,4,0,1,27,95,11
3,2,14,1,1,0,1,27,84,11
4,2,13,1,0,0,2,27,107,11
5,2,12,1,6,1,2,27,81,11
5,2,11,1,1,0,2,27,81,11
5,2,21,0,5,1,2,27,94,11
5,2,17,1,2,0,2,27,81,11
6,3,11,1,1,0,2,27,41,11
6,3,13,1,6,1,2,27,81,11
6,3,11,1,3,0,2,27,81,11
6,3,19,1,4,0,2,27,93,8
6,3,0,0,0,0,2,27,94,9
6,3,16,1,1,0,2,27,95,11
6,3,15,1,2,0,2,27,107,11
7,3,21,0,2,0,3,27,3,11
7,3,20,1,3,0,3,27,13,11
7,3,7,1,4,0,3,27,107,11
7,3,11,1,5,1,3,27,13,11
7,3,20,1,0,0,3,27,95,11
8,3,10,1,4,0,3,27,95,11
8,3,12,1,5,1,3,27,3,11
8,3,8,1,4,0,3,27,93,11
8,3,16,1,5,1,3,27,95,11
9,4,1,0,1,0,3,27,107,11
9,4,1,0,4,0,3,27,95,11
9,4,15,1,6,1,3,27,3,11
10,4,17,1,6,1,4,27,72,11
10,4,18,1,3,0,4,27,86,11
10,4,8,1,4,0,4,27,93,11
10,4,21,0,4,0,4,27,3,11
10,4,22,0,3,0,4,27,71,11
10,4,17,1,4,0,4,27,20,11
10,4,6,0,0,0,4,27,93,11
10,4,15,1,1,0,4,27,3,11
11,4,12,1,6,1,4,27,3,11
11,4,9,1,2,0,4,27,95,11
11,4,11,1,3,0,4,27,115,11
11,4,10,1,4,0,4,27,62,11
12,1,0,0,5,1,4,27,83,11
12,1,14,1,0,0,4,27,107,11
12,1,15,1,2,0,4,27,81,8
1,1,13,1,2,0,1,27,41,11
1,1,15,1,5,1,1,27,41,11
2,1,17,1,4,0,1,27,129,11
4,2,21,0,1,0,2,27,93,11
6,3,6,0,6,1,2,27,20,11
7,3,21,0,6,1,3,27,81,11
7,3,19,1,3,0,3,27,115,11
10,4,14,1,6,1,4,27,13,11
11,4,21,0,5,1,4,27,102,11
12,1,14,1,5,1,4,27,116,11
12,1,23,0,1,0,4,27,102,11
12,1,22,0,0,0,4,27,81,11
1,1,20,1,2,0,1,27,115,11
1,1,20,1,6,1,1,27,70,8
3,2,11,1,5,1,1,27,93,11
3,2,1,0,4,0,1,27,94,11
3,2,9,1,5,1,1,27,115,11
3,2,17,1,5,1,1,27,3,11
4,2,22,0,1,0,2,27,132,11
4,2,6,0,5,1,2,27,95,11
5,2,19,1,2,0,2,27,115,11
7,3,14,1,0,0,3,27,95,11
10,4,8,1,5,1,4,27,115,11
11,4,7,1,2,0,4,27,3,11
12,1,18,1,2,0,4,27,81,11
1,1,11,1,3,0,1,27,41,9
1,1,22,0,6,1,1,27,41,11
1,1,0,0,5,1,1,27,81,11
2,1,22,0,5,1,1,27,71,11
2,1,14,1,0,0,1,27,20,11
2,1,14,1,0,0,1,27,81,11
2,1,17,1,3,0,1,27,28,11
3,2,12,1,1,0,1,27,95,11
3,2,15,1,1,0,1,27,41,11
3,2,5,0,2,0,1,27,79,9
3,2,20,1,3,0,1,27,95,11
4,2,8,1,1,0,2,27,20,11
4,2,12,1,3,0,2,27,13,11
6,3,20,1,6,1,2,27,81,11
6,3,12,1,2,0,2,27,81,11
6,3,15,1,4,0,2,27,71,11
7,3,14,1,6,1,3,27,86,11
7,3,20,1,6,1,3,27,105,11
8,3,15,1,2,0,3,27,26,11
8,3,19,1,4,0,3,27,26,11
8,3,20,1,4,0,3,27,20,11
9,4,21,0,5,1,3,27,71,11
9,4,16,1,6,1,3,27,107,11
9,4,14,1,0,0,3,27,14,11
9,4,14,1,4,0,3,27,86,11
10,4,15,1,2,0,4,27,14,11
10,4,15,1,0,0,4,27,84,11
10,4,19,1,6,1,4,27,20,11
12,1,0,0,5,1,4,27,81,11
12,1,20,1,0,0,4,27,81,11
12,1,10,1,0,0,4,27,71,11
12,1,14,1,3,0,4,27,3,9
12,1,12,1,4,0,4,27,20,11
12,1,12,1,6,1,4,27,71,11
1,1,14,1,6,1,1,47,41,11
1,1,17,1,0,0,1,47,93,11
1,1,18,1,0,0,1,47,93,11
1,1,12,1,0,0,1,47,13,8
1,1,19,1,5,1,1,47,102,11
1,1,19,1,5,1,1,47,71,11
2,1,15,1,2,0,1,47,26,11
2,1,13,1,3,0,1,47,21,11
3,2,18,1,2,0,1,47,13,8
4,2,2,0,0,0,2,47,14,11
4,2,2,0,0,0,2,47,93,11
4,2,11,1,1,0,2,47,25,11
5,2,19,1,5,1,2,47,95,11
5,2,5,0,1,0,2,47,79,11
6,3,1,0,2,0,2,47,13,11
6,3,0,0,0,0,2,47,20,11
7,3,16,1,5,1,3,47,3,11
8,3,14,1,1,0,3,47,86,11
9,4,8,1,4,0,3,47,41,11
9,4,12,1,3,0,3,47,95,11
10,4,17,1,6,1,4,47,102,11
10,4,12,1,4,0,4,47,86,11
10,4,18,1,5,1,4,47,13,8
12,1,19,1,1,0,4,47,81,11
12,1,19,1,1,0,4,47,71,11
12,1,19,1,2,0,4,47,130,11
12,1,1,0,1,0,4,47,105,11
12,1,13,1,6,1,4,47,41,11
12,1,12,1,0,0,4,47,102,11
1,1,9,1,6,1,1,23,102,11
1,1,19,1,0,0,1,23,71,11
1,1,20,1,2,0,1,23,102,11
1,1,13,1,3,0,1,23,107,11
1,1,18,1,4,0,1,23,102,11
1,1,1,0,5,1,1,23,41,11
1,1,9,1,5,1,1,23,41,11
1,1,10,1,5,1,1,23,41,11
1,1,12,1,6,1,1,23,102,11
1,1,16,1,6,1,1,23,71,11
1,1,10,1,0,0,1,23,102,11
1,1,16,1,0,0,1,23,81,11
1,1,19,1,0,0,1,23,71,11
1,1,18,1,1,0,1,23,102,11
1,1,18,1,1,0,1,23,102,11
1,1,19,1,2,0,1,23,102,11
1,1,9,1,3,0,1,23,81,11
1,1,13,1,3,0,1,23,41,11
1,1,15,1,4,0,1,23,41,11
1,1,14,1,6,1,1,23,102,11
1,1,16,1,6,1,1,23,102,11
1,1,13,1,2,0,1,23,71,11
1,1,20,1,4,0,1,23,81,11
2,1,12,1,2,0,1,23,102,11
2,1,9,1,0,0,1,23,62,11
2,1,9,1,0,0,1,23,93,11
2,1,5,0,2,0,1,23,102,11
2,1,1,0,1,0,1,23,41,11
2,1,1,0,6,1,1,23,131,11
2,1,18,1,6,1,1,23,71,11
2,1,21,0,1,0,1,23,71,11
2,1,22,0,3,0,1,23,81,11
2,1,23,0,3,0,1,23,41,9
2,1,18,1,4,0,1,23,107,11
3,2,10,1,4,0,1,23,71,11
3,2,18,1,5,1,1,23,107,11
3,2,15,1,6,1,1,23,102,11
3,2,16,1,6,1,1,23,107,11
3,2,21,0,1,0,1,23,81,11
3,2,8,1,4,0,1,23,13,11
3,2,0,0,5,1,1,23,102,11
3,2,0,0,5,1,1,23,102,11
3,2,19,1,1,0,1,23,71,11
3,2,23,0,2,0,1,23,81,11
3,2,7,1,3,0,1,23,81,11
3,2,11,1,0,0,1,23,107,11
3,2,21,0,0,0,1,23,102,9
3,2,15,1,1,0,1,23,95,11
3,2,20,1,3,0,1,23,41,11
3,2,21,0,4,0,1,23,81,11
3,2,0,0,6,1,1,23,102,11
3,2,20,1,6,1,1,23,71,11
3,2,21,0,0,0,1,23,81,11
3,2,21,0,2,0,1,23,41,11
4,2,11,1,5,1,2,23,107,11
4,2,20,1,5,1,2,23,107,11
4,2,21,0,5,1,2,23,81,11
4,2,17,1,6,1,2,23,95,11
4,2,22,0,2,0,2,23,71,11
4,2,16,1,0,0,2,23,81,11
4,2,20,1,3,0,2,23,95,11
4,2,12,1,6,1,2,23,107,11
4,2,13,1,2,0,2,23,81,11
4,2,17,1,5,1,2,23,41,11
4,2,13,1,6,1,2,23,107,11
5,2,8,1,5,1,2,23,41,8
6,3,16,1,6,1,2,23,81,8
6,3,13,1,4,0,2,23,20,11
6,3,14,1,4,0,2,23,95,11
7,3,15,1,0,0,3,23,95,11
7,3,13,1,6,1,3,23,41,11
7,3,19,1,4,0,3,23,20,11
7,3,21,0,4,0,3,23,115,11
8,3,4,0,5,1,3,23,14,8
9,4,4,0,5,1,3,23,20,11
9,4,19,1,6,1,3,23,107,11
9,4,18,1,5,1,3,23,81,11
10,4,12,1,1,0,4,23,41,11
10,4,18,1,4,0,4,23,61,11
10,4,19,1,6,1,4,23,81,11
10,4,15,1,0,0,4,23,20,9
10,4,4,0,0,0,4,23,102,11
10,4,10,1,2,0,4,23,95,11
10,4,19,1,2,0,4,23,41,11
10,4,21,0,5,1,4,23,41,11
10,4,9,1,0,0,4,23,41,11
10,4,15,1,1,0,4,23,95,9
11,4,17,1,3,0,4,23,41,9
11,4,4,0,5,1,4,23,81,11
11,4,18,1,1,0,4,23,41,8
11,4,14,1,0,0,4,23,71,11
11,4,14,1,3,0,4,23,107,11
11,4,16,1,2,0,4,23,41,11
12,1,21,0,5,1,4,23,132,11
12,1,22,0,1,0,4,23,132,11
12,1,19,1,0,0,4,23,93,11
12,1,10,1,5,1,4,23,93,11
12,1,21,0,2,0,4,23,71,11
12,1,14,1,5,1,4,23,102,11
12,1,21,0,6,1,4,23,81,11
12,1,21,0,1,0,4,23,20,11
12,1,22,0,1,0,4,23,102,11
7,3,12,1,3,0,3,23,81,11
9,4,8,1,2,0,3,23,81,11
10,4,19,1,5,1,4,23,81,11
1,1,20,1,6,1,1,23,102,11
1,1,16,1,4,0,1,23,41,11
1,1,12,1,6,1,1,23,41,11
1,1,11,1,0,0,1,23,102,11
1,1,12,1,0,0,1,23,102,11
1,1,19,1,1,0,1,23,41,11
1,1,6,0,4,0,1,23,41,11
1,1,15,1,6,1,1,23,81,11
1,1,16,1,6,1,1,23,41,11
1,1,8,1,2,0,1,23,115,11
1,1,20,1,2,0,1,23,41,11
1,1,15,1,0,0,1,23,102,11
1,1,17,1,1,0,1,23,102,11
2,1,23,0,5,1,1,23,41,11
2,1,11,1,1,0,1,23,93,11
2,1,17,1,2,0,1,23,95,11
2,1,15,1,3,0,1,23,107,11
2,1,16,1,3,0,1,23,95,11
2,1,5,0,5,1,1,23,109,11
3,2,12,1,4,0,1,23,107,11
3,2,21,0,4,0,1,23,81,11
3,2,10,1,1,0,1,23,95,11
4,2,21,0,5,1,2,23,107,11
4,2,20,1,3,0,2,23,81,11
4,2,22,0,2,0,2,23,41,11
4,2,20,1,4,0,2,23,107,11
5,2,22,0,5,1,2,23,41,11
6,3,19,1,6,1,2,23,41,11
8,3,11,1,6,1,3,23,81,11
10,4,19,1,1,0,4,23,41,11
10,4,12,1,0,0,4,23,81,11
11,4,7,1,2,0,4,23,115,11
11,4,11,1,1,0,4,23,81,11
11,4,19,1,0,0,4,23,81,11
11,4,7,1,1,0,4,23,14,11
12,1,15,1,3,0,4,23,93,11
12,1,21,0,3,0,4,23,93,11
12,1,20,1,6,1,4,23,102,11
1,1,15,1,2,0,1,8,107,11
1,1,19,1,1,0,1,8,102,11
1,1,17,1,3,0,1,8,102,11
1,1,21,0,3,0,1,8,102,11
2,1,16,1,5,1,1,8,102,11
2,1,7,1,5,1,1,8,102,11
2,1,12,1,0,0,1,8,102,11
2,1,21,0,0,0,1,8,102,11
2,1,14,1,4,0,1,8,70,9
2,1,1,0,6,1,1,8,81,9
3,2,14,1,4,0,1,8,14,11
3,2,13,1,5,1,1,8,107,11
3,2,13,1,0,0,1,8,102,11
3,2,13,1,3,0,1,8,102,11
3,2,14,1,6,1,1,8,13,11
4,2,18,1,1,0,2,8,71,11
4,2,8,1,2,0,2,8,21,11
4,2,14,1,4,0,2,8,95,11
4,2,21,0,3,0,2,8,102,11
4,2,15,1,5,1,2,8,71,11
4,2,5,0,3,0,2,8,81,11
4,2,16,1,6,1,2,8,93,11
5,2,12,1,6,1,2,8,81,11
7,3,21,0,3,0,3,8,13,11
7,3,15,1,5,1,3,8,107,11
7,3,13,1,4,0,3,8,20,11
7,3,13,1,6,1,3,8,71,11
8,3,15,1,2,0,3,8,14,11
8,3,12,1,5,1,3,8,71,11
8,3,11,1,3,0,3,8,107,11
8,3,14,1,0,0,3,8,95,11
9,4,18,1,4,0,3,8,71,11
9,4,14,1,3,0,3,8,114,11
9,4,20,1,6,1,3,8,107,11
9,4,20,1,6,1,3,8,107,11
9,4,10,1,4,0,3,8,95,11
9,4,11,1,5,1,3,8,95,11
9,4,18,1,1,0,3,8,13,11
10,4,21,0,3,0,4,8,95,11
10,4,14,1,3,0,4,8,107,11
10,4,9,1,0,0,4,8,20,11
10,4,10,1,5,1,4,8,86,11
10,4,21,0,5,1,4,8,107,11
10,4,12,1,4,0,4,8,13,11
10,4,20,1,4,0,4,8,107,11
10,4,13,1,6,1,4,8,95,11
11,4,9,1,3,0,4,8,114,9
12,1,19,1,6,1,4,8,63,11
12,1,8,1,5,1,4,8,20,11
12,1,18,1,2,0,4,8,71,11
12,1,19,1,3,0,4,8,81,9
12,1,9,1,5,1,4,8,71,11
12,1,21,0,6,1,4,8,71,11
12,1,20,1,2,0,4,8,93,11
12,1,8,1,6,1,4,8,41,11
7,3,15,1,1,0,3,8,95,11
8,3,19,1,3,0,3,8,51,8
10,4,17,1,3,0,4,8,107,11
10,4,18,1,3,0,4,8,115,11
1,1,9,1,0,0,1,20,41,9
1,1,20,1,4,0,1,20,132,11
1,1,20,1,4,0,1,20,132,11
1,1,14,1,5,1,1,20,81,11
1,1,15,1,5,1,1,20,132,11
1,1,15,1,6,1,1,20,132,11
1,1,13,1,6,1,1,20,132,11
1,1,11,1,6,1,1,20,132,11
1,1,11,1,6,1,1,20,132,11
1,1,14,1,0,0,1,20,132,11
1,1,12,1,4,0,1,20,93,11
1,1,13,1,5,1,1,20,89,11
1,1,16,1,4,0,1,20,115,11
1,1,14,1,5,1,1,20,132,11
1,1,5,0,5,1,1,20,82,11
1,1,8,1,0,0,1,20,132,11
1,1,13,1,0,0,1,20,132,11
1,1,16,1,0,0,1,20,132,11
1,1,7,1,4,0,1,20,132,11
1,1,23,0,4,0,1,20,132,11
1,1,13,1,6,1,1,20,132,11
1,1,16,1,0,0,1,20,107,11
2,1,22,0,3,0,1,20,132,11
2,1,17,1,5,1,1,20,93,11
2,1,14,1,0,0,1,20,132,11
2,1,6,0,2,0,1,20,132,11
2,1,4,0,4,0,1,20,132,11
2,1,18,1,6,1,1,20,132,11
2,1,1,0,0,0,1,20,13,8
2,1,13,1,0,0,1,20,95,11
2,1,12,1,1,0,1,20,41,11
2,1,17,1,2,0,1,20,107,11
2,1,15,1,4,0,1,20,107,11
2,1,14,1,5,1,1,20,107,11
2,1,15,1,5,1,1,20,107,11
2,1,1,0,6,1,1,20,132,11
2,1,13,1,0,0,1,20,41,11
2,1,17,1,4,0,1,20,51,11
2,1,14,1,4,0,1,20,41,11
3,2,18,1,3,0,1,20,132,11
3,2,13,1,4,0,1,20,95,11
3,2,22,0,4,0,1,20,132,11
3,2,16,1,6,1,1,20,132,11
3,2,22,0,0,0,1,20,71,11
3,2,13,1,2,0,1,20,132,11
3,2,22,0,2,0,1,20,132,11
3,2,17,1,3,0,1,20,81,11
3,2,12,1,6,1,1,20,132,11
3,2,17,1,1,0,1,20,132,11
3,2,20,1,1,0,1,20,132,11
3,2,19,1,2,0,1,20,107,11
3,2,11,1,4,0,1,20,107,11
3,2,8,1,6,1,1,20,132,11
3,2,16,1,6,1,1,20,132,11
3,2,13,1,6,1,1,20,107,11
3,2,19,1,0,0,1,20,41,11
3,2,12,1,3,0,1,20,79,11
3,2,12,1,4,0,1,20,95,11
3,2,0,0,2,0,1,20,14,11
3,2,17,1,2,0,1,20,107,11
3,2,13,1,3,0,1,20,95,11
3,2,18,1,3,0,1,20,132,11
3,2,18,1,4,0,1,20,3,11
4,2,20,1,5,1,2,20,95,11
4,2,14,1,6,1,2,20,107,11
4,2,23,0,5,1,2,20,71,11
4,2,9,1,0,0,2,20,81,11
4,2,19,1,2,0,2,20,107,11
4,2,22,0,4,0,2,20,132,11
4,2,17,1,6,1,2,20,132,11
4,2,20,1,6,1,2,20,132,11
4,2,20,1,0,0,2,20,132,11
4,2,13,1,2,0,2,20,95,11
4,2,18,1,5,1,2,20,107,11
4,2,13,1,6,1,2,20,3,11
4,2,14,1,6,1,2,20,132,11
5,2,20,1,0,0,2,20,132,11
5,2,7,1,0,0,2,20,132,11
5,2,13,1,5,1,2,20,111,11
5,2,7,1,6,1,2,20,93,11
5,2,18,1,3,0,2,20,132,11
5,2,12,1,4,0,2,20,132,11
5,2,21,0,4,0,2,20,107,11
5,2,21,0,5,1,2,20,107,11
5,2,10,1,5,1,2,20,20,11
5,2,14,1,5,1,2,20,41,11
5,2,20,1,2,0,2,20,132,11
6,3,13,1,4,0,2,20,107,11
6,3,17,1,1,0,2,20,107,11
6,3,17,1,0,0,2,20,107,11
6,3,22,0,1,0,2,20,71,9
6,3,16,1,1,0,2,20,51,11
6,3,17,1,2,0,2,20,107,11
6,3,2,0,5,1,2,20,132,11
6,3,13,1,3,0,2,20,51,11
7,3,17,1,1,0,3,20,107,11
7,3,20,1,6,1,3,20,107,11
7,3,21,0,2,0,3,20,115,11
7,3,15,1,3,0,3,20,20,11
7,3,14,1,3,0,3,20,20,11
7,3,16,1,4,0,3,20,107,11
7,3,11,1,6,1,3,20,3,11
7,3,11,1,4,0,3,20,107,11
8,3,0,0,1,0,3,20,132,11
8,3,12,1,1,0,3,20,107,11
8,3,12,1,3,0,3,20,107,11
8,3,20,1,3,0,3,20,107,11
8,3,15,1,4,0,3,20,107,11
8,3,11,1,0,0,3,20,107,11
8,3,9,1,5,1,3,20,41,11
8,3,16,1,5,1,3,20,107,11
8,3,13,1,6,1,3,20,20,11
8,3,2,0,0,0,3,20,107,11
8,3,11,1,2,0,3,20,107,11
8,3,17,1,4,0,3,20,95,11
8,3,14,1,5,1,3,20,107,11
8,3,16,1,5,1,3,20,20,9
8,3,23,0,6,1,3,20,107,11
8,3,17,1,0,0,3,20,95,11
8,3,6,0,2,0,3,20,132,11
8,3,3,0,2,0,3,20,95,11
8,3,8,1,3,0,3,20,93,11
9,4,10,1,6,1,3,20,95,11
9,4,7,1,0,0,3,20,81,9
9,4,20,1,2,0,3,20,107,11
9,4,16,1,3,0,3,20,132,11
9,4,13,1,4,0,3,20,95,11
9,4,17,1,4,0,3,20,107,11
9,4,13,1,5,1,3,20,107,11
9,4,15,1,5,1,3,20,129,11
9,4,14,1,5,1,3,20,107,11
9,4,10,1,6,1,3,20,93,11
9,4,18,1,5,1,3,20,93,11
9,4,20,1,6,1,3,20,107,11
9,4,11,1,6,1,3,20,107,11
9,4,20,1,1,0,3,20,7,11
9,4,12,1,4,0,3,20,132,11
9,4,15,1,4,0,3,20,107,11
9,4,17,1,5,1,3,20,93,11
10,4,4,0,0,0,4,20,93,11
10,4,12,1,0,0,4,20,95,11
10,4,20,1,0,0,4,20,107,11
10,4,23,0,0,0,4,20,41,11
10,4,20,1,2,0,4,20,93,11
10,4,10,1,4,0,4,20,107,11
10,4,12,1,4,0,4,20,107,11
10,4,9,1,6,1,4,20,132,11
10,4,2,0,2,0,4,20,132,11
10,4,16,1,4,0,4,20,107,11
10,4,17,1,3,0,4,20,95,11
10,4,15,1,4,0,4,20,107,11
10,4,15,1,5,1,4,20,13,11
10,4,19,1,6,1,4,20,107,11
10,4,13,1,6,1,4,20,107,11
10,4,1,0,0,0,4,20,132,11
10,4,11,1,3,0,4,20,102,11
10,4,11,1,3,0,4,20,107,11
10,4,15,1,3,0,4,20,107,11
10,4,22,0,5,1,4,20,102,11
10,4,23,0,6,1,4,20,83,11
10,4,16,1,0,0,4,20,28,9
10,4,1,0,1,0,4,20,107,11
11,4,17,1,2,0,4,20,107,11
11,4,19,1,3,0,4,20,41,11
11,4,9,1,0,0,4,20,102,11
11,4,1,0,0,0,4,20,102,11
11,4,19,1,0,0,4,20,81,8
11,4,19,1,0,0,4,20,107,11
11,4,12,1,0,0,4,20,95,11
11,4,15,1,0,0,4,20,95,11
11,4,20,1,0,0,4,20,107,11
11,4,19,1,5,1,4,20,71,11
11,4,23,0,1,0,4,20,107,11
11,4,12,1,2,0,4,20,132,11
11,4,21,0,5,1,4,20,41,11
11,4,9,1,0,0,4,20,71,11
11,4,11,1,1,0,4,20,132,11
11,4,20,1,1,0,4,20,132,11
11,4,13,1,1,0,4,20,71,11
11,4,21,0,3,0,4,20,71,11
12,1,13,1,3,0,4,20,71,11
12,1,14,1,4,0,4,20,132,11
12,1,15,1,5,1,4,20,41,11
12,1,19,1,6,1,4,20,71,11
12,1,10,1,0,0,4,20,132,11
12,1,18,1,0,0,4,20,71,11
12,1,17,1,1,0,4,20,132,11
12,1,18,1,4,0,4,20,132,11
12,1,21,0,0,0,4,20,81,11
12,1,20,1,3,0,4,20,81,11
12,1,22,0,4,0,4,20,81,11
12,1,23,0,6,1,4,20,132,11
12,1,22,0,0,0,4,20,41,11
12,1,12,1,3,0,4,20,13,9
12,1,21,0,6,1,4,20,81,11
1,1,10,1,4,0,1,20,41,11
2,1,10,1,6,1,1,20,81,11
3,2,10,1,3,0,1,20,81,11
3,2,18,1,0,0,1,20,107,11
3,2,14,1,0,0,1,20,107,11
3,2,14,1,4,0,1,20,95,11
4,2,14,1,5,1,2,20,107,11
6,3,18,1,3,0,2,20,107,11
8,3,15,1,2,0,3,20,79,11
8,3,17,1,3,0,3,20,107,11
8,3,14,1,4,0,3,20,13,8
10,4,19,1,6,1,4,20,107,11
12,1,7,1,2,0,4,20,132,11
12,1,1,0,1,0,4,20,71,8
7,3,14,1,5,1,3,20,20,11
7,3,8,1,3,0,3,20,107,11
11,4,16,1,4,0,4,20,107,11
1,1,16,1,6,1,1,20,102,11
1,1,14,1,6,1,1,20,107,11
1,1,18,1,6,1,1,20,102,11
1,1,16,1,6,1,1,20,81,11
1,1,19,1,0,0,1,20,102,11
1,1,17,1,0,0,1,20,102,11
1,1,15,1,0,0,1,20,102,11
1,1,19,1,1,0,1,20,95,11
1,1,13,1,1,0,1,20,71,11
1,1,22,0,2,0,1,20,102,11
1,1,12,1,3,0,1,20,95,11
1,1,16,1,6,1,1,20,102,11
1,1,15,1,6,1,1,20,102,11
1,1,14,1,6,1,1,20,102,11
1,1,15,1,0,0,1,20,102,11
1,1,21,0,0,0,1,20,102,11
1,1,20,1,1,0,1,20,102,11
1,1,20,1,1,0,1,20,41,11
1,1,20,1,2,0,1,20,71,11
1,1,21,0,3,0,1,20,102,11
1,1,10,1,3,0,1,20,114,11
1,1,19,1,6,1,1,20,71,11
1,1,11,1,6,1,1,20,102,11
1,1,15,1,3,0,1,20,102,11
1,1,17,1,5,1,1,20,102,11
1,1,14,1,6,1,1,20,102,11
1,1,0,0,6,1,1,20,102,11
1,1,9,1,1,0,1,20,102,11
1,1,20,1,1,0,1,20,102,11
2,1,11,1,4,0,1,20,102,11
2,1,20,1,5,1,1,20,102,11
2,1,18,1,4,0,1,20,102,9
2,1,23,0,4,0,1,20,71,11
2,1,14,1,5,1,1,20,107,11
2,1,7,1,5,1,1,20,93,11
2,1,14,1,5,1,1,20,71,11
2,1,14,1,6,1,1,20,107,11
2,1,19,1,0,0,1,20,102,11
2,1,15,1,1,0,1,20,107,11
2,1,17,1,1,0,1,20,102,11
2,1,20,1,2,0,1,20,95,11
2,1,16,1,2,0,1,20,95,11
2,1,13,1,3,0,1,20,95,9
2,1,19,1,1,0,1,20,102,11
2,1,22,0,2,0,1,20,102,11
2,1,17,1,2,0,1,20,81,11
2,1,20,1,4,0,1,20,102,11
2,1,15,1,1,0,1,20,102,11
3,2,19,1,3,0,1,20,41,11
3,2,22,0,3,0,1,20,105,11
3,2,18,1,4,0,1,20,102,11
3,2,18,1,0,0,1,20,41,11
3,2,13,1,2,0,1,20,95,11
3,2,16,1,2,0,1,20,95,11
3,2,17,1,5,1,1,20,107,11
3,2,1,0,5,1,1,20,8,11
3,2,17,1,6,1,1,20,107,11
3,2,15,1,0,0,1,20,95,11
3,2,13,1,3,0,1,20,95,11
3,2,14,1,3,0,1,20,107,11
3,2,17,1,4,0,1,20,107,11
3,2,15,1,5,1,1,20,107,11
3,2,16,1,5,1,1,20,95,11
3,2,16,1,2,0,1,20,107,11
3,2,20,1,2,0,1,20,107,11
3,2,20,1,3,0,1,20,107,11
3,2,11,1,4,0,1,20,95,11
4,2,19,1,5,1,2,20,95,11
4,2,13,1,1,0,2,20,93,11
4,2,15,1,5,1,2,20,41,11
4,2,8,1,1,0,2,20,20,11
4,2,17,1,6,1,2,20,102,11
4,2,22,0,2,0,2,20,102,11
5,2,20,1,0,0,2,20,102,11
5,2,13,1,5,1,2,20,107,11
5,2,21,0,3,0,2,20,107,11
5,2,15,1,1,0,2,20,115,11
5,2,21,0,1,0,2,20,107,11
6,3,20,1,4,0,2,20,132,11
6,3,21,0,2,0,2,20,107,11
7,3,17,1,1,0,3,20,95,11
7,3,0,0,0,0,3,20,107,11
7,3,10,1,2,0,3,20,95,11
7,3,10,1,5,1,3,20,1,11
7,3,14,1,4,0,3,20,102,11
7,3,0,0,5,1,3,20,102,11
7,3,11,1,5,1,3,20,20,11
7,3,21,0,5,1,3,20,107,11
7,3,23,0,5,1,3,20,107,11
8,3,21,0,1,0,3,20,107,11
8,3,20,1,3,0,3,20,102,11
8,3,19,1,5,1,3,20,14,9
8,3,17,1,6,1,3,20,3,11
8,3,21,0,1,0,3,20,7,11
8,3,9,1,3,0,3,20,41,11
8,3,4,0,0,0,3,20,92,11
9,4,14,1,2,0,3,20,107,11
9,4,17,1,2,0,3,20,107,11
9,4,16,1,1,0,3,20,107,11
9,4,12,1,5,1,3,20,95,11
9,4,16,1,2,0,3,20,3,11
9,4,20,1,5,1,3,20,93,11
10,4,8,1,6,1,4,20,1,11
10,4,19,1,6,1,4,20,107,11
10,4,8,1,6,1,4,20,95,11
10,4,16,1,1,0,4,20,107,11
10,4,7,1,1,0,4,20,24,11
10,4,22,0,2,0,4,20,107,11
10,4,22,0,0,0,4,20,102,11
10,4,14,1,1,0,4,20,93,11
10,4,19,1,3,0,4,20,95,11
10,4,16,1,0,0,4,20,107,11
10,4,16,1,2,0,4,20,3,11
10,4,17,1,3,0,4,20,95,11
10,4,5,0,5,1,4,20,20,11
10,4,16,1,5,1,4,20,107,11
10,4,12,1,3,0,4,20,102,11
10,4,19,1,0,0,4,20,107,11
10,4,16,1,0,0,4,20,107,11
11,4,14,1,2,0,4,20,107,11
11,4,19,1,5,1,4,20,107,11
11,4,19,1,6,1,4,20,102,11
11,4,22,0,5,1,4,20,41,11
11,4,15,1,0,0,4,20,71,11
11,4,0,0,2,0,4,20,93,11
11,4,15,1,3,0,4,20,13,11
11,4,14,1,1,0,4,20,93,11
11,4,16,1,2,0,4,20,71,11
12,1,22,0,3,0,4,20,95,11
12,1,20,1,4,0,4,20,102,11
12,1,13,1,0,0,4,20,102,11
12,1,19,1,0,0,4,20,102,11
12,1,19,1,1,0,4,20,81,11
12,1,20,1,4,0,4,20,102,11
12,1,17,1,4,0,4,20,102,11
12,1,14,1,6,1,4,20,102,11
12,1,17,1,2,0,4,20,102,11
12,1,9,1,5,1,4,20,71,11
12,1,18,1,6,1,4,20,102,11
1,1,1,0,3,0,1,20,81,8
3,2,11,1,3,0,1,20,107,11
4,2,12,1,0,0,2,20,114,11
4,2,9,1,6,1,2,20,14,11
6,3,19,1,2,0,2,20,107,11
7,3,12,1,5,1,3,20,107,11
7,3,22,0,1,0,3,20,107,11
7,3,13,1,6,1,3,20,107,11
7,3,19,1,0,0,3,20,107,11
9,4,19,1,5,1,3,20,107,11
9,4,13,1,3,0,3,20,20,11
9,4,22,0,6,1,3,20,81,11
11,4,20,1,4,0,4,20,107,11
2,1,10,1,3,0,1,20,81,11
4,2,15,1,1,0,2,20,107,11
5,2,14,1,1,0,2,20,20,11
6,3,16,1,3,0,2,20,107,11
10,4,13,1,1,0,4,20,95,11
11,4,18,1,0,0,4,20,107,11
11,4,12,1,2,0,4,20,81,8
2,1,14,1,3,0,1,20,95,11
3,2,11,1,3,0,1,20,118,11
3,2,9,1,4,0,1,20,114,9
12,1,19,1,6,1,4,20,14,9
2,1,19,1,5,1,1,20,107,11
2,1,18,1,6,1,1,20,95,11
3,2,23,0,1,0,1,20,41,11
3,2,14,1,5,1,1,20,107,11
4,2,13,1,2,0,2,20,129,11
4,2,18,1,6,1,2,20,15,11
8,3,14,1,1,0,3,20,91,11
8,3,18,1,0,0,3,20,81,11
8,3,13,1,5,1,3,20,81,9
11,4,10,1,3,0,4,20,81,11
12,1,7,1,1,0,4,20,73,11
1,1,16,1,5,1,1,18,93,11
1,1,15,1,6,1,1,18,93,11
1,1,16,1,5,1,1,18,84,11
1,1,18,1,6,1,1,18,93,11
1,1,20,1,6,1,1,18,71,11
1,1,16,1,0,0,1,18,93,11
1,1,16,1,0,0,1,18,93,11
2,1,15,1,5,1,1,18,107,11
2,1,8,1,1,0,1,18,41,11
2,1,14,1,3,0,1,18,114,11
2,1,15,1,3,0,1,18,95,11
2,1,13,1,5,1,1,18,132,11
2,1,14,1,5,1,1,18,132,11
3,2,19,1,4,0,1,18,107,11
3,2,7,1,3,0,1,18,95,11
3,2,16,1,1,0,1,18,95,11
3,2,11,1,2,0,1,18,95,11
3,2,12,1,2,0,1,18,107,11
3,2,20,1,2,0,1,18,107,11
4,2,14,1,5,1,2,18,95,11
4,2,17,1,2,0,2,18,95,11
4,2,21,0,6,1,2,18,93,11
4,2,13,1,3,0,2,18,95,11
4,2,12,1,0,0,2,18,95,11
4,2,23,0,4,0,2,18,51,11
5,2,11,1,4,0,2,18,41,11
5,2,14,1,5,1,2,18,20,11
5,2,18,1,6,1,2,18,95,11
5,2,20,1,0,0,2,18,107,11
5,2,11,1,1,0,2,18,93,11
5,2,11,1,2,0,2,18,95,11
6,3,15,1,5,1,2,18,93,11
6,3,5,0,2,0,2,18,95,11
6,3,6,0,0,0,2,18,95,11
7,3,12,1,5,1,3,18,20,11
7,3,14,1,0,0,3,18,93,11
7,3,17,1,0,0,3,18,95,11
7,3,11,1,2,0,3,18,107,11
7,3,5,0,3,0,3,18,93,11
7,3,10,1,0,0,3,18,20,11
7,3,9,1,3,0,3,18,51,11
7,3,15,1,3,0,3,18,107,11
8,3,20,1,1,0,3,18,132,11
8,3,13,1,3,0,3,18,20,11
8,3,15,1,6,1,3,18,107,11
8,3,12,1,0,0,3,18,95,11
8,3,17,1,0,0,3,18,8,11
8,3,20,1,3,0,3,18,20,11
9,4,14,1,4,0,3,18,107,11
9,4,18,1,6,1,3,18,107,11
9,4,10,1,4,0,3,18,71,11
9,4,8,1,3,0,3,18,95,11
9,4,8,1,4,0,3,18,95,11
9,4,7,1,6,1,3,18,86,11
9,4,18,1,6,1,3,18,107,11
10,4,17,1,0,0,4,18,26,11
10,4,18,1,0,0,4,18,107,11
10,4,6,0,3,0,4,18,13,11
10,4,19,1,3,0,4,18,107,11
10,4,18,1,4,0,4,18,107,11
10,4,18,1,2,0,4,18,3,11
11,4,10,1,2,0,4,18,107,11
11,4,16,1,3,0,4,18,95,11
11,4,14,1,5,1,4,18,95,11
11,4,14,1,5,1,4,18,107,11
11,4,21,0,2,0,4,18,81,11
11,4,12,1,0,0,4,18,82,11
11,4,19,1,2,0,4,18,71,11
12,1,21,0,4,0,4,18,71,11
12,1,14,1,6,1,4,18,93,11
1,1,13,1,6,1,1,18,95,11
2,1,19,1,6,1,1,18,20,11
3,2,19,1,6,1,1,18,71,11
4,2,13,1,4,0,2,18,95,11
6,3,14,1,1,0,2,18,119,9
7,3,0,0,2,0,3,18,95,11
7,3,19,1,2,0,3,18,81,11
7,3,12,1,6,1,3,18,14,11
7,3,15,1,2,0,3,18,81,11
8,3,17,1,6,1,3,18,95,11
8,3,2,0,2,0,3,18,81,11
8,3,7,1,2,0,3,18,102,11
8,3,21,0,3,0,3,18,107,11
8,3,19,1,5,1,3,18,37,11
9,4,12,1,5,1,3,18,3,11
10,4,21,0,5,1,4,18,107,11
10,4,11,1,4,0,4,18,3,11
10,4,13,1,0,0,4,18,95,11
12,1,8,1,2,0,4,18,81,11
12,1,21,0,0,0,4,18,71,11
12,1,10,1,2,0,4,18,20,11
2,1,12,1,6,1,1,18,132,11
3,2,16,1,5,1,1,18,107,11
3,2,19,1,5,1,1,18,107,11
3,2,17,1,2,0,1,18,107,11
4,2,18,1,4,0,2,18,95,11
5,2,20,1,6,1,2,18,93,11
6,3,12,1,4,0,2,18,107,11
7,3,22,0,6,1,3,18,95,11
8,3,10,1,3,0,3,18,95,11
8,3,12,1,3,0,3,18,95,11
9,4,16,1,2,0,3,18,95,11
9,4,14,1,3,0,3,18,95,11
10,4,12,1,0,0,4,18,95,11
10,4,15,1,1,0,4,18,107,11
1,1,17,1,2,0,1,18,93,11
1,1,15,1,6,1,1,4,93,11
1,1,17,1,6,1,1,4,14,11
1,1,17,1,6,1,1,4,107,11
1,1,0,0,0,0,1,4,79,11
1,1,8,1,0,0,1,4,79,11
1,1,12,1,0,0,1,4,95,11
1,1,16,1,0,0,1,4,107,11
1,1,18,1,0,0,1,4,107,11
1,1,22,0,0,0,1,4,107,11
1,1,16,1,5,1,1,4,14,11
1,1,15,1,5,1,1,4,71,11
1,1,10,1,5,1,1,4,93,11
1,1,8,1,6,1,1,4,71,11
1,1,12,1,1,0,1,4,102,11
1,1,13,1,2,0,1,4,41,11
1,1,19,1,3,0,1,4,81,11
1,1,19,1,3,0,1,4,102,11
1,1,15,1,3,0,1,4,41,11
1,1,17,1,4,0,1,4,81,11
1,1,14,1,5,1,1,4,71,11
1,1,9,1,6,1,1,4,102,11
1,1,18,1,1,0,1,4,102,11
1,1,20,1,0,0,1,4,71,11
1,1,11,1,1,0,1,4,81,11
1,1,10,1,3,0,1,4,102,11
1,1,14,1,5,1,1,4,95,11
1,1,18,1,1,0,1,4,14,11
1,1,15,1,1,0,1,4,107,11
2,1,17,1,3,0,1,4,79,11
2,1,11,1,5,1,1,4,102,11
2,1,5,0,5,1,1,4,107,11
2,1,11,1,5,1,1,4,107,11
2,1,10,1,6,1,1,4,107,11
2,1,18,1,6,1,1,4,107,11
2,1,10,1,6,1,1,4,88,11
2,1,9,1,0,0,1,4,107,11
2,1,13,1,0,0,1,4,41,11
2,1,18,1,0,0,1,4,107,11
2,1,21,0,1,0,1,4,81,11
2,1,22,0,1,0,1,4,71,11
2,1,13,1,2,0,1,4,95,11
2,1,17,1,2,0,1,4,107,11
2,1,23,0,3,0,1,4,62,11
2,1,6,0,4,0,1,4,41,11
2,1,15,1,4,0,1,4,102,11
2,1,17,1,4,0,1,4,41,11
2,1,20,1,5,1,1,4,70,11
2,1,17,1,1,0,1,4,102,11
3,2,13,1,1,0,1,4,95,11
3,2,13,1,2,0,1,4,55,11
3,2,17,1,4,0,1,4,107,11
3,2,12,1,5,1,1,4,95,11
3,2,10,1,0,0,1,4,95,11
3,2,15,1,2,0,1,4,107,11
3,2,10,1,4,0,1,4,79,11
3,2,13,1,4,0,1,4,95,11
3,2,13,1,6,1,1,4,107,11
3,2,14,1,6,1,1,4,107,11
3,2,23,0,2,0,1,4,95,11
3,2,17,1,4,0,1,4,102,11
4,2,14,1,5,1,2,4,107,11
4,2,11,1,6,1,2,4,93,11
4,2,2,0,6,1,2,4,102,11
4,2,20,1,6,1,2,4,70,11
4,2,17,1,2,0,2,4,107,11
4,2,23,0,6,1,2,4,107,11
4,2,23,0,0,0,2,4,79,11
4,2,20,1,1,0,2,4,107,11
4,2,19,1,5,1,2,4,81,11
4,2,0,0,5,1,2,4,79,11
4,2,9,1,5,1,2,4,95,11
4,2,10,1,4,0,2,4,107,9
4,2,12,1,4,0,2,4,95,11
4,2,12,1,5,1,2,4,95,11
4,2,19,1,5,1,2,4,102,11
4,2,21,0,5,1,2,4,95,11
4,2,13,1,6,1,2,4,95,11
5,2,1,0,1,0,2,4,79,11
5,2,20,1,3,0,2,4,107,11
5,2,16,1,5,1,2,4,107,11
5,2,21,0,1,0,2,4,93,11
5,2,17,1,3,0,2,4,107,11
5,2,16,1,6,1,2,4,102,11
6,3,19,1,5,1,2,4,107,11
6,3,12,1,0,0,2,4,107,11
6,3,16,1,0,0,2,4,107,11
6,3,3,0,2,0,2,4,102,11
6,3,11,1,5,1,2,4,107,11
6,3,12,1,1,0,2,4,107,11
6,3,9,1,2,0,2,4,107,11
6,3,21,0,3,0,2,4,107,11
6,3,11,1,3,0,2,4,107,11
6,3,16,1,4,0,2,4,107,11
6,3,9,1,4,0,2,4,114,11
6,3,20,1,5,1,2,4,107,11
6,3,16,1,3,0,2,4,107,11
6,3,14,1,4,0,2,4,107,11
7,3,20,1,6,1,3,4,107,11
7,3,5,0,1,0,3,4,107,11
7,3,20,1,5,1,3,4,107,11
7,3,8,1,1,0,3,4,95,11
7,3,12,1,1,0,3,4,107,11
7,3,12,1,3,0,3,4,95,11
7,3,14,1,2,0,3,4,93,11
7,3,20,1,2,0,3,4,107,11
7,3,10,1,5,1,3,4,14,11
7,3,22,0,6,1,3,4,3,11
8,3,12,1,1,0,3,4,107,11
8,3,15,1,1,0,3,4,107,11
8,3,17,1,1,0,3,4,24,11
8,3,19,1,1,0,3,4,107,11
8,3,11,1,2,0,3,4,107,11
8,3,4,0,2,0,3,4,81,11
8,3,21,0,4,0,3,4,107,11
8,3,10,1,5,1,3,4,107,11
8,3,20,1,6,1,3,4,107,11
8,3,20,1,6,1,3,4,107,11
8,3,19,1,0,0,3,4,107,11
8,3,20,1,1,0,3,4,49,11
8,3,0,0,2,0,3,4,107,11
8,3,0,0,2,0,3,4,107,11
8,3,14,1,3,0,3,4,107,11
8,3,10,1,3,0,3,4,102,11
8,3,20,1,0,0,3,4,107,11
8,3,18,1,1,0,3,4,107,11
8,3,6,0,1,0,3,4,93,11
8,3,18,1,5,1,3,4,107,11
8,3,14,1,0,0,3,4,95,9
8,3,0,0,5,1,3,4,81,9
8,3,17,1,5,1,3,4,93,11
8,3,19,1,5,1,3,4,107,11
8,3,12,1,0,0,3,4,107,11
8,3,18,1,2,0,3,4,95,11
8,3,19,1,2,0,3,4,14,11
9,4,20,1,4,0,3,4,107,11
9,4,11,1,5,1,3,4,95,11
9,4,13,1,0,0,3,4,107,11
9,4,21,0,3,0,3,4,107,11
9,4,21,0,3,0,3,4,107,11
9,4,8,1,5,1,3,4,115,11
9,4,0,0,0,0,3,4,107,11
9,4,11,1,0,0,3,4,84,11
9,4,14,1,1,0,3,4,81,11
9,4,17,1,5,1,3,4,107,11
9,4,7,1,6,1,3,4,95,11
9,4,23,0,0,0,3,4,107,11
9,4,14,1,2,0,3,4,95,11
9,4,6,0,6,1,3,4,13,11
9,4,15,1,1,0,3,4,13,9
9,4,12,1,3,0,3,4,107,11
10,4,10,1,6,1,4,4,95,11
10,4,16,1,0,0,4,4,95,11
10,4,14,1,1,0,4,4,107,11
10,4,13,1,3,0,4,4,13,11
10,4,0,0,4,0,4,4,13,11
10,4,16,1,4,0,4,4,95,11
10,4,13,1,4,0,4,4,95,11
10,4,12,1,4,0,4,4,71,11
10,4,19,1,0,0,4,4,81,11
10,4,12,1,4,0,4,4,107,11
10,4,16,1,5,1,4,4,107,11
10,4,19,1,2,0,4,4,107,11
10,4,19,1,3,0,4,4,107,11
10,4,12,1,6,1,4,4,107,11
10,4,17,1,6,1,4,4,107,11
10,4,19,1,6,1,4,4,102,11
10,4,6,0,3,0,4,4,102,11
10,4,16,1,4,0,4,4,107,11
10,4,19,1,4,0,4,4,107,11
10,4,18,1,6,1,4,4,81,11
10,4,22,0,6,1,4,4,107,11
11,4,16,1,4,0,4,4,107,11
11,4,15,1,5,1,4,4,107,11
11,4,18,1,1,0,4,4,81,11
11,4,16,1,1,0,4,4,107,11
11,4,16,1,4,0,4,4,107,11
11,4,12,1,6,1,4,4,95,11
11,4,9,1,5,1,4,4,102,11
11,4,20,1,6,1,4,4,20,11
12,1,18,1,4,0,4,4,81,11
12,1,22,0,5,1,4,4,41,11
12,1,10,1,5,1,4,4,102,11
12,1,16,1,4,0,4,4,102,11
12,1,15,1,4,0,4,4,102,11
12,1,16,1,6,1,4,4,93,11
4,2,10,1,5,1,2,4,81,9
7,3,17,1,6,1,3,4,81,11
10,4,10,1,1,0,4,4,41,11
4,2,17,1,6,1,2,4,14,9
8,3,9,1,1,0,3,4,95,11
8,3,4,0,0,0,3,4,1,11
8,3,14,1,6,1,3,4,81,8
8,3,18,1,5,1,3,4,81,11
8,3,12,1,6,1,3,4,13,11
10,4,17,1,2,0,4,4,95,11
1,1,23,0,6,1,1,40,102,11
1,1,8,1,1,0,1,40,71,9
1,1,11,1,1,0,1,40,71,11
1,1,19,1,3,0,1,40,81,11
1,1,12,1,5,1,1,40,102,11
1,1,18,1,5,1,1,40,107,11
1,1,21,0,1,0,1,40,102,11
1,1,14,1,2,0,1,40,81,11
1,1,8,1,4,0,1,40,81,11
2,1,11,1,6,1,1,40,102,11
2,1,14,1,6,1,1,40,28,11
2,1,21,0,6,1,1,40,102,11
2,1,22,0,3,0,1,40,102,11
2,1,23,0,3,0,1,40,102,11
2,1,10,1,6,1,1,40,81,8
2,1,17,1,6,1,1,40,81,11
3,2,16,1,6,1,1,40,107,11
3,2,20,1,3,0,1,40,41,11
3,2,12,1,6,1,1,40,107,11
3,2,17,1,1,0,1,40,107,11
3,2,17,1,2,0,1,40,95,11
3,2,14,1,3,0,1,40,107,11
4,2,13,1,6,1,2,40,107,11
4,2,0,0,2,0,2,40,71,11
4,2,17,1,1,0,2,40,95,11
4,2,14,1,0,0,2,40,102,11
4,2,12,1,3,0,2,40,121,11
4,2,21,0,5,1,2,40,107,11
4,2,18,1,6,1,2,40,107,11
4,2,13,1,0,0,2,40,28,11
4,2,18,1,6,1,2,40,41,11
5,2,15,1,6,1,2,40,107,11
5,2,12,1,0,0,2,40,20,11
6,3,23,0,1,0,2,40,51,11
6,3,11,1,0,0,2,40,20,11
6,3,13,1,6,1,2,40,95,11
6,3,10,1,1,0,2,40,3,11
6,3,13,1,3,0,2,40,107,11
7,3,19,1,6,1,3,40,20,11
7,3,12,1,1,0,3,40,95,11
7,3,7,1,0,0,3,40,49,9
7,3,18,1,0,0,3,40,107,11
7,3,20,1,0,0,3,40,20,9
7,3,10,1,2,0,3,40,20,11
7,3,13,1,3,0,3,40,95,11
7,3,15,1,2,0,3,40,107,11
8,3,15,1,1,0,3,40,95,9
8,3,8,1,3,0,3,40,132,11
8,3,3,0,6,1,3,40,115,11
8,3,23,0,2,0,3,40,20,11
8,3,9,1,5,1,3,40,107,9
8,3,20,1,6,1,3,40,107,11
8,3,19,1,0,0,3,40,95,11
9,4,3,0,5,1,3,40,115,11
9,4,15,1,1,0,3,40,95,11
10,4,16,1,0,0,4,40,107,11
10,4,18,1,6,1,4,40,14,11
10,4,19,1,1,0,4,40,107,11
10,4,20,1,1,0,4,40,30,11
10,4,16,1,3,0,4,40,107,11
10,4,17,1,3,0,4,40,95,11
10,4,20,1,4,0,4,40,107,11
10,4,19,1,5,1,4,40,20,11
10,4,14,1,6,1,4,40,95,11
10,4,17,1,1,0,4,40,132,11
11,4,14,1,3,0,4,40,107,11
11,4,16,1,0,0,4,40,95,11
11,4,12,1,4,0,4,40,95,11
11,4,18,1,5,1,4,40,115,11
11,4,23,0,5,1,4,40,81,9
12,1,16,1,4,0,4,40,71,11
12,1,16,1,2,0,4,40,71,11
12,1,15,1,4,0,4,40,102,11
12,1,15,1,5,1,4,40,102,11
1,1,18,1,0,0,1,40,81,11
2,1,16,1,5,1,1,40,107,11
2,1,19,1,6,1,1,40,107,11
2,1,20,1,6,1,1,40,107,11
2,1,18,1,1,0,1,40,107,11
2,1,11,1,2,0,1,40,107,11
2,1,17,1,2,0,1,40,107,11
2,1,18,1,4,0,1,40,107,11
2,1,21,0,4,0,1,40,107,11
3,2,23,0,5,1,1,40,93,11
3,2,18,1,6,1,1,40,107,11
3,2,14,1,4,0,1,40,107,11
3,2,21,0,2,0,1,40,107,11
3,2,12,1,3,0,1,40,3,11
3,2,3,0,5,1,1,40,13,9
3,2,4,0,2,0,1,40,20,8
4,2,15,1,2,0,2,40,107,11
4,2,8,1,2,0,2,40,107,11
4,2,20,1,6,1,2,40,107,11
4,2,9,1,0,0,2,40,49,8
4,2,17,1,4,0,2,40,107,11
4,2,11,1,5,1,2,40,107,11
4,2,14,1,5,1,2,40,132,11
4,2,10,1,3,0,2,40,132,11
5,2,18,1,0,0,2,40,107,11
5,2,22,0,6,1,2,40,107,11
5,2,4,0,3,0,2,40,90,11
6,3,20,1,0,0,2,40,107,11
6,3,19,1,4,0,2,40,107,11
6,3,20,1,4,0,2,40,107,11
6,3,15,1,0,0,2,40,20,11
6,3,18,1,1,0,2,40,3,11
6,3,12,1,4,0,2,40,95,11
6,3,21,0,4,0,2,40,107,11
7,3,23,0,0,0,3,40,107,11
7,3,17,1,0,0,3,40,107,11
7,3,8,1,3,0,3,40,107,11
7,3,15,1,6,1,3,40,107,11
7,3,15,1,0,0,3,40,107,11
8,3,8,1,4,0,3,40,107,11
8,3,8,1,6,1,3,40,28,11
8,3,16,1,5,1,3,40,107,11
8,3,19,1,3,0,3,40,107,11
8,3,22,0,0,0,3,40,21,8
8,3,12,1,1,0,3,40,107,11
8,3,17,1,2,0,3,40,107,11
8,3,23,0,2,0,3,40,107,11
10,4,12,1,2,0,4,40,107,11
10,4,22,0,4,0,4,40,107,11
10,4,18,1,0,0,4,40,107,11
10,4,18,1,4,0,4,40,107,11
10,4,21,0,6,1,4,40,107,11
10,4,7,1,0,0,4,40,107,11
10,4,21,0,1,0,4,40,81,11
11,4,2,0,5,1,4,40,132,11
11,4,17,1,6,1,4,40,41,11
11,4,18,1,1,0,4,40,107,11
12,1,13,1,5,1,4,40,132,11
12,1,18,1,6,1,4,40,107,11
12,1,7,1,0,0,4,40,81,11
12,1,9,1,1,0,4,40,132,11
1,1,8,1,1,0,1,40,81,11
1,1,23,0,4,0,1,40,95,11
2,1,10,1,5,1,1,40,20,11
2,1,16,1,2,0,1,40,95,11
2,1,17,1,3,0,1,40,132,11
3,2,15,1,6,1,1,40,107,11
3,2,12,1,4,0,1,40,41,11
3,2,18,1,4,0,1,40,3,11
3,2,12,1,1,0,1,40,107,11
3,2,18,1,2,0,1,40,95,11
4,2,19,1,4,0,2,40,41,9
4,2,15,1,0,0,2,40,21,11
7,3,11,1,3,0,3,40,107,11
8,3,11,1,1,0,3,40,86,11
10,4,18,1,0,0,4,40,107,11
10,4,17,1,4,0,4,40,107,11
10,4,1,0,4,0,4,40,81,11
11,4,17,1,3,0,4,40,41,11
12,1,12,1,5,1,4,40,81,11
1,1,18,1,6,1,1,40,81,11
1,1,15,1,6,1,1,40,114,11
2,1,17,1,4,0,1,40,107,11
2,1,19,1,4,0,1,40,28,11
3,2,11,1,5,1,1,40,81,11
3,2,11,1,2,0,1,40,107,11
3,2,16,1,3,0,1,40,81,11
3,2,18,1,4,0,1,40,107,11
4,2,20,1,0,0,2,40,107,11
4,2,15,1,5,1,2,40,107,11
5,2,16,1,4,0,2,40,95,11
5,2,13,1,5,1,2,40,107,11
6,3,16,1,1,0,2,40,107,11
6,3,19,1,5,1,2,40,71,11
6,3,12,1,3,0,2,40,82,11
7,3,22,0,3,0,3,40,107,11
7,3,17,1,0,0,3,40,95,11
7,3,9,1,3,0,3,40,95,11
8,3,20,1,4,0,3,40,13,11
8,3,3,0,5,1,3,40,63,11
8,3,23,0,0,0,3,40,81,11
8,3,2,0,1,0,3,40,110,11
8,3,3,0,3,0,3,40,107,11
8,3,3,0,5,1,3,40,107,11
8,3,4,0,5,1,3,40,107,11
9,4,21,0,4,0,3,40,107,11
9,4,15,1,6,1,3,40,107,11
9,4,15,1,6,1,3,40,107,11
9,4,20,1,0,0,3,40,107,11
9,4,20,1,1,0,3,40,107,11
9,4,13,1,2,0,3,40,107,11
9,4,21,0,5,1,3,40,107,11
10,4,22,0,0,0,4,40,107,11
10,4,13,1,0,0,4,40,95,9
10,4,21,0,2,0,4,40,95,11
10,4,18,1,4,0,4,40,107,11
10,4,7,1,5,1,4,40,20,11
10,4,16,1,1,0,4,40,107,11
10,4,21,0,4,0,4,40,107,11
10,4,22,0,4,0,4,40,114,9
10,4,20,1,4,0,4,40,95,11
11,4,15,1,5,1,4,40,107,11
12,1,0,0,5,1,4,40,107,11
12,1,17,1,5,1,4,40,20,11
12,1,13,1,0,0,4,40,107,11
1,1,22,0,3,0,1,31,41,11
5,2,16,1,4,0,2,31,20,11
6,3,8,1,4,0,2,31,14,11
9,4,14,1,2,0,3,31,81,11
10,4,14,1,2,0,4,31,81,11
10,4,12,1,6,1,4,31,81,8
11,4,20,1,4,0,4,31,93,11
12,1,22,0,3,0,4,31,81,8
12,1,10,1,6,1,4,31,93,11
1,1,9,1,3,0,1,31,107,11
2,1,18,1,5,1,1,31,93,9
2,1,21,0,2,0,1,31,107,11
3,2,15,1,3,0,1,31,13,8
3,2,14,1,1,0,1,31,20,11
3,2,3,0,3,0,1,31,107,11
3,2,14,1,3,0,1,31,107,11
3,2,17,1,3,0,1,31,13,11
4,2,0,0,4,0,2,31,93,11
4,2,1,0,3,0,2,31,107,11
4,2,17,1,4,0,2,31,95,8
4,2,18,1,2,0,2,31,107,9
4,2,15,1,6,1,2,31,107,11
5,2,2,0,0,0,2,31,107,11
5,2,3,0,1,0,2,31,93,11
5,2,11,1,5,1,2,31,107,11
5,2,2,0,6,1,2,31,107,11
5,2,1,0,1,0,2,31,93,11
6,3,8,1,0,0,2,31,115,11
6,3,21,0,0,0,2,31,95,11
7,3,12,1,5,1,3,31,132,11
7,3,20,1,0,0,3,31,107,11
8,3,12,1,6,1,3,31,14,8
8,3,19,1,1,0,3,31,28,11
9,4,4,0,1,0,3,31,95,11
9,4,19,1,0,0,3,31,86,11
9,4,12,1,6,1,3,31,93,11
10,4,16,1,3,0,4,31,26,11
10,4,22,0,6,1,4,31,20,11
10,4,12,1,4,0,4,31,28,11
11,4,2,0,0,0,4,31,93,11
11,4,16,1,0,0,4,31,13,9
11,4,20,1,2,0,4,31,81,9
8,3,19,1,0,0,3,31,107,11
1,1,15,1,6,1,1,31,93,11
1,1,23,0,0,0,1,31,93,11
1,1,11,1,1,0,1,31,93,11
1,1,12,1,2,0,1,31,95,11
1,1,17,1,2,0,1,31,71,11
1,1,19,1,2,0,1,31,93,11
1,1,23,0,2,0,1,31,93,11
1,1,20,1,5,1,1,31,14,11
1,1,13,1,6,1,1,31,93,11
1,1,5,0,0,0,1,31,93,11
1,1,6,0,0,0,1,31,20,11
1,1,0,0,0,0,1,31,70,11
1,1,14,1,0,0,1,31,95,11
1,1,15,1,0,0,1,31,93,11
1,1,13,1,1,0,1,31,93,11
1,1,10,1,1,0,1,31,93,11
1,1,2,0,1,0,1,31,93,11
1,1,15,1,3,0,1,31,71,11
1,1,13,1,3,0,1,31,93,11
1,1,12,1,5,1,1,31,81,11
1,1,23,0,5,1,1,31,93,11
1,1,5,0,5,1,1,31,81,11
1,1,17,1,0,0,1,31,81,11
1,1,8,1,2,0,1,31,81,11
1,1,2,0,4,0,1,31,93,11
1,1,0,0,4,0,1,31,93,11
1,1,4,0,4,0,1,31,93,11
1,1,2,0,5,1,1,31,20,11
1,1,4,0,6,1,1,31,93,11
1,1,3,0,6,1,1,31,93,11
1,1,12,1,6,1,1,31,93,11
1,1,21,0,0,0,1,31,93,11
1,1,0,0,3,0,1,31,93,11
1,1,20,1,4,0,1,31,93,11
1,1,6,0,5,1,1,31,93,11
1,1,23,0,6,1,1,31,93,11
1,1,0,0,1,0,1,31,93,11
1,1,0,0,1,0,1,31,93,11
1,1,0,0,1,0,1,31,93,11
2,1,2,0,2,0,1,31,20,11
2,1,20,1,6,1,1,31,93,11
2,1,20,1,6,1,1,31,93,11
2,1,20,1,6,1,1,31,130,11
2,1,14,1,6,1,1,31,95,11
2,1,3,0,6,1,1,31,93,11
2,1,3,0,6,1,1,31,93,11
2,1,15,1,2,0,1,31,81,11
2,1,20,1,3,0,1,31,93,11
2,1,1,0,4,0,1,31,93,11
2,1,0,0,4,0,1,31,93,11
2,1,0,0,4,0,1,31,93,11
2,1,22,0,0,0,1,31,95,11
2,1,15,1,0,0,1,31,41,11
2,1,20,1,4,0,1,31,20,8
2,1,19,1,5,1,1,31,107,11
2,1,0,0,2,0,1,31,93,11
2,1,0,0,2,0,1,31,95,11
2,1,1,0,4,0,1,31,49,8
2,1,21,0,6,1,1,31,105,11
2,1,10,1,6,1,1,31,81,11
2,1,20,1,6,1,1,31,105,8
3,2,14,1,4,0,1,31,95,11
3,2,12,1,6,1,1,31,95,11
3,2,1,0,0,0,1,31,93,11
3,2,20,1,3,0,1,31,20,11
3,2,9,1,5,1,1,31,81,11
3,2,13,1,5,1,1,31,93,11
3,2,16,1,5,1,1,31,93,11
3,2,16,1,6,1,1,31,71,11
3,2,2,0,6,1,1,31,93,11
3,2,23,0,4,0,1,31,14,11
3,2,21,0,5,1,1,31,95,11
3,2,3,0,1,0,1,31,93,11
3,2,2,0,1,0,1,31,93,11
3,2,17,1,2,0,1,31,49,8
3,2,3,0,5,1,1,31,93,11
3,2,14,1,5,1,1,31,41,11
3,2,23,0,6,1,1,31,71,11
3,2,20,1,0,0,1,31,81,11
3,2,2,0,0,0,1,31,93,11
3,2,2,0,0,0,1,31,93,11
4,2,15,1,5,1,2,31,107,11
4,2,23,0,5,1,2,31,8,11
4,2,14,1,5,1,2,31,81,9
4,2,4,0,0,0,2,31,20,11
4,2,14,1,0,0,2,31,93,11
4,2,18,1,0,0,2,31,107,11
4,2,0,0,0,0,2,31,93,11
4,2,12,1,4,0,2,31,95,11
4,2,19,1,5,1,2,31,61,11
4,2,15,1,5,1,2,31,107,11
4,2,13,1,5,1,2,31,93,11
4,2,4,0,6,1,2,31,93,11
4,2,23,0,6,1,2,31,93,11
4,2,23,0,6,1,2,31,93,11
4,2,7,1,1,0,2,31,95,11
4,2,20,1,1,0,2,31,71,11
4,2,12,1,3,0,2,31,81,11
4,2,20,1,3,0,2,31,13,11
4,2,15,1,6,1,2,31,93,11
4,2,1,0,2,0,2,31,26,11
4,2,11,1,3,0,2,31,95,11
4,2,22,0,4,0,2,31,93,11
4,2,4,0,5,1,2,31,93,11
4,2,19,1,5,1,2,31,20,11
4,2,18,1,6,1,2,31,95,11
4,2,18,1,6,1,2,31,81,11
4,2,15,1,0,0,2,31,71,11
4,2,18,1,2,0,2,31,95,11
4,2,17,1,3,0,2,31,95,11
4,2,22,0,5,1,2,31,95,11
4,2,10,1,5,1,2,31,107,11
4,2,22,0,6,1,2,31,93,11
4,2,6,0,6,1,2,31,107,11
4,2,17,1,6,1,2,31,41,8
4,2,19,1,6,1,2,31,24,8
5,2,0,0,0,0,2,31,93,11
5,2,7,1,1,0,2,31,93,11
5,2,22,0,2,0,2,31,107,11
5,2,18,1,3,0,2,31,13,11
5,2,12,1,4,0,2,31,105,11
5,2,16,1,6,1,2,31,93,11
5,2,2,0,4,0,2,31,93,11
5,2,17,1,4,0,2,31,93,11
5,2,19,1,5,1,2,31,95,8
5,2,11,1,1,0,2,31,115,11
5,2,9,1,2,0,2,31,13,11
5,2,14,1,4,0,2,31,95,11
5,2,11,1,5,1,2,31,95,11
5,2,23,0,5,1,2,31,71,11
5,2,16,1,6,1,2,31,107,11
5,2,23,0,0,0,2,31,49,11
6,3,17,1,4,0,2,31,20,11
6,3,19,1,6,1,2,31,95,11
6,3,23,0,4,0,2,31,52,9
6,3,19,1,4,0,2,31,95,11
6,3,17,1,2,0,2,31,107,11
6,3,9,1,0,0,2,31,71,11
6,3,13,1,0,0,2,31,107,11
6,3,18,1,0,0,2,31,107,11
6,3,19,1,4,0,2,31,20,11
6,3,22,0,4,0,2,31,95,11
6,3,3,0,4,0,2,31,93,11
6,3,3,0,6,1,2,31,93,11
6,3,14,1,6,1,2,31,71,11
6,3,14,1,0,0,2,31,95,11
6,3,4,0,1,0,2,31,93,11
6,3,15,1,2,0,2,31,71,11
6,3,2,0,4,0,2,31,81,11
7,3,17,1,5,1,3,31,71,11
7,3,16,1,5,1,3,31,49,11
7,3,15,1,6,1,3,31,81,11
7,3,11,1,0,0,3,31,95,11
7,3,12,1,0,0,3,31,95,11
7,3,17,1,0,0,3,31,95,11
7,3,17,1,0,0,3,31,95,11
7,3,10,1,1,0,3,31,81,11
7,3,14,1,3,0,3,31,132,11
7,3,7,1,3,0,3,31,71,11
7,3,18,1,4,0,3,31,25,11
7,3,23,0,1,0,3,31,95,11
7,3,0,0,1,0,3,31,107,11
7,3,17,1,2,0,3,31,95,11
7,3,18,1,3,0,3,31,95,11
7,3,14,1,4,0,3,31,93,11
7,3,17,1,3,0,3,31,93,11
7,3,16,1,4,0,3,31,7,11
7,3,20,1,0,0,3,31,93,11
8,3,3,0,1,0,3,31,71,11
8,3,14,1,2,0,3,31,95,11
8,3,18,1,0,0,3,31,95,11
8,3,12,1,3,0,3,31,62,11
8,3,15,1,6,1,3,31,95,11
8,3,17,1,6,1,3,31,95,11
8,3,10,1,0,0,3,31,107,11
8,3,12,1,0,0,3,31,107,11
8,3,18,1,1,0,3,31,71,11
8,3,19,1,1,0,3,31,95,11
8,3,19,1,2,0,3,31,107,11
8,3,8,1,2,0,3,31,107,11
8,3,6,0,4,0,3,31,95,11
8,3,9,1,5,1,3,31,95,11
8,3,14,1,6,1,3,31,20,11
8,3,14,1,6,1,3,31,95,11
8,3,20,1,0,0,3,31,95,11
8,3,12,1,0,0,3,31,50,11
8,3,14,1,4,0,3,31,114,8
8,3,18,1,6,1,3,31,95,11
8,3,16,1,6,1,3,31,71,11
8,3,14,1,0,0,3,31,95,11
8,3,2,0,2,0,3,31,20,11
9,4,9,1,0,0,3,31,107,11
9,4,15,1,0,0,3,31,20,11
9,4,10,1,1,0,3,31,107,11
9,4,9,1,2,0,3,31,93,11
9,4,20,1,3,0,3,31,107,11
9,4,17,1,5,1,3,31,95,11
9,4,13,1,0,0,3,31,107,11
9,4,12,1,2,0,3,31,95,11
9,4,13,1,4,0,3,31,71,11
9,4,16,1,5,1,3,31,69,11
9,4,22,0,5,1,3,31,71,8
9,4,15,1,0,0,3,31,14,9
9,4,22,0,2,0,3,31,102,11
9,4,6,0,3,0,3,31,107,11
9,4,5,0,3,0,3,31,79,11
9,4,16,1,3,0,3,31,132,11
9,4,11,1,3,0,3,31,95,11
9,4,3,0,4,0,3,31,95,11
9,4,20,1,1,0,3,31,107,11
9,4,13,1,2,0,3,31,20,11
9,4,12,1,5,1,3,31,95,11
10,4,9,1,6,1,4,31,93,11
10,4,23,0,6,1,4,31,20,11
10,4,14,1,0,0,4,31,95,11
10,4,15,1,1,0,4,31,95,11
10,4,20,1,2,0,4,31,24,11
10,4,17,1,4,0,4,31,93,11
10,4,19,1,6,1,4,31,107,11
10,4,19,1,6,1,4,31,95,11
10,4,0,0,6,1,4,31,49,8
10,4,16,1,0,0,4,31,95,11
10,4,15,1,0,0,4,31,95,11
10,4,14,1,0,0,4,31,95,11
10,4,4,0,1,0,4,31,24,11
10,4,18,1,2,0,4,31,95,11
10,4,3,0,3,0,4,31,81,11
10,4,21,0,3,0,4,31,107,11
10,4,13,1,4,0,4,31,24,11
10,4,20,1,4,0,4,31,95,11
10,4,1,0,5,1,4,31,107,11
10,4,14,1,0,0,4,31,26,11
10,4,16,1,2,0,4,31,69,9
10,4,9,1,2,0,4,31,26,11
10,4,9,1,3,0,4,31,26,11
10,4,3,0,4,0,4,31,120,11
10,4,23,0,4,0,4,31,107,11
10,4,14,1,5,1,4,31,28,11
10,4,13,1,5,1,4,31,26,11
10,4,17,1,6,1,4,31,14,11
10,4,19,1,6,1,4,31,107,11
10,4,8,1,0,0,4,31,62,11
10,4,11,1,2,0,4,31,14,11
10,4,13,1,2,0,4,31,71,11
10,4,16,1,4,0,4,31,20,11
10,4,16,1,5,1,4,31,71,11
10,4,23,0,6,1,4,31,71,11
10,4,17,1,0,0,4,31,71,11
11,4,12,1,2,0,4,31,71,11
11,4,13,1,2,0,4,31,71,11
11,4,18,1,2,0,4,31,71,11
11,4,19,1,3,0,4,31,107,11
11,4,20,1,3,0,4,31,81,11
11,4,18,1,4,0,4,31,95,11
11,4,20,1,4,0,4,31,71,11
11,4,20,1,4,0,4,31,71,11
11,4,6,0,5,1,4,31,95,11
11,4,11,1,1,0,4,31,95,11
11,4,14,1,1,0,4,31,95,11
11,4,18,1,1,0,4,31,107,11
11,4,23,0,2,0,4,31,24,11
11,4,5,0,5,1,4,31,93,11
11,4,5,0,5,1,4,31,93,11
11,4,12,1,6,1,4,31,120,11
11,4,14,1,0,0,4,31,81,11
11,4,2,0,0,0,4,31,71,11
11,4,10,1,2,0,4,31,13,11
11,4,12,1,2,0,4,31,71,11
11,4,14,1,5,1,4,31,71,11
11,4,21,0,1,0,4,31,71,11
11,4,23,0,4,0,4,31,62,11
11,4,11,1,0,0,4,31,81,11
11,4,13,1,0,0,4,31,93,11
11,4,5,0,3,0,4,31,20,11
12,1,0,0,5,1,4,31,93,11
12,1,0,0,5,1,4,31,93,11
12,1,0,0,5,1,4,31,93,11
12,1,21,0,5,1,4,31,93,11
12,1,3,0,6,1,4,31,93,11
12,1,16,1,6,1,4,31,71,11
12,1,23,0,0,0,4,31,93,11
12,1,16,1,0,0,4,31,93,11
12,1,22,0,2,0,4,31,105,11
12,1,0,0,3,0,4,31,105,11
12,1,10,1,3,0,4,31,71,11
12,1,17,1,1,0,4,31,93,11
12,1,0,0,5,1,4,31,93,11
12,1,12,1,5,1,4,31,107,11
12,1,22,0,5,1,4,31,93,11
12,1,17,1,0,0,4,31,93,11
12,1,20,1,0,0,4,31,93,11
12,1,4,0,3,0,4,31,93,11
12,1,22,0,4,0,4,31,71,11
12,1,16,1,4,0,4,31,81,11
12,1,4,0,5,1,4,31,93,11
12,1,14,1,6,1,4,31,93,11
12,1,21,0,6,1,4,31,41,8
12,1,22,0,2,0,4,31,93,11
12,1,14,1,2,0,4,31,93,11
12,1,3,0,3,0,4,31,81,11
12,1,1,0,6,1,4,31,93,11
12,1,21,0,6,1,4,31,81,11
12,1,20,1,6,1,4,31,71,11
2,1,15,1,2,0,1,31,107,11
4,2,21,0,2,0,2,31,20,11
5,2,16,1,6,1,2,31,95,11
5,2,11,1,2,0,2,31,132,11
5,2,15,1,4,0,2,31,95,11
5,2,16,1,1,0,2,31,93,11
5,2,22,0,2,0,2,31,95,11
5,2,19,1,5,1,2,31,7,11
6,3,15,1,1,0,2,31,95,11
6,3,15,1,2,0,2,31,95,11
7,3,15,1,1,0,3,31,122,11
7,3,20,1,6,1,3,31,132,11
7,3,21,0,3,0,3,31,95,11
7,3,16,1,6,1,3,31,95,11
7,3,16,1,4,0,3,31,95,11
7,3,5,0,0,0,3,31,93,11
8,3,9,1,6,1,3,31,20,11
8,3,18,1,1,0,3,31,132,11
8,3,20,1,1,0,3,31,95,11
8,3,20,1,1,0,3,31,84,11
8,3,17,1,2,0,3,31,122,11
9,4,12,1,2,0,3,31,107,11
9,4,10,1,5,1,3,31,105,11
10,4,17,1,2,0,4,31,95,11
11,4,16,1,2,0,4,31,95,11
11,4,8,1,3,0,4,31,38,11
11,4,22,0,6,1,4,31,107,11
1,1,19,1,0,0,1,31,63,11
1,1,21,0,0,0,1,31,107,11
1,1,10,1,2,0,1,31,63,11
1,1,15,1,3,0,1,31,20,11
1,1,17,1,5,1,1,31,81,11
1,1,13,1,6,1,1,31,93,11
2,1,1,0,0,0,1,31,93,11
2,1,13,1,0,0,1,31,13,9
2,1,16,1,2,0,1,31,79,11
4,2,13,1,3,0,2,31,107,11
4,2,14,1,5,1,2,31,41,11
4,2,12,1,0,0,2,31,15,11
4,2,16,1,5,1,2,31,13,11
5,2,13,1,0,0,2,31,81,11
5,2,13,1,3,0,2,31,13,11
6,3,3,0,2,0,2,31,93,11
6,3,6,0,2,0,2,31,24,11
6,3,22,0,3,0,2,31,28,11
6,3,11,1,4,0,2,31,95,11
7,3,14,1,0,0,3,31,95,11
7,3,12,1,1,0,3,31,95,11
7,3,15,1,1,0,3,31,95,11
8,3,9,1,2,0,3,31,115,11
8,3,16,1,4,0,3,31,110,9
8,3,10,1,0,0,3,31,95,11
8,3,18,1,6,1,3,31,115,11
9,4,0,0,0,0,3,31,115,11
9,4,19,1,6,1,3,31,95,11
9,4,9,1,1,0,3,31,13,11
9,4,13,1,2,0,3,31,95,11
9,4,15,1,4,0,3,31,107,11
10,4,14,1,3,0,4,31,95,11
10,4,16,1,5,1,4,31,95,11
10,4,21,0,5,1,4,31,41,11
10,4,11,1,5,1,4,31,41,11
11,4,12,1,6,1,4,31,93,11
12,1,11,1,1,0,4,31,102,11
1,1,0,0,6,1,1,35,112,9
1,1,22,0,6,1,1,35,84,9
1,1,22,0,6,1,1,35,102,11
1,1,22,0,6,1,1,35,102,11
1,1,20,1,0,0,1,35,81,11
1,1,0,0,0,0,1,35,102,11
1,1,20,1,1,0,1,35,71,11
1,1,6,0,1,0,1,35,21,11
1,1,19,1,4,0,1,35,102,11
1,1,16,1,4,0,1,35,102,11
1,1,10,1,4,0,1,35,102,11
1,1,15,1,6,1,1,35,107,11
1,1,10,1,0,0,1,35,102,11
1,1,11,1,2,0,1,35,81,11
1,1,15,1,3,0,1,35,102,11
1,1,21,0,4,0,1,35,41,11
1,1,23,0,4,0,1,35,102,11
1,1,12,1,5,1,1,35,102,11
1,1,1,0,1,0,1,35,41,11
1,1,20,1,2,0,1,35,102,11
1,1,1,0,4,0,1,35,81,8
1,1,10,1,5,1,1,35,102,11
1,1,22,0,6,1,1,35,70,11
1,1,21,0,2,0,1,35,102,11
1,1,19,1,3,0,1,35,102,11
1,1,12,1,5,1,1,35,41,11
1,1,19,1,5,1,1,35,102,11
1,1,12,1,1,0,1,35,81,8
2,1,18,1,2,0,1,35,102,11
2,1,21,0,2,0,1,35,71,11
2,1,6,0,6,1,1,35,102,11
2,1,12,1,6,1,1,35,107,11
2,1,22,0,6,1,1,35,102,11
2,1,17,1,0,0,1,35,20,11
2,1,0,0,2,0,1,35,41,11
2,1,14,1,3,0,1,35,95,11
2,1,13,1,4,0,1,35,79,11
2,1,0,0,4,0,1,35,93,11
2,1,6,0,6,1,1,35,24,11
2,1,14,1,6,1,1,35,102,11
2,1,12,1,2,0,1,35,26,9
2,1,23,0,2,0,1,35,102,11
2,1,18,1,3,0,1,35,41,11
2,1,23,0,4,0,1,35,102,11
2,1,7,1,5,1,1,35,102,11
2,1,21,0,5,1,1,35,81,11
2,1,12,1,0,0,1,35,81,11
2,1,21,0,0,0,1,35,103,11
2,1,5,0,1,0,1,35,102,11
2,1,18,1,2,0,1,35,41,11
2,1,18,1,5,1,1,35,41,11
2,1,11,1,6,1,1,35,41,11
2,1,9,1,0,0,1,35,79,9
2,1,18,1,0,0,1,35,81,11
2,1,21,0,0,0,1,35,41,11
3,2,19,1,6,1,1,35,95,11
3,2,4,0,0,0,1,35,102,11
3,2,8,1,0,0,1,35,79,11
3,2,19,1,0,0,1,35,81,11
3,2,16,1,1,0,1,35,95,11
3,2,18,1,2,0,1,35,71,11
3,2,20,1,5,1,1,35,81,11
3,2,0,0,0,0,1,35,102,11
3,2,1,0,0,0,1,35,95,11
3,2,9,1,2,0,1,35,81,11
3,2,12,1,2,0,1,35,107,11
3,2,8,1,4,0,1,35,107,11
3,2,13,1,0,0,1,35,41,11
3,2,21,0,1,0,1,35,95,11
3,2,0,0,2,0,1,35,107,11
3,2,21,0,2,0,1,35,41,9
3,2,6,0,4,0,1,35,102,11
4,2,5,0,5,1,2,35,79,9
4,2,14,1,6,1,2,35,107,11
4,2,9,1,0,0,2,35,81,11
4,2,18,1,5,1,2,35,93,11
4,2,19,1,5,1,2,35,95,11
4,2,17,1,6,1,2,35,107,11
4,2,22,0,0,0,2,35,7,9
4,2,1,0,0,0,2,35,79,11
4,2,23,0,6,1,2,35,107,11
4,2,16,1,0,0,2,35,132,11
4,2,4,0,3,0,2,35,102,11
4,2,11,1,3,0,2,35,81,11
4,2,20,1,3,0,2,35,107,11
4,2,14,1,4,0,2,35,41,11
4,2,15,1,5,1,2,35,107,11
4,2,19,1,5,1,2,35,20,11
4,2,10,1,1,0,2,35,107,9
4,2,16,1,1,0,2,35,107,9
4,2,21,0,2,0,2,35,107,11
4,2,22,0,6,1,2,35,95,11
5,2,22,0,1,0,2,35,107,11
5,2,5,0,5,1,2,35,102,11
5,2,8,1,5,1,2,35,81,11
5,2,21,0,6,1,2,35,107,8
5,2,16,1,0,0,2,35,3,11
5,2,0,0,2,0,2,35,102,11
5,2,12,1,2,0,2,35,3,11
5,2,16,1,4,0,2,35,95,11
5,2,12,1,6,1,2,35,95,11
5,2,17,1,3,0,2,35,95,11
5,2,10,1,2,0,2,35,107,9
6,3,12,1,4,0,2,35,95,11
6,3,4,0,0,0,2,35,93,11
6,3,12,1,0,0,2,35,95,11
6,3,5,0,1,0,2,35,3,11
6,3,16,1,1,0,2,35,102,11
6,3,0,0,2,0,2,35,20,11
6,3,20,1,4,0,2,35,107,11
6,3,20,1,1,0,2,35,95,11
6,3,21,0,2,0,2,35,95,11
6,3,12,1,3,0,2,35,95,11
6,3,13,1,3,0,2,35,107,11
6,3,6,0,5,1,2,35,132,11
6,3,13,1,2,0,2,35,95,11
6,3,4,0,4,0,2,35,102,11
6,3,15,1,4,0,2,35,95,11
6,3,8,1,5,1,2,35,102,11
6,3,20,1,6,1,2,35,95,11
6,3,12,1,1,0,2,35,79,11
6,3,2,0,4,0,2,35,102,11
6,3,8,1,4,0,2,35,95,11
6,3,17,1,4,0,2,35,107,11
7,3,0,0,5,1,3,35,107,11
7,3,4,0,5,1,3,35,107,11
7,3,20,1,5,1,3,35,107,11
7,3,21,0,5,1,3,35,79,11
7,3,9,1,1,0,3,35,107,11
7,3,11,1,2,0,3,35,107,11
7,3,22,0,2,0,3,35,71,11
7,3,7,1,4,0,3,35,95,11
7,3,10,1,4,0,3,35,114,9
7,3,13,1,5,1,3,35,107,11
7,3,13,1,5,1,3,35,107,11
7,3,14,1,0,0,3,35,95,11
7,3,13,1,1,0,3,35,107,11
7,3,17,1,3,0,3,35,102,11
7,3,5,0,1,0,3,35,123,11
7,3,19,1,4,0,3,35,71,11
7,3,18,1,1,0,3,35,79,11
7,3,18,1,4,0,3,35,81,11
7,3,12,1,6,1,3,35,95,11
7,3,18,1,6,1,3,35,95,11
8,3,20,1,4,0,3,35,95,11
8,3,21,0,0,0,3,35,107,11
8,3,14,1,1,0,3,35,107,11
8,3,22,0,3,0,3,35,95,11
8,3,12,1,4,0,3,35,79,11
8,3,9,1,6,1,3,35,81,11
8,3,17,1,6,1,3,35,41,11
8,3,10,1,0,0,3,35,107,11
8,3,4,0,3,0,3,35,132,11
8,3,21,0,4,0,3,35,95,11
8,3,12,1,2,0,3,35,62,9
8,3,20,1,2,0,3,35,57,11
9,4,15,1,0,0,3,35,107,11
9,4,17,1,1,0,3,35,95,11
9,4,0,0,2,0,3,35,24,9
9,4,17,1,5,1,3,35,117,11
9,4,5,0,3,0,3,35,107,11
9,4,5,0,4,0,3,35,95,11
9,4,11,1,4,0,3,35,95,11
9,4,0,0,5,1,3,35,95,11
9,4,7,1,6,1,3,35,107,11
9,4,21,0,0,0,3,35,107,11
9,4,23,0,0,0,3,35,102,11
9,4,12,1,1,0,3,35,81,9
9,4,19,1,2,0,3,35,102,11
9,4,17,1,2,0,3,35,95,11
9,4,15,1,3,0,3,35,102,11
9,4,23,0,4,0,3,35,81,8
9,4,11,1,5,1,3,35,95,11
9,4,4,0,2,0,3,35,102,11
9,4,6,0,2,0,3,35,102,11
9,4,6,0,4,0,3,35,102,11
10,4,15,1,6,1,4,35,95,11
10,4,13,1,0,0,4,35,14,11
10,4,6,0,2,0,4,35,81,9
10,4,17,1,4,0,4,35,95,11
10,4,11,1,5,1,4,35,95,11
10,4,14,1,1,0,4,35,95,11
10,4,18,1,3,0,4,35,20,11
10,4,19,1,4,0,4,35,24,11
10,4,22,0,6,1,4,35,13,11
10,4,14,1,6,1,4,35,95,11
10,4,12,1,1,0,4,35,93,11
10,4,15,1,3,0,4,35,95,11
10,4,0,0,4,0,4,35,81,9
10,4,11,1,4,0,4,35,95,11
10,4,13,1,0,0,4,35,95,11
10,4,19,1,3,0,4,35,105,11
10,4,13,1,6,1,4,35,102,11
10,4,5,0,0,0,4,35,81,11
10,4,21,0,0,0,4,35,102,11
11,4,12,1,3,0,4,35,81,11
11,4,18,1,3,0,4,35,107,11
11,4,19,1,4,0,4,35,41,11
11,4,6,0,5,1,4,35,71,11
11,4,18,1,5,1,4,35,71,11
11,4,20,1,1,0,4,35,102,11
11,4,14,1,1,0,4,35,71,11
11,4,16,1,1,0,4,35,71,8
11,4,12,1,0,0,4,35,71,11
11,4,13,1,2,0,4,35,71,11
11,4,18,1,5,1,4,35,93,11
11,4,17,1,5,1,4,35,120,11
11,4,17,1,6,1,4,35,3,11
12,1,15,1,2,0,4,35,95,11
12,1,4,0,4,0,4,35,102,11
12,1,7,1,6,1,4,35,102,11
12,1,22,0,2,0,4,35,107,11
12,1,14,1,3,0,4,35,41,11
12,1,15,1,3,0,4,35,107,11
12,1,22,0,3,0,4,35,107,11
12,1,3,0,4,0,4,35,102,11
12,1,19,1,4,0,4,35,81,11
12,1,0,0,5,1,4,35,20,11
12,1,5,0,6,1,4,35,102,11
12,1,14,1,0,0,4,35,33,8
12,1,16,1,2,0,4,35,3,11
12,1,20,1,6,1,4,35,102,11
1,1,18,1,5,1,1,35,102,11
1,1,21,0,3,0,1,35,102,11
1,1,19,1,6,1,1,35,93,11
2,1,12,1,4,0,1,35,93,11
2,1,20,1,3,0,1,35,14,11
3,2,11,1,2,0,1,35,107,11
4,2,16,1,0,0,2,35,20,11
4,2,17,1,6,1,2,35,107,11
5,2,18,1,3,0,2,35,95,11
6,3,10,1,4,0,2,35,132,11
6,3,11,1,4,0,2,35,132,11
6,3,16,1,1,0,2,35,3,11
6,3,18,1,2,0,2,35,81,11
7,3,12,1,4,0,3,35,69,11
8,3,8,1,4,0,3,35,81,11
8,3,9,1,1,0,3,35,86,11
8,3,0,0,5,1,3,35,107,11
9,4,17,1,6,1,3,35,13,9
11,4,8,1,1,0,4,35,81,11
12,1,21,0,4,0,4,35,102,11
12,1,20,1,1,0,4,35,102,11
1,1,16,1,2,0,1,35,81,8
4,2,17,1,5,1,2,35,95,11
6,3,15,1,4,0,2,35,114,8
7,3,21,0,2,0,3,35,70,11
9,4,3,0,6,1,3,35,102,11
3,2,23,0,6,1,1,35,28,11
3,2,23,0,0,0,1,35,28,11
4,2,5,0,0,0,2,35,102,11
7,3,22,0,6,1,3,35,95,11
7,3,3,0,0,0,3,35,95,9
8,3,1,0,1,0,3,35,95,9
8,3,22,0,1,0,3,35,93,11
8,3,4,0,6,1,3,35,95,11
9,4,13,1,1,0,3,35,20,9
9,4,4,0,3,0,3,35,51,11
10,4,16,1,0,0,4,35,130,11
10,4,9,1,6,1,4,35,93,11
1,1,20,1,3,0,1,35,107,11
3,2,6,0,4,0,1,35,95,11
6,3,5,0,2,0,2,35,95,11
5,2,10,1,1,0,2,35,107,11
7,3,11,1,3,0,3,35,20,11
9,4,16,1,6,1,3,35,14,11
12,1,18,1,5,1,4,35,95,11
12,1,17,1,5,1,4,35,107,11
1,1,15,1,6,1,1,35,28,11
1,1,3,0,1,0,1,35,49,9
1,1,15,1,5,1,1,35,49,11
1,1,5,0,1,0,1,35,120,11
1,1,23,0,1,0,1,35,49,11
2,1,20,1,6,1,1,35,102,11
2,1,18,1,0,0,1,35,81,11
2,1,18,1,2,0,1,35,107,11
2,1,13,1,5,1,1,35,95,11
3,2,18,1,2,0,1,35,107,11
3,2,19,1,1,0,1,35,21,11
3,2,20,1,2,0,1,35,107,11
4,2,12,1,6,1,2,35,132,11
4,2,21,0,2,0,2,35,107,11
4,2,20,1,1,0,2,35,107,11
4,2,9,1,4,0,2,35,115,11
5,2,14,1,3,0,2,35,107,11
5,2,10,1,0,0,2,35,107,11
5,2,18,1,0,0,2,35,95,11
5,2,11,1,1,0,2,35,95,11
5,2,13,1,4,0,2,35,95,11
5,2,11,1,6,1,2,35,95,11
5,2,12,1,6,1,2,35,13,9
5,2,7,1,5,1,2,35,115,11
6,3,17,1,0,0,2,35,11,11
6,3,22,0,0,0,2,35,107,11
7,3,14,1,5,1,3,35,95,9
7,3,11,1,0,0,3,35,107,11
8,3,16,1,0,0,3,35,107,11
9,4,12,1,2,0,3,35,107,11
9,4,14,1,6,1,3,35,107,11
9,4,20,1,1,0,3,35,95,11
9,4,18,1,2,0,3,35,107,11
10,4,22,0,3,0,4,35,107,11
10,4,18,1,0,0,4,35,26,9
10,4,14,1,1,0,4,35,107,11
10,4,15,1,5,1,4,35,107,11
10,4,23,0,6,1,4,35,107,11
11,4,23,0,0,0,4,35,51,11
12,1,0,0,5,1,4,35,20,9
1,1,12,1,2,0,1,45,129,11
1,1,15,1,4,0,1,45,107,11
1,1,1,0,4,0,1,45,81,11
1,1,20,1,6,1,1,45,107,11
1,1,14,1,6,1,1,45,93,11
1,1,15,1,0,0,1,45,81,11
1,1,17,1,3,0,1,45,62,9
1,1,2,0,6,1,1,45,93,11
1,1,10,1,1,0,1,45,107,11
1,1,10,1,3,0,1,45,73,9
1,1,16,1,4,0,1,45,93,11
1,1,20,1,5,1,1,45,107,11
1,1,6,0,5,1,1,45,79,11
1,1,2,0,1,0,1,45,107,11
1,1,1,0,3,0,1,45,41,9
1,1,21,0,4,0,1,45,102,11
1,1,3,0,0,0,1,45,102,11
1,1,4,0,0,0,1,45,81,9
2,1,0,0,6,1,1,45,71,11
2,1,12,1,3,0,1,45,93,11
2,1,18,1,3,0,1,45,93,11
3,2,18,1,6,1,1,45,129,11
3,2,19,1,4,0,1,45,81,9
3,2,14,1,6,1,1,45,20,11
3,2,8,1,3,0,1,45,82,11
4,2,0,0,3,0,2,45,93,11
4,2,0,0,4,0,2,45,71,11
4,2,12,1,0,0,2,45,81,11
4,2,4,0,6,1,2,45,93,11
5,2,3,0,0,0,2,45,93,11
5,2,4,0,1,0,2,45,93,11
5,2,17,1,5,1,2,45,14,9
5,2,8,1,6,1,2,45,94,9
6,3,18,1,3,0,2,45,41,11
6,3,18,1,3,0,2,45,102,11
6,3,16,1,5,1,2,45,95,11
6,3,15,1,0,0,2,45,101,11
7,3,17,1,6,1,3,45,115,11
7,3,19,1,2,0,3,45,95,11
7,3,9,1,6,1,3,45,14,11
8,3,3,0,1,0,3,45,20,11
8,3,20,1,4,0,3,45,114,9
9,4,3,0,0,0,3,45,107,11
9,4,3,0,0,0,3,45,107,11
9,4,11,1,0,0,3,45,95,11
9,4,21,0,0,0,3,45,71,11
9,4,2,0,1,0,3,45,93,11
9,4,13,1,1,0,3,45,95,11
10,4,16,1,4,0,4,45,79,11
10,4,3,0,6,1,4,45,81,9
11,4,2,0,2,0,4,45,79,9
11,4,1,0,1,0,4,45,41,11
12,1,13,1,1,0,4,45,81,8
12,1,10,1,3,0,4,45,71,11
12,1,18,1,6,1,4,45,93,11
12,1,4,0,1,0,4,45,14,11
1,1,16,1,6,1,1,45,107,11
2,1,2,0,5,1,1,45,20,11
4,2,20,1,6,1,2,45,51,11
4,2,18,1,4,0,2,45,93,11
4,2,4,0,1,0,2,45,81,11
5,2,3,0,3,0,2,45,13,8
7,3,22,0,6,1,3,45,35,11
8,3,23,0,5,1,3,45,70,11
9,4,9,1,6,1,3,45,1,11
1,1,11,1,2,0,1,45,89,11
3,2,12,1,4,0,1,45,81,8
7,3,14,1,4,0,3,45,81,11
12,1,13,1,4,0,4,45,26,9
12,1,9,1,4,0,4,45,73,8
1,1,15,1,6,1,1,45,132,11
1,1,14,1,0,0,1,45,71,11
1,1,23,0,6,1,1,45,107,11
2,1,13,1,4,0,1,45,107,11
2,1,13,1,4,0,1,45,107,11
2,1,16,1,2,0,1,45,107,11
3,2,14,1,5,1,1,45,107,11
3,2,16,1,5,1,1,45,107,11
3,2,18,1,5,1,1,45,28,11
3,2,18,1,1,0,1,45,107,11
3,2,20,1,5,1,1,45,114,11
3,2,22,0,4,0,1,45,95,11
3,2,23,0,4,0,1,45,132,11
4,2,15,1,6,1,2,45,107,11
4,2,23,0,3,0,2,45,132,11
4,2,18,1,4,0,2,45,107,11
4,2,17,1,5,1,2,45,107,11
4,2,3,0,0,0,2,45,95,11
5,2,11,1,3,0,2,45,93,11
5,2,7,1,5,1,2,45,95,11
5,2,12,1,6,1,2,45,95,11
5,2,13,1,0,0,2,45,107,11
5,2,8,1,3,0,2,45,41,8
6,3,23,0,6,1,2,45,14,9
6,3,3,0,2,0,2,45,132,11
6,3,10,1,2,0,2,45,89,11
7,3,18,1,5,1,3,45,110,11
7,3,22,0,5,1,3,45,95,11
7,3,10,1,3,0,3,45,95,11
7,3,20,1,5,1,3,45,115,11
8,3,14,1,0,0,3,45,107,11
8,3,19,1,0,0,3,45,95,11
8,3,16,1,1,0,3,45,107,11
8,3,19,1,3,0,3,45,14,11
8,3,16,1,3,0,3,45,129,11
9,4,21,0,5,1,3,45,107,11
9,4,14,1,0,0,3,45,26,11
9,4,21,0,2,0,3,45,107,11
9,4,22,0,4,0,3,45,95,11
9,4,23,0,1,0,3,45,107,11
10,4,13,1,2,0,4,45,107,11
10,4,22,0,6,1,4,45,107,11
10,4,18,1,3,0,4,45,107,11
10,4,7,1,2,0,4,45,114,11
11,4,11,1,4,0,4,45,107,11
11,4,17,1,4,0,4,45,107,11
11,4,17,1,5,1,4,45,107,11
11,4,13,1,6,1,4,45,107,11
11,4,18,1,0,0,4,45,41,11
11,4,13,1,1,0,4,45,132,11
12,1,15,1,6,1,4,45,132,11
12,1,17,1,3,0,4,45,107,11
12,1,16,1,1,0,4,45,71,9
12,1,16,1,0,0,4,45,107,11
12,1,22,0,0,0,4,45,132,11
12,1,17,1,4,0,4,45,90,11
12,1,20,1,6,1,4,45,132,11
1,1,15,1,2,0,1,22,3,11
1,1,19,1,5,1,1,22,41,11
1,1,20,1,3,0,1,22,71,11
1,1,6,0,0,0,1,22,14,11
2,1,14,1,6,1,1,22,81,9
2,1,22,0,3,0,1,22,71,11
3,2,5,0,2,0,1,22,93,11
3,2,4,0,6,1,1,22,93,11
3,2,17,1,1,0,1,22,95,11
3,2,1,0,3,0,1,22,71,11
3,2,4,0,1,0,1,22,99,9
3,2,13,1,0,0,1,22,95,11
4,2,22,0,1,0,2,22,71,11
4,2,10,1,4,0,2,22,95,11
4,2,14,1,5,1,2,22,71,9
5,2,14,1,6,1,2,22,93,11
5,2,19,1,4,0,2,22,95,11
5,2,16,1,6,1,2,22,95,11
5,2,15,1,6,1,2,22,95,11
5,2,10,1,1,0,2,22,93,11
6,3,6,0,3,0,2,22,93,11
6,3,6,0,3,0,2,22,93,11
6,3,1,0,3,0,2,22,93,11
6,3,1,0,1,0,2,22,103,9
6,3,2,0,2,0,2,22,95,9
6,3,13,1,2,0,2,22,95,11
6,3,14,1,3,0,2,22,95,9
6,3,14,1,0,0,2,22,95,11
6,3,16,1,1,0,2,22,95,11
6,3,21,0,3,0,2,22,93,11
7,3,13,1,6,1,3,22,129,11
7,3,16,1,6,1,3,22,95,11
7,3,18,1,6,1,3,22,93,9
7,3,4,0,4,0,3,22,112,11
7,3,23,0,4,0,3,22,81,11
7,3,22,0,5,1,3,22,93,11
7,3,14,1,5,1,3,22,95,11
7,3,1,0,0,0,3,22,71,11
7,3,14,1,2,0,3,22,13,9
7,3,16,1,6,1,3,22,95,9
8,3,12,1,1,0,3,22,95,11
8,3,16,1,1,0,3,22,95,11
8,3,21,0,3,0,3,22,93,11
8,3,1,0,4,0,3,22,93,11
8,3,14,1,3,0,3,22,95,11
8,3,17,1,1,0,3,22,71,11
8,3,12,1,2,0,3,22,14,9
9,4,9,1,1,0,3,22,81,11
9,4,10,1,0,0,3,22,13,8
10,4,14,1,2,0,4,22,3,11
10,4,14,1,2,0,4,22,95,11
10,4,18,1,4,0,4,22,93,11
10,4,23,0,6,1,4,22,93,11
10,4,10,1,1,0,4,22,93,11
10,4,12,1,2,0,4,22,95,11
10,4,18,1,4,0,4,22,95,11
11,4,10,1,6,1,4,22,28,11
11,4,5,0,1,0,4,22,81,8
11,4,8,1,5,1,4,22,95,11
11,4,0,0,4,0,4,22,51,11
11,4,19,1,6,1,4,22,93,11
12,1,11,1,6,1,4,22,71,11
12,1,7,1,3,0,4,22,14,9
12,1,17,1,3,0,4,22,95,11
12,1,16,1,0,0,4,22,71,11
12,1,20,1,1,0,4,22,81,11
12,1,6,0,2,0,4,22,93,11
12,1,6,0,3,0,4,22,93,11
1,1,2,0,3,0,1,22,81,11
3,2,19,1,1,0,1,22,81,11
5,2,16,1,6,1,2,22,81,11
5,2,8,1,1,0,2,22,49,11
5,2,9,1,1,0,2,22,81,11
6,3,13,1,5,1,2,22,13,11
6,3,23,0,6,1,2,22,81,11
6,3,12,1,3,0,2,22,81,11
7,3,0,0,2,0,3,22,79,11
7,3,19,1,2,0,3,22,95,11
7,3,14,1,3,0,3,22,95,11
7,3,16,1,0,0,3,22,95,11
7,3,0,0,5,1,3,22,81,11
8,3,14,1,6,1,3,22,20,11
8,3,18,1,1,0,3,22,95,11
9,4,14,1,2,0,3,22,95,11
9,4,15,1,0,0,3,22,21,11
10,4,3,0,6,1,4,22,81,11
10,4,20,1,6,1,4,22,93,11
10,4,19,1,6,1,4,22,93,11
10,4,15,1,0,0,4,22,95,11
10,4,13,1,1,0,4,22,3,11
10,4,13,1,5,1,4,22,79,9
10,4,13,1,6,1,4,22,95,11
10,4,21,0,1,0,4,22,95,11
10,4,15,1,5,1,4,22,93,11
10,4,17,1,5,1,4,22,3,11
11,4,11,1,6,1,4,22,21,11
11,4,8,1,3,0,4,22,93,11
12,1,11,1,5,1,4,22,3,11
12,1,10,1,4,0,4,22,84,11
1,1,12,1,3,0,1,22,41,9
1,1,4,0,6,1,1,22,93,11
1,1,10,1,4,0,1,22,32,11
1,1,14,1,5,1,1,22,81,11
1,1,11,1,4,0,1,22,93,11
2,1,13,1,5,1,1,22,81,11
3,2,15,1,3,0,1,22,81,11
3,2,22,0,5,1,1,22,115,11
3,2,17,1,4,0,1,22,95,11
6,3,9,1,5,1,2,22,107,11
6,3,17,1,5,1,2,22,79,11
7,3,12,1,4,0,3,22,95,11
8,3,21,0,0,0,3,22,13,11
9,4,14,1,5,1,3,22,13,11
9,4,14,1,6,1,3,22,95,11
9,4,23,0,6,1,3,22,3,11
10,4,16,1,4,0,4,22,95,11
10,4,10,1,1,0,4,22,102,11
11,4,1,0,4,0,4,22,93,11
12,1,2,0,4,0,4,22,102,11
1,1,20,1,6,1,1,22,81,11
1,1,15,1,5,1,1,22,13,11
2,1,21,0,5,1,1,22,1,11
3,2,20,1,0,0,1,22,81,11
3,2,12,1,2,0,1,22,62,11
3,2,16,1,3,0,1,22,69,11
4,2,11,1,3,0,2,22,95,11
6,3,17,1,5,1,2,22,13,9
6,3,15,1,1,0,2,22,1,11
7,3,12,1,1,0,3,22,86,11
7,3,14,1,4,0,3,22,24,8
7,3,19,1,6,1,3,22,20,9
7,3,16,1,3,0,3,22,107,11
8,3,20,1,0,0,3,22,95,11
8,3,6,0,3,0,3,22,13,11
8,3,20,1,5,1,3,22,69,11
8,3,21,0,2,0,3,22,95,11
8,3,17,1,6,1,3,22,95,11
9,4,19,1,6,1,3,22,95,11
9,4,21,0,0,0,3,22,95,11
9,4,16,1,1,0,3,22,69,11
9,4,13,1,6,1,3,22,26,11
9,4,14,1,6,1,3,22,20,11
9,4,12,1,1,0,3,22,84,11
10,4,16,1,2,0,4,22,21,11
10,4,15,1,2,0,4,22,21,11
10,4,19,1,4,0,4,22,115,11
10,4,8,1,6,1,4,22,1,11
10,4,21,0,5,1,4,22,21,11
11,4,13,1,2,0,4,22,21,11
11,4,11,1,5,1,4,22,81,11
11,4,13,1,6,1,4,22,13,11
11,4,16,1,6,1,4,22,24,11
11,4,17,1,0,0,4,22,115,11
12,1,11,1,4,0,4,22,13,11
12,1,14,1,5,1,4,22,81,11
12,1,1,0,2,0,4,22,14,11
1,1,14,1,0,0,1,6,51,11
2,1,12,1,3,0,1,6,14,9
2,1,11,1,3,0,1,6,93,11
2,1,3,0,6,1,1,6,115,11
3,2,22,0,3,0,1,6,20,11
5,2,15,1,1,0,2,6,115,11
6,3,10,1,3,0,2,6,13,9
11,4,17,1,4,0,4,6,79,11
12,1,19,1,0,0,4,6,13,9
7,3,11,1,4,0,3,6,79,11
8,3,16,1,6,1,3,6,79,11
1,1,13,1,6,1,1,6,102,11
1,1,20,1,6,1,1,6,102,11
1,1,16,1,6,1,1,6,107,11
1,1,21,0,5,1,1,6,102,11
2,1,16,1,6,1,1,6,51,11
2,1,8,1,5,1,1,6,107,11
3,2,14,1,1,0,1,6,105,11
3,2,20,1,4,0,1,6,107,11
3,2,17,1,4,0,1,6,95,11
4,2,20,1,5,1,2,6,95,11
4,2,15,1,2,0,2,6,95,11
4,2,19,1,3,0,2,6,95,11
6,3,14,1,4,0,2,6,107,11
1,1,22,0,6,1,1,6,81,11
1,1,19,1,6,1,1,6,71,11
1,1,16,1,6,1,1,6,102,11
1,1,14,1,6,1,1,6,102,11
1,1,15,1,6,1,1,6,102,11
1,1,12,1,6,1,1,6,102,11
1,1,9,1,1,0,1,6,95,11
1,1,17,1,1,0,1,6,95,11
1,1,16,1,1,0,1,6,95,11
1,1,11,1,2,0,1,6,20,11
1,1,14,1,2,0,1,6,102,11
1,1,10,1,3,0,1,6,102,11
1,1,10,1,5,1,1,6,102,11
1,1,14,1,5,1,1,6,41,11
1,1,16,1,6,1,1,6,93,11
1,1,15,1,0,0,1,6,71,11
1,1,22,0,0,0,1,6,93,11
1,1,12,1,1,0,1,6,70,11
1,1,19,1,1,0,1,6,95,11
1,1,13,1,1,0,1,6,132,11
1,1,4,0,1,0,1,6,95,11
1,1,0,0,1,0,1,6,95,11
1,1,1,0,2,0,1,6,102,11
1,1,0,0,3,0,1,6,93,11
1,1,22,0,4,0,1,6,102,11
1,1,18,1,4,0,1,6,41,11
1,1,19,1,4,0,1,6,81,11
1,1,19,1,4,0,1,6,102,11
1,1,1,0,4,0,1,6,102,11
1,1,12,1,0,0,1,6,30,11
1,1,23,0,0,0,1,6,20,11
1,1,8,1,4,0,1,6,115,11
1,1,15,1,4,0,1,6,93,11
1,1,14,1,5,1,1,6,102,11
1,1,20,1,6,1,1,6,41,11
1,1,1,0,2,0,1,6,20,11
1,1,0,0,2,0,1,6,93,11
1,1,9,1,3,0,1,6,41,11
1,1,20,1,4,0,1,6,102,11
1,1,1,0,4,0,1,6,71,11
1,1,19,1,6,1,1,6,93,11
1,1,11,1,0,0,1,6,93,11
2,1,17,1,2,0,1,6,95,11
2,1,9,1,5,1,1,6,41,11
2,1,11,1,6,1,1,6,102,11
2,1,23,0,0,0,1,6,102,11
2,1,11,1,4,0,1,6,81,11
2,1,1,0,5,1,1,6,71,11
2,1,2,0,6,1,1,6,102,11
2,1,20,1,6,1,1,6,81,11
2,1,22,0,0,0,1,6,102,11
2,1,23,0,0,0,1,6,71,11
2,1,8,1,1,0,1,6,102,11
2,1,19,1,2,0,1,6,20,11
2,1,22,0,3,0,1,6,102,11
2,1,12,1,4,0,1,6,102,11
2,1,12,1,4,0,1,6,102,11
2,1,18,1,4,0,1,6,41,11
2,1,22,0,5,1,1,6,102,11
2,1,19,1,5,1,1,6,102,11
2,1,15,1,6,1,1,6,41,11
2,1,21,0,6,1,1,6,102,11
2,1,9,1,0,0,1,6,71,11
2,1,13,1,0,0,1,6,102,11
2,1,15,1,1,0,1,6,102,11
2,1,22,0,3,0,1,6,102,11
2,1,23,0,3,0,1,6,82,11
2,1,6,0,4,0,1,6,102,11
2,1,21,0,4,0,1,6,102,11
2,1,23,0,5,1,1,6,102,11
2,1,5,0,5,1,1,6,102,11
2,1,6,0,6,1,1,6,102,11
2,1,7,1,6,1,1,6,102,11
2,1,5,0,6,1,1,6,102,11
2,1,5,0,6,1,1,6,102,11
2,1,5,0,6,1,1,6,102,11
2,1,3,0,0,0,1,6,102,11
2,1,5,0,0,0,1,6,102,11
2,1,5,0,0,0,1,6,102,11
2,1,5,0,0,0,1,6,102,11
2,1,20,1,1,0,1,6,71,11
2,1,18,1,1,0,1,6,71,11
3,2,1,0,4,0,1,6,102,11
3,2,22,0,4,0,1,6,102,11
3,2,22,0,5,1,1,6,102,11
3,2,17,1,5,1,1,6,71,11
3,2,19,1,6,1,1,6,102,11
3,2,15,1,6,1,1,6,102,11
3,2,1,0,6,1,1,6,102,11
3,2,5,0,0,0,1,6,102,11
3,2,11,1,1,0,1,6,95,11
3,2,17,1,5,1,1,6,102,11
3,2,0,0,6,1,1,6,102,11
3,2,8,1,0,0,1,6,102,11
3,2,17,1,2,0,1,6,70,9
3,2,0,0,1,0,1,6,102,11
3,2,23,0,4,0,1,6,102,11
3,2,16,1,6,1,1,6,102,11
3,2,0,0,0,0,1,6,107,11
3,2,16,1,1,0,1,6,71,11
3,2,18,1,3,0,1,6,14,11
4,2,19,1,5,1,2,6,81,11
4,2,2,0,6,1,2,6,20,11
4,2,4,0,0,0,2,6,20,11
4,2,0,0,5,1,2,6,95,11
4,2,21,0,5,1,2,6,102,11
4,2,4,0,5,1,2,6,102,11
4,2,20,1,1,0,2,6,71,11
4,2,0,0,1,0,2,6,102,11
4,2,6,0,2,0,2,6,82,11
4,2,22,0,4,0,2,6,41,11
4,2,22,0,6,1,2,6,102,11
4,2,13,1,6,1,2,6,93,11
4,2,13,1,6,1,2,6,102,11
4,2,2,0,0,0,2,6,102,11
4,2,2,0,1,0,2,6,102,11
4,2,19,1,1,0,2,6,102,11
4,2,20,1,1,0,2,6,102,11
4,2,6,0,1,0,2,6,102,11
4,2,22,0,1,0,2,6,102,11
4,2,22,0,1,0,2,6,93,11
4,2,8,1,2,0,2,6,102,11
4,2,19,1,3,0,2,6,102,11
4,2,23,0,4,0,2,6,93,11
4,2,0,0,5,1,2,6,93,11
4,2,23,0,6,1,2,6,102,11
4,2,21,0,6,1,2,6,102,11
4,2,18,1,3,0,2,6,79,9
4,2,23,0,3,0,2,6,102,11
4,2,0,0,4,0,2,6,102,11
4,2,15,1,4,0,2,6,70,11
4,2,6,0,4,0,2,6,20,11
4,2,19,1,4,0,2,6,95,11
5,2,20,1,1,0,2,6,107,11
5,2,5,0,3,0,2,6,71,11
5,2,19,1,5,1,2,6,81,11
5,2,22,0,5,1,2,6,71,11
5,2,1,0,6,1,2,6,95,11
5,2,10,1,6,1,2,6,107,11
5,2,16,1,0,0,2,6,41,11
5,2,20,1,0,0,2,6,95,11
5,2,11,1,3,0,2,6,95,11
5,2,21,0,6,1,2,6,102,11
5,2,11,1,3,0,2,6,102,11
5,2,19,1,4,0,2,6,102,11
5,2,0,0,2,0,2,6,102,11
5,2,21,0,3,0,2,6,93,11
5,2,13,1,0,0,2,6,7,11
6,3,23,0,4,0,2,6,93,11
6,3,18,1,5,1,2,6,102,11
6,3,21,0,5,1,2,6,102,11
6,3,18,1,5,1,2,6,102,11
6,3,16,1,5,1,2,6,102,11
6,3,1,0,5,1,2,6,41,11
6,3,11,1,5,1,2,6,71,11
6,3,23,0,5,1,2,6,102,11
6,3,21,0,6,1,2,6,41,11
6,3,20,1,6,1,2,6,7,11
6,3,3,0,6,1,2,6,82,9
6,3,3,0,6,1,2,6,102,11
6,3,2,0,6,1,2,6,102,11
6,3,0,0,6,1,2,6,122,11
6,3,15,1,1,0,2,6,93,11
6,3,16,1,5,1,2,6,102,11
6,3,22,0,0,0,2,6,20,11
6,3,22,0,1,0,2,6,70,11
6,3,4,0,3,0,2,6,62,11
6,3,23,0,6,1,2,6,95,11
6,3,5,0,1,0,2,6,49,11
6,3,16,1,4,0,2,6,93,11
6,3,1,0,5,1,2,6,93,11
6,3,0,0,5,1,2,6,93,11
6,3,14,1,5,1,2,6,71,11
6,3,0,0,6,1,2,6,102,11
6,3,9,1,0,0,2,6,102,11
6,3,7,1,0,0,2,6,102,11
6,3,18,1,1,0,2,6,102,11
6,3,19,1,1,0,2,6,82,11
6,3,17,1,1,0,2,6,102,11
6,3,17,1,1,0,2,6,102,11
6,3,22,0,1,0,2,6,102,11
6,3,21,0,2,0,2,6,102,11
6,3,8,1,3,0,2,6,121,11
6,3,13,1,4,0,2,6,102,11
7,3,14,1,5,1,3,6,71,11
7,3,21,0,5,1,3,6,93,11
7,3,15,1,0,0,3,6,30,11
7,3,13,1,1,0,3,6,102,11
7,3,11,1,2,0,3,6,102,11
7,3,15,1,5,1,3,6,79,11
7,3,21,0,2,0,3,6,93,11
7,3,22,0,2,0,3,6,95,11
7,3,22,0,6,1,3,6,110,11
7,3,1,0,6,1,3,6,79,11
7,3,3,0,6,1,3,6,102,11
7,3,23,0,0,0,3,6,71,11
7,3,15,1,4,0,3,6,95,11
7,3,6,0,5,1,3,6,51,11
7,3,21,0,0,0,3,6,105,11
7,3,17,1,2,0,3,6,71,11
7,3,9,1,3,0,3,6,93,11
7,3,16,1,4,0,3,6,71,11
7,3,20,1,5,1,3,6,95,11
8,3,3,0,4,0,3,6,71,11
8,3,15,1,4,0,3,6,95,11
8,3,14,1,6,1,3,6,20,11
8,3,15,1,6,1,3,6,102,11
8,3,14,1,0,0,3,6,107,11
8,3,2,0,1,0,3,6,107,11
8,3,21,0,1,0,3,6,20,11
8,3,23,0,1,0,3,6,81,11
8,3,2,0,2,0,3,6,93,11
8,3,21,0,2,0,3,6,93,9
8,3,4,0,4,0,3,6,79,11
8,3,20,1,6,1,3,6,107,11
8,3,12,1,1,0,3,6,93,11
8,3,3,0,4,0,3,6,102,11
8,3,3,0,5,1,3,6,71,11
8,3,15,1,5,1,3,6,92,11
8,3,14,1,2,0,3,6,51,11
8,3,14,1,3,0,3,6,95,11
8,3,22,0,0,0,3,6,93,11
8,3,23,0,0,0,3,6,102,11
8,3,1,0,3,0,3,6,102,11
9,4,17,1,4,0,3,6,71,11
9,4,13,1,4,0,3,6,102,11
9,4,15,1,6,1,3,6,71,11
9,4,3,0,6,1,3,6,79,11
9,4,1,0,3,0,3,6,79,11
9,4,9,1,5,1,3,6,107,11
9,4,16,1,6,1,3,6,14,11
9,4,16,1,0,0,3,6,86,11
9,4,3,0,1,0,3,6,93,11
9,4,10,1,2,0,3,6,41,11
9,4,23,0,4,0,3,6,71,11
9,4,18,1,4,0,3,6,107,11
9,4,14,1,4,0,3,6,95,11
9,4,22,0,5,1,3,6,102,11
9,4,18,1,2,0,3,6,95,11
9,4,17,1,2,0,3,6,115,11
9,4,19,1,5,1,3,6,41,11
9,4,11,1,0,0,3,6,71,11
9,4,13,1,2,0,3,6,51,11
9,4,6,0,4,0,3,6,102,11
9,4,13,1,5,1,3,6,95,11
9,4,5,0,5,1,3,6,102,11
10,4,13,1,0,0,4,6,20,11
10,4,3,0,0,0,4,6,49,11
10,4,11,1,1,0,4,6,71,11
10,4,14,1,3,0,4,6,51,11
10,4,7,1,4,0,4,6,115,11
10,4,9,1,4,0,4,6,95,11
10,4,3,0,4,0,4,6,102,11
10,4,22,0,6,1,4,6,95,11
10,4,22,0,1,0,4,6,41,9
10,4,14,1,1,0,4,6,95,11
10,4,14,1,2,0,4,6,41,11
10,4,1,0,3,0,4,6,70,11
10,4,5,0,5,1,4,6,82,11
10,4,14,1,5,1,4,6,71,11
10,4,19,1,6,1,4,6,93,11
10,4,11,1,5,1,4,6,95,11
10,4,3,0,5,1,4,6,102,11
10,4,3,0,5,1,4,6,102,11
10,4,9,1,2,0,4,6,71,11
10,4,19,1,4,0,4,6,81,11
10,4,4,0,5,1,4,6,23,11
10,4,1,0,5,1,4,6,81,11
11,4,4,0,2,0,4,6,20,11
11,4,4,0,2,0,4,6,20,11
11,4,5,0,2,0,4,6,20,11
11,4,14,1,2,0,4,6,107,11
11,4,0,0,2,0,4,6,20,11
11,4,19,1,2,0,4,6,95,11
11,4,11,1,4,0,4,6,95,11
11,4,23,0,4,0,4,6,102,11
11,4,21,0,5,1,4,6,107,11
11,4,19,1,5,1,4,6,107,11
11,4,17,1,6,1,4,6,105,11
11,4,16,1,1,0,4,6,81,11
11,4,5,0,2,0,4,6,95,11
11,4,3,0,4,0,4,6,62,11
11,4,16,1,4,0,4,6,107,11
11,4,4,0,5,1,4,6,51,9
11,4,19,1,5,1,4,6,71,11
11,4,18,1,6,1,4,6,93,11
11,4,21,0,6,1,4,6,102,11
11,4,23,0,0,0,4,6,93,11
11,4,20,1,4,0,4,6,102,11
11,4,20,1,4,0,4,6,102,11
11,4,19,1,4,0,4,6,102,11
11,4,19,1,4,0,4,6,20,11
11,4,20,1,0,0,4,6,71,11
11,4,21,0,2,0,4,6,20,11
11,4,10,1,3,0,4,6,41,11
11,4,13,1,5,1,4,6,20,11
11,4,14,1,5,1,4,6,71,11
11,4,16,1,6,1,4,6,41,11
11,4,15,1,6,1,4,6,20,11
11,4,18,1,1,0,4,6,71,11
11,4,14,1,2,0,4,6,102,11
11,4,12,1,3,0,4,6,102,11
11,4,20,1,3,0,4,6,102,11
12,1,5,0,4,0,4,6,20,9
12,1,15,1,4,0,4,6,102,11
12,1,16,1,4,0,4,6,81,11
12,1,10,1,6,1,4,6,51,11
12,1,21,0,6,1,4,6,71,11
12,1,11,1,6,1,4,6,95,11
12,1,8,1,1,0,4,6,20,11
12,1,11,1,2,0,4,6,102,11
12,1,18,1,3,0,4,6,102,11
12,1,4,0,3,0,4,6,102,11
12,1,15,1,3,0,4,6,102,11
12,1,21,0,5,1,4,6,41,11
12,1,6,0,0,0,4,6,71,11
12,1,18,1,1,0,4,6,95,11
12,1,13,1,2,0,4,6,93,11
12,1,1,0,2,0,4,6,71,11
12,1,23,0,2,0,4,6,71,11
12,1,21,0,2,0,4,6,93,11
12,1,16,1,4,0,4,6,71,11
12,1,21,0,4,0,4,6,117,11
12,1,23,0,5,1,4,6,93,11
12,1,13,1,5,1,4,6,93,11
12,1,0,0,6,1,4,6,102,11
12,1,16,1,0,0,4,6,102,11
12,1,12,1,2,0,4,6,95,11
12,1,8,1,5,1,4,6,41,11
12,1,19,1,6,1,4,6,102,11
12,1,19,1,6,1,4,6,71,11
1,1,23,0,6,1,1,6,102,11
1,1,10,1,2,0,1,6,95,11
1,1,20,1,6,1,1,6,24,11
2,1,18,1,3,0,1,6,93,11
3,2,17,1,2,0,1,6,41,11
3,2,14,1,3,0,1,6,107,11
3,2,23,0,1,0,1,6,102,11
5,2,14,1,6,1,2,6,78,11
5,2,15,1,0,0,2,6,107,11
5,2,19,1,5,1,2,6,95,11
5,2,22,0,1,0,2,6,95,11
6,3,13,1,4,0,2,6,79,11
6,3,20,1,3,0,2,6,95,11
6,3,19,1,1,0,2,6,95,11
7,3,11,1,4,0,3,6,24,11
8,3,17,1,1,0,3,6,95,11
8,3,17,1,4,0,3,6,81,11
8,3,14,1,0,0,3,6,20,11
8,3,6,0,4,0,3,6,95,11
8,3,20,1,1,0,3,6,95,11
9,4,20,1,0,0,3,6,81,11
12,1,0,0,6,1,4,6,51,11
12,1,16,1,2,0,4,6,115,11
12,1,19,1,3,0,4,6,81,11
12,1,20,1,5,1,4,6,49,11
12,1,0,0,1,0,4,6,100,11
12,1,22,0,6,1,4,6,24,11
9,4,7,1,5,1,3,6,106,8
1,1,15,1,0,0,1,6,81,11
1,1,16,1,0,0,1,6,93,11
1,1,10,1,1,0,1,6,81,11
1,1,15,1,1,0,1,6,93,11
1,1,22,0,5,1,1,6,93,11
1,1,8,1,6,1,1,6,41,11
1,1,13,1,6,1,1,6,93,11
1,1,19,1,6,1,1,6,41,11
1,1,19,1,0,0,1,6,81,11
2,1,6,0,4,0,1,6,81,11
2,1,1,0,0,0,1,6,14,8
2,1,0,0,2,0,1,6,93,11
2,1,19,1,6,1,1,6,81,11
2,1,1,0,0,0,1,6,93,11
3,2,14,1,3,0,1,6,71,11
3,2,14,1,4,0,1,6,41,11
3,2,15,1,1,0,1,6,24,11
4,2,17,1,0,0,2,6,81,11
4,2,21,0,2,0,2,6,20,11
4,2,18,1,3,0,2,6,50,11
4,2,12,1,5,1,2,6,132,11
4,2,16,1,0,0,2,6,93,11
4,2,4,0,2,0,2,6,81,8
4,2,10,1,2,0,2,6,120,11
4,2,10,1,4,0,2,6,93,11
4,2,14,1,5,1,2,6,122,9
4,2,14,1,6,1,2,6,93,11
4,2,15,1,1,0,2,6,93,11
4,2,21,0,4,0,2,6,81,11
5,2,1,0,3,0,2,6,14,11
5,2,2,0,5,1,2,6,110,11
5,2,11,1,6,1,2,6,93,11
5,2,1,0,6,1,2,6,84,11
6,3,18,1,2,0,2,6,81,11
6,3,12,1,5,1,2,6,99,9
6,3,2,0,2,0,2,6,93,11
6,3,1,0,3,0,2,6,93,11
6,3,6,0,3,0,2,6,93,11
6,3,1,0,1,0,2,6,93,11
6,3,22,0,6,1,2,6,93,11
7,3,19,1,5,1,3,6,49,9
7,3,20,1,6,1,3,6,115,11
7,3,16,1,0,0,3,6,41,11
7,3,11,1,2,0,3,6,81,11
7,3,11,1,3,0,3,6,95,8
7,3,1,0,4,0,3,6,93,9
7,3,14,1,4,0,3,6,81,11
7,3,20,1,4,0,3,6,89,8
7,3,1,0,0,0,3,6,93,11
7,3,14,1,2,0,3,6,81,8
7,3,20,1,1,0,3,6,93,11
7,3,19,1,0,0,3,6,95,11
7,3,20,1,0,0,3,6,93,11
8,3,12,1,4,0,3,6,95,11
8,3,15,1,1,0,3,6,81,11
8,3,23,0,5,1,3,6,93,11
8,3,5,0,2,0,3,6,70,11
9,4,18,1,1,0,3,6,50,11
9,4,22,0,1,0,3,6,93,11
9,4,0,0,4,0,3,6,93,11
9,4,15,1,3,0,3,6,93,11
10,4,14,1,2,0,4,6,95,11
11,4,3,0,3,0,4,6,20,11
11,4,22,0,3,0,4,6,81,11
11,4,0,0,4,0,4,6,81,11
12,1,0,0,4,0,4,6,81,11
12,1,22,0,3,0,4,6,93,11
12,1,9,1,4,0,4,6,81,11
12,1,13,1,5,1,4,6,107,11
12,1,0,0,0,0,4,6,81,9
12,1,10,1,4,0,4,6,41,11
12,1,8,1,5,1,4,6,81,11
12,1,23,0,3,0,4,6,93,11
12,1,1,0,5,1,4,6,81,11
12,1,9,1,0,0,4,6,81,11
12,1,15,1,1,0,4,6,93,11
3,2,11,1,0,0,1,6,95,11
4,2,8,1,2,0,2,6,93,11
4,2,8,1,2,0,2,6,93,11
5,2,7,1,3,0,2,6,20,11
6,3,22,0,3,0,2,6,93,11
6,3,1,0,0,0,2,6,115,11
7,3,19,1,5,1,3,6,93,11
10,4,12,1,2,0,4,6,107,11
10,4,10,1,0,0,4,6,107,9
11,4,15,1,0,0,4,6,79,11
11,4,13,1,1,0,4,6,51,9
11,4,13,1,2,0,4,6,95,11
12,1,11,1,3,0,4,6,79,11
1,1,22,0,3,0,1,6,71,11
2,1,10,1,2,0,1,6,93,11
4,2,13,1,6,1,2,6,95,11
4,2,15,1,6,1,2,6,81,11
5,2,16,1,5,1,2,6,114,9
5,2,23,0,0,0,2,6,71,11
6,3,19,1,6,1,2,6,81,11
7,3,15,1,2,0,3,6,95,11
7,3,17,1,6,1,3,6,95,11
8,3,10,1,5,1,3,6,93,11
9,4,12,1,4,0,3,6,13,11
11,4,2,0,2,0,4,6,115,11
12,1,20,1,6,1,4,6,67,11
12,1,12,1,2,0,4,6,132,11
1,1,13,1,6,1,1,1,132,11
1,1,16,1,6,1,1,1,81,11
1,1,8,1,2,0,1,1,41,8
1,1,10,1,5,1,1,1,63,11
1,1,6,0,4,0,1,1,132,11
2,1,19,1,2,0,1,1,132,11
2,1,20,1,4,0,1,1,41,11
2,1,12,1,0,0,1,1,20,11
3,2,14,1,0,0,1,1,107,11
3,2,18,1,2,0,1,1,61,11
3,2,15,1,4,0,1,1,79,9
3,2,19,1,4,0,1,1,132,11
4,2,14,1,0,0,2,1,130,11
4,2,6,0,2,0,2,1,107,11
4,2,14,1,6,1,2,1,132,11
4,2,11,1,3,0,2,1,20,9
4,2,21,0,3,0,2,1,20,11
4,2,1,0,5,1,2,1,20,9
4,2,23,0,3,0,2,1,61,11
4,2,7,1,4,0,2,1,132,11
4,2,15,1,4,0,2,1,81,11
4,2,17,1,0,0,2,1,95,11
4,2,11,1,4,0,2,1,3,11
4,2,14,1,5,1,2,1,107,11
5,2,17,1,4,0,2,1,95,11
5,2,4,0,5,1,2,1,20,11
5,2,6,0,1,0,2,1,81,11
5,2,21,0,0,0,2,1,107,11
5,2,13,1,1,0,2,1,95,11
5,2,11,1,2,0,2,1,95,11
6,3,23,0,4,0,2,1,95,11
6,3,23,0,2,0,2,1,95,11
6,3,12,1,3,0,2,1,107,11
6,3,8,1,4,0,2,1,115,11
6,3,3,0,6,1,2,1,71,11
6,3,14,1,1,0,2,1,107,11
6,3,16,1,4,0,2,1,14,11
6,3,21,0,5,1,2,1,95,11
6,3,11,1,1,0,2,1,95,11
6,3,4,0,4,0,2,1,107,11
7,3,15,1,6,1,3,1,132,11
7,3,22,0,0,0,3,1,107,11
7,3,19,1,4,0,3,1,20,9
7,3,5,0,0,0,3,1,95,11
7,3,0,0,1,0,3,1,61,11
7,3,12,1,1,0,3,1,71,11
7,3,14,1,1,0,3,1,95,11
7,3,15,1,1,0,3,1,95,11
7,3,20,1,1,0,3,1,107,11
7,3,21,0,1,0,3,1,107,11
7,3,14,1,2,0,3,1,107,11
7,3,0,0,4,0,3,1,107,11
7,3,18,1,5,1,3,1,107,11
7,3,21,0,5,1,3,1,107,11
7,3,21,0,1,0,3,1,107,11
7,3,12,1,3,0,3,1,41,11
7,3,14,1,4,0,3,1,107,11
7,3,17,1,6,1,3,1,107,11
7,3,19,1,4,0,3,1,107,11
7,3,1,0,6,1,3,1,95,11
7,3,12,1,6,1,3,1,28,11
7,3,1,0,0,0,3,1,95,11
8,3,20,1,0,0,3,1,121,11
8,3,12,1,3,0,3,1,95,11
8,3,14,1,3,0,3,1,95,11
8,3,21,0,5,1,3,1,95,11
8,3,18,1,6,1,3,1,107,11
8,3,21,0,0,0,3,1,95,11
8,3,10,1,1,0,3,1,95,11
8,3,8,1,2,0,3,1,107,11
8,3,21,0,4,0,3,1,107,11
8,3,0,0,5,1,3,1,109,11
8,3,13,1,5,1,3,1,107,11
8,3,2,0,2,0,3,1,115,11
8,3,18,1,2,0,3,1,107,11
9,4,21,0,1,0,3,1,95,11
9,4,22,0,1,0,3,1,132,11
9,4,13,1,1,0,3,1,107,11
9,4,13,1,4,0,3,1,107,11
9,4,14,1,4,0,3,1,107,11
9,4,15,1,4,0,3,1,107,11
9,4,5,0,0,0,3,1,109,11
9,4,4,0,4,0,3,1,115,11
10,4,8,1,5,1,4,1,115,11
10,4,19,1,5,1,4,1,115,11
10,4,4,0,6,1,4,1,132,11
10,4,19,1,6,1,4,1,132,11
10,4,16,1,5,1,4,1,95,11
10,4,9,1,3,0,4,1,95,11
10,4,19,1,3,0,4,1,95,11
10,4,23,0,5,1,4,1,95,11
10,4,16,1,6,1,4,1,20,11
10,4,19,1,6,1,4,1,107,11
11,4,12,1,2,0,4,1,95,11
11,4,12,1,5,1,4,1,95,11
11,4,14,1,5,1,4,1,107,11
11,4,15,1,3,0,4,1,79,11
12,1,1,0,5,1,4,1,132,11
12,1,19,1,5,1,4,1,132,11
12,1,0,0,6,1,4,1,132,11
12,1,17,1,5,1,4,1,81,11
1,1,23,0,6,1,1,1,93,11
1,1,1,0,0,0,1,1,107,11
1,1,1,0,0,0,1,1,93,11
1,1,13,1,0,0,1,1,93,11
1,1,23,0,2,0,1,1,71,11
1,1,17,1,4,0,1,1,41,11
1,1,14,1,5,1,1,1,41,11
1,1,23,0,5,1,1,1,71,11
1,1,12,1,6,1,1,1,93,11
1,1,19,1,6,1,1,1,93,11
1,1,19,1,6,1,1,1,69,11
1,1,20,1,6,1,1,1,71,11
1,1,12,1,0,0,1,1,70,11
1,1,15,1,1,0,1,1,107,11
1,1,18,1,1,0,1,1,95,11
1,1,0,0,4,0,1,1,93,11
1,1,18,1,6,1,1,1,41,11
1,1,17,1,0,0,1,1,81,11
1,1,8,1,1,0,1,1,93,11
1,1,16,1,5,1,1,1,93,11
1,1,15,1,5,1,1,1,93,11
1,1,12,1,2,0,1,1,81,11
1,1,21,0,2,0,1,1,93,11
1,1,16,1,4,0,1,1,93,11
1,1,16,1,4,0,1,1,107,11
1,1,20,1,6,1,1,1,107,11
1,1,1,0,0,0,1,1,93,11
1,1,11,1,0,0,1,1,71,11
1,1,19,1,0,0,1,1,41,11
1,1,17,1,0,0,1,1,107,11
1,1,13,1,1,0,1,1,107,11
1,1,18,1,1,0,1,1,107,11
2,1,16,1,3,0,1,1,107,11
2,1,18,1,5,1,1,1,107,11
2,1,14,1,0,0,1,1,93,11
2,1,15,1,0,0,1,1,107,11
2,1,20,1,0,0,1,1,81,11
2,1,22,0,2,0,1,1,93,11
2,1,16,1,3,0,1,1,41,11
2,1,20,1,3,0,1,1,93,11
2,1,23,0,3,0,1,1,20,11
2,1,4,0,4,0,1,1,107,11
2,1,19,1,4,0,1,1,130,11
2,1,15,1,5,1,1,1,107,11
2,1,17,1,6,1,1,1,107,11
2,1,14,1,6,1,1,1,107,11
2,1,12,1,6,1,1,1,107,11
2,1,12,1,6,1,1,1,3,11
2,1,15,1,1,0,1,1,107,11
2,1,15,1,1,0,1,1,107,11
2,1,17,1,1,0,1,1,107,11
2,1,17,1,1,0,1,1,107,11
2,1,17,1,1,0,1,1,107,11
2,1,18,1,3,0,1,1,107,11
2,1,9,1,3,0,1,1,107,11
2,1,17,1,5,1,1,1,107,11
2,1,7,1,6,1,1,1,81,11
2,1,8,1,6,1,1,1,81,11
2,1,0,0,1,0,1,1,41,8
2,1,20,1,2,0,1,1,13,11
2,1,13,1,3,0,1,1,107,11
2,1,18,1,3,0,1,1,81,11
2,1,16,1,5,1,1,1,107,11
2,1,2,0,6,1,1,1,93,11
2,1,3,0,6,1,1,1,93,11
3,2,18,1,4,0,1,1,107,11
3,2,19,1,5,1,1,1,13,11
3,2,22,0,5,1,1,1,107,11
3,2,0,0,6,1,1,1,93,11
3,2,14,1,6,1,1,1,95,11
3,2,18,1,6,1,1,1,107,11
3,2,1,0,6,1,1,1,93,11
3,2,2,0,6,1,1,1,93,11
3,2,21,0,6,1,1,1,107,11
3,2,21,0,1,0,1,1,107,11
3,2,17,1,1,0,1,1,81,11
3,2,22,0,4,0,1,1,93,11
3,2,11,1,5,1,1,1,95,11
3,2,19,1,5,1,1,1,107,11
3,2,0,0,5,1,1,1,93,11
3,2,1,0,5,1,1,1,93,11
3,2,22,0,5,1,1,1,93,11
3,2,23,0,5,1,1,1,93,11
3,2,18,1,6,1,1,1,107,11
3,2,14,1,6,1,1,1,107,11
3,2,4,0,6,1,1,1,93,11
3,2,0,0,0,0,1,1,93,11
3,2,21,0,0,0,1,1,93,11
3,2,12,1,0,0,1,1,93,11
3,2,16,1,0,0,1,1,61,11
3,2,1,0,1,0,1,1,93,11
3,2,21,0,1,0,1,1,93,11
3,2,21,0,3,0,1,1,93,11
3,2,1,0,5,1,1,1,107,11
3,2,3,0,5,1,1,1,107,11
3,2,0,0,6,1,1,1,95,11
3,2,7,1,0,0,1,1,107,11
3,2,12,1,0,0,1,1,107,11
3,2,20,1,1,0,1,1,107,11
3,2,13,1,2,0,1,1,107,11
3,2,22,0,2,0,1,1,93,11
3,2,13,1,3,0,1,1,107,11
3,2,11,1,4,0,1,1,107,11
3,2,16,1,4,0,1,1,107,11
3,2,17,1,4,0,1,1,107,11
4,2,0,0,5,1,2,1,93,11
4,2,1,0,5,1,2,1,93,11
4,2,1,0,5,1,2,1,93,11
4,2,7,1,6,1,2,1,107,11
4,2,0,0,0,0,2,1,93,11
4,2,3,0,1,0,2,1,93,11
4,2,13,1,2,0,2,1,107,11
4,2,12,1,5,1,2,1,41,11
4,2,1,0,6,1,2,1,93,11
4,2,1,0,6,1,2,1,93,11
4,2,20,1,1,0,2,1,95,11
4,2,7,1,2,0,2,1,81,11
4,2,17,1,2,0,2,1,107,11
4,2,15,1,6,1,2,1,20,11
4,2,3,0,1,0,2,1,93,11
4,2,11,1,1,0,2,1,107,11
4,2,14,1,2,0,2,1,95,11
4,2,23,0,3,0,2,1,70,11
4,2,19,1,4,0,2,1,95,11
4,2,12,1,4,0,2,1,95,11
4,2,14,1,5,1,2,1,84,11
4,2,13,1,0,0,2,1,107,11
4,2,22,0,0,0,2,1,107,11
4,2,1,0,2,0,2,1,79,11
4,2,15,1,2,0,2,1,107,11
4,2,22,0,2,0,2,1,93,11
4,2,0,0,3,0,2,1,71,11
4,2,21,0,3,0,2,1,107,11
4,2,17,1,4,0,2,1,107,11
4,2,22,0,4,0,2,1,13,11
4,2,13,1,4,0,2,1,107,11
4,2,16,1,6,1,2,1,107,11
4,2,13,1,6,1,2,1,95,11
5,2,3,0,0,0,2,1,93,11
5,2,16,1,0,0,2,1,93,11
5,2,19,1,0,0,2,1,132,11
5,2,20,1,1,0,2,1,107,11
5,2,2,0,3,0,2,1,107,11
5,2,20,1,3,0,2,1,81,11
5,2,18,1,5,1,2,1,95,11
5,2,12,1,6,1,2,1,18,11
5,2,21,0,6,1,2,1,107,11
5,2,3,0,1,0,2,1,20,11
5,2,13,1,1,0,2,1,107,11
5,2,22,0,1,0,2,1,95,11
5,2,2,0,2,0,2,1,93,11
5,2,22,0,4,0,2,1,14,11
5,2,1,0,5,1,2,1,93,11
5,2,12,1,5,1,2,1,107,11
5,2,2,0,1,0,2,1,107,11
5,2,21,0,2,0,2,1,93,11
5,2,21,0,5,1,2,1,95,11
5,2,17,1,5,1,2,1,107,11
5,2,3,0,6,1,2,1,107,11
5,2,0,0,3,0,2,1,93,11
5,2,13,1,1,0,2,1,95,11
5,2,19,1,1,0,2,1,107,11
5,2,16,1,2,0,2,1,107,11
6,3,10,1,3,0,2,1,95,11
6,3,14,1,5,1,2,1,95,11
6,3,3,0,5,1,2,1,93,11
6,3,16,1,0,0,2,1,107,11
6,3,13,1,1,0,2,1,95,11
6,3,23,0,1,0,2,1,107,11
6,3,21,0,2,0,2,1,95,11
6,3,19,1,0,0,2,1,20,11
6,3,21,0,0,0,2,1,81,11
6,3,22,0,0,0,2,1,93,11
6,3,23,0,0,0,2,1,81,11
6,3,15,1,1,0,2,1,4,11
6,3,11,1,3,0,2,1,107,11
6,3,11,1,3,0,2,1,107,11
6,3,10,1,5,1,2,1,107,11
6,3,11,1,6,1,2,1,107,11
6,3,16,1,6,1,2,1,107,11
6,3,19,1,6,1,2,1,107,11
6,3,23,0,1,0,2,1,107,11
6,3,13,1,2,0,2,1,95,11
6,3,4,0,4,0,2,1,95,11
6,3,8,1,4,0,2,1,95,11
6,3,11,1,0,0,2,1,107,11
6,3,17,1,1,0,2,1,107,11
6,3,0,0,1,0,2,1,107,11
6,3,13,1,1,0,2,1,71,11
6,3,11,1,3,0,2,1,107,11
6,3,14,1,3,0,2,1,107,11
6,3,19,1,3,0,2,1,107,11
6,3,22,0,3,0,2,1,107,11
7,3,21,0,0,0,3,1,107,11
7,3,14,1,1,0,3,1,107,11
7,3,20,1,2,0,3,1,107,11
7,3,15,1,2,0,3,1,20,11
7,3,19,1,5,1,3,1,107,11
7,3,20,1,5,1,3,1,107,11
7,3,23,0,5,1,3,1,4,11
7,3,18,1,6,1,3,1,4,11
7,3,19,1,6,1,3,1,107,11
7,3,18,1,6,1,3,1,107,11
7,3,23,0,6,1,3,1,95,11
7,3,23,0,0,0,3,1,107,11
7,3,20,1,1,0,3,1,107,11
7,3,20,1,1,0,3,1,107,11
7,3,13,1,3,0,3,1,107,11
7,3,21,0,3,0,3,1,95,11
7,3,17,1,3,0,3,1,13,11
7,3,16,1,4,0,3,1,107,11
7,3,8,1,5,1,3,1,107,11
7,3,18,1,5,1,3,1,107,11
7,3,23,0,5,1,3,1,107,11
7,3,17,1,6,1,3,1,107,11
7,3,10,1,0,0,3,1,79,11
7,3,18,1,3,0,3,1,107,11
7,3,19,1,6,1,3,1,107,11
7,3,21,0,0,0,3,1,107,11
7,3,2,0,2,0,3,1,93,11
7,3,17,1,2,0,3,1,62,11
7,3,20,1,2,0,3,1,107,11
7,3,21,0,2,0,3,1,107,11
7,3,20,1,3,0,3,1,95,11
7,3,16,1,4,0,3,1,110,11
7,3,7,1,5,1,3,1,20,11
7,3,19,1,5,1,3,1,107,11
7,3,21,0,5,1,3,1,107,11
7,3,20,1,6,1,3,1,107,11
7,3,22,0,6,1,3,1,107,11
7,3,22,0,6,1,3,1,20,11
7,3,21,0,0,0,3,1,107,11
8,3,20,1,2,0,3,1,107,11
8,3,17,1,3,0,3,1,107,11
8,3,22,0,3,0,3,1,130,11
8,3,14,1,4,0,3,1,107,11
8,3,21,0,4,0,3,1,107,11
8,3,21,0,4,0,3,1,107,11
8,3,2,0,5,1,3,1,93,11
8,3,17,1,5,1,3,1,107,11
8,3,20,1,5,1,3,1,95,11
8,3,21,0,5,1,3,1,107,11
8,3,16,1,0,0,3,1,107,11
8,3,19,1,0,0,3,1,107,11
8,3,21,0,0,0,3,1,107,11
8,3,22,0,0,0,3,1,107,11
8,3,5,0,0,0,3,1,93,11
8,3,3,0,1,0,3,1,93,11
8,3,19,1,2,0,3,1,107,11
8,3,14,1,3,0,3,1,107,11
8,3,22,0,4,0,3,1,107,11
8,3,17,1,6,1,3,1,81,11
8,3,14,1,1,0,3,1,107,11
8,3,22,0,1,0,3,1,107,11
8,3,4,0,4,0,3,1,107,11
8,3,4,0,4,0,3,1,93,11
8,3,12,1,4,0,3,1,20,11
8,3,0,0,4,0,3,1,83,11
8,3,2,0,5,1,3,1,107,11
8,3,12,1,5,1,3,1,107,11
8,3,12,1,5,1,3,1,107,11
8,3,21,0,6,1,3,1,28,11
8,3,4,0,6,1,3,1,20,11
8,3,8,1,2,0,3,1,107,11
8,3,1,0,3,0,3,1,95,11
8,3,4,0,6,1,3,1,93,11
8,3,13,1,6,1,3,1,107,11
8,3,20,1,6,1,3,1,107,11
8,3,1,0,0,0,3,1,93,11
8,3,1,0,0,0,3,1,107,11
8,3,3,0,0,0,3,1,93,11
8,3,4,0,0,0,3,1,93,11
8,3,0,0,1,0,3,1,107,11
8,3,1,0,1,0,3,1,93,11
8,3,4,0,3,0,3,1,107,11
8,3,9,1,3,0,3,1,107,11
8,3,21,0,3,0,3,1,107,11
9,4,20,1,6,1,3,1,107,11
9,4,16,1,0,0,3,1,107,11
9,4,22,0,1,0,3,1,95,11
9,4,11,1,1,0,3,1,107,11
9,4,16,1,2,0,3,1,107,11
9,4,11,1,2,0,3,1,95,11
9,4,4,0,2,0,3,1,93,11
9,4,21,0,2,0,3,1,93,11
9,4,23,0,2,0,3,1,93,11
9,4,21,0,4,0,3,1,107,11
9,4,20,1,4,0,3,1,71,11
9,4,8,1,5,1,3,1,107,11
9,4,16,1,6,1,3,1,107,11
9,4,21,0,6,1,3,1,95,11
9,4,14,1,0,0,3,1,95,11
9,4,22,0,0,0,3,1,95,11
9,4,21,0,2,0,3,1,95,11
9,4,13,1,3,0,3,1,107,11
9,4,11,1,3,0,3,1,107,11
9,4,2,0,4,0,3,1,93,11
9,4,2,0,4,0,3,1,93,11
9,4,10,1,4,0,3,1,107,11
9,4,17,1,4,0,3,1,107,11
9,4,22,0,4,0,3,1,107,11
9,4,9,1,5,1,3,1,86,11
9,4,18,1,6,1,3,1,13,9
9,4,0,0,0,0,3,1,93,11
9,4,1,0,0,0,3,1,93,11
9,4,13,1,0,0,3,1,107,11
9,4,16,1,0,0,3,1,107,11
9,4,21,0,0,0,3,1,107,11
9,4,21,0,0,0,3,1,93,11
9,4,15,1,1,0,3,1,107,11
9,4,2,0,2,0,3,1,107,11
9,4,13,1,2,0,3,1,107,11
9,4,2,0,3,0,3,1,93,11
9,4,15,1,3,0,3,1,107,11
9,4,21,0,3,0,3,1,93,11
9,4,20,1,4,0,3,1,70,11
9,4,22,0,4,0,3,1,107,11
9,4,2,0,4,0,3,1,93,11
9,4,3,0,5,1,3,1,93,11
9,4,18,1,5,1,3,1,28,11
9,4,18,1,5,1,3,1,107,11
9,4,21,0,5,1,3,1,107,11
9,4,12,1,6,1,3,1,107,11
9,4,15,1,0,0,3,1,13,11
9,4,19,1,0,0,3,1,41,11
9,4,18,1,3,0,3,1,107,11
9,4,12,1,5,1,3,1,107,11
9,4,20,1,5,1,3,1,107,11
9,4,20,1,5,1,3,1,107,11
10,4,10,1,6,1,4,1,107,11
10,4,19,1,6,1,4,1,107,11
10,4,0,0,0,0,4,1,93,11
10,4,3,0,0,0,4,1,20,11
10,4,16,1,0,0,4,1,107,11
10,4,13,1,1,0,4,1,107,11
10,4,11,1,1,0,4,1,107,11
10,4,23,0,2,0,4,1,93,11
10,4,1,0,3,0,4,1,93,11
10,4,8,1,4,0,4,1,107,11
10,4,19,1,4,0,4,1,107,11
10,4,20,1,4,0,4,1,107,11
10,4,10,1,5,1,4,1,107,11
10,4,14,1,5,1,4,1,81,11
10,4,19,1,5,1,4,1,107,11
10,4,19,1,5,1,4,1,107,11
10,4,13,1,6,1,4,1,4,11
10,4,13,1,6,1,4,1,107,11
10,4,12,1,0,0,4,1,107,11
10,4,13,1,0,0,4,1,107,11
10,4,17,1,0,0,4,1,107,11
10,4,11,1,0,0,4,1,95,11
10,4,20,1,1,0,4,1,95,11
10,4,17,1,2,0,4,1,107,11
10,4,14,1,3,0,4,1,107,11
10,4,16,1,3,0,4,1,4,11
10,4,16,1,5,1,4,1,107,11
10,4,23,0,6,1,4,1,107,11
10,4,0,0,0,0,4,1,107,11
10,4,10,1,0,0,4,1,107,11
10,4,13,1,0,0,4,1,107,11
10,4,8,1,1,0,4,1,81,11
10,4,17,1,1,0,4,1,95,11
10,4,22,0,3,0,4,1,71,11
10,4,0,0,4,0,4,1,107,11
10,4,12,1,4,0,4,1,107,11
10,4,7,1,5,1,4,1,107,11
10,4,12,1,5,1,4,1,107,11
10,4,15,1,5,1,4,1,107,11
10,4,15,1,5,1,4,1,107,11
10,4,22,0,5,1,4,1,107,11
10,4,20,1,0,0,4,1,51,11
10,4,12,1,1,0,4,1,20,11
10,4,14,1,2,0,4,1,95,11
10,4,13,1,3,0,4,1,20,11
10,4,3,0,0,0,4,1,93,11
10,4,3,0,0,0,4,1,93,11
10,4,13,1,0,0,4,1,107,11
11,4,17,1,3,0,4,1,107,11
11,4,19,1,6,1,4,1,107,11
11,4,7,1,5,1,4,1,105,11
11,4,1,0,0,0,4,1,107,11
11,4,2,0,1,0,4,1,93,11
11,4,20,1,3,0,4,1,13,11
11,4,1,0,4,0,4,1,93,11
11,4,20,1,5,1,4,1,93,11
11,4,6,0,0,0,4,1,93,11
11,4,20,1,1,0,4,1,81,11
11,4,13,1,2,0,4,1,93,11
11,4,15,1,3,0,4,1,107,11
11,4,12,1,3,0,4,1,107,11
11,4,20,1,1,0,4,1,93,11
11,4,0,0,2,0,4,1,93,11
11,4,18,1,3,0,4,1,71,11
11,4,18,1,3,0,4,1,71,11
12,1,15,1,6,1,4,1,93,11
12,1,22,0,3,0,4,1,93,11
12,1,12,1,4,0,4,1,81,9
12,1,11,1,4,0,4,1,93,11
12,1,20,1,5,1,4,1,93,11
12,1,22,0,0,0,4,1,93,11
12,1,17,1,3,0,4,1,20,11
12,1,9,1,5,1,4,1,93,11
12,1,13,1,0,0,4,1,93,11
12,1,20,1,2,0,4,1,71,11
12,1,14,1,4,0,4,1,93,11
12,1,23,0,4,0,4,1,81,8
12,1,12,1,6,1,4,1,93,11
12,1,13,1,6,1,4,1,93,11
12,1,8,1,6,1,4,1,93,11
12,1,18,1,6,1,4,1,71,11
12,1,14,1,0,0,4,1,93,11
12,1,11,1,1,0,4,1,93,11
5,2,12,1,2,0,2,1,81,11
6,3,14,1,1,0,2,1,95,11
7,3,16,1,6,1,3,1,13,11
8,3,18,1,0,0,3,1,13,11
10,4,23,0,1,0,4,1,83,11
11,4,20,1,3,0,4,1,7,11
12,1,20,1,3,0,4,1,41,11
3,2,18,1,1,0,1,1,107,11
4,2,21,0,1,0,2,1,3,11
2,1,17,1,6,1,1,1,93,11
2,1,17,1,5,1,1,1,107,11
2,1,19,1,1,0,1,1,107,11
3,2,18,1,0,0,1,1,107,11
3,2,18,1,2,0,1,1,107,11
4,2,9,1,3,0,2,1,107,11
1,1,5,0,1,0,1,1,20,11
1,1,12,1,5,1,1,1,132,11
1,1,12,1,2,0,1,1,132,11
1,1,19,1,3,0,1,1,132,11
1,1,13,1,6,1,1,1,84,8
2,1,0,0,6,1,1,1,71,11
3,2,4,0,3,0,1,1,24,11
4,2,22,0,5,1,2,1,24,8
4,2,12,1,0,0,2,1,95,11
6,3,18,1,6,1,2,1,132,11
6,3,21,0,3,0,2,1,14,9
7,3,12,1,2,0,3,1,20,11
8,3,18,1,2,0,3,1,20,11
9,4,21,0,4,0,3,1,132,11
9,4,11,1,6,1,3,1,20,11
9,4,14,1,6,1,3,1,20,11
9,4,16,1,1,0,3,1,71,11
9,4,13,1,5,1,3,1,95,11
10,4,10,1,3,0,4,1,95,11
10,4,8,1,5,1,4,1,79,11
10,4,11,1,1,0,4,1,78,11
11,4,11,1,2,0,4,1,13,11
11,4,19,1,5,1,4,1,50,11
12,1,18,1,3,0,4,1,132,11
12,1,2,0,4,0,4,1,132,11
12,1,4,0,6,1,4,1,71,11
12,1,9,1,0,0,4,1,41,11
4,2,3,0,5,1,2,1,79,8
1,1,5,0,4,0,1,1,121,11
1,1,9,1,6,1,1,1,13,11
2,1,21,0,3,0,1,1,81,11
2,1,22,0,3,0,1,1,132,11
2,1,23,0,1,0,1,1,41,8
3,2,19,1,0,0,1,1,20,11
4,2,18,1,6,1,2,1,107,11
4,2,6,0,2,0,2,1,20,9
4,2,10,1,3,0,2,1,114,9
5,2,15,1,4,0,2,1,14,9
6,3,4,0,6,1,2,1,93,11
6,3,8,1,4,0,2,1,95,11
7,3,20,1,2,0,3,1,81,8
7,3,15,1,6,1,3,1,107,11
8,3,21,0,0,0,3,1,20,11
8,3,16,1,3,0,3,1,95,11
8,3,6,0,2,0,3,1,107,11
8,3,11,1,3,0,3,1,20,11
9,4,5,0,6,1,3,1,114,11
10,4,0,0,0,0,4,1,13,9
12,1,17,1,6,1,4,1,79,11
12,1,23,0,1,0,4,1,41,11
1,1,14,1,6,1,1,15,81,11
1,1,12,1,0,0,1,15,132,11
1,1,17,1,0,0,1,15,71,11
1,1,20,1,0,0,1,15,132,11
1,1,15,1,1,0,1,15,95,11
1,1,2,0,5,1,1,15,81,8
1,1,18,1,0,0,1,15,81,11
1,1,13,1,2,0,1,15,81,9
1,1,4,0,1,0,1,15,81,11
1,1,11,1,5,1,1,15,132,11
2,1,17,1,3,0,1,15,132,11
2,1,21,0,6,1,1,15,81,9
3,2,11,1,0,0,1,15,20,11
3,2,20,1,1,0,1,15,62,11
3,2,13,1,0,0,1,15,71,11
3,2,9,1,1,0,1,15,41,11
3,2,8,1,5,1,1,15,132,11
3,2,9,1,5,1,1,15,95,11
3,2,3,0,2,0,1,15,81,11
3,2,22,0,4,0,1,15,41,11
4,2,14,1,5,1,2,15,132,11
4,2,13,1,6,1,2,15,81,11
4,2,17,1,0,0,2,15,20,11
4,2,22,0,3,0,2,15,14,11
4,2,22,0,5,1,2,15,132,11
4,2,17,1,1,0,2,15,132,11
4,2,22,0,1,0,2,15,132,11
4,2,9,1,4,0,2,15,132,11
4,2,1,0,6,1,2,15,41,11
4,2,10,1,0,0,2,15,41,11
4,2,11,1,1,0,2,15,95,11
4,2,18,1,3,0,2,15,95,11
4,2,16,1,4,0,2,15,95,11
5,2,4,0,2,0,2,15,55,11
5,2,20,1,6,1,2,15,81,11
5,2,16,1,2,0,2,15,95,11
5,2,11,1,6,1,2,15,132,11
5,2,11,1,1,0,2,15,132,11
5,2,20,1,3,0,2,15,107,11
5,2,23,0,4,0,2,15,107,11
6,3,2,0,3,0,2,15,81,11
6,3,20,1,6,1,2,15,81,11
6,3,21,0,6,1,2,15,95,11
6,3,15,1,1,0,2,15,7,11
6,3,0,0,4,0,2,15,81,11
6,3,9,1,5,1,2,15,95,11
6,3,11,1,0,0,2,15,95,11
6,3,19,1,0,0,2,15,95,11
6,3,15,1,1,0,2,15,95,11
6,3,2,0,2,0,2,15,41,11
6,3,13,1,2,0,2,15,95,11
6,3,3,0,5,1,2,15,71,11
6,3,5,0,1,0,2,15,7,11
6,3,22,0,3,0,2,15,95,11
6,3,8,1,4,0,2,15,95,11
7,3,15,1,5,1,3,15,71,11
7,3,16,1,5,1,3,15,81,11
7,3,16,1,6,1,3,15,132,11
7,3,14,1,0,0,3,15,132,11
7,3,11,1,1,0,3,15,132,11
7,3,13,1,4,0,3,15,95,11
7,3,13,1,2,0,3,15,95,11
7,3,12,1,4,0,3,15,95,11
7,3,21,0,2,0,3,15,107,11
7,3,19,1,1,0,3,15,107,11
7,3,11,1,5,1,3,15,93,11
7,3,11,1,6,1,3,15,95,11
7,3,18,1,6,1,3,15,132,11
8,3,16,1,2,0,3,15,81,11
8,3,8,1,6,1,3,15,107,11
8,3,14,1,2,0,3,15,41,11
8,3,14,1,3,0,3,15,107,11
9,4,20,1,1,0,3,15,132,11
9,4,13,1,0,0,3,15,82,11
9,4,19,1,6,1,3,15,115,11
9,4,17,1,1,0,3,15,95,11
9,4,8,1,4,0,3,15,132,11
9,4,0,0,5,1,3,15,82,11
9,4,23,0,0,0,3,15,115,11
9,4,16,1,5,1,3,15,132,11
10,4,19,1,1,0,4,15,95,11
11,4,18,1,2,0,4,15,81,11
11,4,21,0,3,0,4,15,114,9
11,4,21,0,4,0,4,15,3,11
11,4,7,1,0,0,4,15,108,11
11,4,12,1,6,1,4,15,95,11
11,4,19,1,6,1,4,15,81,11
11,4,13,1,0,0,4,15,41,11
11,4,13,1,2,0,4,15,81,11
12,1,2,0,1,0,4,15,71,11
12,1,11,1,5,1,4,15,81,11
1,1,20,1,5,1,1,15,20,11
4,2,11,1,2,0,2,15,107,11
4,2,1,0,6,1,2,15,95,11
5,2,19,1,1,0,2,15,30,11
7,3,22,0,5,1,3,15,95,11
7,3,5,0,4,0,3,15,132,11
8,3,10,1,6,1,3,15,107,11
9,4,18,1,4,0,3,15,132,11
10,4,14,1,1,0,4,15,95,9
10,4,14,1,4,0,4,15,81,11
11,4,11,1,6,1,4,15,95,11
12,1,5,0,6,1,4,15,13,9
2,1,23,0,6,1,1,15,132,11
5,2,15,1,0,0,2,15,132,11
5,2,21,0,0,0,2,15,132,11
7,3,17,1,1,0,3,15,20,11
7,3,7,1,6,1,3,15,107,11
8,3,18,1,4,0,3,15,41,11
8,3,14,1,6,1,3,15,81,11
9,4,13,1,2,0,3,15,20,11
10,4,12,1,1,0,4,15,7,11
10,4,15,1,2,0,4,15,1,11
10,4,12,1,1,0,4,15,132,11
11,4,21,0,0,0,4,15,95,11
11,4,15,1,6,1,4,15,132,11
11,4,0,0,6,1,4,15,132,11
11,4,18,1,6,1,4,15,89,11
12,1,20,1,1,0,4,15,41,11
12,1,18,1,0,0,4,15,41,11
1,1,13,1,6,1,1,15,41,11
1,1,2,0,5,1,1,15,62,11
1,1,17,1,6,1,1,15,81,11
1,1,18,1,0,0,1,15,81,11
2,1,14,1,4,0,1,15,3,11
2,1,17,1,5,1,1,15,107,11
2,1,18,1,6,1,1,15,81,11
3,2,10,1,1,0,1,15,132,11
3,2,11,1,2,0,1,15,24,11
3,2,21,0,2,0,1,15,71,11
3,2,3,0,0,0,1,15,20,11
3,2,15,1,6,1,1,15,93,11
3,2,15,1,2,0,1,15,93,11
3,2,19,1,2,0,1,15,93,11
4,2,5,0,1,0,2,15,95,11
4,2,12,1,6,1,2,15,84,11
4,2,5,0,0,0,2,15,93,11
4,2,15,1,4,0,2,15,3,11
4,2,0,0,5,1,2,15,107,11
4,2,20,1,5,1,2,15,93,11
5,2,22,0,0,0,2,15,3,11
5,2,10,1,5,1,2,15,3,11
5,2,17,1,4,0,2,15,3,11
5,2,0,0,6,1,2,15,3,11
6,3,14,1,3,0,2,15,3,11
7,3,21,0,5,1,3,15,86,11
7,3,18,1,5,1,3,15,28,11
7,3,4,0,6,1,3,15,95,11
7,3,16,1,1,0,3,15,95,11
7,3,13,1,3,0,3,15,81,11
7,3,7,1,5,1,3,15,107,11
7,3,16,1,6,1,3,15,114,11
7,3,2,0,1,0,3,15,3,11
7,3,22,0,6,1,3,15,3,11
7,3,4,0,4,0,3,15,71,11
7,3,14,1,6,1,3,15,93,11
7,3,17,1,6,1,3,15,51,11
8,3,12,1,1,0,3,15,13,11
8,3,7,1,5,1,3,15,3,11
8,3,19,1,0,0,3,15,41,11
8,3,13,1,2,0,3,15,3,11
8,3,4,0,2,0,3,15,105,11
8,3,18,1,6,1,3,15,63,11
8,3,14,1,2,0,3,15,51,11
9,4,11,1,5,1,3,15,3,11
9,4,22,0,0,0,3,15,3,11
9,4,23,0,1,0,3,15,129,11
9,4,13,1,3,0,3,15,81,11
9,4,12,1,6,1,3,15,81,11
10,4,13,1,3,0,4,15,71,11
11,4,2,0,4,0,4,15,107,11
11,4,20,1,3,0,4,15,95,11
11,4,2,0,5,1,4,15,107,11
12,1,6,0,5,1,4,15,115,11
12,1,20,1,1,0,4,15,81,11
12,1,17,1,3,0,4,15,41,9
12,1,20,1,4,0,4,15,3,11
12,1,11,1,5,1,4,15,41,11
1,1,23,0,0,0,1,15,93,11
1,1,21,0,1,0,1,15,81,11
1,1,11,1,0,0,1,15,81,11
1,1,19,1,6,1,1,15,14,11
2,1,19,1,4,0,1,15,132,11
2,1,19,1,6,1,1,15,41,11
2,1,10,1,5,1,1,15,132,11
2,1,22,0,5,1,1,15,132,11
4,2,6,0,4,0,2,15,20,11
4,2,1,0,6,1,2,15,93,11
4,2,23,0,6,1,2,15,81,11
4,2,10,1,2,0,2,15,20,11
4,2,18,1,2,0,2,15,20,11
4,2,17,1,5,1,2,15,95,11
4,2,11,1,6,1,2,15,95,11
4,2,1,0,3,0,2,15,41,11
4,2,15,1,4,0,2,15,26,11
5,2,9,1,6,1,2,15,70,11
5,2,13,1,6,1,2,15,63,11
5,2,14,1,0,0,2,15,13,11
6,3,12,1,3,0,2,15,81,11
6,3,5,0,5,1,2,15,13,11
6,3,18,1,0,0,2,15,81,11
6,3,15,1,2,0,2,15,20,11
6,3,13,1,5,1,2,15,81,11
6,3,8,1,6,1,2,15,93,11
6,3,13,1,6,1,2,15,81,11
6,3,16,1,0,0,2,15,93,11
6,3,11,1,1,0,2,15,20,11
7,3,19,1,5,1,3,15,93,11
7,3,1,0,6,1,3,15,13,11
7,3,10,1,0,0,3,15,93,11
8,3,9,1,3,0,3,15,13,11
8,3,12,1,3,0,3,15,81,11
8,3,20,1,3,0,3,15,93,11
8,3,10,1,5,1,3,15,20,11
8,3,19,1,5,1,3,15,81,11
8,3,14,1,6,1,3,15,122,11
8,3,11,1,0,0,3,15,55,11
9,4,22,0,0,0,3,15,81,11
9,4,12,1,2,0,3,15,95,11
9,4,11,1,1,0,3,15,20,11
9,4,21,0,0,0,3,15,93,11
9,4,4,0,1,0,3,15,20,11
9,4,18,1,1,0,3,15,62,11
9,4,17,1,3,0,3,15,93,11
9,4,16,1,4,0,3,15,93,11
10,4,10,1,1,0,4,15,14,11
10,4,10,1,1,0,4,15,26,11
10,4,17,1,6,1,4,15,20,11
10,4,11,1,2,0,4,15,20,11
10,4,19,1,3,0,4,15,20,11
10,4,1,0,6,1,4,15,93,11
10,4,16,1,3,0,4,15,81,11
10,4,13,1,0,0,4,15,81,11
10,4,15,1,1,0,4,15,21,11
11,4,22,0,6,1,4,15,20,11
11,4,16,1,6,1,4,15,89,11
11,4,22,0,6,1,4,15,20,11
12,1,14,1,2,0,4,15,41,11
12,1,8,1,0,0,4,15,81,11
12,1,16,1,6,1,4,15,81,11
12,1,21,0,6,1,4,15,81,11
12,1,0,0,1,0,4,15,81,11
12,1,21,0,3,0,4,15,20,11
12,1,21,0,6,1,4,15,81,11
1,1,0,0,1,0,1,3,102,11
1,1,13,1,4,0,1,3,71,11
1,1,13,1,0,0,1,3,107,11
1,1,16,1,1,0,1,3,20,11
1,1,12,1,6,1,1,3,102,11
1,1,16,1,0,0,1,3,81,11
1,1,9,1,5,1,1,3,81,11
1,1,16,1,5,1,1,3,20,11
1,1,19,1,5,1,1,3,102,11
1,1,19,1,5,1,1,3,81,11
1,1,14,1,0,0,1,3,95,11
2,1,5,0,2,0,1,3,107,11
2,1,5,0,6,1,1,3,102,11
2,1,13,1,0,0,1,3,71,11
2,1,18,1,0,0,1,3,95,11
2,1,23,0,3,0,1,3,102,11
3,2,5,0,2,0,1,3,102,11
3,2,17,1,4,0,1,3,81,11
3,2,18,1,4,0,1,3,93,11
3,2,21,0,4,0,1,3,102,11
3,2,15,1,6,1,1,3,14,11
3,2,5,0,0,0,1,3,102,11
3,2,5,0,0,0,1,3,102,11
3,2,5,0,0,0,1,3,102,11
3,2,5,0,0,0,1,3,102,11
3,2,5,0,0,0,1,3,102,11
3,2,5,0,0,0,1,3,102,11
3,2,4,0,1,0,1,3,102,11
3,2,22,0,2,0,1,3,41,11
3,2,21,0,6,1,1,3,81,11
4,2,12,1,6,1,2,3,84,11
4,2,19,1,6,1,2,3,81,11
4,2,13,1,2,0,2,3,95,11
4,2,6,0,6,1,2,3,102,11
4,2,13,1,6,1,2,3,71,11
4,2,17,1,3,0,2,3,95,11
5,2,16,1,5,1,2,3,107,11
5,2,2,0,6,1,2,3,102,11
5,2,15,1,6,1,2,3,109,11
5,2,8,1,0,0,2,3,93,11
5,2,17,1,1,0,2,3,95,11
5,2,22,0,1,0,2,3,95,11
5,2,4,0,5,1,2,3,102,11
6,3,17,1,2,0,2,3,107,11
6,3,1,0,1,0,2,3,102,11
6,3,10,1,6,1,2,3,14,11
6,3,19,1,6,1,2,3,28,11
6,3,20,1,0,0,2,3,3,11
6,3,15,1,4,0,2,3,117,11
7,3,4,0,5,1,3,3,20,11
7,3,0,0,0,0,3,3,75,11
7,3,12,1,3,0,3,3,95,11
8,3,12,1,3,0,3,3,20,11
8,3,13,1,6,1,3,3,95,11
8,3,5,0,5,1,3,3,102,11
8,3,4,0,5,1,3,3,102,11
8,3,4,0,5,1,3,3,102,11
8,3,5,0,5,1,3,3,102,11
8,3,19,1,4,0,3,3,20,11
8,3,22,0,6,1,3,3,20,11
9,4,15,1,0,0,3,3,14,11
9,4,14,1,0,0,3,3,95,11
9,4,12,1,1,0,3,3,102,11
9,4,13,1,4,0,3,3,71,11
9,4,14,1,4,0,3,3,95,11
9,4,15,1,6,1,3,3,95,11
9,4,22,0,5,1,3,3,95,11
9,4,12,1,5,1,3,3,95,11
9,4,19,1,2,0,3,3,20,11
9,4,17,1,4,0,3,3,20,11
10,4,9,1,2,0,4,3,115,11
10,4,2,0,1,0,4,3,20,11
10,4,23,0,5,1,4,3,95,11
10,4,4,0,1,0,4,3,81,9
11,4,19,1,5,1,4,3,81,11
11,4,19,1,6,1,4,3,20,11
11,4,23,0,0,0,4,3,107,11
11,4,22,0,3,0,4,3,71,11
11,4,15,1,5,1,4,3,107,11
11,4,19,1,5,1,4,3,93,11
11,4,22,0,5,1,4,3,93,11
11,4,6,0,6,1,4,3,93,11
11,4,0,0,6,1,4,3,93,11
11,4,12,1,0,0,4,3,62,11
12,1,18,1,0,0,4,3,3,11
12,1,15,1,1,0,4,3,95,11
12,1,17,1,1,0,4,3,102,11
12,1,17,1,4,0,4,3,107,11
12,1,6,0,6,1,4,3,49,11
12,1,17,1,0,0,4,3,81,11
12,1,19,1,2,0,4,3,93,11
12,1,8,1,1,0,4,3,93,11
12,1,15,1,3,0,4,3,13,11
4,2,19,1,0,0,2,3,93,11
6,3,21,0,2,0,2,3,14,9
7,3,23,0,5,1,3,3,95,11
9,4,19,1,0,0,3,3,115,11
12,1,20,1,4,0,4,3,81,11
1,1,10,1,3,0,1,3,81,9
4,2,11,1,0,0,2,3,115,11
4,2,13,1,3,0,2,3,81,11
7,3,18,1,1,0,3,3,20,11
12,1,21,0,2,0,4,3,71,9
12,1,16,1,5,1,4,3,81,11
1,1,19,1,5,1,1,3,102,11
2,1,16,1,2,0,1,3,81,11
4,2,12,1,0,0,2,3,81,11
5,2,22,0,0,0,2,3,20,11
1,1,13,1,1,0,1,3,81,11
2,1,0,0,6,1,1,3,132,11
3,2,20,1,5,1,1,3,132,11
4,2,7,1,1,0,2,3,132,11
5,2,4,0,3,0,2,3,113,11
6,3,14,1,5,1,2,3,81,11
6,3,14,1,6,1,2,3,20,11
6,3,18,1,3,0,2,3,95,11
7,3,15,1,5,1,3,3,114,11
7,3,13,1,0,0,3,3,14,11
7,3,16,1,6,1,3,3,28,11
7,3,9,1,3,0,3,3,1,11
7,3,14,1,0,0,3,3,20,11
8,3,18,1,6,1,3,3,107,11
8,3,14,1,0,0,3,3,49,11
9,4,14,1,5,1,3,3,81,11
11,4,0,0,2,0,4,3,102,11
12,1,1,0,5,1,4,3,81,11
12,1,22,0,3,0,4,3,14,11
12,1,10,1,4,0,4,3,20,11
5,2,22,0,1,0,2,3,37,11
6,3,15,1,6,1,2,3,115,11
6,3,23,0,6,1,2,3,37,11
6,3,17,1,3,0,2,3,107,11
8,3,20,1,2,0,3,3,81,9
9,4,15,1,5,1,3,3,28,11
1,1,16,1,0,0,1,36,81,11
1,1,19,1,3,0,1,36,71,11
1,1,20,1,6,1,1,36,64,8
1,1,17,1,1,0,1,36,81,11
1,1,13,1,2,0,1,36,81,11
1,1,11,1,4,0,1,36,81,11
1,1,13,1,4,0,1,36,71,11
1,1,2,0,4,0,1,36,93,11
1,1,23,0,5,1,1,36,93,11
1,1,22,0,5,1,1,36,71,11
1,1,5,0,6,1,1,36,93,11
1,1,9,1,1,0,1,36,84,11
1,1,14,1,4,0,1,36,93,11
1,1,22,0,0,0,1,36,71,11
1,1,4,0,0,0,1,36,93,11
1,1,5,0,2,0,1,36,20,11
1,1,4,0,5,1,1,36,93,11
1,1,6,0,6,1,1,36,93,11
2,1,5,0,4,0,1,36,102,11
2,1,4,0,0,0,1,36,102,11
2,1,21,0,4,0,1,36,81,11
2,1,5,0,5,1,1,36,102,11
2,1,13,1,1,0,1,36,7,11
2,1,18,1,3,0,1,36,81,11
2,1,4,0,0,0,1,36,102,11
2,1,0,0,0,0,1,36,102,11
2,1,19,1,1,0,1,36,114,11
2,1,23,0,6,1,1,36,41,11
3,2,10,1,3,0,1,36,74,11
3,2,15,1,0,0,1,36,24,11
3,2,0,0,0,0,1,36,62,11
3,2,19,1,1,0,1,36,41,11
3,2,1,0,5,1,1,36,93,11
3,2,12,1,0,0,1,36,93,11
3,2,19,1,1,0,1,36,81,11
3,2,10,1,2,0,1,36,71,11
3,2,2,0,4,0,1,36,93,11
3,2,14,1,6,1,1,36,79,11
3,2,3,0,0,0,1,36,102,11
3,2,5,0,3,0,1,36,93,11
3,2,15,1,4,0,1,36,79,11
4,2,6,0,6,1,2,36,93,11
4,2,4,0,1,0,2,36,93,11
4,2,3,0,5,1,2,36,102,11
4,2,5,0,6,1,2,36,102,11
4,2,20,1,0,0,2,36,102,11
4,2,10,1,6,1,2,36,95,11
4,2,16,1,0,0,2,36,20,11
4,2,0,0,0,0,2,36,95,11
4,2,11,1,0,0,2,36,81,11
4,2,18,1,2,0,2,36,130,9
4,2,0,0,1,0,2,36,102,11
4,2,0,0,1,0,2,36,102,11
4,2,4,0,3,0,2,36,20,11
4,2,22,0,6,1,2,36,102,11
4,2,6,0,6,1,2,36,102,11
5,2,19,1,1,0,2,36,24,11
5,2,10,1,2,0,2,36,109,11
5,2,19,1,6,1,2,36,20,11
5,2,18,1,1,0,2,36,71,11
5,2,18,1,2,0,2,36,71,11
5,2,22,0,4,0,2,36,44,11
5,2,3,0,6,1,2,36,102,11
5,2,20,1,1,0,2,36,102,11
5,2,5,0,3,0,2,36,83,11
5,2,20,1,4,0,2,36,81,11
5,2,21,0,5,1,2,36,102,11
5,2,3,0,5,1,2,36,102,11
5,2,15,1,1,0,2,36,95,11
5,2,4,0,1,0,2,36,102,11
5,2,6,0,4,0,2,36,95,11
5,2,23,0,5,1,2,36,102,11
5,2,6,0,6,1,2,36,102,11
5,2,20,1,0,0,2,36,70,11
6,3,6,0,3,0,2,36,51,11
6,3,18,1,4,0,2,36,79,11
6,3,12,1,6,1,2,36,102,11
6,3,6,0,1,0,2,36,102,11
6,3,11,1,1,0,2,36,51,11
6,3,5,0,4,0,2,36,102,11
6,3,5,0,5,1,2,36,102,11
6,3,4,0,0,0,2,36,102,11
6,3,13,1,1,0,2,36,14,11
6,3,6,0,6,1,2,36,102,11
6,3,2,0,0,0,2,36,71,11
6,3,15,1,1,0,2,36,93,11
6,3,0,0,3,0,2,36,71,11
6,3,17,1,4,0,2,36,102,11
6,3,5,0,5,1,2,36,102,11
6,3,22,0,6,1,2,36,71,11
6,3,10,1,4,0,2,36,81,11
7,3,22,0,6,1,3,36,102,11
7,3,17,1,2,0,3,36,41,11
7,3,10,1,2,0,3,36,81,11
7,3,3,0,5,1,3,36,71,11
7,3,23,0,1,0,3,36,81,11
7,3,5,0,4,0,3,36,102,11
7,3,11,1,0,0,3,36,79,11
8,3,19,1,2,0,3,36,107,11
8,3,15,1,5,1,3,36,20,11
8,3,15,1,3,0,3,36,71,11
8,3,5,0,4,0,3,36,20,11
8,3,19,1,5,1,3,36,81,11
8,3,14,1,1,0,3,36,95,11
8,3,2,0,6,1,3,36,93,11
8,3,19,1,3,0,3,36,93,11
9,4,5,0,4,0,3,36,20,11
9,4,2,0,1,0,3,36,93,11
9,4,2,0,6,1,3,36,95,11
9,4,17,1,3,0,3,36,81,11
9,4,12,1,4,0,3,36,81,11
9,4,14,1,0,0,3,36,79,11
9,4,4,0,2,0,3,36,102,11
9,4,2,0,2,0,3,36,120,11
9,4,11,1,2,0,3,36,71,11
9,4,19,1,5,1,3,36,51,11
9,4,2,0,1,0,3,36,102,11
9,4,23,0,2,0,3,36,120,11
9,4,10,1,4,0,3,36,3,11
10,4,18,1,0,0,4,36,71,11
10,4,0,0,5,1,4,36,102,11
10,4,12,1,2,0,4,36,71,11
10,4,10,1,3,0,4,36,41,11
10,4,15,1,5,1,4,36,71,11
10,4,10,1,6,1,4,36,26,11
10,4,20,1,6,1,4,36,70,11
10,4,13,1,2,0,4,36,95,11
10,4,9,1,3,0,4,36,71,11
10,4,10,1,6,1,4,36,102,11
10,4,23,0,6,1,4,36,81,11
11,4,3,0,2,0,4,36,102,11
11,4,18,1,6,1,4,36,95,11
11,4,2,0,2,0,4,36,102,11
11,4,4,0,2,0,4,36,102,11
11,4,9,1,5,1,4,36,71,11
11,4,18,1,3,0,4,36,41,11
11,4,0,0,2,0,4,36,102,11
12,1,16,1,0,0,4,36,71,11
12,1,17,1,3,0,4,36,81,11
12,1,10,1,5,1,4,36,81,11
12,1,16,1,5,1,4,36,81,11
12,1,22,0,0,0,4,36,71,11
12,1,13,1,1,0,4,36,102,11
12,1,18,1,4,0,4,36,102,11
12,1,18,1,6,1,4,36,93,11
12,1,17,1,2,0,4,36,62,11
12,1,7,1,4,0,4,36,81,11
12,1,13,1,5,1,4,36,20,11
12,1,15,1,5,1,4,36,102,11
1,1,17,1,6,1,1,36,81,11
1,1,1,0,6,1,1,36,81,8
3,2,0,0,0,0,1,36,109,11
4,2,20,1,5,1,2,36,93,11
4,2,22,0,4,0,2,36,102,11
5,2,12,1,3,0,2,36,79,11
6,3,10,1,4,0,2,36,102,11
6,3,22,0,6,1,2,36,95,11
7,3,20,1,5,1,3,36,95,11
7,3,17,1,0,0,3,36,20,11
7,3,13,1,1,0,3,36,41,11
7,3,9,1,5,1,3,36,79,11
7,3,5,0,0,0,3,36,13,11
8,3,17,1,0,0,3,36,115,11
8,3,10,1,3,0,3,36,20,11
8,3,21,0,5,1,3,36,41,11
9,4,12,1,6,1,3,36,79,11
10,4,14,1,0,0,4,36,13,11
10,4,12,1,2,0,4,36,41,11
11,4,18,1,3,0,4,36,102,11
11,4,16,1,1,0,4,36,81,11
11,4,16,1,2,0,4,36,93,11
12,1,15,1,0,0,4,36,102,11
12,1,19,1,6,1,4,36,41,8
12,1,17,1,0,0,4,36,81,11
12,1,15,1,4,0,4,36,81,11
6,3,3,0,4,0,2,36,95,11
11,4,16,1,3,0,4,36,81,11
1,1,13,1,6,1,1,36,93,11
1,1,15,1,6,1,1,36,93,11
1,1,16,1,2,0,1,36,74,11
1,1,21,0,5,1,1,36,93,11
2,1,14,1,4,0,1,36,93,11
2,1,16,1,4,0,1,36,115,11
2,1,16,1,6,1,1,36,93,11
3,2,14,1,6,1,1,36,81,11
3,2,18,1,4,0,1,36,132,11
4,2,6,0,3,0,2,36,41,11
4,2,8,1,4,0,2,36,115,11
5,2,3,0,0,0,2,36,110,9
5,2,20,1,2,0,2,36,81,11
5,2,14,1,6,1,2,36,132,11
5,2,0,0,2,0,2,36,115,11
7,3,13,1,2,0,3,36,132,11
8,3,21,0,2,0,3,36,81,11
8,3,3,0,2,0,3,36,132,11
10,4,15,1,2,0,4,36,81,11
10,4,22,0,2,0,4,36,95,11
10,4,18,1,3,0,4,36,132,11
10,4,16,1,4,0,4,36,71,11
10,4,11,1,4,0,4,36,81,11
11,4,21,0,5,1,4,36,132,11
11,4,23,0,2,0,4,36,132,11
12,1,10,1,3,0,4,36,95,11
12,1,18,1,3,0,4,36,41,11
12,1,14,1,4,0,4,36,81,8
1,1,11,1,6,1,1,36,132,11
3,2,18,1,0,0,1,36,132,11
4,2,23,0,3,0,2,36,81,8
4,2,19,1,0,0,2,36,20,11
8,3,11,1,6,1,3,36,20,11
9,4,4,0,5,1,3,36,132,11
10,4,20,1,1,0,4,36,81,11
11,4,13,1,6,1,4,36,14,11
1,1,3,0,6,1,1,36,20,11
3,2,9,1,2,0,1,36,14,11
3,2,5,0,1,0,1,36,41,8
4,2,9,1,6,1,2,36,115,11
4,2,20,1,2,0,2,36,81,11
6,3,12,1,2,0,2,36,28,11
6,3,14,1,1,0,2,36,41,11
8,3,12,1,1,0,3,36,115,11
8,3,12,1,2,0,3,36,107,11
8,3,4,0,2,0,3,36,132,11
8,3,22,0,0,0,3,36,115,11
9,4,11,1,1,0,3,36,41,9
9,4,8,1,5,1,3,36,79,9
10,4,21,0,4,0,4,36,51,11
11,4,13,1,2,0,4,36,81,11
11,4,5,0,3,0,4,36,71,11
11,4,20,1,1,0,4,36,41,11
1,1,11,1,3,0,1,30,81,11
1,1,17,1,1,0,1,30,81,11
1,1,11,1,0,0,1,30,93,11
2,1,12,1,6,1,1,30,20,11
2,1,18,1,0,0,1,30,81,11
2,1,15,1,6,1,1,30,41,11
2,1,21,0,0,0,1,30,81,11
3,2,12,1,6,1,1,30,115,11
3,2,14,1,1,0,1,30,14,11
3,2,6,0,2,0,1,30,93,11
4,2,22,0,4,0,2,30,81,8
4,2,16,1,5,1,2,30,116,11
5,2,20,1,0,0,2,30,97,11
5,2,20,1,0,0,2,30,93,11
5,2,11,1,4,0,2,30,93,11
5,2,12,1,1,0,2,30,116,11
5,2,21,0,2,0,2,30,49,11
5,2,11,1,4,0,2,30,93,11
6,3,17,1,0,0,2,30,93,11
6,3,14,1,3,0,2,30,81,11
6,3,15,1,6,1,2,30,132,11
7,3,23,0,0,0,3,30,94,11
7,3,8,1,2,0,3,30,30,11
7,3,17,1,5,1,3,30,93,11
8,3,21,0,2,0,3,30,20,11
8,3,10,1,3,0,3,30,95,11
8,3,15,1,2,0,3,30,81,8
8,3,4,0,2,0,3,30,93,11
10,4,16,1,4,0,4,30,13,11
10,4,18,1,3,0,4,30,95,11
11,4,7,1,3,0,4,30,95,11
11,4,22,0,5,1,4,30,114,11
11,4,5,0,1,0,4,30,81,11
11,4,19,1,0,0,4,30,41,11
11,4,19,1,1,0,4,30,71,11
11,4,23,0,6,1,4,30,93,11
11,4,13,1,3,0,4,30,41,11
12,1,20,1,3,0,4,30,93,11
12,1,19,1,0,0,4,30,115,11
12,1,12,1,6,1,4,30,13,11
1,1,7,1,1,0,1,30,110,8
1,1,1,0,3,0,1,30,20,11
3,2,15,1,3,0,1,30,13,11
4,2,17,1,5,1,2,30,93,11
5,2,11,1,2,0,2,30,93,11
5,2,16,1,0,0,2,30,1,11
5,2,14,1,2,0,2,30,13,9
7,3,12,1,5,1,3,30,14,11
8,3,19,1,6,1,3,30,95,11
9,4,16,1,2,0,3,30,107,11
9,4,11,1,0,0,3,30,41,11
11,4,12,1,6,1,4,30,79,11
12,1,17,1,3,0,4,30,20,11
1,1,0,0,1,0,1,5,41,9
5,2,14,1,5,1,2,5,95,11
6,3,15,1,2,0,2,5,95,11
10,4,9,1,2,0,4,5,14,9
1,1,15,1,5,1,1,30,81,11
12,1,4,0,2,0,4,30,63,9
7,3,15,1,0,0,3,30,95,11
2,1,21,0,6,1,1,30,41,9
2,1,13,1,6,1,1,30,41,11
3,2,15,1,4,0,1,30,13,9
3,2,17,1,5,1,1,30,49,9
4,2,20,1,0,0,2,30,20,9
5,2,7,1,4,0,2,30,41,9
7,3,18,1,4,0,3,30,95,11
7,3,20,1,6,1,3,30,18,9
8,3,2,0,3,0,3,30,41,11
8,3,11,1,1,0,3,30,95,11
9,4,14,1,3,0,3,30,14,11
9,4,16,1,5,1,3,30,13,11
10,4,9,1,4,0,4,30,81,9
11,4,22,0,6,1,4,30,132,11
12,1,6,0,5,1,4,30,115,11
12,1,17,1,3,0,4,30,81,11
1,1,12,1,0,0,1,30,41,11
2,1,6,0,4,0,1,30,41,9
3,2,12,1,5,1,1,30,41,11
4,2,8,1,4,0,2,30,81,11
4,2,17,1,0,0,2,30,115,11
4,2,9,1,1,0,2,30,115,11
6,3,3,0,3,0,2,30,95,11
7,3,3,0,3,0,3,30,41,9
11,4,4,0,5,1,4,30,81,11
12,1,23,0,4,0,4,30,41,11
12,1,20,1,0,0,4,30,41,11
1,1,12,1,1,0,1,30,132,11
1,1,10,1,3,0,1,30,95,11
4,2,7,1,3,0,2,30,20,11
7,3,19,1,5,1,3,30,20,11
8,3,16,1,2,0,3,30,7,11
9,4,3,0,4,0,3,30,81,11
10,4,17,1,4,0,4,30,84,11
12,1,22,0,5,1,4,30,115,11
1,1,20,1,6,1,1,2,81,11
1,1,12,1,0,0,1,2,132,11
1,1,13,1,6,1,1,2,81,11
2,1,3,0,3,0,1,2,93,11
2,1,23,0,6,1,1,2,20,11
2,1,11,1,5,1,1,2,81,11
2,1,19,1,0,0,1,2,132,11
3,2,3,0,1,0,1,2,81,11
4,2,3,0,6,1,2,2,102,11
4,2,20,1,2,0,2,2,95,11
4,2,13,1,3,0,2,2,71,11
4,2,14,1,6,1,2,2,28,11
5,2,20,1,3,0,2,2,115,11
6,3,21,0,0,0,2,2,115,11
6,3,16,1,4,0,2,2,13,11
7,3,11,1,2,0,3,2,95,11
7,3,10,1,5,1,3,2,95,11
7,3,9,1,4,0,3,2,95,11
10,4,0,0,0,0,4,2,13,11
11,4,15,1,2,0,4,2,20,11
11,4,19,1,3,0,4,2,20,11
11,4,22,0,1,0,4,2,132,11
11,4,14,1,0,0,4,2,41,11
12,1,7,1,4,0,4,2,81,11
12,1,20,1,5,1,4,2,93,11
12,1,16,1,1,0,4,2,81,11
12,1,18,1,1,0,4,2,62,11
12,1,20,1,1,0,4,2,93,11
1,1,0,0,5,1,1,2,81,11
4,2,14,1,5,1,2,2,93,9
4,2,15,1,3,0,2,2,93,11
7,3,22,0,0,0,3,2,20,11
7,3,15,1,2,0,3,2,93,11
8,3,0,0,3,0,3,2,14,11
8,3,23,0,4,0,3,2,132,11
8,3,18,1,4,0,3,2,20,11
9,4,15,1,1,0,3,2,93,11
12,1,22,0,3,0,4,2,132,11
1,1,13,1,3,0,1,5,51,11
1,1,16,1,1,0,1,5,95,11
1,1,1,0,3,0,1,5,116,11
1,1,13,1,1,0,1,5,72,11
3,2,6,0,4,0,1,5,14,11
8,3,0,0,5,1,3,5,41,11
8,3,13,1,0,0,3,5,95,11
9,4,16,1,5,1,3,5,81,8
9,4,11,1,4,0,3,5,81,11
10,4,11,1,4,0,4,5,95,11
11,4,13,1,2,0,4,5,41,11
1,1,2,0,6,1,1,5,81,9
3,2,17,1,0,0,1,5,41,11
2,1,12,1,4,0,1,5,81,11
1,1,18,1,0,0,1,2,95,11
1,1,18,1,1,0,1,2,81,11
1,1,15,1,2,0,1,2,41,11
1,1,13,1,5,1,1,2,41,11
1,1,20,1,5,1,1,2,81,11
2,1,19,1,4,0,1,2,81,11
2,1,7,1,4,0,1,2,79,11
3,2,17,1,1,0,1,2,62,11
3,2,15,1,4,0,1,2,81,9
3,2,14,1,5,1,1,2,107,11
3,2,6,0,5,1,1,2,95,11
4,2,12,1,4,0,2,2,49,11
4,2,21,0,4,0,2,2,102,11
5,2,18,1,3,0,2,2,20,11
5,2,17,1,3,0,2,2,20,11
5,2,15,1,1,0,2,2,93,11
6,3,13,1,2,0,2,2,95,11
6,3,11,1,3,0,2,2,81,11
6,3,1,0,4,0,2,2,20,11
6,3,20,1,6,1,2,2,79,11
7,3,19,1,5,1,3,2,95,11
7,3,18,1,1,0,3,2,95,11
7,3,19,1,3,0,3,2,95,11
8,3,12,1,1,0,3,2,20,11
8,3,9,1,4,0,3,2,79,11
8,3,13,1,5,1,3,2,95,11
8,3,20,1,6,1,3,2,95,11
9,4,4,0,0,0,3,2,7,11
9,4,15,1,3,0,3,2,95,11
9,4,12,1,5,1,3,2,95,11
9,4,17,1,5,1,3,2,108,11
10,4,8,1,5,1,4,2,95,11
10,4,15,1,0,0,4,2,79,11
10,4,16,1,2,0,4,2,95,11
10,4,22,0,3,0,4,2,13,11
10,4,18,1,4,0,4,2,107,11
10,4,20,1,0,0,4,2,95,11
10,4,23,0,6,1,4,2,81,8
11,4,1,0,4,0,4,2,79,11
11,4,14,1,6,1,4,2,95,11
12,1,10,1,1,0,4,2,79,11
12,1,11,1,3,0,4,2,81,11
12,1,12,1,3,0,4,2,24,8
12,1,9,1,2,0,4,2,79,11
1,1,11,1,0,0,1,28,81,9
1,1,20,1,1,0,1,28,71,11
1,1,19,1,3,0,1,28,95,11
1,1,14,1,0,0,1,28,132,11
1,1,22,0,2,0,1,28,62,11
1,1,8,1,2,0,1,28,71,11
2,1,11,1,2,0,1,28,20,11
2,1,18,1,6,1,1,28,71,11
2,1,2,0,1,0,1,28,81,11
2,1,12,1,3,0,1,28,79,11
2,1,0,0,2,0,1,28,41,9
2,1,20,1,3,0,1,28,81,11
2,1,4,0,0,0,1,28,132,11
2,1,18,1,1,0,1,28,132,11
2,1,5,0,5,1,1,28,95,11
2,1,1,0,0,0,1,28,132,11
2,1,19,1,0,0,1,28,132,11
2,1,13,1,0,0,1,28,81,9
3,2,0,0,2,0,1,28,132,11
3,2,10,1,4,0,1,28,79,11
3,2,12,1,5,1,1,28,95,11
3,2,20,1,6,1,1,28,20,11
3,2,11,1,2,0,1,28,81,11
3,2,6,0,0,0,1,28,93,11
3,2,9,1,1,0,1,28,93,11
4,2,1,0,2,0,2,28,95,11
4,2,23,0,5,1,2,28,107,11
4,2,15,1,6,1,2,28,107,11
4,2,3,0,1,0,2,28,81,9
4,2,3,0,6,1,2,28,93,11
4,2,10,1,3,0,2,28,93,11
4,2,6,0,3,0,2,28,93,11
4,2,14,1,4,0,2,28,93,11
4,2,22,0,6,1,2,28,93,11
4,2,20,1,1,0,2,28,62,11
4,2,17,1,6,1,2,28,95,11
5,2,6,0,1,0,2,28,107,11
5,2,5,0,5,1,2,28,81,11
5,2,13,1,3,0,2,28,79,11
5,2,22,0,3,0,2,28,93,11
5,2,16,1,1,0,2,28,116,11
5,2,17,1,6,1,2,28,81,11
5,2,18,1,0,0,2,28,95,11
6,3,13,1,5,1,2,28,107,11
6,3,17,1,0,0,2,28,81,11
6,3,15,1,5,1,2,28,49,11
6,3,15,1,6,1,2,28,81,11
6,3,11,1,1,0,2,28,79,11
6,3,20,1,4,0,2,28,14,11
6,3,22,0,0,0,2,28,81,11
6,3,17,1,1,0,2,28,81,11
6,3,22,0,4,0,2,28,107,11
6,3,21,0,3,0,2,28,107,11
6,3,23,0,3,0,2,28,107,11
6,3,11,1,4,0,2,28,20,11
7,3,9,1,6,1,3,28,41,11
7,3,2,0,0,0,3,28,20,11
7,3,11,1,0,0,3,28,71,11
7,3,16,1,2,0,3,28,95,11
7,3,23,0,1,0,3,28,81,11
7,3,6,0,2,0,3,28,49,11
7,3,19,1,2,0,3,28,14,11
7,3,2,0,5,1,3,28,95,11
7,3,2,0,5,1,3,28,132,11
7,3,2,0,5,1,3,28,95,11
7,3,4,0,5,1,3,28,95,11
7,3,10,1,6,1,3,28,95,11
7,3,0,0,3,0,3,28,132,11
7,3,14,1,3,0,3,28,20,11
7,3,8,1,4,0,3,28,41,9
8,3,16,1,1,0,3,28,8,11
8,3,8,1,3,0,3,28,95,11
8,3,13,1,3,0,3,28,81,11
8,3,15,1,4,0,3,28,107,11
8,3,2,0,5,1,3,28,95,11
8,3,2,0,5,1,3,28,107,11
8,3,5,0,1,0,3,28,112,11
8,3,8,1,5,1,3,28,79,11
8,3,18,1,0,0,3,28,95,11
8,3,12,1,5,1,3,28,95,11
8,3,12,1,1,0,3,28,20,11
8,3,7,1,2,0,3,28,20,11
8,3,16,1,3,0,3,28,71,11
8,3,18,1,5,1,3,28,14,11
8,3,13,1,0,0,3,28,81,11
8,3,4,0,1,0,3,28,79,8
8,3,11,1,2,0,3,28,81,11
8,3,12,1,2,0,3,28,51,11
8,3,22,0,2,0,3,28,107,11
9,4,14,1,6,1,3,28,41,11
9,4,15,1,3,0,3,28,95,11
9,4,19,1,5,1,3,28,95,11
9,4,19,1,5,1,3,28,95,11
9,4,8,1,6,1,3,28,20,9
9,4,12,1,2,0,3,28,95,11
9,4,3,0,6,1,3,28,20,11
9,4,21,0,1,0,3,28,81,11
9,4,23,0,3,0,3,28,20,11
10,4,17,1,1,0,4,28,93,11
10,4,19,1,3,0,4,28,95,11
10,4,18,1,5,1,4,28,95,11
10,4,23,0,2,0,4,28,110,9
10,4,13,1,6,1,4,28,20,11
10,4,1,0,3,0,4,28,115,11
10,4,22,0,6,1,4,28,20,11
10,4,7,1,1,0,4,28,81,9
11,4,10,1,2,0,4,28,14,11
11,4,2,0,2,0,4,28,30,11
11,4,23,0,5,1,4,28,102,11
11,4,8,1,6,1,4,28,88,11
11,4,19,1,0,0,4,28,93,11
11,4,11,1,3,0,4,28,93,11
11,4,23,0,4,0,4,28,102,11
11,4,19,1,6,1,4,28,79,9
12,1,14,1,1,0,4,28,71,11
12,1,1,0,1,0,4,28,93,11
12,1,14,1,5,1,4,28,81,11
12,1,18,1,5,1,4,28,134,11
12,1,8,1,0,0,4,28,93,11
12,1,18,1,3,0,4,28,20,11
12,1,21,0,1,0,4,28,132,11
12,1,19,1,2,0,4,28,20,11
12,1,17,1,4,0,4,28,79,11
12,1,20,1,5,1,4,28,79,11
12,1,21,0,0,0,4,28,132,11
12,1,9,1,0,0,4,28,81,9
12,1,18,1,1,0,4,28,79,11
12,1,12,1,4,0,4,28,79,11
12,1,10,1,6,1,4,28,93,11
2,1,13,1,1,0,1,28,95,11
5,2,17,1,5,1,2,28,81,11
6,3,13,1,3,0,2,28,49,11
7,3,17,1,0,0,3,28,93,11
8,3,9,1,1,0,3,28,84,11
8,3,18,1,4,0,3,28,107,11
8,3,11,1,1,0,3,28,95,11
10,4,3,0,2,0,4,28,63,11
10,4,15,1,4,0,4,28,95,11
11,4,13,1,1,0,4,28,95,11
11,4,16,1,5,1,4,28,81,11
11,4,20,1,4,0,4,28,115,11
12,1,14,1,6,1,4,28,20,11
12,1,19,1,6,1,4,28,81,11
1,1,3,0,6,1,1,28,41,8
1,1,0,0,5,1,1,28,62,11
3,2,8,1,4,0,1,28,20,11
4,2,8,1,6,1,2,28,95,11
4,2,5,0,1,0,2,28,81,8
4,2,16,1,5,1,2,28,20,8
4,2,3,0,0,0,2,28,132,11
4,2,15,1,1,0,2,28,20,11
4,2,14,1,5,1,2,28,20,8
5,2,11,1,4,0,2,28,64,8
6,3,19,1,5,1,2,28,95,11
7,3,11,1,0,0,3,28,95,11
7,3,14,1,1,0,3,28,95,11
7,3,21,0,1,0,3,28,95,11
7,3,1,0,6,1,3,28,33,11
7,3,9,1,0,0,3,28,20,11
8,3,18,1,0,0,3,28,81,11
8,3,14,1,2,0,3,28,20,8
8,3,12,1,4,0,3,28,95,11
9,4,4,0,6,1,3,28,51,11
9,4,13,1,4,0,3,28,20,8
10,4,12,1,1,0,4,28,79,11
10,4,8,1,5,1,4,28,107,11
10,4,17,1,1,0,4,28,107,11
11,4,0,0,6,1,4,28,114,11
11,4,9,1,4,0,4,28,64,11
12,1,7,1,4,0,4,28,14,11
4,2,21,0,2,0,2,28,81,11
5,2,12,1,2,0,2,28,115,11
6,3,16,1,1,0,2,28,20,11
8,3,4,0,0,0,3,28,102,11
1,1,8,1,2,0,1,46,13,8
1,1,1,0,5,1,1,46,13,8
1,1,9,1,6,1,1,46,71,11
1,1,13,1,1,0,1,46,107,11
1,1,4,0,2,0,1,46,107,11
1,1,4,0,6,1,1,46,79,11
1,1,12,1,5,1,1,46,14,8
1,1,13,1,0,0,1,46,79,11
2,1,6,0,2,0,1,46,107,11
2,1,11,1,3,0,1,46,107,11
3,2,19,1,0,0,1,46,101,11
3,2,1,0,2,0,1,46,79,11
3,2,17,1,3,0,1,46,94,11
3,2,21,0,6,1,1,46,71,11
3,2,15,1,4,0,1,46,81,8
4,2,17,1,6,1,2,46,94,11
4,2,20,1,1,0,2,46,107,11
5,2,19,1,0,0,2,46,71,11
5,2,3,0,1,0,2,46,79,11
5,2,12,1,3,0,2,46,79,11
5,2,19,1,2,0,2,46,51,11
5,2,14,1,3,0,2,46,81,11
5,2,2,0,3,0,2,46,37,11
5,2,18,1,1,0,2,46,93,11
6,3,18,1,4,0,2,46,95,11
6,3,10,1,1,0,2,46,41,11
6,3,21,0,0,0,2,46,71,11
6,3,3,0,0,0,2,46,79,11
6,3,15,1,1,0,2,46,95,11
6,3,11,1,5,1,2,46,95,11
6,3,23,0,6,1,2,46,79,9
6,3,0,0,4,0,2,46,79,11
7,3,20,1,5,1,3,46,41,11
8,3,11,1,2,0,3,46,71,11
8,3,15,1,6,1,3,46,95,11
8,3,9,1,3,0,3,46,79,11
8,3,22,0,6,1,3,46,51,11
8,3,12,1,1,0,3,46,15,11
9,4,12,1,0,0,3,46,20,11
9,4,14,1,4,0,3,46,16,11
9,4,17,1,5,1,3,46,79,11
9,4,0,0,2,0,3,46,107,11
9,4,14,1,4,0,3,46,20,11
10,4,18,1,0,0,4,46,81,11
10,4,18,1,5,1,4,46,115,11
10,4,18,1,6,1,4,46,41,11
11,4,17,1,1,0,4,46,41,11
11,4,6,0,5,1,4,46,107,11
11,4,18,1,0,0,4,46,92,9
12,1,5,0,3,0,4,46,107,11
12,1,6,0,4,0,4,46,107,11
1,1,12,1,3,0,1,46,81,11
2,1,21,0,1,0,1,46,132,11
3,2,0,0,0,0,1,46,93,11
3,2,1,0,1,0,1,46,41,9
3,2,16,1,3,0,1,46,81,11
3,2,16,1,4,0,1,46,81,11
3,2,15,1,5,1,1,46,132,11
4,2,3,0,3,0,2,46,79,11
5,2,14,1,2,0,2,46,107,11
7,3,12,1,0,0,3,46,81,11
7,3,13,1,1,0,3,46,81,11
7,3,14,1,0,0,3,46,95,11
8,3,14,1,5,1,3,46,115,11
9,4,16,1,4,0,3,46,20,11
9,4,21,0,5,1,3,46,20,11
9,4,12,1,1,0,3,46,84,11
9,4,17,1,0,0,3,46,95,11
10,4,10,1,2,0,4,46,95,11
11,4,19,1,4,0,4,46,41,11
1,1,19,1,5,1,1,46,81,11
4,2,16,1,0,0,2,46,13,11
4,2,5,0,1,0,2,46,13,9
5,2,6,0,6,1,2,46,115,11
9,4,4,0,4,0,3,46,104,11
9,4,12,1,3,0,3,46,95,9
9,4,20,1,5,1,3,46,81,11
10,4,7,1,1,0,4,46,13,9
12,1,18,1,3,0,4,46,79,11
12,1,10,1,4,0,4,46,81,11
4,2,22,0,3,0,2,46,24,8
7,3,13,1,3,0,3,46,26,11
9,4,11,1,3,0,3,46,28,11
10,4,12,1,2,0,4,46,81,8
1,1,21,0,6,1,1,46,84,11
1,1,9,1,1,0,1,46,81,11
2,1,9,1,0,0,1,46,73,11
2,1,16,1,1,0,1,46,7,11
3,2,14,1,4,0,1,46,95,11
3,2,23,0,5,1,1,46,107,11
3,2,11,1,0,0,1,46,95,11
3,2,18,1,6,1,1,46,79,11
4,2,21,0,3,0,2,46,95,11
4,2,18,1,4,0,2,46,28,11
4,2,18,1,5,1,2,46,3,11
4,2,12,1,1,0,2,46,107,11
5,2,17,1,6,1,2,46,3,11
6,3,12,1,4,0,2,46,107,11
6,3,23,0,0,0,2,46,49,11
6,3,20,1,3,0,2,46,81,9
6,3,2,0,3,0,2,46,81,9
7,3,17,1,5,1,3,46,107,11
9,4,15,1,5,1,3,46,107,11
10,4,13,1,1,0,4,46,81,8
10,4,16,1,2,0,4,46,107,11
11,4,11,1,0,0,4,46,120,11
12,1,13,1,4,0,4,46,79,11
12,1,17,1,6,1,4,46,79,11
12,1,11,1,1,0,4,46,14,11
12,1,15,1,2,0,4,46,107,11
12,1,10,1,2,0,4,46,95,11
1,1,4,0,3,0,1,46,73,9
2,1,13,1,4,0,1,46,89,8
7,3,13,1,5,1,3,46,114,9
7,3,17,1,1,0,3,46,107,11
7,3,7,1,3,0,3,46,79,8
7,3,11,1,0,0,3,46,79,11
11,4,13,1,0,0,4,46,79,11
2,1,16,1,4,0,1,46,41,11
4,2,15,1,5,1,2,46,107,11
4,2,21,0,1,0,2,46,71,9
10,4,19,1,1,0,4,46,24,11
10,4,19,1,1,0,4,46,7,11
1,1,18,1,0,0,1,46,81,11
1,1,10,1,3,0,1,46,81,11
2,1,14,1,3,0,1,46,81,11
2,1,11,1,1,0,1,46,81,9
3,2,12,1,6,1,1,46,81,11
5,2,20,1,5,1,2,46,95,11
8,3,15,1,3,0,3,46,95,9
8,3,21,0,4,0,3,46,63,11
9,4,14,1,3,0,3,46,81,11
9,4,11,1,1,0,3,46,13,9
9,4,21,0,2,0,3,46,95,11
10,4,15,1,4,0,4,46,107,11
10,4,11,1,4,0,4,46,107,11
11,4,10,1,2,0,4,46,81,11
11,4,15,1,6,1,4,46,81,9
12,1,4,0,3,0,4,46,132,11
12,1,20,1,6,1,4,46,81,11
1,1,14,1,0,0,1,13,129,11
1,1,0,0,4,0,1,13,13,9
1,1,13,1,6,1,1,13,132,11
2,1,21,0,5,1,1,13,41,11
2,1,16,1,1,0,1,13,132,11
2,1,22,0,1,0,1,13,132,11
2,1,23,0,1,0,1,13,132,11
2,1,19,1,1,0,1,13,132,11
2,1,18,1,4,0,1,13,95,11
2,1,17,1,5,1,1,13,71,11
2,1,21,0,1,0,1,13,132,11
3,2,11,1,6,1,1,13,71,11
3,2,13,1,6,1,1,13,132,11
3,2,10,1,2,0,1,13,71,11
3,2,21,0,5,1,1,13,71,11
4,2,13,1,6,1,2,13,95,11
4,2,10,1,3,0,2,13,71,11
4,2,0,0,3,0,2,13,95,11
4,2,9,1,3,0,2,13,95,9
4,2,21,0,3,0,2,13,95,9
4,2,0,0,4,0,2,13,95,9
6,3,8,1,5,1,2,13,41,11
7,3,14,1,5,1,3,13,95,11
7,3,4,0,5,1,3,13,81,8
8,3,19,1,3,0,3,13,3,11
8,3,22,0,4,0,3,13,20,11
8,3,19,1,1,0,3,13,3,11
8,3,22,0,4,0,3,13,14,9
8,3,11,1,6,1,3,13,129,11
9,4,13,1,4,0,3,13,37,11
9,4,23,0,1,0,3,13,69,11
9,4,12,1,3,0,3,13,95,11
9,4,22,0,4,0,3,13,71,11
10,4,13,1,6,1,4,13,95,11
10,4,20,1,4,0,4,13,71,11
10,4,13,1,6,1,4,13,95,11
10,4,19,1,6,1,4,13,132,11
10,4,9,1,1,0,4,13,132,11
11,4,13,1,3,0,4,13,95,11
11,4,8,1,4,0,4,13,37,11
11,4,13,1,6,1,4,13,95,11
12,1,8,1,3,0,4,13,132,11
12,1,7,1,1,0,4,13,132,11
12,1,22,0,2,0,4,13,132,11
12,1,21,0,4,0,4,13,89,11
1,1,19,1,6,1,1,48,81,11
1,1,13,1,0,0,1,48,93,11
2,1,5,0,2,0,1,48,107,11
2,1,17,1,5,1,1,48,71,11
2,1,20,1,4,0,1,48,89,11
3,2,20,1,0,0,1,48,107,11
3,2,12,1,1,0,1,48,79,11
4,2,7,1,6,1,2,48,14,11
4,2,20,1,2,0,2,48,107,11
4,2,12,1,3,0,2,48,107,11
4,2,18,1,4,0,2,48,28,11
4,2,17,1,4,0,2,48,130,11
4,2,20,1,6,1,2,48,107,11
5,2,15,1,5,1,2,48,107,11
5,2,15,1,5,1,2,48,13,9
5,2,18,1,6,1,2,48,117,11
5,2,6,0,2,0,2,48,3,8
6,3,16,1,5,1,2,48,93,8
7,3,14,1,4,0,3,48,3,8
8,3,10,1,2,0,3,48,20,11
8,3,14,1,2,0,3,48,70,11
8,3,13,1,2,0,3,48,95,11
8,3,7,1,6,1,3,48,20,11
9,4,0,0,3,0,3,48,82,11
10,4,9,1,0,0,4,48,107,11
11,4,1,0,6,1,4,48,95,11
11,4,0,0,6,1,4,48,95,8
11,4,9,1,1,0,4,48,93,11
11,4,17,1,5,1,4,48,132,11
12,1,5,0,0,0,4,48,93,11
12,1,10,1,3,0,4,48,132,11
12,1,19,1,0,0,4,48,95,11
12,1,9,1,3,0,4,48,81,11
12,1,11,1,3,0,4,48,81,11
1,1,15,1,6,1,1,48,93,11
1,1,3,0,1,0,1,48,20,11
2,1,11,1,3,0,1,48,20,11
2,1,1,0,5,1,1,48,62,11
2,1,13,1,6,1,1,48,81,11
3,2,18,1,6,1,1,48,107,11
3,2,20,1,3,0,1,48,95,11
4,2,19,1,6,1,2,48,107,11
4,2,18,1,6,1,2,48,93,11
4,2,12,1,6,1,2,48,28,11
5,2,20,1,0,0,2,48,81,11
6,3,16,1,2,0,2,48,95,11
7,3,5,0,6,1,3,48,107,11
7,3,7,1,6,1,3,48,78,9
10,4,11,1,4,0,4,48,41,11
10,4,12,1,6,1,4,48,71,11
11,4,10,1,0,0,4,48,95,11
11,4,17,1,1,0,4,48,107,11
11,4,20,1,6,1,4,48,14,11
11,4,8,1,2,0,4,48,107,11
12,1,0,0,5,1,4,48,14,11
1,1,20,1,1,0,1,7,79,11
1,1,11,1,5,1,1,7,88,11
1,1,15,1,5,1,1,7,93,11
1,1,11,1,0,0,1,7,20,11
2,1,21,0,0,0,1,7,32,11
2,1,15,1,0,0,1,7,71,11
2,1,3,0,2,0,1,7,93,11
2,1,17,1,5,1,1,7,13,11
3,2,17,1,0,0,1,7,107,11
3,2,15,1,6,1,1,7,41,11
3,2,16,1,4,0,1,7,107,11
4,2,9,1,6,1,2,7,134,11
4,2,13,1,6,1,2,7,95,11
4,2,16,1,6,1,2,7,107,11
4,2,18,1,5,1,2,7,132,11
5,2,12,1,1,0,2,7,79,11
5,2,16,1,4,0,2,7,107,11
6,3,13,1,6,1,2,7,71,11
6,3,10,1,2,0,2,7,33,11
6,3,11,1,6,1,2,7,81,11
7,3,8,1,1,0,3,7,79,11
7,3,17,1,4,0,3,7,95,11
7,3,11,1,2,0,3,7,81,11
7,3,15,1,6,1,3,7,93,11
7,3,22,0,0,0,3,7,114,11
8,3,20,1,3,0,3,7,20,11
8,3,19,1,6,1,3,7,107,11
9,4,19,1,4,0,3,7,71,11
9,4,14,1,6,1,3,7,107,11
9,4,12,1,0,0,3,7,107,11
9,4,17,1,0,0,3,7,110,11
9,4,16,1,1,0,3,7,95,11
9,4,15,1,4,0,3,7,107,11
10,4,12,1,5,1,4,7,26,11
11,4,17,1,0,0,4,7,41,11
11,4,13,1,4,0,4,7,79,11
11,4,19,1,4,0,4,7,93,11
12,1,10,1,5,1,4,7,24,11
12,1,17,1,4,0,4,7,81,8
1,1,14,1,6,1,1,7,20,11
2,1,22,0,3,0,1,7,93,11
2,1,14,1,3,0,1,7,41,11
2,1,8,1,6,1,1,7,20,11
3,2,16,1,1,0,1,7,24,11
4,2,17,1,1,0,2,7,37,11
4,2,22,0,5,1,2,7,93,11
4,2,23,0,1,0,2,7,49,11
5,2,17,1,0,0,2,7,81,9
5,2,14,1,1,0,2,7,93,11
6,3,11,1,5,1,2,7,81,11
6,3,23,0,0,0,2,7,20,11
6,3,14,1,5,1,2,7,114,9
6,3,9,1,2,0,2,7,13,11
6,3,19,1,4,0,2,7,20,9
7,3,0,0,6,1,3,7,20,11
7,3,21,0,0,0,3,7,20,11
7,3,15,1,6,1,3,7,49,11
7,3,23,0,1,0,3,7,20,9
8,3,0,0,2,0,3,7,114,8
8,3,12,1,3,0,3,7,13,11
8,3,23,0,3,0,3,7,107,11
8,3,16,1,6,1,3,7,20,11
9,4,12,1,4,0,3,7,99,11
9,4,21,0,4,0,3,7,81,11
9,4,8,1,5,1,3,7,115,11
10,4,18,1,4,0,4,7,3,11
10,4,14,1,0,0,4,7,20,11
11,4,9,1,3,0,4,7,13,11
12,1,20,1,6,1,4,7,73,11
1,1,14,1,6,1,1,7,93,11
2,1,10,1,3,0,1,7,20,8
2,1,10,1,0,0,1,7,14,8
2,1,1,0,3,0,1,7,95,11
2,1,6,0,1,0,1,7,49,11
3,2,21,0,1,0,1,7,79,8
3,2,22,0,1,0,1,7,49,8
3,2,21,0,4,0,1,7,71,11
3,2,14,1,5,1,1,7,3,11
3,2,14,1,3,0,1,7,79,11
4,2,11,1,4,0,2,7,1,11
4,2,14,1,1,0,2,7,95,11
4,2,23,0,5,1,2,7,95,11
5,2,9,1,3,0,2,7,107,11
5,2,0,0,4,0,2,7,49,9
5,2,19,1,5,1,2,7,20,11
5,2,15,1,6,1,2,7,129,11
5,2,21,0,1,0,2,7,81,8
6,3,16,1,0,0,2,7,14,11
6,3,21,0,2,0,2,7,49,11
6,3,15,1,1,0,2,7,24,11
6,3,19,1,4,0,2,7,113,11
7,3,20,1,6,1,3,7,81,11
7,3,15,1,3,0,3,7,115,11
8,3,21,0,1,0,3,7,20,11
8,3,20,1,3,0,3,7,13,11
8,3,13,1,4,0,3,7,49,11
8,3,19,1,6,1,3,7,1,11
8,3,11,1,1,0,3,7,28,11
8,3,23,0,1,0,3,7,20,11
8,3,11,1,2,0,3,7,20,11
8,3,22,0,2,0,3,7,20,11
8,3,23,0,3,0,3,7,20,11
9,4,11,1,0,0,3,7,129,11
9,4,12,1,3,0,3,7,49,11
9,4,17,1,0,0,3,7,95,8
10,4,14,1,5,1,4,7,49,11
10,4,8,1,0,0,4,7,79,11
11,4,19,1,3,0,4,7,8,11
11,4,13,1,2,0,4,7,81,8
11,4,5,0,4,0,4,7,41,11
11,4,18,1,2,0,4,7,95,11
12,1,9,1,1,0,4,7,61,11
3,2,12,1,0,0,1,7,20,9
11,4,12,1,4,0,4,7,114,8
1,1,8,1,0,0,1,12,20,11
1,1,11,1,0,0,1,12,41,11
1,1,20,1,1,0,1,12,83,11
1,1,17,1,2,0,1,12,71,11
1,1,22,0,6,1,1,12,81,11
1,1,19,1,1,0,1,12,20,11
1,1,16,1,4,0,1,12,93,11
1,1,16,1,4,0,1,12,13,11
2,1,12,1,2,0,1,12,20,11
2,1,19,1,1,0,1,12,132,11
2,1,22,0,6,1,1,12,105,11
2,1,8,1,4,0,1,12,93,11
2,1,4,0,0,0,1,12,20,11
2,1,14,1,4,0,1,12,74,11
2,1,5,0,6,1,1,12,20,11
3,2,1,0,5,1,1,12,20,11
3,2,18,1,4,0,1,12,81,11
3,2,1,0,0,0,1,12,81,11
3,2,12,1,1,0,1,12,99,11
3,2,18,1,2,0,1,12,71,11
3,2,11,1,5,1,1,12,20,11
3,2,13,1,1,0,1,12,71,11
3,2,13,1,3,0,1,12,93,11
4,2,13,1,5,1,2,12,81,11
4,2,21,0,1,0,2,12,93,11
4,2,6,0,6,1,2,12,71,11
4,2,2,0,0,0,2,12,93,11
4,2,3,0,3,0,2,12,71,11
5,2,12,1,0,0,2,12,71,11
5,2,3,0,5,1,2,12,33,11
5,2,16,1,0,0,2,12,82,11
5,2,13,1,4,0,2,12,102,11
5,2,18,1,6,1,2,12,1,11
5,2,9,1,3,0,2,12,81,11
6,3,9,1,5,1,2,12,81,11
6,3,17,1,5,1,2,12,84,11
6,3,15,1,4,0,2,12,95,11
6,3,13,1,5,1,2,12,81,11
6,3,4,0,0,0,2,12,20,11
6,3,4,0,0,0,2,12,20,11
6,3,17,1,6,1,2,12,71,11
6,3,0,0,0,0,2,12,62,11
6,3,9,1,4,0,2,12,30,11
6,3,14,1,4,0,2,12,41,11
7,3,9,1,0,0,3,12,132,11
7,3,9,1,0,0,3,12,132,11
7,3,15,1,2,0,3,12,59,9
7,3,0,0,3,0,3,12,51,11
7,3,20,1,5,1,3,12,81,11
7,3,7,1,5,1,3,12,71,11
7,3,5,0,3,0,3,12,20,11
7,3,14,1,6,1,3,12,55,11
8,3,11,1,2,0,3,12,81,11
8,3,16,1,5,1,3,12,93,11
8,3,13,1,0,0,3,12,71,11
8,3,10,1,4,0,3,12,32,11
9,4,16,1,4,0,3,12,69,11
9,4,18,1,2,0,3,12,93,11
9,4,18,1,6,1,3,12,81,11
9,4,22,0,1,0,3,12,51,11
9,4,13,1,3,0,3,12,89,11
9,4,14,1,2,0,3,12,8,11
9,4,23,0,2,0,3,12,70,11
9,4,23,0,5,1,3,12,20,11
9,4,17,1,2,0,3,12,24,11
9,4,2,0,5,1,3,12,93,11
10,4,21,0,2,0,4,12,114,11
10,4,11,1,4,0,4,12,41,11
10,4,19,1,2,0,4,12,24,11
10,4,6,0,0,0,4,12,20,11
10,4,10,1,0,0,4,12,110,11
11,4,16,1,5,1,4,12,62,11
11,4,18,1,5,1,4,12,20,11
11,4,18,1,0,0,4,12,71,11
11,4,19,1,1,0,4,12,71,11
11,4,3,0,4,0,4,12,93,11
11,4,19,1,5,1,4,12,81,11
11,4,4,0,5,1,4,12,93,11
11,4,6,0,0,0,4,12,93,11
11,4,13,1,0,0,4,12,93,11
11,4,18,1,2,0,4,12,20,11
12,1,18,1,5,1,4,12,122,11
12,1,12,1,0,0,4,12,81,11
12,1,1,0,1,0,4,12,20,11
12,1,11,1,2,0,4,12,71,11
12,1,20,1,2,0,4,12,99,11
12,1,21,0,2,0,4,12,81,11
12,1,13,1,3,0,4,12,71,11
12,1,22,0,6,1,4,12,93,11
12,1,23,0,1,0,4,12,1,11
12,1,23,0,1,0,4,12,93,11
12,1,14,1,4,0,4,12,71,11
12,1,18,1,2,0,4,12,41,11
12,1,7,1,3,0,4,12,125,11
12,1,12,1,5,1,4,12,20,11
12,1,19,1,5,1,4,12,20,11
12,1,22,0,6,1,4,12,95,11
1,1,7,1,5,1,1,12,41,11
4,2,23,0,5,1,2,12,93,11
5,2,9,1,6,1,2,12,20,11
6,3,1,0,4,0,2,12,13,11
6,3,8,1,5,1,2,12,81,11
1,1,21,0,4,0,1,12,93,11
1,1,0,0,1,0,1,12,81,11
6,3,23,0,0,0,2,12,93,11
8,3,11,1,0,0,3,12,93,11
9,4,13,1,4,0,3,12,71,11
9,4,20,1,6,1,3,12,74,11
10,4,9,1,4,0,4,12,41,11
12,1,13,1,6,1,4,12,81,11
1,1,16,1,0,0,1,12,93,11
5,2,14,1,1,0,2,12,81,11
5,2,16,1,1,0,2,12,20,11
7,3,21,0,5,1,3,12,132,9
7,3,7,1,6,1,3,12,132,11
8,3,0,0,3,0,3,12,20,11
8,3,19,1,4,0,3,12,41,11
10,4,12,1,6,1,4,12,132,11
11,4,5,0,6,1,4,12,89,11
12,1,23,0,1,0,4,12,93,11
12,1,13,1,0,0,4,12,41,11
3,2,20,1,0,0,1,12,20,11
4,2,16,1,6,1,2,12,14,11
5,2,20,1,1,0,2,12,14,11
5,2,8,1,4,0,2,12,93,11
5,2,15,1,4,0,2,12,15,9
8,3,16,1,1,0,3,12,107,11
8,3,14,1,3,0,3,12,95,11
9,4,11,1,5,1,3,12,41,11
10,4,20,1,6,1,4,12,81,9
10,4,10,1,2,0,4,12,81,11
10,4,22,0,6,1,4,12,93,11
11,4,15,1,2,0,4,12,73,11
5,2,14,1,5,1,2,12,73,11
2,1,12,1,1,0,1,12,122,11
4,2,18,1,1,0,2,12,81,11
11,4,17,1,6,1,4,12,20,11
1,1,22,0,1,0,1,29,93,11
1,1,19,1,5,1,1,29,93,11
3,2,20,1,6,1,1,29,93,11
3,2,16,1,2,0,1,29,41,11
3,2,13,1,2,0,1,29,95,11
3,2,15,1,5,1,1,29,93,11
4,2,20,1,6,1,2,29,93,11
5,2,0,0,3,0,2,29,107,11
5,2,4,0,0,0,2,29,107,11
5,2,6,0,6,1,2,29,107,11
5,2,20,1,2,0,2,29,81,11
6,3,19,1,6,1,2,29,95,11
6,3,14,1,4,0,2,29,95,11
6,3,13,1,0,0,2,29,93,11
6,3,22,0,6,1,2,29,93,11
7,3,13,1,0,0,3,29,95,11
7,3,17,1,1,0,3,29,129,11
7,3,16,1,1,0,3,29,93,11
7,3,14,1,3,0,3,29,20,11
7,3,15,1,1,0,3,29,41,11
7,3,23,0,4,0,3,29,20,11
7,3,11,1,6,1,3,29,107,11
8,3,7,1,1,0,3,29,81,11
8,3,15,1,4,0,3,29,132,11
8,3,16,1,5,1,3,29,95,11
8,3,23,0,5,1,3,29,95,11
8,3,18,1,3,0,3,29,93,11
8,3,23,0,1,0,3,29,81,11
8,3,9,1,4,0,3,29,134,11
8,3,20,1,0,0,3,29,107,11
9,4,18,1,5,1,3,29,95,11
9,4,21,0,2,0,3,29,81,11
9,4,22,0,2,0,3,29,107,11
9,4,12,1,5,1,3,29,81,11
9,4,13,1,6,1,3,29,14,11
9,4,14,1,3,0,3,29,20,11
9,4,10,1,4,0,3,29,89,11
9,4,12,1,5,1,3,29,79,11
10,4,18,1,3,0,4,29,93,11
10,4,14,1,1,0,4,29,14,11
10,4,18,1,3,0,4,29,95,11
11,4,19,1,2,0,4,29,14,9
11,4,22,0,5,1,4,29,95,11
11,4,20,1,0,0,4,29,79,11
12,1,13,1,3,0,4,29,132,11
2,1,17,1,2,0,1,29,93,11
3,2,9,1,1,0,1,29,20,11
6,3,20,1,4,0,2,29,81,11
9,4,13,1,6,1,3,29,20,9
9,4,2,0,2,0,3,29,107,11
1,1,10,1,2,0,1,29,113,11
2,1,14,1,5,1,1,29,93,11
3,2,23,0,1,0,1,29,95,11
4,2,10,1,2,0,2,29,81,11
4,2,2,0,5,1,2,29,93,11
5,2,18,1,3,0,2,29,79,11
5,2,0,0,2,0,2,29,93,11
5,2,22,0,2,0,2,29,93,11
5,2,7,1,3,0,2,29,93,11
6,3,9,1,4,0,2,29,107,11
6,3,20,1,3,0,2,29,107,11
6,3,8,1,3,0,2,29,93,11
6,3,20,1,5,1,2,29,13,11
6,3,13,1,5,1,2,29,69,11
6,3,16,1,2,0,2,29,95,11
6,3,12,1,3,0,2,29,95,11
6,3,8,1,4,0,2,29,93,11
6,3,21,0,5,1,2,29,129,11
6,3,12,1,1,0,2,29,95,11
6,3,15,1,2,0,2,29,107,11
6,3,22,0,3,0,2,29,93,11
7,3,14,1,5,1,3,29,95,11
7,3,4,0,6,1,3,29,107,11
7,3,22,0,5,1,3,29,89,11
7,3,11,1,4,0,3,29,107,11
7,3,17,1,0,0,3,29,51,11
8,3,0,0,4,0,3,29,82,11
8,3,1,0,6,1,3,29,107,11
8,3,20,1,6,1,3,29,81,11
8,3,12,1,4,0,3,29,134,11
8,3,19,1,5,1,3,29,71,11
8,3,7,1,1,0,3,29,72,11
9,4,1,0,0,0,3,29,115,11
10,4,11,1,5,1,4,29,81,9
10,4,21,0,0,0,4,29,115,11
11,4,15,1,5,1,4,29,95,11
12,1,0,0,2,0,4,29,108,11
1,1,9,1,2,0,1,29,79,11
1,1,5,0,5,1,1,29,93,11
4,2,18,1,4,0,2,29,81,11
4,2,18,1,6,1,2,29,86,11
5,2,17,1,1,0,2,29,95,11
6,3,11,1,6,1,2,29,51,11
6,3,2,0,1,0,2,29,81,9
6,3,22,0,4,0,2,29,87,11
7,3,23,0,5,1,3,29,15,11
7,3,5,0,3,0,3,29,52,11
7,3,18,1,6,1,3,29,13,8
8,3,20,1,1,0,3,29,20,11
9,4,14,1,5,1,3,29,20,11
9,4,19,1,5,1,3,29,79,11
9,4,18,1,0,0,3,29,20,11
10,4,12,1,1,0,4,29,81,11
10,4,15,1,4,0,4,29,107,11
10,4,13,1,2,0,4,29,20,11
11,4,0,0,6,1,4,29,71,11
1,1,22,0,0,0,1,29,93,11
1,1,9,1,3,0,1,29,81,11
2,1,1,0,6,1,1,29,95,11
3,2,19,1,1,0,1,29,107,11
4,2,16,1,0,0,2,29,112,9
4,2,8,1,1,0,2,29,93,11
5,2,17,1,4,0,2,29,93,11
6,3,11,1,2,0,2,29,95,11
6,3,8,1,4,0,2,29,93,11
6,3,18,1,2,0,2,29,71,11
6,3,21,0,3,0,2,29,107,11
7,3,9,1,6,1,3,29,89,11
7,3,21,0,4,0,3,29,76,11
7,3,2,0,4,0,3,29,14,11
7,3,22,0,0,0,3,29,107,11
7,3,11,1,4,0,3,29,95,11
7,3,17,1,5,1,3,29,102,11
7,3,10,1,1,0,3,29,62,11
8,3,16,1,3,0,3,29,79,11
8,3,23,0,6,1,3,29,81,11
8,3,17,1,3,0,3,29,81,11
8,3,21,0,0,0,3,29,81,11
9,4,18,1,6,1,3,29,107,11
9,4,22,0,1,0,3,29,95,11
9,4,13,1,4,0,3,29,95,11
9,4,8,1,1,0,3,29,81,11
10,4,17,1,0,0,4,29,107,11
10,4,16,1,4,0,4,29,107,11
10,4,12,1,2,0,4,29,62,11
10,4,2,0,4,0,4,29,62,11
11,4,1,0,3,0,4,29,79,11
12,1,2,0,0,0,4,29,87,11
12,1,7,1,2,0,4,29,81,11
12,1,18,1,1,0,4,29,107,11
1,1,11,1,6,1,1,29,93,11
2,1,11,1,1,0,1,29,93,11
3,2,19,1,1,0,1,29,41,11
3,2,14,1,5,1,1,29,94,11
4,2,20,1,2,0,2,29,41,11
4,2,21,0,6,1,2,29,20,11
5,2,10,1,5,1,2,29,93,11
5,2,14,1,5,1,2,29,93,11
6,3,7,1,5,1,2,29,81,11
6,3,0,0,3,0,2,29,93,11
6,3,14,1,0,0,2,29,93,11
6,3,14,1,1,0,2,29,81,11
7,3,7,1,5,1,3,29,71,11
7,3,11,1,0,0,3,29,95,11
7,3,15,1,0,0,3,29,132,8
9,4,15,1,3,0,3,29,81,11
12,1,13,1,1,0,4,29,110,11
1,1,18,1,6,1,1,10,79,11
1,1,8,1,0,0,1,10,95,11
1,1,19,1,0,0,1,10,79,11
1,1,1,0,6,1,1,10,71,11
1,1,20,1,3,0,1,10,20,11
1,1,20,1,3,0,1,10,20,11
1,1,17,1,6,1,1,10,95,11
1,1,21,0,0,0,1,10,81,11
1,1,16,1,3,0,1,10,123,11
1,1,10,1,4,0,1,10,95,11
1,1,1,0,5,1,1,10,81,11
1,1,22,0,5,1,1,10,71,11
1,1,11,1,6,1,1,10,71,11
1,1,14,1,6,1,1,10,93,11
1,1,18,1,0,0,1,10,95,11
2,1,10,1,6,1,1,10,95,11
2,1,14,1,5,1,1,10,95,11
2,1,13,1,5,1,1,10,93,11
2,1,1,0,0,0,1,10,95,11
2,1,23,0,0,0,1,10,71,11
2,1,15,1,0,0,1,10,41,11
2,1,10,1,2,0,1,10,93,11
2,1,18,1,2,0,1,10,41,11
2,1,11,1,3,0,1,10,95,8
2,1,13,1,4,0,1,10,71,11
2,1,15,1,4,0,1,10,95,11
2,1,17,1,4,0,1,10,95,11
2,1,18,1,4,0,1,10,95,11
2,1,1,0,5,1,1,10,81,11
2,1,9,1,2,0,1,10,20,11
2,1,19,1,3,0,1,10,95,11
2,1,13,1,3,0,1,10,95,11
2,1,17,1,5,1,1,10,95,11
2,1,13,1,5,1,1,10,95,11
2,1,8,1,5,1,1,10,95,11
2,1,19,1,5,1,1,10,95,11
2,1,20,1,5,1,1,10,95,11
2,1,10,1,0,0,1,10,95,11
3,2,0,0,0,0,1,10,95,11
3,2,14,1,0,0,1,10,79,11
3,2,18,1,6,1,1,10,95,11
3,2,2,0,0,0,1,10,95,11
3,2,0,0,2,0,1,10,95,11
3,2,0,0,2,0,1,10,95,11
3,2,19,1,3,0,1,10,95,11
3,2,11,1,4,0,1,10,95,11
4,2,19,1,4,0,2,10,71,11
4,2,19,1,1,0,2,10,95,11
4,2,15,1,1,0,2,10,71,11
4,2,4,0,1,0,2,10,93,11
4,2,21,0,2,0,2,10,95,11
4,2,13,1,3,0,2,10,93,11
4,2,12,1,4,0,2,10,71,11
4,2,8,1,5,1,2,10,24,11
4,2,20,1,5,1,2,10,95,11
4,2,16,1,6,1,2,10,41,11
4,2,12,1,6,1,2,10,132,11
4,2,12,1,4,0,2,10,83,11
4,2,8,1,5,1,2,10,95,11
4,2,10,1,6,1,2,10,95,11
4,2,20,1,6,1,2,10,95,11
4,2,14,1,0,0,2,10,81,11
4,2,15,1,1,0,2,10,89,11
4,2,18,1,5,1,2,10,107,11
4,2,8,1,5,1,2,10,95,11
4,2,16,1,6,1,2,10,95,11
4,2,8,1,6,1,2,10,95,11
4,2,2,0,6,1,2,10,79,11
5,2,17,1,1,0,2,10,95,11
5,2,16,1,0,0,2,10,95,11
5,2,9,1,0,0,2,10,95,11
5,2,16,1,2,0,2,10,95,11
5,2,5,0,4,0,2,10,53,11
5,2,3,0,0,0,2,10,7,11
5,2,10,1,2,0,2,10,71,11
5,2,20,1,2,0,2,10,95,11
5,2,12,1,2,0,2,10,62,11
5,2,20,1,4,0,2,10,95,11
5,2,4,0,2,0,2,10,79,11
6,3,22,0,4,0,2,10,94,11
6,3,14,1,6,1,2,10,95,11
6,3,15,1,2,0,2,10,81,11
6,3,23,0,2,0,2,10,93,11
6,3,21,0,3,0,2,10,95,11
6,3,20,1,4,0,2,10,95,11
6,3,23,0,5,1,2,10,8,11
6,3,20,1,5,1,2,10,8,11
6,3,21,0,6,1,2,10,95,11
6,3,19,1,6,1,2,10,95,11
6,3,16,1,6,1,2,10,95,11
6,3,18,1,2,0,2,10,95,11
6,3,5,0,3,0,2,10,95,11
6,3,22,0,3,0,2,10,95,11
6,3,21,0,4,0,2,10,95,11
6,3,13,1,5,1,2,10,107,11
6,3,0,0,6,1,2,10,95,11
6,3,2,0,6,1,2,10,79,11
6,3,21,0,1,0,2,10,95,11
6,3,10,1,2,0,2,10,132,11
6,3,21,0,6,1,2,10,95,11
6,3,23,0,6,1,2,10,95,11
6,3,16,1,6,1,2,10,24,8
6,3,8,1,0,0,2,10,93,11
6,3,21,0,0,0,2,10,107,11
6,3,8,1,2,0,2,10,41,11
6,3,12,1,3,0,2,10,79,11
6,3,17,1,3,0,2,10,95,11
6,3,22,0,4,0,2,10,93,11
7,3,2,0,5,1,3,10,95,11
7,3,23,0,5,1,3,10,95,11
7,3,15,1,2,0,3,10,93,11
7,3,5,0,2,0,3,10,89,11
7,3,18,1,5,1,3,10,62,11
7,3,21,0,5,1,3,10,71,11
7,3,22,0,6,1,3,10,130,11
7,3,14,1,6,1,3,10,24,11
7,3,0,0,0,0,3,10,71,11
7,3,16,1,2,0,3,10,95,11
7,3,0,0,3,0,3,10,121,11
7,3,17,1,1,0,3,10,95,11
7,3,11,1,2,0,3,10,95,11
7,3,22,0,5,1,3,10,102,11
7,3,12,1,0,0,3,10,95,11
7,3,16,1,0,0,3,10,95,11
7,3,15,1,2,0,3,10,71,11
7,3,11,1,5,1,3,10,95,11
7,3,16,1,5,1,3,10,71,11
8,3,4,0,6,1,3,10,107,11
8,3,23,0,2,0,3,10,95,11
8,3,2,0,3,0,3,10,95,11
8,3,21,0,5,1,3,10,18,11
8,3,13,1,4,0,3,10,107,11
8,3,11,1,5,1,3,10,110,11
8,3,23,0,5,1,3,10,112,11
8,3,20,1,3,0,3,10,95,11
8,3,19,1,5,1,3,10,95,11
8,3,3,0,6,1,3,10,93,11
9,4,3,0,5,1,3,10,95,11
9,4,18,1,2,0,3,10,95,11
9,4,0,0,5,1,3,10,95,11
9,4,18,1,6,1,3,10,71,11
9,4,13,1,1,0,3,10,107,11
9,4,6,0,1,0,3,10,105,11
9,4,13,1,4,0,3,10,95,11
9,4,20,1,5,1,3,10,78,11
9,4,2,0,5,1,3,10,89,11
9,4,8,1,6,1,3,10,79,11
9,4,8,1,0,0,3,10,95,11
9,4,14,1,0,0,3,10,79,11
9,4,1,0,2,0,3,10,79,11
9,4,21,0,3,0,3,10,95,11
9,4,15,1,3,0,3,10,107,11
9,4,16,1,3,0,3,10,95,11
10,4,23,0,0,0,4,10,95,11
10,4,22,0,3,0,4,10,79,11
10,4,10,1,3,0,4,10,95,11
10,4,18,1,6,1,4,10,41,11
10,4,19,1,0,0,4,10,89,11
10,4,18,1,4,0,4,10,79,11
10,4,11,1,6,1,4,10,95,11
10,4,22,0,1,0,4,10,95,11
10,4,18,1,1,0,4,10,95,11
11,4,20,1,6,1,4,10,95,11
11,4,19,1,6,1,4,10,81,11
11,4,8,1,6,1,4,10,71,11
11,4,19,1,2,0,4,10,95,11
11,4,23,0,3,0,4,10,79,11
11,4,14,1,4,0,4,10,132,9
11,4,17,1,4,0,4,10,95,11
11,4,21,0,4,0,4,10,95,11
11,4,17,1,4,0,4,10,95,8
11,4,20,1,0,0,4,10,71,11
11,4,16,1,3,0,4,10,95,11
11,4,15,1,6,1,4,10,107,11
11,4,22,0,2,0,4,10,71,11
11,4,17,1,3,0,4,10,95,11
11,4,4,0,6,1,4,10,95,11
12,1,16,1,4,0,4,10,95,11
12,1,17,1,3,0,4,10,51,11
12,1,10,1,4,0,4,10,95,11
12,1,17,1,0,0,4,10,89,11
12,1,22,0,1,0,4,10,95,11
12,1,2,0,0,0,4,10,95,11
12,1,2,0,1,0,4,10,107,11
12,1,18,1,6,1,4,10,51,11
12,1,21,0,6,1,4,10,95,11
12,1,16,1,6,1,4,10,71,11
12,1,14,1,1,0,4,10,71,11
12,1,7,1,1,0,4,10,81,11
12,1,23,0,2,0,4,10,107,11
12,1,0,0,5,1,4,10,132,11
1,1,19,1,3,0,1,10,107,11
1,1,20,1,1,0,1,10,28,11
2,1,0,0,5,1,1,10,81,8
2,1,11,1,0,0,1,10,95,11
2,1,20,1,2,0,1,10,81,11
2,1,1,0,6,1,1,10,20,11
3,2,22,0,5,1,1,10,81,11
3,2,20,1,5,1,1,10,95,11
3,2,18,1,0,0,1,10,95,11
3,2,15,1,1,0,1,10,95,11
3,2,10,1,3,0,1,10,132,11
4,2,8,1,3,0,2,10,55,11
4,2,21,0,6,1,2,10,129,11
5,2,0,0,1,0,2,10,132,11
5,2,14,1,2,0,2,10,95,11
5,2,17,1,2,0,2,10,107,11
6,3,20,1,0,0,2,10,89,11
6,3,14,1,3,0,2,10,95,11
6,3,11,1,3,0,2,10,132,11
6,3,15,1,1,0,2,10,132,11
6,3,10,1,3,0,2,10,95,11
7,3,11,1,3,0,3,10,3,11
7,3,12,1,6,1,3,10,79,11
7,3,12,1,1,0,3,10,95,11
7,3,13,1,3,0,3,10,116,11
8,3,16,1,1,0,3,10,107,11
8,3,16,1,2,0,3,10,95,11
9,4,12,1,4,0,3,10,95,11
9,4,16,1,0,0,3,10,107,11
9,4,23,0,1,0,3,10,71,11
9,4,14,1,5,1,3,10,95,11
10,4,2,0,6,1,4,10,107,11
10,4,15,1,0,0,4,10,95,11
11,4,12,1,4,0,4,10,95,11
11,4,18,1,1,0,4,10,95,11
12,1,15,1,0,0,4,10,71,11
12,1,12,1,3,0,4,10,107,11
2,1,17,1,6,1,1,10,95,11
2,1,17,1,0,0,1,10,95,11
2,1,19,1,5,1,1,10,79,11
3,2,14,1,3,0,1,10,95,11
3,2,15,1,4,0,1,10,95,11
3,2,23,0,3,0,1,10,71,11
5,2,8,1,5,1,2,10,95,11
5,2,20,1,0,0,2,10,95,11
5,2,20,1,6,1,2,10,95,11
8,3,13,1,1,0,3,10,95,11
9,4,13,1,6,1,3,10,107,11
9,4,7,1,5,1,3,10,107,11
11,4,19,1,5,1,4,10,3,11
1,1,11,1,4,0,1,10,95,11
2,1,12,1,3,0,1,10,37,9
2,1,20,1,1,0,1,10,81,11
2,1,21,0,0,0,1,10,51,11
3,2,19,1,2,0,1,10,71,11
3,2,13,1,3,0,1,10,81,11
4,2,15,1,3,0,2,10,95,11
5,2,17,1,0,0,2,10,95,11
5,2,10,1,4,0,2,10,107,11
8,3,13,1,0,0,3,10,71,11
9,4,0,0,0,0,3,10,95,11
9,4,21,0,2,0,3,10,81,11
10,4,7,1,0,0,4,10,79,11
11,4,11,1,6,1,4,10,95,11
11,4,14,1,3,0,4,10,95,11
1,1,17,1,0,0,1,10,95,11
1,1,17,1,0,0,1,10,95,11
1,1,16,1,5,1,1,10,95,11
1,1,19,1,3,0,1,10,95,11
1,1,14,1,0,0,1,10,3,11
1,1,14,1,5,1,1,10,129,11
2,1,18,1,3,0,1,10,83,11
3,2,11,1,2,0,1,10,95,11
3,2,23,0,4,0,1,10,95,11
3,2,12,1,2,0,1,10,95,11
3,2,17,1,6,1,1,10,132,11
3,2,8,1,1,0,1,10,41,8
3,2,18,1,5,1,1,10,7,11
3,2,15,1,0,0,1,10,7,11
3,2,14,1,3,0,1,10,131,11
4,2,14,1,5,1,2,10,71,11
4,2,23,0,0,0,2,10,1,11
4,2,10,1,4,0,2,10,95,11
4,2,21,0,5,1,2,10,93,11
4,2,19,1,6,1,2,10,93,11
4,2,13,1,5,1,2,10,61,11
5,2,10,1,2,0,2,10,107,11
5,2,1,0,6,1,2,10,89,11
5,2,5,0,3,0,2,10,20,11
5,2,12,1,2,0,2,10,95,11
5,2,14,1,2,0,2,10,86,11
5,2,14,1,3,0,2,10,95,11
5,2,10,1,5,1,2,10,14,8
6,3,19,1,3,0,2,10,107,11
6,3,18,1,4,0,2,10,61,11
6,3,14,1,5,1,2,10,61,11
6,3,5,0,0,0,2,10,95,11
6,3,11,1,1,0,2,10,79,11
6,3,13,1,3,0,2,10,51,11
6,3,1,0,2,0,2,10,28,11
6,3,22,0,2,0,2,10,107,11
6,3,5,0,3,0,2,10,24,11
7,3,13,1,5,1,3,10,95,11
7,3,12,1,5,1,3,10,95,11
7,3,11,1,0,0,3,10,20,11
7,3,19,1,0,0,3,10,71,11
7,3,14,1,2,0,3,10,107,11
7,3,16,1,6,1,3,10,95,11
7,3,11,1,6,1,3,10,71,11
7,3,14,1,6,1,3,10,20,11
7,3,11,1,6,1,3,10,132,11
8,3,17,1,2,0,3,10,107,11
8,3,19,1,3,0,3,10,107,11
8,3,0,0,5,1,3,10,102,11
8,3,5,0,2,0,3,10,129,11
9,4,6,0,4,0,3,10,35,11
9,4,3,0,6,1,3,10,107,11
9,4,22,0,4,0,3,10,51,11
9,4,20,1,5,1,3,10,42,11
9,4,6,0,6,1,3,10,95,11
9,4,23,0,6,1,3,10,110,11
9,4,11,1,2,0,3,10,95,11
9,4,13,1,4,0,3,10,95,11
10,4,12,1,6,1,4,10,3,11
10,4,11,1,3,0,4,10,129,11
10,4,11,1,3,0,4,10,51,11
10,4,20,1,5,1,4,10,71,11
10,4,11,1,0,0,4,10,95,11
11,4,23,0,1,0,4,10,107,11
11,4,6,0,0,0,4,10,51,11
11,4,11,1,0,0,4,10,20,11
11,4,15,1,5,1,4,10,107,11
11,4,8,1,3,0,4,10,3,11
12,1,20,1,5,1,4,10,61,11
12,1,12,1,6,1,4,10,3,11
12,1,20,1,0,0,4,10,71,11
8,3,18,1,1,0,3,10,112,11
2,1,13,1,5,1,1,10,81,11
3,2,18,1,4,0,1,10,81,11
4,2,13,1,4,0,2,10,95,11
5,2,0,0,5,1,2,10,71,11
6,3,21,0,1,0,2,10,41,8
7,3,4,0,6,1,3,10,95,11
7,3,21,0,6,1,3,10,41,11
7,3,14,1,3,0,3,10,112,11
7,3,13,1,3,0,3,10,95,11
7,3,14,1,5,1,3,10,95,11
7,3,12,1,2,0,3,10,41,11
7,3,14,1,3,0,3,10,95,11
8,3,19,1,4,0,3,10,95,11
8,3,2,0,0,0,3,10,95,11
10,4,20,1,3,0,4,10,132,8
1,1,17,1,6,1,1,33,93,11
1,1,1,0,6,1,1,33,90,11
1,1,15,1,0,0,1,33,71,11
1,1,20,1,1,0,1,33,93,11
1,1,18,1,5,1,1,33,93,11
1,1,7,1,3,0,1,33,33,11
1,1,14,1,6,1,1,33,81,11
1,1,11,1,2,0,1,33,81,11
1,1,15,1,3,0,1,33,81,11
1,1,21,0,6,1,1,33,132,11
2,1,0,0,3,0,1,33,49,11
2,1,6,0,6,1,1,33,93,11
2,1,11,1,3,0,1,33,95,11
2,1,3,0,1,0,1,33,20,11
2,1,18,1,2,0,1,33,81,8
2,1,12,1,0,0,1,33,93,11
2,1,12,1,0,0,1,33,109,11
3,2,10,1,3,0,1,33,20,11
3,2,18,1,1,0,1,33,81,9
3,2,4,0,5,1,1,33,82,9
3,2,0,0,5,1,1,33,20,11
4,2,3,0,5,1,2,33,93,11
4,2,3,0,5,1,2,33,93,11
4,2,21,0,1,0,2,33,81,11
4,2,11,1,2,0,2,33,41,9
4,2,7,1,3,0,2,33,20,11
4,2,20,1,3,0,2,33,93,11
4,2,22,0,5,1,2,33,81,11
4,2,2,0,5,1,2,33,20,11
4,2,17,1,4,0,2,33,109,9
4,2,18,1,4,0,2,33,89,11
4,2,12,1,5,1,2,33,3,11
4,2,16,1,5,1,2,33,13,11
4,2,19,1,5,1,2,33,81,11
4,2,22,0,3,0,2,33,71,11
4,2,17,1,3,0,2,33,3,11
4,2,12,1,6,1,2,33,20,11
5,2,1,0,1,0,2,33,132,11
5,2,12,1,2,0,2,33,20,11
5,2,22,0,5,1,2,33,109,9
5,2,1,0,0,0,2,33,132,11
5,2,10,1,1,0,2,33,71,11
5,2,1,0,1,0,2,33,81,8
6,3,22,0,4,0,2,33,115,11
6,3,12,1,6,1,2,33,95,11
6,3,20,1,5,1,2,33,95,11
6,3,23,0,5,1,2,33,95,11
6,3,18,1,0,0,2,33,95,11
6,3,20,1,1,0,2,33,95,11
7,3,8,1,5,1,3,33,95,11
7,3,9,1,6,1,3,33,71,11
7,3,15,1,0,0,3,33,109,8
7,3,13,1,4,0,3,33,81,11
7,3,6,0,1,0,3,33,93,11
7,3,22,0,1,0,3,33,3,11
7,3,23,0,4,0,3,33,107,11
7,3,22,0,6,1,3,33,113,11
8,3,21,0,5,1,3,33,95,11
8,3,4,0,4,0,3,33,6,11
8,3,8,1,3,0,3,33,63,9
8,3,8,1,6,1,3,33,105,11
9,4,19,1,3,0,3,33,81,11
9,4,17,1,1,0,3,33,93,11
9,4,20,1,4,0,3,33,20,11
9,4,12,1,2,0,3,33,81,11
10,4,22,0,3,0,4,33,132,11
10,4,5,0,6,1,4,33,13,11
10,4,19,1,4,0,4,33,62,11
10,4,18,1,6,1,4,33,81,9
11,4,18,1,5,1,4,33,90,11
11,4,18,1,4,0,4,33,95,11
11,4,15,1,4,0,4,33,95,11
11,4,19,1,5,1,4,33,93,11
11,4,20,1,2,0,4,33,93,11
11,4,15,1,2,0,4,33,93,11
12,1,12,1,6,1,4,33,109,11
12,1,20,1,5,1,4,33,71,11
12,1,3,0,2,0,4,33,93,11
12,1,20,1,2,0,4,33,8,11
12,1,17,1,2,0,4,33,3,11
12,1,17,1,5,1,4,33,3,11
12,1,7,1,6,1,4,33,84,11
12,1,11,1,6,1,4,33,109,11
12,1,22,0,1,0,4,33,109,11
12,1,17,1,2,0,4,33,95,11
12,1,14,1,6,1,4,33,81,11
12,1,17,1,3,0,4,33,95,11
12,1,16,1,3,0,4,33,3,11
1,1,19,1,6,1,1,33,81,11
1,1,14,1,6,1,1,33,81,11
1,1,3,0,0,0,1,33,132,11
1,1,11,1,2,0,1,33,81,11
2,1,15,1,6,1,1,33,107,11
3,2,8,1,6,1,1,33,95,11
4,2,20,1,1,0,2,33,81,11
4,2,19,1,1,0,2,33,81,11
5,2,10,1,1,0,2,33,107,9
6,3,11,1,1,0,2,33,13,11
7,3,13,1,5,1,3,33,81,11
7,3,13,1,5,1,3,33,95,11
9,4,14,1,1,0,3,33,95,11
9,4,8,1,2,0,3,33,81,11
10,4,16,1,6,1,4,33,20,11
1,1,5,0,0,0,1,33,81,11
1,1,11,1,2,0,1,33,81,11
2,1,18,1,5,1,1,33,81,11
2,1,10,1,6,1,1,33,81,11
4,2,10,1,0,0,2,33,14,11
11,4,14,1,1,0,4,33,41,9
2,1,20,1,5,1,1,33,51,11
2,1,8,1,1,0,1,33,20,9
3,2,2,0,0,0,1,33,13,11
4,2,19,1,3,0,2,33,115,9
6,3,17,1,1,0,2,33,62,11
9,4,11,1,2,0,3,33,81,11
10,4,21,0,6,1,4,33,81,9
11,4,22,0,2,0,4,33,81,9
12,1,9,1,3,0,4,33,81,11
12,1,17,1,1,0,4,33,81,9
1,1,5,0,5,1,1,33,115,11
2,1,23,0,6,1,1,33,132,11
3,2,22,0,1,0,1,33,105,11
4,2,20,1,6,1,2,33,27,11
4,2,0,0,6,1,2,33,132,11
4,2,17,1,5,1,2,33,131,11
5,2,22,0,0,0,2,33,102,11
6,3,14,1,0,0,2,33,3,11
6,3,14,1,5,1,2,33,132,11
7,3,11,1,6,1,3,33,93,11
8,3,16,1,0,0,3,33,14,8
8,3,8,1,3,0,3,33,95,11
8,3,15,1,4,0,3,33,132,11
8,3,21,0,2,0,3,33,95,11
9,4,20,1,3,0,3,33,95,11
9,4,10,1,4,0,3,33,107,11
11,4,1,0,6,1,4,33,95,11
12,1,9,1,3,0,4,33,71,11
12,1,10,1,6,1,4,33,109,11
1,1,19,1,2,0,1,51,132,11
1,1,12,1,0,0,1,51,1,9
2,1,8,1,3,0,1,51,132,11
2,1,11,1,0,0,1,51,71,11
2,1,22,0,3,0,1,51,95,11
2,1,13,1,4,0,1,51,132,11
2,1,22,0,2,0,1,51,41,11
2,1,22,0,3,0,1,51,73,11
2,1,13,1,4,0,1,51,132,11
2,1,7,1,5,1,1,51,1,11
2,1,10,1,1,0,1,51,95,11
3,2,20,1,5,1,1,51,93,11
3,2,5,0,0,0,1,51,78,11
3,2,8,1,1,0,1,51,132,11
3,2,19,1,3,0,1,51,20,11
3,2,3,0,5,1,1,51,132,11
3,2,3,0,5,1,1,51,132,11
3,2,10,1,6,1,1,51,132,11
4,2,22,0,5,1,2,51,41,11
4,2,20,1,0,0,2,51,109,11
4,2,8,1,0,0,2,51,71,11
4,2,21,0,3,0,2,51,70,11
4,2,21,0,4,0,2,51,132,11
4,2,20,1,4,0,2,51,132,11
4,2,19,1,6,1,2,51,81,9
4,2,18,1,6,1,2,51,28,11
6,3,8,1,3,0,2,51,20,11
6,3,1,0,2,0,2,51,132,11
6,3,2,0,4,0,2,51,51,11
6,3,14,1,0,0,2,51,3,11
7,3,12,1,3,0,3,51,95,11
8,3,14,1,3,0,3,51,95,11
8,3,21,0,0,0,3,51,117,11
8,3,16,1,6,1,3,51,41,11
8,3,23,0,0,0,3,51,107,11
8,3,17,1,3,0,3,51,20,11
9,4,22,0,0,0,3,51,93,11
9,4,11,1,5,1,3,51,14,11
9,4,11,1,5,1,3,51,37,11
9,4,9,1,3,0,3,51,20,11
9,4,15,1,4,0,3,51,130,11
9,4,3,0,1,0,3,51,20,11
10,4,14,1,3,0,4,51,41,11
11,4,17,1,3,0,4,51,95,11
11,4,12,1,1,0,4,51,93,11
11,4,17,1,6,1,4,51,71,11
11,4,12,1,1,0,4,51,41,9
12,1,0,0,6,1,4,51,132,11
12,1,15,1,4,0,4,51,95,11
12,1,5,0,6,1,4,51,20,11
12,1,7,1,0,0,4,51,93,11
12,1,22,0,0,0,4,51,93,11
12,1,7,1,2,0,4,51,93,11
12,1,18,1,3,0,4,51,93,11
12,1,17,1,3,0,4,51,132,11
12,1,21,0,5,1,4,51,93,11
12,1,17,1,3,0,4,51,69,11
12,1,20,1,3,0,4,51,81,11
1,1,15,1,1,0,1,51,132,11
3,2,21,0,4,0,1,51,81,8
4,2,0,0,4,0,2,51,49,11
4,2,19,1,2,0,2,51,81,11
6,3,11,1,4,0,2,51,28,11
6,3,9,1,4,0,2,51,7,11
7,3,16,1,6,1,3,51,93,11
11,4,13,1,6,1,4,51,132,11
12,1,1,0,6,1,4,51,14,11
1,1,18,1,0,0,1,51,95,11
1,1,21,0,1,0,1,51,115,11
1,1,17,1,3,0,1,51,7,11
1,1,20,1,0,0,1,51,132,11
2,1,3,0,5,1,1,51,81,11
3,2,13,1,1,0,1,51,51,11
4,2,9,1,5,1,2,51,13,11
7,3,11,1,0,0,3,51,13,11
8,3,15,1,6,1,3,51,13,11
9,4,19,1,6,1,3,51,95,11
9,4,12,1,0,0,3,51,95,11
10,4,12,1,3,0,4,51,116,11
10,4,16,1,4,0,4,51,20,9
11,4,17,1,6,1,4,51,95,11
12,1,6,0,3,0,4,51,81,11
1,1,21,0,5,1,1,43,93,11
1,1,2,0,5,1,1,43,81,9
1,1,10,1,5,1,1,43,89,11
1,1,1,0,0,0,1,43,132,11
1,1,1,0,0,0,1,43,132,11
2,1,22,0,3,0,1,43,81,11
2,1,15,1,5,1,1,43,107,11
4,2,12,1,0,0,2,43,28,11
4,2,9,1,1,0,2,43,95,11
5,2,15,1,1,0,2,43,79,11
6,3,0,0,6,1,2,43,81,11
7,3,21,0,6,1,3,43,68,9
7,3,10,1,4,0,3,43,20,9
7,3,10,1,5,1,3,43,81,9
7,3,10,1,0,0,3,43,20,11
7,3,18,1,6,1,3,43,93,11
7,3,18,1,4,0,3,43,83,11
8,3,14,1,4,0,3,43,93,11
8,3,15,1,0,0,3,43,74,11
8,3,14,1,2,0,3,43,95,11
8,3,18,1,5,1,3,43,95,11
8,3,0,0,5,1,3,43,82,11
8,3,16,1,5,1,3,43,86,11
9,4,15,1,2,0,3,43,107,11
9,4,13,1,6,1,3,43,107,11
9,4,12,1,6,1,3,43,107,11
10,4,11,1,4,0,4,43,95,11
10,4,21,0,4,0,4,43,95,11
10,4,18,1,0,0,4,43,28,11
11,4,3,0,1,0,4,43,81,9
11,4,18,1,0,0,4,43,81,11
11,4,15,1,3,0,4,43,81,11
12,1,9,1,0,0,4,43,107,11
12,1,11,1,0,0,4,43,28,11
12,1,21,0,4,0,4,43,102,11
1,1,17,1,1,0,1,43,28,11
4,2,0,0,3,0,2,43,107,11
5,2,1,0,6,1,2,43,52,11
5,2,17,1,0,0,2,43,95,11
7,3,2,0,1,0,3,43,20,11
7,3,19,1,4,0,3,43,132,11
7,3,20,1,1,0,3,43,20,11
1,1,11,1,6,1,1,43,132,11
2,1,17,1,3,0,1,43,24,11
3,2,9,1,1,0,1,43,95,11
4,2,13,1,6,1,2,43,3,11
4,2,19,1,6,1,2,43,129,11
4,2,0,0,1,0,2,43,132,11
5,2,3,0,5,1,2,43,14,11
6,3,13,1,4,0,2,43,74,9
6,3,20,1,5,1,2,43,1,11
7,3,20,1,6,1,3,43,81,11
8,3,17,1,2,0,3,43,93,11
8,3,11,1,1,0,3,43,62,11
8,3,10,1,4,0,3,43,20,11
9,4,19,1,3,0,3,43,107,11
10,4,17,1,5,1,4,43,95,11
10,4,12,1,6,1,4,43,69,11
12,1,18,1,1,0,4,43,28,11
12,1,12,1,4,0,4,43,102,11
12,1,12,1,0,0,4,43,95,11
1,1,13,1,5,1,1,43,3,11
1,1,2,0,6,1,1,43,81,11
2,1,18,1,3,0,1,43,81,11
7,3,18,1,2,0,3,43,132,11
7,3,17,1,6,1,3,43,132,9
7,3,12,1,1,0,3,43,93,11
8,3,13,1,2,0,3,43,107,11
8,3,11,1,0,0,3,43,107,11
9,4,10,1,3,0,3,43,20,11
9,4,20,1,2,0,3,43,95,11
12,1,19,1,1,0,4,43,95,11
1,1,17,1,6,1,1,43,94,11
1,1,2,0,6,1,1,17,51,11
1,1,14,1,6,1,1,17,93,11
1,1,7,1,0,0,1,17,81,11
1,1,20,1,0,0,1,17,132,11
2,1,10,1,3,0,1,17,81,11
2,1,1,0,2,0,1,17,14,11
3,2,17,1,4,0,1,17,62,11
4,2,18,1,1,0,2,17,132,11
4,2,12,1,5,1,2,17,78,8
4,2,15,1,4,0,2,17,107,11
4,2,23,0,5,1,2,17,20,11
5,2,15,1,2,0,2,17,107,11
5,2,18,1,3,0,2,17,107,11
5,2,18,1,2,0,2,17,107,11
5,2,11,1,6,1,2,17,107,11
5,2,9,1,5,1,2,17,95,11
6,3,18,1,3,0,2,17,107,11
6,3,19,1,3,0,2,17,14,11
6,3,20,1,3,0,2,17,71,11
6,3,16,1,4,0,2,17,20,8
7,3,13,1,3,0,3,17,107,11
7,3,22,0,6,1,3,17,107,11
7,3,23,0,6,1,3,17,107,11
7,3,22,0,0,0,3,17,107,11
7,3,0,0,4,0,3,17,107,11
7,3,14,1,6,1,3,17,95,11
7,3,18,1,4,0,3,17,115,11
7,3,10,1,5,1,3,17,107,11
8,3,14,1,4,0,3,17,95,11
8,3,13,1,5,1,3,17,14,11
8,3,14,1,1,0,3,17,81,11
8,3,16,1,4,0,3,17,95,11
9,4,9,1,0,0,3,17,79,11
9,4,17,1,3,0,3,17,95,11
9,4,8,1,0,0,3,17,132,11
9,4,19,1,4,0,3,17,115,11
10,4,15,1,2,0,4,17,95,11
10,4,15,1,2,0,4,17,95,8
10,4,13,1,3,0,4,17,41,11
10,4,21,0,4,0,4,17,107,11
10,4,20,1,2,0,4,17,95,11
10,4,15,1,1,0,4,17,41,11
11,4,16,1,4,0,4,17,51,11
11,4,14,1,5,1,4,17,81,11
11,4,15,1,5,1,4,17,107,11
11,4,0,0,6,1,4,17,107,11
12,1,11,1,4,0,4,17,132,11
12,1,12,1,4,0,4,17,132,11
12,1,20,1,4,0,4,17,41,11
1,1,3,0,0,0,1,17,89,11
1,1,11,1,5,1,1,17,41,11
1,1,14,1,3,0,1,17,95,11
1,1,3,0,4,0,1,17,51,11
1,1,21,0,1,0,1,17,81,11
1,1,19,1,1,0,1,17,93,11
1,1,19,1,1,0,1,17,93,11
2,1,22,0,3,0,1,17,95,11
2,1,22,0,2,0,1,17,14,8
2,1,23,0,0,0,1,17,20,11
2,1,0,0,0,0,1,17,95,11
2,1,19,1,1,0,1,17,133,11
3,2,12,1,5,1,1,17,48,8
3,2,18,1,3,0,1,17,95,11
4,2,21,0,4,0,2,17,81,11
4,2,20,1,5,1,2,17,132,11
4,2,20,1,3,0,2,17,20,11
4,2,16,1,2,0,2,17,3,11
5,2,4,0,1,0,2,17,95,11
5,2,9,1,5,1,2,17,71,11
5,2,12,1,4,0,2,17,132,11
6,3,11,1,6,1,2,17,20,11
6,3,15,1,0,0,2,17,83,11
6,3,12,1,6,1,2,17,71,11
6,3,12,1,1,0,2,17,20,11
7,3,15,1,4,0,3,17,41,11
7,3,13,1,6,1,3,17,93,11
7,3,4,0,2,0,3,17,93,11
7,3,1,0,1,0,3,17,107,11
8,3,14,1,6,1,3,17,89,11
8,3,12,1,5,1,3,17,20,11
9,4,8,1,1,0,3,17,89,11
9,4,12,1,2,0,3,17,82,11
9,4,18,1,0,0,3,17,20,11
10,4,19,1,1,0,4,17,82,11
10,4,3,0,3,0,4,17,70,11
10,4,21,0,5,1,4,17,114,8
10,4,21,0,1,0,4,17,95,11
10,4,1,0,3,0,4,17,89,11
10,4,21,0,5,1,4,17,14,11
11,4,5,0,5,1,4,17,90,11
11,4,21,0,2,0,4,17,71,11
11,4,18,1,5,1,4,17,107,11
11,4,18,1,0,0,4,17,132,11
11,4,20,1,3,0,4,17,93,11
11,4,20,1,3,0,4,17,95,11
12,1,22,0,0,0,4,17,95,11
12,1,10,1,6,1,4,17,93,11
12,1,3,0,1,0,4,17,132,11
12,1,21,0,2,0,4,17,3,11
12,1,11,1,2,0,4,17,95,11
1,1,1,0,5,1,1,17,20,11
1,1,18,1,6,1,1,17,81,8
2,1,13,1,4,0,1,17,81,11
4,2,7,1,0,0,2,17,20,11
4,2,20,1,3,0,2,17,13,11
5,2,19,1,1,0,2,17,95,11
5,2,21,0,4,0,2,17,20,11
7,3,11,1,4,0,3,17,79,11
7,3,15,1,5,1,3,17,107,11
9,4,2,0,5,1,3,17,114,8
9,4,19,1,0,0,3,17,114,8
12,1,23,0,6,1,4,17,81,11
4,2,15,1,6,1,2,17,107,11
4,2,16,1,4,0,2,17,81,11
5,2,10,1,4,0,2,17,41,11
7,3,1,0,3,0,3,17,95,11
9,4,8,1,2,0,3,17,115,11
8,3,20,1,5,1,3,17,23,11
9,4,1,0,5,1,3,17,128,11
9,4,20,1,4,0,3,17,49,11
9,4,15,1,0,0,3,17,81,11
9,4,8,1,2,0,3,17,107,11
9,4,12,1,4,0,3,17,95,11
1,1,20,1,6,1,1,17,93,11
1,1,3,0,1,0,1,17,93,11
1,1,19,1,6,1,1,17,81,11
1,1,18,1,2,0,1,17,41,11
1,1,14,1,4,0,1,17,71,11
1,1,18,1,4,0,1,17,81,11
1,1,10,1,6,1,1,17,93,11
1,1,2,0,1,0,1,17,20,11
1,1,18,1,1,0,1,17,71,11
1,1,16,1,2,0,1,17,93,11
1,1,9,1,3,0,1,17,71,11
1,1,22,0,6,1,1,17,93,11
1,1,15,1,1,0,1,17,41,11
1,1,11,1,1,0,1,17,41,11
1,1,15,1,2,0,1,17,132,11
1,1,10,1,3,0,1,17,41,11
1,1,4,0,5,1,1,17,95,11
1,1,2,0,6,1,1,17,20,11
1,1,3,0,1,0,1,17,95,11
2,1,22,0,2,0,1,17,93,11
2,1,12,1,4,0,1,17,24,11
2,1,15,1,5,1,1,17,93,11
2,1,4,0,6,1,1,17,93,11
2,1,5,0,6,1,1,17,93,11
2,1,12,1,0,0,1,17,107,11
2,1,11,1,5,1,1,17,71,11
2,1,23,0,6,1,1,17,73,11
2,1,13,1,0,0,1,17,93,11
2,1,18,1,0,0,1,17,102,11
2,1,1,0,1,0,1,17,22,11
2,1,18,1,3,0,1,17,112,11
2,1,0,0,4,0,1,17,93,11
2,1,3,0,4,0,1,17,20,8
2,1,4,0,6,1,1,17,93,11
2,1,12,1,6,1,1,17,93,11
2,1,18,1,2,0,1,17,3,11
2,1,14,1,3,0,1,17,71,11
2,1,15,1,5,1,1,17,107,11
2,1,21,0,5,1,1,17,93,11
3,2,9,1,4,0,1,17,71,11
3,2,14,1,5,1,1,17,3,11
3,2,12,1,1,0,1,17,95,11
3,2,17,1,1,0,1,17,71,11
3,2,4,0,2,0,1,17,93,11
3,2,21,0,3,0,1,17,41,11
3,2,23,0,3,0,1,17,107,11
3,2,3,0,4,0,1,17,20,11
3,2,17,1,4,0,1,17,71,11
3,2,3,0,5,1,1,17,93,11
3,2,22,0,5,1,1,17,71,11
3,2,10,1,6,1,1,17,20,11
3,2,21,0,6,1,1,17,81,11
3,2,14,1,0,0,1,17,93,11
3,2,13,1,2,0,1,17,71,11
3,2,4,0,6,1,1,17,93,11
3,2,3,0,2,0,1,17,82,11
3,2,13,1,6,1,1,17,14,11
3,2,11,1,1,0,1,17,71,11
3,2,7,1,2,0,1,17,8,11
3,2,12,1,2,0,1,17,107,11
3,2,15,1,3,0,1,17,20,11
4,2,10,1,0,0,2,17,95,11
4,2,17,1,3,0,2,17,20,11
4,2,8,1,6,1,2,17,41,11
4,2,15,1,6,1,2,17,93,11
4,2,18,1,0,0,2,17,95,11
4,2,18,1,2,0,2,17,132,11
4,2,0,0,4,0,2,17,93,11
4,2,1,0,4,0,2,17,132,11
4,2,22,0,4,0,2,17,82,11
4,2,4,0,6,1,2,17,81,8
4,2,12,1,6,1,2,17,93,11
4,2,18,1,0,0,2,17,93,11
4,2,0,0,3,0,2,17,132,11
4,2,21,0,4,0,2,17,107,11
4,2,1,0,5,1,2,17,93,11
4,2,7,1,4,0,2,17,95,11
4,2,21,0,5,1,2,17,93,11
4,2,19,1,5,1,2,17,95,11
4,2,3,0,6,1,2,17,93,11
5,2,19,1,1,0,2,17,95,11
5,2,20,1,2,0,2,17,107,11
5,2,15,1,4,0,2,17,95,11
5,2,13,1,5,1,2,17,107,11
5,2,6,0,0,0,2,17,93,11
5,2,3,0,4,0,2,17,132,11
5,2,5,0,5,1,2,17,132,11
5,2,14,1,0,0,2,17,71,11
5,2,14,1,1,0,2,17,71,11
5,2,8,1,4,0,2,17,88,11
5,2,22,0,0,0,2,17,20,11
5,2,3,0,2,0,2,17,79,8
6,3,21,0,6,1,2,17,93,11
6,3,16,1,0,0,2,17,3,11
6,3,10,1,1,0,2,17,93,11
6,3,19,1,2,0,2,17,14,8
6,3,20,1,3,0,2,17,84,11
6,3,5,0,6,1,2,17,132,11
6,3,18,1,2,0,2,17,102,11
6,3,11,1,4,0,2,17,51,11
6,3,11,1,0,0,2,17,105,11
6,3,5,0,3,0,2,17,95,11
6,3,12,1,6,1,2,17,93,11
6,3,5,0,0,0,2,17,107,11
6,3,14,1,0,0,2,17,3,11
6,3,21,0,0,0,2,17,95,11
6,3,3,0,1,0,2,17,3,11
6,3,15,1,2,0,2,17,62,11
6,3,8,1,3,0,2,17,81,11
6,3,10,1,3,0,2,17,71,11
6,3,20,1,3,0,2,17,20,11
7,3,14,1,5,1,3,17,89,11
7,3,2,0,6,1,3,17,89,11
7,3,2,0,6,1,3,17,71,11
7,3,22,0,6,1,3,17,81,11
7,3,14,1,0,0,3,17,107,11
7,3,17,1,0,0,3,17,107,11
7,3,6,0,1,0,3,17,71,11
7,3,19,1,1,0,3,17,41,11
7,3,9,1,2,0,3,17,107,11
7,3,3,0,3,0,3,17,71,11
7,3,14,1,3,0,3,17,107,11
7,3,20,1,6,1,3,17,7,11
7,3,16,1,6,1,3,17,24,8
7,3,8,1,1,0,3,17,107,11
7,3,15,1,1,0,3,17,107,11
7,3,19,1,1,0,3,17,107,11
7,3,18,1,2,0,3,17,81,11
7,3,7,1,3,0,3,17,107,11
7,3,11,1,3,0,3,17,94,11
7,3,15,1,4,0,3,17,107,11
7,3,23,0,4,0,3,17,71,11
7,3,7,1,6,1,3,17,107,11
7,3,22,0,6,1,3,17,20,11
7,3,22,0,2,0,3,17,93,11
7,3,9,1,3,0,3,17,81,11
7,3,8,1,3,0,3,17,107,11
7,3,19,1,0,0,3,17,95,11
7,3,15,1,1,0,3,17,107,11
7,3,12,1,1,0,3,17,107,11
7,3,18,1,4,0,3,17,95,11
7,3,3,0,6,1,3,17,107,11
8,3,4,0,3,0,3,17,60,11
8,3,11,1,6,1,3,17,107,11
8,3,13,1,1,0,3,17,89,11
8,3,12,1,1,0,3,17,14,11
8,3,20,1,2,0,3,17,107,11
8,3,21,0,4,0,3,17,95,11
8,3,17,1,5,1,3,17,107,11
8,3,10,1,6,1,3,17,20,11
8,3,3,0,1,0,3,17,20,11
8,3,21,0,2,0,3,17,71,11
8,3,12,1,3,0,3,17,71,11
9,4,9,1,1,0,3,17,107,11
9,4,14,1,4,0,3,17,95,11
9,4,9,1,5,1,3,17,89,11
9,4,12,1,6,1,3,17,82,11
9,4,21,0,0,0,3,17,32,11
9,4,12,1,2,0,3,17,81,11
9,4,14,1,3,0,3,17,107,11
9,4,12,1,5,1,3,17,107,11
9,4,16,1,1,0,3,17,20,8
9,4,12,1,2,0,3,17,20,11
9,4,0,0,5,1,3,17,132,11
9,4,15,1,5,1,3,17,20,11
9,4,13,1,6,1,3,17,93,11
9,4,17,1,6,1,3,17,83,11
9,4,23,0,2,0,3,17,95,11
10,4,20,1,4,0,4,17,107,11
10,4,13,1,6,1,4,17,93,11
10,4,15,1,0,0,4,17,3,11
10,4,23,0,2,0,4,17,95,11
10,4,14,1,3,0,4,17,71,11
10,4,16,1,5,1,4,17,71,11
10,4,1,0,0,0,4,17,71,11
10,4,2,0,0,0,4,17,71,11
10,4,3,0,0,0,4,17,20,11
10,4,23,0,0,0,4,17,71,11
10,4,19,1,1,0,4,17,132,11
11,4,18,1,5,1,4,17,115,11
11,4,14,1,0,0,4,17,71,11
11,4,23,0,0,0,4,17,71,11
11,4,17,1,2,0,4,17,107,11
11,4,21,0,2,0,4,17,132,11
11,4,0,0,3,0,4,17,41,9
11,4,22,0,4,0,4,17,103,11
11,4,11,1,5,1,4,17,71,11
11,4,13,1,5,1,4,17,107,11
11,4,0,0,3,0,4,17,81,8
11,4,3,0,4,0,4,17,20,11
11,4,23,0,0,0,4,17,132,11
11,4,7,1,1,0,4,17,132,11
11,4,13,1,3,0,4,17,3,11
11,4,2,0,4,0,4,17,105,11
11,4,3,0,5,1,4,17,132,11
11,4,14,1,5,1,4,17,20,11
11,4,12,1,6,1,4,17,107,11
11,4,21,0,1,0,4,17,93,11
11,4,4,0,2,0,4,17,121,11
11,4,22,0,2,0,4,17,132,11
12,1,20,1,4,0,4,17,51,11
12,1,1,0,5,1,4,17,95,11
12,1,8,1,6,1,4,17,132,11
12,1,23,0,6,1,4,17,71,11
12,1,20,1,1,0,4,17,115,11
12,1,20,1,2,0,4,17,93,11
12,1,19,1,3,0,4,17,71,11
12,1,0,0,4,0,4,17,98,11
12,1,19,1,4,0,4,17,81,11
12,1,19,1,4,0,4,17,132,11
12,1,19,1,5,1,4,17,107,11
12,1,11,1,6,1,4,17,81,11
12,1,17,1,0,0,4,17,95,11
12,1,21,0,1,0,4,17,71,11
12,1,11,1,3,0,4,17,95,11
12,1,10,1,4,0,4,17,92,11
12,1,17,1,4,0,4,17,81,11
12,1,17,1,5,1,4,17,51,11
12,1,21,0,5,1,4,17,71,11
12,1,21,0,0,0,4,17,71,11
12,1,15,1,1,0,4,17,132,11
12,1,15,1,2,0,4,17,95,11
12,1,17,1,2,0,4,17,71,11
12,1,21,0,4,0,4,17,41,11
12,1,17,1,5,1,4,17,71,11
12,1,20,1,5,1,4,17,132,11
12,1,10,1,6,1,4,17,81,11
12,1,18,1,0,0,4,17,93,11
12,1,3,0,1,0,4,17,93,11
12,1,3,0,1,0,4,17,93,11
12,1,12,1,2,0,4,17,132,11
12,1,9,1,4,0,4,17,71,11
12,1,20,1,6,1,4,17,81,11
1,1,7,1,6,1,1,17,14,11
1,1,10,1,5,1,1,17,81,9
2,1,22,0,6,1,1,17,95,11
3,2,4,0,3,0,1,17,49,11
4,2,3,0,4,0,2,17,93,11
4,2,11,1,6,1,2,17,132,11
4,2,0,0,6,1,2,17,95,11
5,2,1,0,5,1,2,17,20,11
5,2,18,1,6,1,2,17,81,11
5,2,20,1,6,1,2,17,95,11
6,3,13,1,4,0,2,17,81,11
6,3,14,1,5,1,2,17,95,11
6,3,23,0,5,1,2,17,107,11
6,3,9,1,0,0,2,17,107,11
6,3,11,1,4,0,2,17,129,9
7,3,11,1,0,0,3,17,132,11
7,3,21,0,4,0,3,17,107,11
7,3,20,1,2,0,3,17,107,11
7,3,8,1,3,0,3,17,20,11
7,3,13,1,0,0,3,17,95,11
7,3,9,1,1,0,3,17,95,11
8,3,13,1,2,0,3,17,107,11
8,3,16,1,3,0,3,17,107,11
9,4,19,1,5,1,3,17,95,11
9,4,14,1,0,0,3,17,24,8
9,4,0,0,1,0,3,17,107,11
9,4,21,0,3,0,3,17,53,11
9,4,23,0,5,1,3,17,95,11
10,4,19,1,6,1,4,17,95,11
10,4,15,1,6,1,4,17,107,11
10,4,12,1,3,0,4,17,95,11
10,4,20,1,0,0,4,17,95,11
10,4,18,1,1,0,4,17,20,11
11,4,17,1,3,0,4,17,95,11
11,4,17,1,2,0,4,17,95,11
11,4,11,1,3,0,4,17,132,11
12,1,21,0,3,0,4,17,107,11
12,1,4,0,4,0,4,17,95,11
6,3,11,1,2,0,2,17,107,11
6,3,0,0,5,1,2,17,106,8
1,1,15,1,6,1,1,50,81,11
2,1,17,1,0,0,1,50,3,11
2,1,13,1,4,0,1,50,81,11
2,1,14,1,3,0,1,50,3,11
2,1,14,1,5,1,1,50,81,11
2,1,18,1,5,1,1,50,93,11
4,2,11,1,6,1,2,50,81,11
4,2,22,0,1,0,2,50,93,11
4,2,12,1,4,0,2,50,93,11
4,2,11,1,5,1,2,50,24,8
5,2,13,1,6,1,2,50,81,11
5,2,22,0,5,1,2,50,132,11
6,3,11,1,6,1,2,50,3,11
6,3,10,1,3,0,2,50,107,11
7,3,22,0,5,1,3,50,3,11
8,3,21,0,1,0,3,50,115,11
8,3,14,1,5,1,3,50,95,11
8,3,14,1,4,0,3,50,81,11
8,3,14,1,5,1,3,50,81,11
8,3,15,1,2,0,3,50,14,11
10,4,14,1,6,1,4,50,20,11
11,4,10,1,3,0,4,50,3,11
12,1,17,1,3,0,4,50,62,11
12,1,19,1,1,0,4,50,28,11
12,1,13,1,6,1,4,50,64,11
3,2,9,1,3,0,1,50,89,11
11,4,18,1,4,0,4,50,3,11
1,1,12,1,2,0,1,50,115,11
1,1,16,1,3,0,1,50,93,11
1,1,12,1,4,0,1,50,93,11
1,1,3,0,0,0,1,50,121,11
1,1,2,0,1,0,1,50,71,11
1,1,23,0,6,1,1,50,93,11
1,1,9,1,0,0,1,50,102,11
1,1,19,1,2,0,1,50,93,11
1,1,0,0,0,0,1,50,95,9
1,1,18,1,3,0,1,50,71,11
1,1,21,0,5,1,1,50,93,11
1,1,21,0,5,1,1,50,93,11
1,1,23,0,6,1,1,50,93,11
1,1,20,1,0,0,1,50,41,11
1,1,19,1,1,0,1,50,71,11
1,1,19,1,1,0,1,50,93,11
2,1,18,1,3,0,1,50,71,11
2,1,13,1,6,1,1,50,116,11
2,1,18,1,6,1,1,50,107,11
2,1,13,1,1,0,1,50,107,11
2,1,14,1,1,0,1,50,102,11
2,1,9,1,2,0,1,50,71,11
2,1,11,1,3,0,1,50,51,11
2,1,13,1,3,0,1,50,81,11
2,1,21,0,4,0,1,50,81,11
2,1,17,1,6,1,1,50,95,11
2,1,20,1,0,0,1,50,71,11
3,2,3,0,4,0,1,50,71,11
3,2,11,1,0,0,1,50,14,11
3,2,22,0,4,0,1,50,102,11
3,2,18,1,5,1,1,50,71,11
3,2,8,1,6,1,1,50,102,11
3,2,17,1,0,0,1,50,71,11
3,2,4,0,1,0,1,50,24,9
3,2,16,1,4,0,1,50,93,11
3,2,23,0,4,0,1,50,20,11
3,2,18,1,5,1,1,50,93,11
3,2,16,1,4,0,1,50,71,11
3,2,17,1,4,0,1,50,93,11
4,2,17,1,3,0,2,50,71,11
4,2,5,0,3,0,2,50,102,11
4,2,17,1,3,0,2,50,95,11
4,2,6,0,4,0,2,50,93,11
4,2,11,1,5,1,2,50,81,11
4,2,3,0,6,1,2,50,107,11
4,2,23,0,4,0,2,50,107,11
4,2,23,0,5,1,2,50,93,11
5,2,18,1,3,0,2,50,81,11
5,2,21,0,0,0,2,50,93,11
5,2,15,1,1,0,2,50,71,11
5,2,20,1,1,0,2,50,93,11
5,2,17,1,3,0,2,50,93,9
5,2,12,1,5,1,2,50,20,11
5,2,22,0,2,0,2,50,81,9
5,2,1,0,2,0,2,50,107,11
5,2,20,1,3,0,2,50,71,11
5,2,0,0,5,1,2,50,107,11
5,2,15,1,2,0,2,50,95,11
5,2,21,0,2,0,2,50,71,11
6,3,5,0,6,1,2,50,93,11
6,3,21,0,1,0,2,50,95,11
6,3,9,1,2,0,2,50,95,11
6,3,4,0,5,1,2,50,107,11
6,3,7,1,5,1,2,50,81,11
6,3,11,1,6,1,2,50,102,11
6,3,0,0,0,0,2,50,20,11
6,3,22,0,1,0,2,50,95,11
6,3,22,0,5,1,2,50,93,11
6,3,2,0,0,0,2,50,64,9
6,3,23,0,1,0,2,50,102,11
6,3,11,1,4,0,2,50,71,8
6,3,10,1,4,0,2,50,20,11
6,3,10,1,4,0,2,50,20,11
6,3,11,1,4,0,2,50,95,11
7,3,10,1,0,0,3,50,93,11
7,3,20,1,5,1,3,50,89,11
7,3,20,1,1,0,3,50,71,11
7,3,16,1,3,0,3,50,93,11
7,3,17,1,4,0,3,50,3,11
7,3,15,1,0,0,3,50,93,11
7,3,20,1,3,0,3,50,93,11
7,3,14,1,5,1,3,50,95,9
7,3,17,1,3,0,3,50,93,11
7,3,11,1,4,0,3,50,95,8
7,3,15,1,4,0,3,50,62,11
7,3,11,1,6,1,3,50,15,11
7,3,13,1,0,0,3,50,20,9
8,3,10,1,2,0,3,50,95,11
8,3,20,1,2,0,3,50,76,9
8,3,3,0,1,0,3,50,95,11
8,3,8,1,4,0,3,50,93,11
8,3,20,1,4,0,3,50,41,11
8,3,21,0,4,0,3,50,107,11
8,3,4,0,6,1,3,50,93,11
8,3,16,1,4,0,3,50,71,11
8,3,6,0,6,1,3,50,95,11
8,3,12,1,5,1,3,50,71,11
9,4,12,1,4,0,3,50,95,11
9,4,12,1,1,0,3,50,81,9
9,4,22,0,1,0,3,50,20,11
9,4,19,1,3,0,3,50,93,11
9,4,13,1,0,0,3,50,95,8
9,4,7,1,1,0,3,50,95,11
9,4,10,1,1,0,3,50,93,11
9,4,3,0,3,0,3,50,93,11
9,4,14,1,1,0,3,50,93,11
9,4,13,1,2,0,3,50,95,11
9,4,10,1,0,0,3,50,132,11
9,4,22,0,0,0,3,50,95,9
9,4,16,1,2,0,3,50,95,11
10,4,17,1,3,0,4,50,93,11
10,4,2,0,4,0,4,50,107,11
10,4,10,1,4,0,4,50,41,11
10,4,12,1,4,0,4,50,70,11
10,4,3,0,5,1,4,50,94,11
10,4,11,1,5,1,4,50,95,11
10,4,12,1,5,1,4,50,95,11
10,4,18,1,0,0,4,50,132,11
10,4,11,1,0,0,4,50,115,11
11,4,18,1,3,0,4,50,93,11
11,4,21,0,6,1,4,50,95,11
11,4,0,0,6,1,4,50,107,11
11,4,20,1,6,1,4,50,81,11
11,4,2,0,0,0,4,50,102,11
11,4,19,1,0,0,4,50,93,11
11,4,2,0,1,0,4,50,93,9
11,4,16,1,1,0,4,50,95,11
11,4,2,0,3,0,4,50,81,9
11,4,22,0,3,0,4,50,62,11
11,4,0,0,4,0,4,50,93,11
11,4,0,0,5,1,4,50,93,11
11,4,14,1,1,0,4,50,71,8
11,4,16,1,2,0,4,50,95,11
11,4,10,1,3,0,4,50,41,11
11,4,11,1,0,0,4,50,93,11
11,4,2,0,2,0,4,50,82,11
11,4,16,1,2,0,4,50,20,11
11,4,23,0,2,0,4,50,82,11
11,4,7,1,0,0,4,50,20,11
11,4,18,1,0,0,4,50,7,11
11,4,19,1,0,0,4,50,71,11
12,1,12,1,1,0,4,50,20,11
12,1,14,1,1,0,4,50,71,11
12,1,14,1,1,0,4,50,93,11
12,1,20,1,1,0,4,50,41,11
12,1,21,0,1,0,4,50,41,11
12,1,21,0,1,0,4,50,95,11
12,1,21,0,2,0,4,50,93,11
12,1,22,0,2,0,4,50,93,11
12,1,17,1,6,1,4,50,81,11
12,1,10,1,0,0,4,50,20,11
12,1,9,1,1,0,4,50,107,11
12,1,12,1,4,0,4,50,93,11
12,1,22,0,4,0,4,50,107,11
12,1,21,0,5,1,4,50,107,11
12,1,14,1,3,0,4,50,102,11
12,1,17,1,3,0,4,50,102,11
12,1,12,1,4,0,4,50,14,9
12,1,8,1,5,1,4,50,93,11
12,1,18,1,5,1,4,50,81,11
12,1,21,0,6,1,4,50,71,11
12,1,8,1,1,0,4,50,93,11
12,1,0,0,2,0,4,50,95,11
3,2,9,1,2,0,1,50,41,11
3,2,17,1,1,0,1,50,71,11
4,2,8,1,6,1,2,50,95,11
4,2,21,0,1,0,2,50,95,11
5,2,15,1,0,0,2,50,20,11
5,2,5,0,3,0,2,50,95,11
6,3,16,1,1,0,2,50,20,11
7,3,0,0,1,0,3,50,132,11
9,4,2,0,6,1,3,50,93,11
11,4,19,1,3,0,4,50,93,11
12,1,13,1,5,1,4,50,81,11
1,1,13,1,1,0,1,50,41,11
6,3,19,1,4,0,2,50,115,11
7,3,3,0,0,0,3,50,102,11
8,3,18,1,4,0,3,50,107,11
9,4,18,1,5,1,3,50,107,11
9,4,14,1,6,1,3,50,132,11
10,4,4,0,3,0,4,50,51,9
10,4,13,1,5,1,4,50,81,11
10,4,17,1,3,0,4,50,132,11
11,4,13,1,2,0,4,50,122,9
1,1,13,1,5,1,1,41,107,11
1,1,9,1,0,0,1,41,30,11
1,1,19,1,1,0,1,41,132,11
1,1,9,1,2,0,1,41,79,9
1,1,13,1,6,1,1,41,71,11
1,1,17,1,2,0,1,41,21,11
1,1,10,1,5,1,1,41,41,11
1,1,16,1,5,1,1,41,93,11
1,1,18,1,6,1,1,41,71,11
2,1,19,1,5,1,1,41,71,11
2,1,11,1,0,0,1,41,93,11
2,1,22,0,0,0,1,41,81,11
2,1,17,1,1,0,1,41,81,11
3,2,12,1,6,1,1,41,107,11
3,2,8,1,2,0,1,41,20,11
3,2,19,1,4,0,1,41,41,11
4,2,22,0,0,0,2,41,41,11
4,2,10,1,1,0,2,41,71,11
4,2,16,1,6,1,2,41,95,11
4,2,11,1,2,0,2,41,41,11
5,2,8,1,0,0,2,41,95,11
5,2,22,0,5,1,2,41,8,11
5,2,0,0,0,0,2,41,79,11
5,2,9,1,2,0,2,41,79,11
5,2,19,1,1,0,2,41,95,9
5,2,2,0,6,1,2,41,79,11
5,2,12,1,6,1,2,41,95,11
5,2,21,0,3,0,2,41,14,11
6,3,21,0,4,0,2,41,107,11
6,3,23,0,3,0,2,41,41,11
7,3,20,1,5,1,3,41,41,11
7,3,15,1,2,0,3,41,79,11
7,3,18,1,4,0,3,41,107,11
7,3,8,1,2,0,3,41,102,11
8,3,9,1,4,0,3,41,20,11
8,3,9,1,0,0,3,41,107,11
8,3,3,0,0,0,3,41,107,11
8,3,2,0,1,0,3,41,117,11
8,3,9,1,4,0,3,41,107,11
8,3,18,1,5,1,3,41,107,11
8,3,13,1,1,0,3,41,20,11
8,3,18,1,2,0,3,41,95,11
8,3,12,1,4,0,3,41,41,11
8,3,20,1,5,1,3,41,95,11
8,3,11,1,6,1,3,41,95,11
8,3,21,0,4,0,3,41,14,11
8,3,3,0,5,1,3,41,93,11
8,3,16,1,0,0,3,41,71,11
9,4,7,1,5,1,3,41,41,11
9,4,5,0,5,1,3,41,71,11
9,4,2,0,1,0,3,41,95,11
9,4,12,1,0,0,3,41,114,11
10,4,18,1,6,1,4,41,132,11
10,4,13,1,0,0,4,41,95,11
10,4,13,1,3,0,4,41,95,11
10,4,10,1,4,0,4,41,28,11
10,4,17,1,4,0,4,41,132,11
10,4,0,0,1,0,4,41,115,11
10,4,14,1,5,1,4,41,117,11
10,4,6,0,0,0,4,41,129,11
10,4,14,1,0,0,4,41,81,11
11,4,17,1,0,0,4,41,95,11
11,4,14,1,1,0,4,41,107,11
11,4,11,1,2,0,4,41,28,11
11,4,19,1,3,0,4,41,95,11
11,4,13,1,4,0,4,41,132,11
11,4,19,1,5,1,4,41,27,11
11,4,13,1,2,0,4,41,132,11
11,4,15,1,2,0,4,41,132,11
11,4,12,1,2,0,4,41,71,11
11,4,12,1,3,0,4,41,71,11
12,1,13,1,4,0,4,41,132,11
12,1,17,1,0,0,4,41,79,11
12,1,16,1,4,0,4,41,107,11
12,1,17,1,3,0,4,41,93,11
12,1,21,0,4,0,4,41,107,11
12,1,17,1,5,1,4,41,129,11
12,1,10,1,4,0,4,41,132,9
12,1,11,1,6,1,4,41,133,11
12,1,10,1,6,1,4,41,71,11
12,1,17,1,3,0,4,41,132,11
1,1,9,1,3,0,1,41,14,11
3,2,21,0,6,1,1,41,20,8
3,2,18,1,0,0,1,41,81,11
6,3,13,1,1,0,2,41,27,11
8,3,16,1,3,0,3,41,129,11
10,4,16,1,1,0,4,41,28,11
11,4,16,1,4,0,4,41,81,11
3,2,17,1,4,0,1,41,41,11
3,2,18,1,5,1,1,41,95,11
7,3,21,0,6,1,3,41,129,11
9,4,19,1,6,1,3,41,107,11
9,4,23,0,6,1,3,41,129,11
9,4,17,1,5,1,3,41,107,11
9,4,0,0,4,0,3,41,41,11
2,1,12,1,6,1,1,41,20,11
7,3,10,1,0,0,3,41,95,11
8,3,15,1,6,1,3,41,28,11
8,3,18,1,1,0,3,41,129,11
9,4,13,1,5,1,3,41,107,11
10,4,19,1,1,0,4,41,3,11
10,4,18,1,3,0,4,41,89,11
10,4,20,1,2,0,4,41,107,11
12,1,10,1,3,0,4,41,20,8
12,1,10,1,6,1,4,41,41,11
10,4,11,1,4,0,4,41,129,11
10,4,12,1,1,0,4,41,28,11
2,1,16,1,3,0,1,41,79,11
6,3,20,1,3,0,2,41,61,11
7,3,19,1,1,0,3,41,129,11
11,4,18,1,1,0,4,41,132,11
1,1,15,1,6,1,1,32,81,11
1,1,7,1,1,0,1,32,93,11
2,1,20,1,4,0,1,32,93,11
2,1,0,0,2,0,1,32,132,11
2,1,17,1,2,0,1,32,81,11
3,2,9,1,1,0,1,32,13,11
3,2,19,1,3,0,1,32,93,11
4,2,2,0,1,0,2,32,20,11
4,2,9,1,6,1,2,32,62,11
4,2,20,1,6,1,2,32,20,11
5,2,14,1,5,1,2,32,95,11
6,3,13,1,1,0,2,32,71,11
6,3,22,0,1,0,2,32,20,11
6,3,23,0,3,0,2,32,92,11
7,3,4,0,2,0,3,32,98,9
7,3,14,1,2,0,3,32,107,11
7,3,1,0,4,0,3,32,95,11
7,3,23,0,1,0,3,32,107,11
7,3,22,0,2,0,3,32,79,11
8,3,2,0,5,1,3,32,89,11
9,4,9,1,2,0,3,32,71,11
10,4,6,0,6,1,4,32,82,11
10,4,10,1,5,1,4,32,95,11
10,4,13,1,5,1,4,32,81,11
10,4,13,1,1,0,4,32,71,11
11,4,7,1,3,0,4,32,20,11
11,4,19,1,5,1,4,32,115,11
11,4,14,1,2,0,4,32,107,9
11,4,20,1,3,0,4,32,132,11
11,4,13,1,1,0,4,32,20,11
11,4,5,0,0,0,4,32,20,11
11,4,11,1,1,0,4,32,107,11
11,4,22,0,1,0,4,32,107,11
11,4,9,1,2,0,4,32,20,11
11,4,3,0,6,1,4,32,81,11
2,1,2,0,4,0,1,32,93,11
2,1,23,0,5,1,1,32,27,11
5,2,8,1,3,0,2,32,41,11
6,3,23,0,4,0,2,32,1,11
8,3,2,0,5,1,3,32,79,11
10,4,0,0,5,1,4,32,3,11
11,4,9,1,0,0,4,32,51,11
12,1,1,0,1,0,4,32,93,11
1,1,13,1,3,0,1,32,49,9
1,1,5,0,2,0,1,32,81,11
4,2,19,1,0,0,2,32,93,11
4,2,23,0,5,1,2,32,95,11
4,2,12,1,6,1,2,32,114,11
6,3,16,1,1,0,2,32,95,11
6,3,9,1,3,0,2,32,81,11
9,4,19,1,4,0,3,32,107,11
11,4,20,1,5,1,4,32,71,11
1,1,10,1,4,0,1,24,20,11
2,1,21,0,0,0,1,24,135,11
2,1,21,0,0,0,1,24,88,11
2,1,23,0,4,0,1,24,132,11
3,2,12,1,1,0,1,24,132,11
3,2,11,1,4,0,1,24,20,11
4,2,19,1,6,1,2,24,132,11
4,2,18,1,1,0,2,24,13,11
4,2,11,1,1,0,2,24,95,11
4,2,15,1,4,0,2,24,115,11
5,2,20,1,1,0,2,24,89,11
6,3,1,0,6,1,2,24,93,11
6,3,4,0,2,0,2,24,132,11
6,3,4,0,2,0,2,24,102,11
8,3,12,1,1,0,3,24,45,11
8,3,13,1,5,1,3,24,82,11
8,3,13,1,5,1,3,24,82,11
8,3,6,0,6,1,3,24,115,11
9,4,9,1,5,1,3,24,107,11
9,4,11,1,3,0,3,24,12,11
9,4,14,1,4,0,3,24,81,11
11,4,9,1,0,0,4,24,20,11
11,4,8,1,3,0,4,24,115,11
1,1,6,0,2,0,1,24,81,11
1,1,20,1,3,0,1,24,81,11
2,1,20,1,4,0,1,24,81,11
2,1,19,1,1,0,1,24,53,11
4,2,11,1,4,0,2,24,129,11
5,2,21,0,6,1,2,24,13,11
6,3,12,1,3,0,2,24,129,11
6,3,14,1,0,0,2,24,14,11
7,3,15,1,0,0,3,24,37,11
7,3,15,1,4,0,3,24,28,11
8,3,11,1,1,0,3,24,129,11
8,3,17,1,3,0,3,24,71,11
8,3,0,0,6,1,3,24,51,8
8,3,6,0,3,0,3,24,20,11
9,4,3,0,3,0,3,24,81,11
9,4,14,1,3,0,3,24,82,11
4,2,8,1,4,0,2,24,132,11
5,2,0,0,5,1,2,24,20,11
8,3,2,0,3,0,3,24,63,11
1,1,2,0,2,0,1,24,132,11
1,1,18,1,3,0,1,24,41,11
1,1,1,0,0,0,1,24,20,11
1,1,7,1,3,0,1,24,107,11
1,1,17,1,6,1,1,24,71,11
2,1,8,1,4,0,1,24,93,11
2,1,16,1,5,1,1,24,20,9
2,1,1,0,5,1,1,24,107,11
2,1,21,0,5,1,1,24,132,11
2,1,19,1,1,0,1,24,107,11
2,1,19,1,4,0,1,24,20,11
2,1,0,0,4,0,1,24,93,11
2,1,1,0,4,0,1,24,132,11
2,1,23,0,4,0,1,24,107,11
2,1,1,0,6,1,1,24,81,11
2,1,22,0,5,1,1,24,132,11
3,2,20,1,4,0,1,24,20,11
3,2,14,1,0,0,1,24,107,11
3,2,7,1,2,0,1,24,81,11
3,2,10,1,1,0,1,24,132,11
3,2,23,0,2,0,1,24,71,11
3,2,14,1,3,0,1,24,14,11
3,2,21,0,0,0,1,24,132,11
4,2,15,1,0,0,2,24,20,11
4,2,16,1,0,0,2,24,20,11
4,2,12,1,1,0,2,24,107,11
4,2,2,0,3,0,2,24,81,11
5,2,17,1,6,1,2,24,81,11
5,2,15,1,5,1,2,24,81,11
5,2,18,1,0,0,2,24,75,11
5,2,13,1,4,0,2,24,109,11
5,2,11,1,6,1,2,24,20,11
5,2,17,1,1,0,2,24,107,11
6,3,1,0,0,0,2,24,107,11
6,3,23,0,1,0,2,24,20,11
6,3,16,1,2,0,2,24,93,11
6,3,18,1,4,0,2,24,1,11
6,3,7,1,1,0,2,24,1,11
6,3,10,1,3,0,2,24,14,11
6,3,22,0,5,1,2,24,28,11
6,3,13,1,5,1,2,24,28,11
6,3,9,1,2,0,2,24,81,9
7,3,14,1,5,1,3,24,28,11
7,3,10,1,0,0,3,24,28,11
7,3,15,1,0,0,3,24,1,11
7,3,4,0,2,0,3,24,20,11
7,3,15,1,3,0,3,24,81,9
7,3,18,1,5,1,3,24,81,11
7,3,23,0,0,0,3,24,1,11
7,3,11,1,1,0,3,24,129,11
7,3,22,0,4,0,3,24,28,11
7,3,22,0,6,1,3,24,1,11
7,3,3,0,1,0,3,24,61,11
7,3,15,1,4,0,3,24,28,11
7,3,17,1,5,1,3,24,14,11
8,3,10,1,1,0,3,24,53,11
8,3,11,1,3,0,3,24,81,11
8,3,23,0,3,0,3,24,28,11
8,3,20,1,3,0,3,24,28,11
8,3,1,0,4,0,3,24,20,11
8,3,6,0,3,0,3,24,20,11
9,4,15,1,5,1,3,24,93,11
9,4,16,1,0,0,3,24,107,11
9,4,4,0,1,0,3,24,95,11
9,4,1,0,6,1,3,24,20,11
9,4,3,0,1,0,3,24,20,11
10,4,9,1,0,0,4,24,89,11
10,4,16,1,4,0,4,24,81,11
10,4,16,1,1,0,4,24,20,11
11,4,15,1,6,1,4,24,81,11
11,4,8,1,2,0,4,24,73,11
11,4,3,0,6,1,4,24,81,9
11,4,9,1,0,0,4,24,71,11
11,4,18,1,4,0,4,24,81,11
11,4,18,1,4,0,4,24,71,11
11,4,23,0,6,1,4,24,71,11
11,4,2,0,2,0,4,24,71,8
12,1,17,1,0,0,4,24,107,11
12,1,7,1,1,0,4,24,62,11
12,1,20,1,2,0,4,24,102,11
12,1,4,0,3,0,4,24,107,11
12,1,1,0,4,0,4,24,20,11
12,1,21,0,4,0,4,24,132,11
12,1,17,1,4,0,4,24,95,11
12,1,2,0,5,1,4,24,115,11
12,1,23,0,3,0,4,24,102,11
12,1,14,1,0,0,4,24,81,11
12,1,22,0,2,0,4,24,102,11
12,1,23,0,2,0,4,24,102,11
12,1,21,0,3,0,4,24,73,11
12,1,23,0,6,1,4,24,71,11
1,1,17,1,6,1,1,34,110,11
1,1,14,1,3,0,1,34,93,11
1,1,15,1,6,1,1,34,93,11
1,1,13,1,0,0,1,34,93,11
1,1,16,1,4,0,1,34,107,11
1,1,18,1,6,1,1,34,105,11
2,1,21,0,0,0,1,34,41,11
2,1,15,1,3,0,1,34,93,11
2,1,13,1,4,0,1,34,71,11
3,2,17,1,4,0,1,34,105,11
3,2,10,1,5,1,1,34,20,11
3,2,7,1,5,1,1,34,71,9
3,2,15,1,0,0,1,34,21,11
3,2,19,1,0,0,1,34,79,11
3,2,14,1,1,0,1,34,95,11
3,2,15,1,2,0,1,34,105,11
3,2,18,1,2,0,1,34,41,11
3,2,2,0,0,0,1,34,1,11
3,2,11,1,5,1,1,34,95,11
3,2,22,0,6,1,1,34,95,11
4,2,11,1,6,1,2,34,86,11
4,2,16,1,1,0,2,34,95,11
4,2,14,1,4,0,2,34,95,11
4,2,8,1,0,0,2,34,79,11
4,2,12,1,1,0,2,34,78,9
4,2,12,1,4,0,2,34,95,11
4,2,2,0,6,1,2,34,81,9
5,2,16,1,5,1,2,34,13,9
5,2,18,1,2,0,2,34,107,11
5,2,12,1,5,1,2,34,129,11
5,2,4,0,4,0,2,34,121,11
5,2,15,1,1,0,2,34,107,11
5,2,11,1,3,0,2,34,95,11
6,3,16,1,3,0,2,34,102,11
6,3,22,0,0,0,2,34,93,11
6,3,11,1,1,0,2,1,107,11
6,3,22,0,4,0,2,1,107,11
6,3,16,1,1,0,2,34,89,11
6,3,12,1,3,0,2,34,95,11
7,3,12,1,3,0,3,1,129,11
7,3,12,1,3,0,3,34,95,11
8,3,16,1,3,0,3,34,51,11
8,3,13,1,5,1,3,34,95,11
8,3,22,0,0,0,3,1,107,11
8,3,16,1,2,0,3,34,107,11
8,3,18,1,2,0,3,1,52,11
8,3,11,1,6,1,3,34,95,11
8,3,19,1,6,1,3,34,115,11
9,4,20,1,1,0,3,34,115,11
9,4,7,1,6,1,3,1,115,11
9,4,18,1,5,1,3,34,95,11
9,4,13,1,1,0,3,1,132,9
10,4,22,0,0,0,4,1,107,11
10,4,20,1,3,0,4,1,107,11
10,4,13,1,5,1,4,1,107,11
10,4,20,1,4,0,4,34,41,8
11,4,11,1,2,0,4,34,95,11
11,4,16,1,0,0,4,34,71,11
11,4,16,1,5,1,4,34,41,11
11,4,17,1,5,1,4,34,41,11
11,4,9,1,0,0,4,34,115,11
11,4,11,1,4,0,4,34,107,11
11,4,15,1,3,0,4,34,105,11
12,1,1,0,5,1,4,34,102,11
7,3,22,0,6,1,3,34,20,11
8,3,21,0,5,1,3,34,107,11
8,3,12,1,5,1,3,34,20,11
12,1,12,1,0,0,4,34,95,11
1,1,13,1,0,0,1,25,93,11
1,1,19,1,0,0,1,25,41,11
1,1,17,1,6,1,1,25,81,11
1,1,19,1,1,0,1,25,93,11
1,1,19,1,2,0,1,25,81,11
1,1,23,0,5,1,1,25,93,11
1,1,19,1,1,0,1,25,93,11
2,1,14,1,5,1,1,25,93,11
2,1,10,1,6,1,1,25,20,8
2,1,2,0,4,0,1,25,14,8
2,1,22,0,4,0,1,25,81,11
2,1,21,0,2,0,1,25,81,11
3,2,22,0,3,0,1,25,93,11
3,2,9,1,0,0,1,25,8,11
3,2,16,1,3,0,1,25,1,11
3,2,12,1,1,0,1,25,81,11
3,2,13,1,0,0,1,25,3,11
3,2,20,1,4,0,1,25,118,11
4,2,11,1,3,0,2,25,93,11
4,2,20,1,2,0,2,25,93,11
4,2,15,1,3,0,2,25,107,11
4,2,3,0,4,0,2,25,93,11
4,2,22,0,5,1,2,25,93,11
4,2,17,1,6,1,2,25,93,11
4,2,2,0,6,1,2,25,93,11
5,2,17,1,2,0,2,25,93,11
5,2,18,1,2,0,2,25,93,11
5,2,16,1,2,0,2,25,93,11
6,3,11,1,4,0,2,25,71,11
6,3,15,1,5,1,2,25,71,11
6,3,16,1,4,0,2,25,37,11
7,3,20,1,6,1,3,25,37,11
7,3,4,0,0,0,3,25,37,9
7,3,1,0,3,0,3,25,37,9
7,3,19,1,6,1,3,25,79,11
7,3,5,0,2,0,3,25,95,11
7,3,13,1,4,0,3,25,79,11
7,3,12,1,0,0,3,25,52,11
7,3,15,1,0,0,3,25,81,11
8,3,17,1,4,0,3,25,93,9
8,3,16,1,3,0,3,25,89,11
8,3,19,1,0,0,3,25,93,11
9,4,23,0,2,0,3,25,13,11
9,4,11,1,6,1,3,25,95,11
9,4,10,1,4,0,3,25,93,11
10,4,15,1,6,1,4,25,93,11
10,4,11,1,1,0,4,25,96,11
10,4,23,0,6,1,4,25,93,11
11,4,8,1,5,1,4,25,107,11
11,4,2,0,6,1,4,25,93,11
11,4,15,1,2,0,4,25,115,11
11,4,19,1,3,0,4,25,20,11
11,4,0,0,4,0,4,25,41,9
11,4,12,1,1,0,4,25,81,11
12,1,23,0,2,0,4,25,132,11
12,1,22,0,0,0,4,25,81,11
12,1,22,0,3,0,4,25,81,11
12,1,18,1,2,0,4,25,132,11
12,1,20,1,6,1,4,25,132,11
3,2,1,0,3,0,1,25,21,8
3,2,22,0,2,0,1,25,14,9
3,2,20,1,2,0,1,25,81,9
4,2,19,1,6,1,2,25,37,11
4,2,1,0,4,0,2,25,107,11
5,2,11,1,5,1,2,25,93,11
7,3,21,0,1,0,3,25,93,11
8,3,21,0,5,1,3,25,93,11
9,4,16,1,3,0,3,25,69,9
10,4,13,1,5,1,4,25,93,11
11,4,1,0,2,0,4,25,115,11
11,4,9,1,3,0,4,25,14,11
12,1,20,1,4,0,4,25,132,11
1,1,22,0,4,0,1,25,81,11
4,2,19,1,5,1,2,25,81,11
4,2,16,1,3,0,2,25,84,11
12,1,18,1,3,0,4,25,81,11
1,1,6,0,1,0,1,25,71,11
3,2,14,1,4,0,1,25,28,11
4,2,15,1,3,0,2,25,107,11
4,2,10,1,4,0,2,25,28,11
7,3,15,1,3,0,3,25,107,11
7,3,17,1,5,1,3,25,107,11
8,3,20,1,6,1,3,25,71,11
10,4,13,1,5,1,4,25,20,11
10,4,13,1,0,0,4,25,93,11
10,4,8,1,4,0,4,25,81,11
11,4,17,1,3,0,4,25,28,11
1,1,13,1,6,1,1,14,41,11
1,1,20,1,6,1,1,14,132,8
1,1,14,1,3,0,1,14,41,11
1,1,20,1,5,1,1,14,81,11
1,1,19,1,6,1,1,14,81,11
1,1,13,1,3,0,1,14,107,11
1,1,18,1,3,0,1,14,71,11
1,1,19,1,4,0,1,14,81,11
1,1,4,0,5,1,1,14,51,8
1,1,12,1,6,1,1,14,83,11
1,1,11,1,0,0,1,14,81,11
1,1,16,1,5,1,1,14,107,11
2,1,15,1,2,0,1,14,107,11
2,1,7,1,2,0,1,14,20,11
2,1,17,1,2,0,1,14,132,11
2,1,19,1,3,0,1,14,132,11
2,1,21,0,3,0,1,14,132,11
2,1,7,1,5,1,1,14,132,11
2,1,7,1,5,1,1,14,132,11
2,1,17,1,6,1,1,14,132,11
2,1,14,1,3,0,1,14,132,11
2,1,17,1,3,0,1,14,132,11
2,1,19,1,3,0,1,14,132,11
2,1,19,1,3,0,1,14,132,11
2,1,9,1,4,0,1,14,81,11
2,1,6,0,4,0,1,14,107,11
2,1,18,1,5,1,1,14,81,11
2,1,16,1,5,1,1,14,107,11
2,1,10,1,5,1,1,14,41,11
2,1,14,1,6,1,1,14,95,11
2,1,22,0,0,0,1,14,3,11
2,1,16,1,1,0,1,14,28,11
2,1,20,1,1,0,1,14,112,11
3,2,19,1,2,0,1,14,107,11
3,2,2,0,4,0,1,14,62,8
3,2,19,1,6,1,1,14,3,11
3,2,6,0,0,0,1,14,3,11
3,2,21,0,0,0,1,14,107,11
3,2,0,0,1,0,1,14,107,11
3,2,1,0,6,1,1,14,107,11
3,2,8,1,6,1,1,14,107,11
3,2,4,0,0,0,1,14,107,11
3,2,1,0,0,0,1,14,107,11
3,2,17,1,0,0,1,14,130,11
3,2,10,1,2,0,1,14,107,11
3,2,16,1,2,0,1,14,107,11
3,2,19,1,2,0,1,14,107,11
3,2,2,0,3,0,1,14,107,11
3,2,1,0,4,0,1,14,129,11
3,2,0,0,5,1,1,14,93,11
3,2,11,1,5,1,1,14,93,11
3,2,18,1,5,1,1,14,122,11
3,2,17,1,0,0,1,14,107,11
3,2,0,0,1,0,1,14,3,11
3,2,8,1,1,0,1,14,107,11
3,2,23,0,1,0,1,14,107,11
3,2,1,0,2,0,1,14,95,11
3,2,13,1,0,0,1,14,107,11
3,2,11,1,2,0,1,14,13,9
3,2,1,0,3,0,1,14,95,11
4,2,1,0,5,1,2,14,107,11
4,2,9,1,5,1,2,14,99,9
4,2,22,0,5,1,2,14,107,11
4,2,13,1,6,1,2,14,107,11
4,2,23,0,6,1,2,14,107,11
4,2,11,1,1,0,2,14,132,9
4,2,0,0,5,1,2,14,132,11
4,2,20,1,6,1,2,14,132,11
4,2,8,1,6,1,2,14,132,11
4,2,21,0,0,0,2,14,107,11
4,2,12,1,0,0,2,14,132,11
4,2,4,0,1,0,2,14,107,11
4,2,23,0,3,0,2,14,107,11
4,2,2,0,4,0,2,14,95,11
4,2,1,0,4,0,2,14,107,11
4,2,12,1,4,0,2,14,107,11
4,2,23,0,5,1,2,14,132,11
4,2,18,1,0,0,2,14,107,11
4,2,8,1,1,0,2,14,51,11
4,2,22,0,1,0,2,14,132,11
4,2,17,1,1,0,2,14,107,11
4,2,14,1,1,0,2,14,107,11
4,2,1,0,2,0,2,14,107,11
4,2,2,0,2,0,2,14,107,11
4,2,2,0,2,0,2,14,107,11
4,2,9,1,2,0,2,14,107,11
4,2,21,0,4,0,2,14,107,11
4,2,7,1,4,0,2,14,107,11
4,2,17,1,4,0,2,14,107,11
4,2,22,0,6,1,2,14,92,11
4,2,1,0,0,0,2,14,107,11
4,2,3,0,0,0,2,14,107,11
4,2,2,0,0,0,2,14,107,11
4,2,11,1,0,0,2,14,107,11
4,2,20,1,0,0,2,14,107,11
4,2,20,1,0,0,2,14,107,11
4,2,23,0,0,0,2,14,107,11
4,2,20,1,0,0,2,14,132,11
4,2,21,0,1,0,2,14,107,11
4,2,15,1,1,0,2,14,107,11
4,2,18,1,1,0,2,14,107,11
4,2,1,0,2,0,2,14,107,11
4,2,21,0,2,0,2,14,107,11
4,2,1,0,2,0,2,14,107,11
4,2,3,0,2,0,2,14,107,11
4,2,2,0,2,0,2,14,107,11
4,2,23,0,3,0,2,14,107,11
4,2,17,1,3,0,2,14,81,11
4,2,20,1,3,0,2,14,107,11
4,2,23,0,4,0,2,14,107,11
4,2,12,1,5,1,2,14,107,11
4,2,22,0,5,1,2,14,107,11
4,2,22,0,5,1,2,14,107,11
4,2,8,1,6,1,2,14,107,11
5,2,11,1,0,0,2,14,107,11
5,2,7,1,1,0,2,14,107,11
5,2,0,0,1,0,2,14,107,9
5,2,11,1,4,0,2,14,107,11
5,2,8,1,6,1,2,14,15,9
5,2,12,1,6,1,2,14,51,11
5,2,22,0,6,1,2,14,107,9
5,2,0,0,0,0,2,14,107,9
5,2,0,0,0,0,2,14,107,8
5,2,20,1,0,0,2,14,107,11
5,2,23,0,0,0,2,14,107,11
5,2,0,0,4,0,2,14,107,11
5,2,1,0,4,0,2,14,107,11
5,2,18,1,5,1,2,14,107,11
5,2,13,1,2,0,2,14,95,11
5,2,7,1,5,1,2,14,95,11
5,2,21,0,6,1,2,14,107,11
5,2,20,1,1,0,2,14,89,11
6,3,22,0,4,0,2,14,107,11
6,3,17,1,6,1,2,14,130,11
6,3,12,1,4,0,2,14,95,11
6,3,23,0,0,0,2,14,89,11
6,3,20,1,1,0,2,14,89,11
6,3,21,0,2,0,2,14,107,11
6,3,20,1,5,1,2,14,107,11
6,3,13,1,5,1,2,14,83,11
6,3,9,1,6,1,2,14,93,8
7,3,22,0,5,1,3,14,90,11
7,3,4,0,0,0,3,14,51,11
7,3,4,0,1,0,3,14,89,11
7,3,13,1,1,0,3,14,81,11
7,3,15,1,3,0,3,14,41,11
7,3,1,0,0,0,3,14,81,9
7,3,13,1,3,0,3,14,130,9
7,3,10,1,3,0,3,14,95,11
7,3,14,1,6,1,3,14,93,11
8,3,5,0,6,1,3,14,132,11
8,3,14,1,2,0,3,14,107,11
8,3,6,0,4,0,3,14,20,11
8,3,2,0,6,1,3,14,53,11
8,3,10,1,4,0,3,14,81,9
8,3,1,0,3,0,3,14,81,11
9,4,13,1,4,0,3,14,107,11
9,4,12,1,1,0,3,14,4,11
9,4,23,0,5,1,3,14,95,11
9,4,17,1,6,1,3,14,95,11
9,4,7,1,0,0,3,14,20,11
9,4,7,1,5,1,3,14,95,11
10,4,5,0,0,0,4,14,51,11
10,4,3,0,1,0,4,14,41,11
10,4,13,1,3,0,4,14,95,11
11,4,22,0,3,0,4,14,132,11
11,4,16,1,5,1,4,14,130,11
11,4,21,0,1,0,4,14,115,11
11,4,19,1,2,0,4,14,93,11
11,4,20,1,5,1,4,14,93,11
12,1,0,0,6,1,4,14,95,11
12,1,17,1,0,0,4,14,107,11
12,1,20,1,0,0,4,14,107,11
12,1,23,0,3,0,4,14,81,11
12,1,0,0,6,1,4,14,132,11
12,1,17,1,6,1,4,14,20,11
2,1,11,1,1,0,1,14,132,11
3,2,16,1,3,0,1,14,3,11
3,2,14,1,1,0,1,14,132,11
4,2,20,1,6,1,2,14,107,11
4,2,13,1,3,0,2,14,132,11
9,4,13,1,3,0,3,14,70,11
10,4,18,1,2,0,4,14,115,11
