@Relation urban_new_2022_fold3_train

@ATTRIBUTE f1_minas          NUMERIC  % Μήνας (1-12)
@ATTRIBUTE f2_epochi         NUMERIC  % Εποχή (1=Χειμ 2=Άνοιξ 3=Καλοκ 4=Φθιν)
@ATTRIBUTE f3_ora            NUMERIC  % Ώρα ημέρας (0-23)
@ATTRIBUTE f4_mera_nyxta     NUMERIC  % Μέρα=1 Νύχτα=0
@ATTRIBUTE f5_imera_evdom    NUMERIC  % Ημέρα εβδομάδας (0=Δευτ 6=Κυρ)
@ATTRIBUTE f6_savvatokyriako NUMERIC  % Σαββ/κο=1 Καθημ=0
@ATTRIBUTE f7_trimino        NUMERIC  % Τρίμηνο (1-4)
@ATTRIBUTE f8_nomos          NUMERIC  % Κωδικός Νομού
@ATTRIBUTE f9_typos_xorou    NUMERIC  % Κωδικός τύπου χώρου
@ATTRIBUTE class             {8,9,11} % 8=Μεγάλη 9=Μεσαία 11=Μικρή

@DATA
1,1,14,1,6,1,1,5,124,11
2,1,10,1,2,0,1,5,90,11
2,1,22,0,4,0,1,5,90,11
2,1,7,1,2,0,1,5,101,11
2,1,10,1,4,0,1,5,124,9
2,1,12,1,2,0,1,5,90,11
2,1,8,1,5,1,1,5,13,8
3,2,14,1,2,0,1,5,88,11
3,2,17,1,4,0,1,5,90,11
3,2,12,1,6,1,1,5,90,11
4,2,20,1,2,0,2,5,90,11
4,2,20,1,4,0,2,5,90,11
4,2,2,0,6,1,2,5,101,11
4,2,20,1,0,0,2,5,90,11
4,2,17,1,1,0,2,5,90,11
4,2,21,0,3,0,2,5,90,11
4,2,22,0,3,0,2,5,122,11
4,2,22,0,5,1,2,5,90,11
5,2,11,1,0,0,2,5,90,11
5,2,14,1,3,0,2,5,90,11
5,2,2,0,3,0,2,5,14,8
6,3,18,1,2,0,2,5,72,11
6,3,20,1,0,0,2,5,90,11
6,3,18,1,5,1,2,5,90,11
6,3,9,1,6,1,2,5,101,11
7,3,8,1,5,1,3,5,72,11
9,4,12,1,4,0,3,5,1,11
9,4,11,1,2,0,3,5,88,11
9,4,13,1,1,0,3,5,90,11
9,4,10,1,3,0,3,5,90,11
10,4,2,0,5,1,4,5,90,11
11,4,14,1,3,0,4,5,101,11
11,4,20,1,0,0,4,5,90,11
11,4,0,0,3,0,4,5,90,11
11,4,19,1,6,1,4,5,88,11
11,4,12,1,0,0,4,5,90,11
11,4,9,1,6,1,4,5,101,11
11,4,14,1,2,0,4,5,90,11
12,1,13,1,4,0,4,5,90,11
3,2,9,1,3,0,1,5,5,11
3,2,19,1,6,1,1,5,5,11
6,3,18,1,5,1,2,5,20,11
6,3,7,1,4,0,2,5,14,11
6,3,18,1,4,0,2,5,101,11
6,3,18,1,0,0,2,5,7,11
6,3,20,1,1,0,2,5,7,11
7,3,21,0,1,0,3,5,55,11
7,3,14,1,1,0,3,5,106,11
7,3,10,1,0,0,3,5,95,11
8,3,13,1,5,1,3,5,76,11
8,3,14,1,1,0,3,5,20,11
8,3,15,1,0,0,3,5,5,11
9,4,18,1,4,0,3,5,106,11
1,1,0,0,5,1,1,5,88,11
1,1,4,0,1,0,1,5,88,11
1,1,6,0,1,0,1,5,9,11
1,1,18,1,1,0,1,5,88,11
1,1,18,1,1,0,1,5,96,11
1,1,20,1,1,0,1,5,64,11
1,1,22,0,1,0,1,5,20,8
1,1,23,0,1,0,1,5,64,11
1,1,3,0,2,0,1,5,47,11
1,1,18,1,3,0,1,5,75,11
1,1,21,0,3,0,1,5,72,11
1,1,16,1,5,1,1,5,64,11
1,1,21,0,5,1,1,5,88,11
1,1,21,0,5,1,1,5,88,8
1,1,23,0,5,1,1,5,88,11
1,1,23,0,5,1,1,5,88,11
1,1,23,0,5,1,1,5,88,11
1,1,0,0,6,1,1,5,9,9
1,1,12,1,0,0,1,5,64,11
1,1,15,1,0,0,1,5,88,11
1,1,13,1,1,0,1,5,64,11
1,1,14,1,1,0,1,5,64,11
1,1,1,0,3,0,1,5,72,11
1,1,16,1,3,0,1,5,99,11
1,1,18,1,3,0,1,5,88,11
1,1,5,0,4,0,1,5,64,8
1,1,14,1,4,0,1,5,14,11
1,1,15,1,4,0,1,5,64,11
1,1,5,0,6,1,1,5,88,11
1,1,5,0,6,1,1,5,88,11
1,1,6,0,6,1,1,5,88,11
1,1,6,0,6,1,1,5,88,11
1,1,6,0,6,1,1,5,88,11
1,1,6,0,6,1,1,5,88,11
1,1,9,1,6,1,1,5,89,11
1,1,17,1,6,1,1,5,88,11
1,1,17,1,0,0,1,5,64,11
1,1,13,1,1,0,1,5,64,11
1,1,7,1,3,0,1,5,64,11
1,1,18,1,3,0,1,5,88,11
1,1,12,1,4,0,1,5,64,11
1,1,23,0,4,0,1,5,64,11
1,1,13,1,6,1,1,5,72,11
1,1,0,0,0,0,1,5,72,11
1,1,3,0,1,0,1,5,72,11
1,1,12,1,1,0,1,5,64,11
1,1,6,0,2,0,1,5,64,8
1,1,3,0,4,0,1,5,55,11
1,1,3,0,5,1,1,5,89,11
1,1,5,0,5,1,1,5,88,11
1,1,17,1,5,1,1,5,64,11
1,1,21,0,5,1,1,5,15,11
1,1,4,0,6,1,1,5,124,11
1,1,11,1,0,0,1,5,76,11
1,1,16,1,0,0,1,5,72,11
1,1,20,1,0,0,1,5,106,11
2,1,2,0,1,0,1,5,64,11
2,1,14,1,2,0,1,5,64,11
2,1,23,0,3,0,1,5,88,11
2,1,20,1,5,1,1,5,18,11
2,1,2,0,6,1,1,5,20,8
2,1,6,0,6,1,1,5,88,11
2,1,4,0,1,0,1,5,96,11
2,1,7,1,1,0,1,5,96,11
2,1,21,0,1,0,1,5,99,11
2,1,22,0,1,0,1,5,88,11
2,1,1,0,2,0,1,5,87,11
2,1,23,0,4,0,1,5,76,11
2,1,0,0,5,1,1,5,96,11
2,1,11,1,5,1,1,5,88,11
2,1,23,0,5,1,1,5,96,11
2,1,22,0,6,1,1,5,64,11
2,1,9,1,0,0,1,5,20,11
2,1,21,0,0,0,1,5,10,11
2,1,14,1,1,0,1,5,38,11
2,1,18,1,1,0,1,5,88,11
2,1,19,1,4,0,1,5,10,11
2,1,20,1,4,0,1,5,10,11
2,1,18,1,0,0,1,5,64,11
2,1,10,1,1,0,1,5,64,11
2,1,18,1,3,0,1,5,64,11
2,1,10,1,4,0,1,5,88,11
2,1,18,1,4,0,1,5,106,11
2,1,22,0,5,1,1,5,88,11
2,1,22,0,5,1,1,5,88,11
2,1,3,0,6,1,1,5,88,11
2,1,4,0,6,1,1,5,88,11
2,1,18,1,6,1,1,5,64,11
2,1,18,1,6,1,1,5,30,9
2,1,19,1,6,1,1,5,64,11
3,2,20,1,1,0,1,5,64,11
3,2,2,0,2,0,1,5,88,11
3,2,20,1,3,0,1,5,9,8
3,2,9,1,4,0,1,5,9,11
3,2,16,1,4,0,1,5,64,11
3,2,15,1,5,1,1,5,88,11
3,2,11,1,3,0,1,5,72,11
3,2,16,1,5,1,1,5,90,11
3,2,1,0,6,1,1,5,64,11
3,2,19,1,6,1,1,5,88,11
3,2,2,0,1,0,1,5,64,11
3,2,2,0,1,0,1,5,55,11
3,2,13,1,1,0,1,5,88,11
3,2,13,1,1,0,1,5,47,11
3,2,21,0,1,0,1,5,64,11
3,2,22,0,1,0,1,5,99,11
3,2,5,0,2,0,1,5,88,11
3,2,21,0,2,0,1,5,64,11
3,2,4,0,3,0,1,5,64,8
3,2,21,0,3,0,1,5,64,11
3,2,8,1,4,0,1,5,72,11
3,2,15,1,5,1,1,5,88,11
3,2,17,1,5,1,1,5,64,11
3,2,6,0,0,0,1,5,88,11
3,2,10,1,1,0,1,5,64,11
3,2,0,0,2,0,1,5,72,11
3,2,20,1,3,0,1,5,88,11
3,2,21,0,3,0,1,5,64,11
3,2,6,0,5,1,1,5,88,11
3,2,19,1,5,1,1,5,96,11
3,2,17,1,1,0,1,5,64,11
3,2,21,0,2,0,1,5,15,8
3,2,3,0,3,0,1,5,88,11
3,2,19,1,3,0,1,5,29,11
4,2,15,1,4,0,2,5,64,11
4,2,4,0,5,1,2,5,64,11
4,2,17,1,5,1,2,5,88,11
4,2,19,1,5,1,2,5,88,11
4,2,19,1,5,1,2,5,88,11
4,2,22,0,5,1,2,5,55,11
4,2,1,0,6,1,2,5,88,11
4,2,11,1,6,1,2,5,64,11
4,2,21,0,1,0,2,5,88,11
4,2,16,1,5,1,2,5,38,11
4,2,23,0,5,1,2,5,88,11
4,2,22,0,4,0,2,5,64,11
4,2,4,0,5,1,2,5,88,11
4,2,4,0,5,1,2,5,88,11
4,2,4,0,5,1,2,5,88,11
4,2,6,0,5,1,2,5,88,11
4,2,12,1,5,1,2,5,88,11
4,2,19,1,5,1,2,5,47,11
4,2,4,0,6,1,2,5,64,11
4,2,13,1,0,0,2,5,64,11
4,2,21,0,1,0,2,5,88,11
4,2,2,0,3,0,2,5,88,11
4,2,4,0,3,0,2,5,72,11
4,2,14,1,4,0,2,5,9,11
4,2,19,1,4,0,2,5,72,11
4,2,23,0,5,1,2,5,72,11
4,2,0,0,6,1,2,5,88,11
4,2,1,0,6,1,2,5,88,11
4,2,2,0,6,1,2,5,10,11
4,2,2,0,6,1,2,5,64,11
4,2,2,0,6,1,2,5,88,11
4,2,6,0,6,1,2,5,88,11
4,2,16,1,6,1,2,5,88,11
4,2,0,0,3,0,2,5,72,11
4,2,22,0,3,0,2,5,64,11
4,2,13,1,4,0,2,5,47,8
4,2,16,1,4,0,2,5,96,11
4,2,19,1,4,0,2,5,64,11
4,2,2,0,5,1,2,5,96,11
5,2,15,1,1,0,2,5,38,11
5,2,17,1,3,0,2,5,72,8
5,2,19,1,3,0,2,5,99,11
5,2,1,0,6,1,2,5,88,11
5,2,2,0,0,0,2,5,55,11
5,2,10,1,1,0,2,5,47,11
5,2,18,1,1,0,2,5,64,11
5,2,6,0,4,0,2,5,88,11
5,2,16,1,4,0,2,5,64,9
5,2,21,0,4,0,2,5,105,11
5,2,23,0,5,1,2,5,86,11
5,2,0,0,0,0,2,5,64,11
5,2,14,1,0,0,2,5,64,11
5,2,10,1,3,0,2,5,64,11
5,2,19,1,3,0,2,5,41,11
5,2,0,0,4,0,2,5,96,11
5,2,2,0,4,0,2,5,88,11
5,2,11,1,4,0,2,5,9,11
5,2,21,0,4,0,2,5,64,11
5,2,23,0,4,0,2,5,96,11
5,2,4,0,5,1,2,5,88,11
5,2,19,1,5,1,2,5,88,11
5,2,9,1,6,1,2,5,64,11
5,2,0,0,0,0,2,5,20,11
5,2,0,0,0,0,2,5,20,11
5,2,16,1,0,0,2,5,90,11
5,2,17,1,0,0,2,5,64,11
5,2,18,1,1,0,2,5,90,11
5,2,0,0,2,0,2,5,90,11
5,2,3,0,2,0,2,5,96,11
5,2,10,1,2,0,2,5,30,11
5,2,22,0,4,0,2,5,10,11
5,2,4,0,5,1,2,5,64,11
5,2,19,1,5,1,2,5,10,11
5,2,0,0,1,0,2,5,72,11
5,2,16,1,1,0,2,5,64,11
6,3,6,0,2,0,2,5,88,11
6,3,23,0,2,0,2,5,64,11
6,3,2,0,4,0,2,5,88,11
6,3,3,0,4,0,2,5,88,11
6,3,23,0,5,1,2,5,64,11
6,3,0,0,6,1,2,5,20,11
6,3,2,0,6,1,2,5,88,11
6,3,10,1,0,0,2,5,20,11
6,3,22,0,1,0,2,5,20,11
6,3,15,1,2,0,2,5,9,11
6,3,17,1,3,0,2,5,10,11
6,3,19,1,4,0,2,5,10,11
6,3,0,0,5,1,2,5,88,11
6,3,11,1,5,1,2,5,64,11
6,3,14,1,6,1,2,5,88,11
6,3,3,0,0,0,2,5,56,11
6,3,15,1,1,0,2,5,30,11
6,3,16,1,1,0,2,5,64,11
6,3,19,1,3,0,2,5,64,11
6,3,2,0,5,1,2,5,20,11
6,3,2,0,5,1,2,5,20,11
6,3,4,0,5,1,2,5,64,11
6,3,18,1,5,1,2,5,64,11
6,3,0,0,6,1,2,5,64,11
6,3,4,0,6,1,2,5,96,11
6,3,6,0,6,1,2,5,96,11
6,3,13,1,6,1,2,5,64,11
6,3,17,1,0,0,2,5,20,11
6,3,23,0,1,0,2,5,10,11
6,3,2,0,2,0,2,5,88,11
6,3,8,1,2,0,2,5,64,11
6,3,23,0,5,1,2,5,20,11
6,3,0,0,0,0,2,5,23,11
6,3,23,0,1,0,2,5,115,11
6,3,13,1,3,0,2,5,75,11
6,3,18,1,3,0,2,5,64,11
7,3,8,1,4,0,3,5,64,11
7,3,0,0,6,1,3,5,20,8
7,3,6,0,1,0,3,5,75,11
7,3,20,1,1,0,3,5,10,9
7,3,23,0,1,0,3,5,104,11
7,3,1,0,2,0,3,5,38,11
7,3,4,0,2,0,3,5,64,11
7,3,7,1,2,0,3,5,88,11
7,3,15,1,2,0,3,5,99,11
7,3,14,1,3,0,3,5,47,11
7,3,3,0,4,0,3,5,20,11
7,3,4,0,4,0,3,5,72,8
7,3,10,1,4,0,3,5,88,11
7,3,12,1,4,0,3,5,20,11
7,3,22,0,4,0,3,5,88,11
7,3,9,1,6,1,3,5,61,11
7,3,4,0,0,0,3,5,20,11
7,3,18,1,2,0,3,5,47,11
7,3,11,1,3,0,3,5,10,11
7,3,23,0,3,0,3,5,64,11
7,3,18,1,4,0,3,5,64,11
7,3,15,1,6,1,3,5,64,11
7,3,3,0,0,0,3,5,88,11
7,3,6,0,5,1,3,5,88,11
7,3,17,1,5,1,3,5,41,11
7,3,18,1,5,1,3,5,10,11
7,3,21,0,5,1,3,5,64,11
7,3,3,0,0,0,3,5,64,11
7,3,6,0,2,0,3,5,88,11
7,3,19,1,2,0,3,5,64,11
7,3,4,0,3,0,3,5,88,11
7,3,4,0,3,0,3,5,88,11
7,3,5,0,3,0,3,5,88,11
7,3,5,0,3,0,3,5,88,11
7,3,5,0,3,0,3,5,88,11
7,3,5,0,3,0,3,5,88,11
7,3,1,0,4,0,3,5,88,11
7,3,16,1,4,0,3,5,88,11
7,3,20,1,4,0,3,5,64,11
7,3,21,0,4,0,3,5,88,11
7,3,16,1,5,1,3,5,64,11
8,3,6,0,0,0,3,5,64,11
8,3,11,1,1,0,3,5,47,11
8,3,1,0,4,0,3,5,64,11
8,3,14,1,4,0,3,5,64,11
8,3,23,0,5,1,3,5,88,11
8,3,4,0,6,1,3,5,88,11
8,3,20,1,0,0,3,5,88,11
8,3,4,0,1,0,3,5,88,11
8,3,16,1,1,0,3,5,88,11
8,3,16,1,1,0,3,5,88,11
8,3,22,0,1,0,3,5,88,11
8,3,1,0,2,0,3,5,88,11
8,3,1,0,2,0,3,5,88,11
8,3,1,0,2,0,3,5,88,11
8,3,2,0,2,0,3,5,88,11
8,3,10,1,2,0,3,5,96,11
8,3,22,0,2,0,3,5,88,11
8,3,4,0,5,1,3,5,88,11
8,3,11,1,1,0,3,5,9,11
8,3,13,1,1,0,3,5,96,11
8,3,14,1,1,0,3,5,64,11
8,3,14,1,1,0,3,5,88,11
8,3,20,1,3,0,3,5,79,11
8,3,2,0,5,1,3,5,96,11
8,3,5,0,5,1,3,5,96,11
8,3,19,1,5,1,3,5,61,11
8,3,14,1,6,1,3,5,88,11
8,3,14,1,6,1,3,5,88,11
8,3,14,1,6,1,3,5,96,11
8,3,17,1,6,1,3,5,64,11
8,3,3,0,2,0,3,5,64,11
8,3,3,0,3,0,3,5,64,11
8,3,5,0,3,0,3,5,64,11
8,3,19,1,5,1,3,5,64,11
8,3,5,0,6,1,3,5,88,11
8,3,2,0,2,0,3,5,88,11
8,3,20,1,2,0,3,5,64,11
9,4,23,0,3,0,3,5,64,11
9,4,20,1,0,0,3,5,20,11
9,4,8,1,1,0,3,5,64,8
9,4,23,0,2,0,3,5,88,11
9,4,14,1,3,0,3,5,88,11
9,4,19,1,3,0,3,5,96,11
9,4,12,1,4,0,3,5,88,11
9,4,22,0,4,0,3,5,88,11
9,4,7,1,6,1,3,5,88,11
9,4,7,1,6,1,3,5,88,11
9,4,17,1,6,1,3,5,10,11
9,4,20,1,6,1,3,5,64,11
9,4,5,0,1,0,3,5,9,11
9,4,17,1,2,0,3,5,88,11
9,4,14,1,1,0,3,5,75,11
9,4,17,1,1,0,3,5,9,11
9,4,14,1,4,0,3,5,64,11
9,4,20,1,5,1,3,5,88,11
9,4,20,1,5,1,3,5,88,11
9,4,17,1,6,1,3,5,64,11
9,4,11,1,3,0,3,5,64,11
9,4,23,0,3,0,3,5,9,11
10,4,16,1,5,1,4,5,47,11
10,4,11,1,2,0,4,5,20,11
10,4,10,1,4,0,4,5,88,11
10,4,16,1,5,1,4,5,64,11
10,4,5,0,0,0,4,5,88,11
10,4,19,1,1,0,4,5,55,11
10,4,20,1,3,0,4,5,88,11
10,4,1,0,4,0,4,5,96,11
10,4,2,0,4,0,4,5,104,11
10,4,11,1,6,1,4,5,38,11
10,4,10,1,0,0,4,5,64,11
10,4,13,1,1,0,4,5,20,11
10,4,5,0,4,0,4,5,88,11
10,4,6,0,4,0,4,5,88,11
10,4,6,0,4,0,4,5,88,11
10,4,0,0,5,1,4,5,20,11
10,4,2,0,5,1,4,5,88,11
10,4,19,1,6,1,4,5,88,11
10,4,5,0,2,0,4,5,88,11
10,4,20,1,2,0,4,5,88,11
10,4,1,0,4,0,4,5,20,11
10,4,3,0,4,0,4,5,88,11
10,4,14,1,4,0,4,5,38,11
10,4,21,0,5,1,4,5,88,11
10,4,3,0,6,1,4,5,88,11
11,4,2,0,1,0,4,5,96,11
11,4,0,0,2,0,4,5,20,11
11,4,16,1,2,0,4,5,9,11
11,4,20,1,3,0,4,5,18,11
11,4,20,1,4,0,4,5,88,11
11,4,20,1,4,0,4,5,88,11
11,4,23,0,4,0,4,5,88,9
11,4,23,0,4,0,4,5,88,11
11,4,23,0,6,1,4,5,88,11
11,4,2,0,0,0,4,5,64,11
11,4,10,1,3,0,4,5,61,11
11,4,21,0,4,0,4,5,88,11
11,4,8,1,5,1,4,5,20,11
11,4,17,1,6,1,4,5,88,11
11,4,14,1,1,0,4,5,64,11
11,4,4,0,4,0,4,5,88,11
11,4,4,0,5,1,4,5,88,11
11,4,2,0,6,1,4,5,88,11
11,4,23,0,0,0,4,5,64,11
11,4,19,1,2,0,4,5,10,11
11,4,23,0,2,0,4,5,88,11
11,4,3,0,3,0,4,5,88,11
11,4,18,1,3,0,4,5,88,11
11,4,12,1,4,0,4,5,88,11
11,4,18,1,4,0,4,5,88,11
11,4,5,0,5,1,4,5,88,11
11,4,6,0,5,1,4,5,88,11
11,4,20,1,5,1,4,5,88,11
11,4,20,1,5,1,4,5,88,11
11,4,4,0,6,1,4,5,88,11
11,4,17,1,6,1,4,5,88,11
11,4,19,1,6,1,4,5,88,11
11,4,23,0,6,1,4,5,88,11
11,4,23,0,6,1,4,5,36,11
12,1,9,1,3,0,4,5,20,11
12,1,15,1,3,0,4,5,64,11
12,1,17,1,4,0,4,5,88,11
12,1,21,0,5,1,4,5,88,11
12,1,22,0,5,1,4,5,64,11
12,1,2,0,6,1,4,5,20,9
12,1,2,0,0,0,4,5,88,11
12,1,2,0,0,0,4,5,88,11
12,1,17,1,0,0,4,5,88,11
12,1,21,0,0,0,4,5,88,11
12,1,21,0,0,0,4,5,88,11
12,1,22,0,0,0,4,5,88,11
12,1,22,0,0,0,4,5,88,11
12,1,23,0,0,0,4,5,41,11
12,1,21,0,1,0,4,5,55,11
12,1,22,0,1,0,4,5,96,11
12,1,23,0,1,0,4,5,88,11
12,1,23,0,1,0,4,5,88,11
12,1,5,0,2,0,4,5,88,11
12,1,3,0,3,0,4,5,88,11
12,1,23,0,3,0,4,5,20,8
12,1,13,1,4,0,4,5,20,11
12,1,21,0,5,1,4,5,88,11
12,1,22,0,5,1,4,5,38,11
12,1,22,0,5,1,4,5,88,11
12,1,0,0,6,1,4,5,88,11
12,1,0,0,6,1,4,5,88,11
12,1,22,0,6,1,4,5,20,11
12,1,1,0,1,0,4,5,88,11
12,1,18,1,1,0,4,5,88,11
12,1,20,1,1,0,4,5,88,11
12,1,23,0,2,0,4,5,99,11
12,1,0,0,5,1,4,5,88,11
12,1,2,0,0,0,4,5,20,11
12,1,0,0,1,0,4,5,64,11
12,1,6,0,1,0,4,5,88,11
12,1,20,1,1,0,4,5,20,11
12,1,10,1,2,0,4,5,75,11
12,1,17,1,2,0,4,5,88,11
12,1,21,0,5,1,4,5,64,11
12,1,5,0,0,0,4,5,42,8
12,1,6,0,1,0,4,5,88,11
12,1,6,0,1,0,4,5,88,11
12,1,6,0,1,0,4,5,90,11
12,1,18,1,1,0,4,5,64,11
12,1,21,0,1,0,4,5,88,11
12,1,4,0,2,0,4,5,76,11
12,1,14,1,2,0,4,5,64,11
12,1,1,0,3,0,4,5,88,11
12,1,2,0,3,0,4,5,88,11
12,1,10,1,3,0,4,5,88,11
12,1,14,1,3,0,4,5,10,11
12,1,14,1,3,0,4,5,20,11
12,1,20,1,3,0,4,5,88,11
12,1,11,1,4,0,4,5,47,11
12,1,18,1,5,1,4,5,88,11
1,1,1,0,5,1,1,5,88,11
1,1,23,0,5,1,1,5,64,9
1,1,1,0,6,1,1,5,64,11
1,1,12,1,0,0,1,5,88,11
1,1,17,1,2,0,1,5,88,11
1,1,0,0,3,0,1,5,72,11
1,1,0,0,4,0,1,5,88,11
1,1,7,1,5,1,1,5,38,11
1,1,1,0,6,1,1,5,76,11
1,1,18,1,0,0,1,5,88,11
1,1,2,0,3,0,1,5,20,11
1,1,5,0,4,0,1,5,124,11
1,1,11,1,5,1,1,5,76,11
1,1,1,0,6,1,1,5,63,11
1,1,5,0,6,1,1,5,88,11
1,1,5,0,6,1,1,5,88,11
1,1,5,0,6,1,1,5,88,11
1,1,5,0,6,1,1,5,88,11
1,1,19,1,1,0,1,5,64,11
1,1,9,1,3,0,1,5,88,11
1,1,11,1,3,0,1,5,9,11
1,1,0,0,4,0,1,5,88,11
1,1,22,0,4,0,1,5,9,11
1,1,13,1,6,1,1,5,64,11
1,1,17,1,6,1,1,5,23,11
1,1,22,0,6,1,1,5,38,11
1,1,22,0,6,1,1,5,88,11
1,1,16,1,1,0,1,5,101,11
1,1,16,1,1,0,1,5,124,11
1,1,0,0,2,0,1,5,64,11
1,1,9,1,2,0,1,5,90,11
1,1,11,1,3,0,1,5,88,11
1,1,17,1,3,0,1,5,88,11
1,1,13,1,5,1,1,5,64,11
1,1,14,1,6,1,1,5,64,11
1,1,20,1,0,0,1,5,64,11
2,1,18,1,1,0,1,5,90,11
2,1,22,0,1,0,1,5,20,11
2,1,9,1,4,0,1,5,64,11
2,1,0,0,5,1,1,5,90,11
2,1,4,0,5,1,1,5,64,11
2,1,3,0,6,1,1,5,13,11
2,1,13,1,0,0,1,5,96,11
2,1,23,0,0,0,1,5,88,11
2,1,13,1,1,0,1,5,63,9
2,1,16,1,1,0,1,5,90,11
2,1,17,1,1,0,1,5,64,11
2,1,18,1,1,0,1,5,55,11
2,1,20,1,3,0,1,5,90,11
2,1,6,0,4,0,1,5,64,9
2,1,10,1,4,0,1,5,59,11
2,1,2,0,6,1,1,5,88,11
2,1,3,0,0,0,1,5,64,9
2,1,6,0,0,0,1,5,90,11
2,1,23,0,0,0,1,5,88,11
2,1,4,0,1,0,1,5,124,11
2,1,6,0,1,0,1,5,90,11
2,1,22,0,1,0,1,5,101,11
2,1,9,1,2,0,1,5,88,11
2,1,15,1,3,0,1,5,88,11
2,1,5,0,4,0,1,5,88,11
2,1,21,0,6,1,1,5,99,11
2,1,3,0,0,0,1,5,64,11
2,1,17,1,0,0,1,5,64,11
2,1,17,1,0,0,1,5,38,9
2,1,19,1,0,0,1,5,64,11
2,1,7,1,3,0,1,5,63,11
2,1,14,1,3,0,1,5,124,11
2,1,8,1,4,0,1,5,64,9
2,1,16,1,4,0,1,5,23,11
2,1,18,1,4,0,1,5,88,11
2,1,21,0,4,0,1,5,72,11
2,1,21,0,4,0,1,5,124,11
2,1,8,1,5,1,1,5,64,11
2,1,3,0,6,1,1,5,38,11
2,1,13,1,6,1,1,5,38,11
2,1,14,1,0,0,1,5,64,11
2,1,18,1,0,0,1,5,88,11
2,1,22,0,0,0,1,5,88,11
3,2,13,1,1,0,1,5,64,9
3,2,22,0,1,0,1,5,101,11
3,2,1,0,2,0,1,5,72,11
3,2,2,0,2,0,1,5,72,9
3,2,10,1,3,0,1,5,64,11
3,2,20,1,3,0,1,5,90,11
3,2,21,0,3,0,1,5,64,11
3,2,22,0,3,0,1,5,88,11
3,2,6,0,4,0,1,5,64,11
3,2,8,1,4,0,1,5,101,11
3,2,10,1,4,0,1,5,64,11
3,2,19,1,4,0,1,5,1,11
3,2,8,1,5,1,1,5,96,11
3,2,17,1,5,1,1,5,64,11
3,2,10,1,6,1,1,5,64,11
3,2,13,1,0,0,1,5,88,11
3,2,19,1,0,0,1,5,88,11
3,2,23,0,1,0,1,5,72,11
3,2,4,0,2,0,1,5,72,11
3,2,16,1,2,0,1,5,28,9
3,2,22,0,2,0,1,5,64,11
3,2,1,0,3,0,1,5,64,11
3,2,8,1,3,0,1,5,72,11
3,2,21,0,3,0,1,5,88,11
3,2,14,1,4,0,1,5,72,8
3,2,10,1,6,1,1,5,87,11
3,2,13,1,6,1,1,5,84,11
3,2,13,1,6,1,1,5,88,11
3,2,13,1,0,0,1,5,124,8
3,2,4,0,1,0,1,5,115,11
3,2,18,1,1,0,1,5,89,11
3,2,20,1,2,0,1,5,101,11
3,2,0,0,3,0,1,5,101,11
3,2,0,0,3,0,1,5,101,11
3,2,23,0,3,0,1,5,38,11
3,2,7,1,4,0,1,5,88,11
3,2,8,1,4,0,1,5,90,11
3,2,18,1,4,0,1,5,96,11
3,2,0,0,5,1,1,5,88,11
3,2,13,1,5,1,1,5,64,11
3,2,16,1,5,1,1,5,64,11
3,2,18,1,5,1,1,5,88,11
3,2,19,1,5,1,1,5,10,11
3,2,22,0,5,1,1,5,75,11
3,2,21,0,6,1,1,5,124,11
3,2,5,0,0,0,1,5,75,9
3,2,22,0,0,0,1,5,88,11
3,2,1,0,1,0,1,5,64,11
3,2,13,1,1,0,1,5,88,11
3,2,15,1,1,0,1,5,64,11
3,2,19,1,1,0,1,5,101,11
3,2,22,0,1,0,1,5,79,11
3,2,14,1,2,0,1,5,9,11
3,2,18,1,2,0,1,5,75,11
3,2,17,1,3,0,1,5,88,11
3,2,19,1,3,0,1,5,88,11
3,2,0,0,4,0,1,5,88,11
3,2,2,0,4,0,1,5,88,11
3,2,6,0,4,0,1,5,72,11
3,2,22,0,4,0,1,5,88,11
3,2,4,0,5,1,1,5,88,11
3,2,5,0,5,1,1,5,64,9
3,2,7,1,5,1,1,5,88,11
3,2,15,1,5,1,1,5,101,11
3,2,18,1,5,1,1,5,90,11
3,2,20,1,5,1,1,5,64,11
3,2,1,0,6,1,1,5,88,11
3,2,14,1,6,1,1,5,88,11
3,2,1,0,0,0,1,5,88,11
3,2,22,0,0,0,1,5,20,11
3,2,9,1,1,0,1,5,124,11
3,2,19,1,1,0,1,5,38,11
3,2,21,0,1,0,1,5,90,11
3,2,14,1,2,0,1,5,88,11
3,2,22,0,3,0,1,5,64,11
4,2,18,1,4,0,2,5,45,11
4,2,1,0,5,1,2,5,75,11
4,2,14,1,5,1,2,5,88,11
4,2,14,1,5,1,2,5,88,11
4,2,18,1,5,1,2,5,88,11
4,2,18,1,5,1,2,5,88,11
4,2,0,0,1,0,2,5,101,11
4,2,18,1,2,0,2,5,64,11
4,2,0,0,3,0,2,5,88,11
4,2,16,1,3,0,2,5,64,11
4,2,17,1,3,0,2,5,64,11
4,2,6,0,4,0,2,5,124,9
4,2,23,0,4,0,2,5,88,11
4,2,6,0,6,1,2,5,88,11
4,2,0,0,0,0,2,5,64,11
4,2,9,1,0,0,2,5,64,11
4,2,16,1,0,0,2,5,88,11
4,2,19,1,0,0,2,5,88,11
4,2,22,0,0,0,2,5,88,11
4,2,23,0,0,0,2,5,88,11
4,2,10,1,3,0,2,5,64,11
4,2,13,1,3,0,2,5,64,11
4,2,2,0,4,0,2,5,55,11
4,2,6,0,4,0,2,5,64,11
4,2,17,1,4,0,2,5,90,11
4,2,21,0,4,0,2,5,88,11
4,2,21,0,4,0,2,5,64,11
4,2,22,0,5,1,2,5,63,11
4,2,9,1,0,0,2,5,84,11
4,2,21,0,0,0,2,5,88,11
4,2,12,1,1,0,2,5,75,9
4,2,16,1,2,0,2,5,64,11
4,2,15,1,4,0,2,5,88,11
4,2,20,1,4,0,2,5,64,11
4,2,14,1,5,1,2,5,88,11
4,2,23,0,5,1,2,5,88,11
4,2,0,0,6,1,2,5,101,11
4,2,0,0,6,1,2,5,88,11
4,2,0,0,6,1,2,5,99,11
4,2,1,0,6,1,2,5,96,11
4,2,1,0,6,1,2,5,88,11
4,2,1,0,6,1,2,5,64,9
4,2,2,0,6,1,2,5,88,11
4,2,2,0,6,1,2,5,90,11
4,2,5,0,6,1,2,5,64,11
4,2,14,1,6,1,2,5,64,11
4,2,16,1,6,1,2,5,64,11
4,2,6,0,0,0,2,5,88,11
4,2,13,1,1,0,2,5,101,11
4,2,17,1,1,0,2,5,64,11
4,2,19,1,1,0,2,5,64,9
4,2,13,1,3,0,2,5,45,11
4,2,16,1,3,0,2,5,64,9
4,2,0,0,4,0,2,5,64,11
4,2,3,0,4,0,2,5,64,11
4,2,19,1,4,0,2,5,90,11
4,2,6,0,5,1,2,5,90,9
4,2,12,1,5,1,2,5,90,11
5,2,2,0,6,1,2,5,88,11
5,2,12,1,6,1,2,5,14,11
5,2,10,1,2,0,2,5,101,11
5,2,0,0,3,0,2,5,64,9
5,2,9,1,3,0,2,5,38,11
5,2,23,0,3,0,2,5,88,11
5,2,9,1,4,0,2,5,88,11
5,2,8,1,5,1,2,5,9,8
5,2,18,1,5,1,2,5,90,9
5,2,8,1,6,1,2,5,96,11
5,2,18,1,6,1,2,5,38,11
5,2,8,1,1,0,2,5,9,11
5,2,11,1,1,0,2,5,90,11
5,2,14,1,1,0,2,5,64,11
5,2,19,1,1,0,2,5,90,11
5,2,23,0,1,0,2,5,124,11
5,2,1,0,2,0,2,5,124,11
5,2,2,0,2,0,2,5,64,11
5,2,13,1,2,0,2,5,64,11
5,2,19,1,2,0,2,5,88,11
5,2,3,0,3,0,2,5,124,11
5,2,10,1,3,0,2,5,88,11
5,2,11,1,3,0,2,5,63,11
5,2,13,1,3,0,2,5,101,11
5,2,17,1,3,0,2,5,90,11
5,2,23,0,3,0,2,5,88,11
5,2,2,0,4,0,2,5,9,9
5,2,5,0,4,0,2,5,55,9
5,2,6,0,4,0,2,5,88,11
5,2,17,1,4,0,2,5,30,8
5,2,6,0,5,1,2,5,9,9
5,2,19,1,5,1,2,5,9,11
5,2,8,1,0,0,2,5,38,11
5,2,13,1,0,0,2,5,90,11
5,2,0,0,1,0,2,5,64,9
5,2,10,1,1,0,2,5,88,11
5,2,11,1,1,0,2,5,88,11
5,2,6,0,3,0,2,5,14,11
5,2,10,1,3,0,2,5,9,11
5,2,21,0,3,0,2,5,64,11
5,2,1,0,4,0,2,5,14,8
5,2,20,1,4,0,2,5,88,11
5,2,3,0,5,1,2,5,75,11
5,2,6,0,5,1,2,5,88,11
5,2,13,1,5,1,2,5,90,11
5,2,4,0,6,1,2,5,47,11
5,2,5,0,6,1,2,5,88,11
5,2,8,1,0,0,2,5,72,11
5,2,15,1,0,0,2,5,90,11
5,2,11,1,1,0,2,5,64,11
5,2,14,1,1,0,2,5,9,11
5,2,14,1,1,0,2,5,88,11
5,2,17,1,1,0,2,5,88,11
5,2,18,1,1,0,2,5,88,11
5,2,9,1,2,0,2,5,99,11
5,2,15,1,2,0,2,5,90,9
5,2,9,1,4,0,2,5,88,11
5,2,19,1,4,0,2,5,88,9
5,2,12,1,5,1,2,5,90,11
5,2,17,1,0,0,2,5,64,11
5,2,19,1,0,0,2,5,90,9
5,2,10,1,1,0,2,5,64,11
6,3,17,1,2,0,2,5,90,11
6,3,0,0,3,0,2,5,88,11
6,3,2,0,3,0,2,5,75,11
6,3,15,1,4,0,2,5,90,11
6,3,10,1,5,1,2,5,124,11
6,3,0,0,0,0,2,5,90,11
6,3,5,0,1,0,2,5,23,11
6,3,0,0,2,0,2,5,88,11
6,3,7,1,2,0,2,5,90,11
6,3,11,1,2,0,2,5,88,11
6,3,15,1,2,0,2,5,101,11
6,3,20,1,2,0,2,5,88,11
6,3,0,0,3,0,2,5,88,11
6,3,3,0,3,0,2,5,88,11
6,3,9,1,3,0,2,5,90,11
6,3,10,1,3,0,2,5,84,9
6,3,15,1,4,0,2,5,90,11
6,3,21,0,4,0,2,5,90,11
6,3,2,0,6,1,2,5,88,11
6,3,5,0,0,0,2,5,72,9
6,3,12,1,1,0,2,5,88,11
6,3,13,1,1,0,2,5,90,11
6,3,22,0,1,0,2,5,9,11
6,3,2,0,2,0,2,5,9,11
6,3,8,1,2,0,2,5,64,11
6,3,9,1,2,0,2,5,1,8
6,3,19,1,2,0,2,5,47,11
6,3,4,0,3,0,2,5,90,11
6,3,5,0,3,0,2,5,101,11
6,3,10,1,3,0,2,5,75,11
6,3,1,0,4,0,2,5,97,11
6,3,3,0,5,1,2,5,76,11
6,3,18,1,5,1,2,5,84,11
6,3,23,0,6,1,2,5,64,11
6,3,6,0,0,0,2,5,124,11
6,3,17,1,0,0,2,5,64,11
6,3,1,0,1,0,2,5,64,11
6,3,4,0,3,0,2,5,88,11
6,3,4,0,3,0,2,5,9,11
6,3,14,1,3,0,2,5,64,11
6,3,15,1,5,1,2,5,90,11
6,3,6,0,0,0,2,5,38,11
6,3,20,1,0,0,2,5,90,11
6,3,19,1,1,0,2,5,90,11
6,3,20,1,1,0,2,5,38,11
6,3,21,0,1,0,2,5,96,11
6,3,2,0,2,0,2,5,124,11
6,3,8,1,2,0,2,5,9,11
6,3,11,1,2,0,2,5,101,11
7,3,9,1,4,0,3,5,99,11
7,3,22,0,4,0,3,5,90,11
7,3,5,0,5,1,3,5,38,11
7,3,21,0,5,1,3,5,90,9
7,3,0,0,0,0,3,5,90,11
7,3,12,1,0,0,3,5,88,11
7,3,19,1,0,0,3,5,64,11
7,3,21,0,0,0,3,5,72,11
7,3,2,0,1,0,3,5,96,11
7,3,17,1,1,0,3,5,88,11
7,3,5,0,2,0,3,5,101,11
7,3,21,0,4,0,3,5,124,11
7,3,17,1,6,1,3,5,88,11
7,3,8,1,0,0,3,5,9,11
7,3,11,1,0,0,3,5,64,11
7,3,22,0,0,0,3,5,64,11
7,3,4,0,1,0,3,5,47,11
7,3,4,0,2,0,3,5,106,11
7,3,12,1,3,0,3,5,88,11
7,3,14,1,3,0,3,5,90,11
7,3,14,1,5,1,3,5,64,11
7,3,2,0,6,1,3,5,96,11
7,3,5,0,6,1,3,5,64,11
7,3,14,1,0,0,3,5,64,11
7,3,1,0,2,0,3,5,55,9
7,3,19,1,2,0,3,5,90,9
7,3,21,0,2,0,3,5,38,9
7,3,6,0,3,0,3,5,9,11
7,3,0,0,4,0,3,5,88,11
7,3,3,0,4,0,3,5,88,11
7,3,6,0,4,0,3,5,101,11
7,3,21,0,4,0,3,5,88,11
7,3,14,1,5,1,3,5,90,9
7,3,16,1,5,1,3,5,64,11
7,3,19,1,5,1,3,5,88,11
7,3,21,0,6,1,3,5,88,11
7,3,14,1,0,0,3,5,9,9
7,3,22,0,0,0,3,5,14,11
7,3,1,0,1,0,3,5,55,11
7,3,21,0,1,0,3,5,124,11
7,3,13,1,2,0,3,5,101,11
7,3,22,0,2,0,3,5,88,11
7,3,22,0,2,0,3,5,124,11
7,3,5,0,3,0,3,5,88,11
7,3,8,1,3,0,3,5,38,11
7,3,23,0,3,0,3,5,101,11
7,3,0,0,4,0,3,5,20,11
7,3,1,0,4,0,3,5,124,11
7,3,1,0,4,0,3,5,124,11
7,3,9,1,4,0,3,5,20,11
7,3,21,0,4,0,3,5,88,11
7,3,14,1,5,1,3,5,64,9
7,3,19,1,5,1,3,5,99,11
8,3,13,1,0,0,3,5,18,11
8,3,15,1,0,0,3,5,88,11
8,3,2,0,1,0,3,5,72,9
8,3,17,1,3,0,3,5,88,11
8,3,22,0,3,0,3,5,90,11
8,3,2,0,4,0,3,5,90,11
8,3,3,0,4,0,3,5,88,11
8,3,5,0,4,0,3,5,64,11
8,3,15,1,4,0,3,5,102,11
8,3,20,1,4,0,3,5,64,11
8,3,23,0,4,0,3,5,90,11
8,3,1,0,5,1,3,5,124,11
8,3,2,0,6,1,3,5,9,11
8,3,11,1,6,1,3,5,101,11
8,3,1,0,1,0,3,5,124,11
8,3,3,0,1,0,3,5,124,11
8,3,6,0,1,0,3,5,9,8
8,3,8,1,2,0,3,5,64,11
8,3,8,1,2,0,3,5,9,11
8,3,20,1,3,0,3,5,90,11
8,3,11,1,6,1,3,5,90,11
8,3,13,1,6,1,3,5,88,11
8,3,15,1,6,1,3,5,64,11
8,3,14,1,1,0,3,5,88,11
8,3,21,0,1,0,3,5,88,11
8,3,11,1,2,0,3,5,9,8
8,3,1,0,3,0,3,5,64,11
8,3,15,1,3,0,3,5,64,9
8,3,17,1,4,0,3,5,64,11
8,3,13,1,6,1,3,5,64,8
8,3,16,1,6,1,3,5,90,11
8,3,11,1,2,0,3,5,88,11
8,3,13,1,0,0,3,5,88,11
8,3,15,1,0,0,3,5,14,11
8,3,18,1,0,0,3,5,64,11
8,3,20,1,0,0,3,5,88,11
8,3,9,1,1,0,3,5,64,11
8,3,21,0,1,0,3,5,88,11
8,3,13,1,2,0,3,5,64,11
8,3,18,1,2,0,3,5,64,11
9,4,4,0,3,0,3,5,88,11
9,4,6,0,3,0,3,5,9,11
9,4,21,0,4,0,3,5,9,11
9,4,17,1,5,1,3,5,88,11
9,4,17,1,6,1,3,5,90,11
9,4,13,1,0,0,3,5,9,11
9,4,15,1,0,0,3,5,90,9
9,4,21,0,1,0,3,5,88,11
9,4,3,0,4,0,3,5,72,11
9,4,12,1,4,0,3,5,88,11
9,4,13,1,4,0,3,5,88,11
9,4,4,0,5,1,3,5,9,11
9,4,12,1,5,1,3,5,9,11
9,4,17,1,5,1,3,5,9,11
9,4,0,0,6,1,3,5,9,11
9,4,7,1,6,1,3,5,38,11
9,4,0,0,0,0,3,5,9,11
9,4,1,0,0,0,3,5,9,11
9,4,17,1,0,0,3,5,90,11
9,4,13,1,1,0,3,5,38,11
9,4,8,1,2,0,3,5,9,11
9,4,20,1,2,0,3,5,90,11
9,4,0,0,4,0,3,5,88,11
9,4,1,0,4,0,3,5,88,11
9,4,23,0,5,1,3,5,90,11
9,4,8,1,0,0,3,5,72,11
9,4,17,1,0,0,3,5,88,11
9,4,14,1,1,0,3,5,57,11
9,4,16,1,1,0,3,5,88,11
9,4,20,1,1,0,3,5,10,11
9,4,20,1,1,0,3,5,88,11
9,4,4,0,2,0,3,5,9,11
9,4,0,0,5,1,3,5,88,11
9,4,10,1,6,1,3,5,72,11
9,4,14,1,6,1,3,5,88,11
9,4,18,1,6,1,3,5,9,8
9,4,21,0,6,1,3,5,90,11
9,4,3,0,1,0,3,5,72,11
9,4,20,1,1,0,3,5,88,11
9,4,15,1,3,0,3,5,55,8
9,4,15,1,3,0,3,5,88,11
9,4,20,1,4,0,3,5,101,11
10,4,3,0,6,1,4,5,124,11
10,4,7,1,6,1,4,5,88,11
10,4,14,1,6,1,4,5,88,11
10,4,8,1,0,0,4,5,90,11
10,4,3,0,1,0,4,5,104,11
10,4,22,0,2,0,4,5,88,11
10,4,23,0,2,0,4,5,64,11
10,4,5,0,3,0,4,5,64,11
10,4,4,0,4,0,4,5,9,11
10,4,5,0,4,0,4,5,9,11
10,4,5,0,4,0,4,5,88,11
10,4,11,1,4,0,4,5,64,11
10,4,19,1,4,0,4,5,124,11
10,4,14,1,6,1,4,5,64,11
10,4,21,0,6,1,4,5,88,11
10,4,0,0,0,0,4,5,88,11
10,4,21,0,0,0,4,5,90,11
10,4,10,1,3,0,4,5,64,11
10,4,19,1,3,0,4,5,88,11
10,4,0,0,4,0,4,5,23,8
10,4,5,0,4,0,4,5,90,11
10,4,13,1,5,1,4,5,72,11
10,4,17,1,5,1,4,5,75,11
10,4,19,1,5,1,4,5,9,11
10,4,19,1,6,1,4,5,9,11
10,4,10,1,0,0,4,5,9,11
10,4,19,1,0,0,4,5,88,11
10,4,7,1,1,0,4,5,88,11
10,4,8,1,1,0,4,5,9,11
10,4,11,1,1,0,4,5,64,11
10,4,6,0,2,0,4,5,88,11
10,4,19,1,2,0,4,5,90,11
10,4,17,1,3,0,4,5,88,11
10,4,0,0,4,0,4,5,14,9
10,4,7,1,6,1,4,5,90,11
10,4,23,0,6,1,4,5,64,11
10,4,2,0,0,0,4,5,75,9
10,4,6,0,0,0,4,5,72,11
10,4,15,1,0,0,4,5,55,11
10,4,1,0,3,0,4,5,88,11
10,4,11,1,3,0,4,5,88,11
10,4,22,0,3,0,4,5,64,11
10,4,2,0,4,0,4,5,64,11
10,4,19,1,4,0,4,5,88,11
10,4,0,0,5,1,4,5,47,11
10,4,20,1,5,1,4,5,90,11
10,4,15,1,6,1,4,5,88,11
10,4,19,1,6,1,4,5,88,11
10,4,15,1,0,0,4,5,64,11
11,4,7,1,2,0,4,5,85,11
11,4,17,1,2,0,4,5,88,11
11,4,17,1,3,0,4,5,55,11
11,4,12,1,6,1,4,5,90,11
11,4,17,1,6,1,4,5,38,11
11,4,1,0,2,0,4,5,9,11
11,4,22,0,2,0,4,5,9,11
11,4,5,0,3,0,4,5,9,9
11,4,21,0,3,0,4,5,88,11
11,4,15,1,4,0,4,5,88,11
11,4,18,1,5,1,4,5,72,11
11,4,8,1,6,1,4,5,109,11
11,4,11,1,0,0,4,5,64,11
11,4,4,0,1,0,4,5,101,11
11,4,6,0,1,0,4,5,88,11
11,4,11,1,1,0,4,5,38,11
11,4,0,0,2,0,4,5,88,11
11,4,11,1,2,0,4,5,88,11
11,4,16,1,2,0,4,5,91,9
11,4,22,0,2,0,4,5,64,11
11,4,23,0,2,0,4,5,88,11
11,4,13,1,3,0,4,5,20,11
11,4,22,0,5,1,4,5,64,11
11,4,1,0,0,0,4,5,72,11
11,4,3,0,0,0,4,5,88,11
11,4,12,1,0,0,4,5,88,11
11,4,18,1,0,0,4,5,9,11
11,4,19,1,1,0,4,5,101,11
11,4,22,0,1,0,4,5,38,11
11,4,0,0,2,0,4,5,88,11
11,4,3,0,2,0,4,5,88,11
11,4,8,1,2,0,4,5,29,11
11,4,12,1,2,0,4,5,9,11
11,4,20,1,3,0,4,5,90,11
11,4,3,0,4,0,4,5,75,11
11,4,10,1,4,0,4,5,96,11
11,4,2,0,6,1,4,5,20,11
11,4,4,0,6,1,4,5,38,9
11,4,12,1,6,1,4,5,90,11
11,4,13,1,6,1,4,5,124,11
11,4,21,0,6,1,4,5,64,11
11,4,21,0,6,1,4,5,64,11
11,4,22,0,0,0,4,5,88,11
11,4,0,0,1,0,4,5,88,11
11,4,0,0,1,0,4,5,88,11
11,4,0,0,1,0,4,5,88,11
11,4,11,1,1,0,4,5,9,9
11,4,15,1,1,0,4,5,124,11
11,4,23,0,2,0,4,5,88,11
12,1,6,0,3,0,4,5,38,11
12,1,13,1,3,0,4,5,88,11
12,1,18,1,3,0,4,5,9,11
12,1,22,0,4,0,4,5,88,11
12,1,11,1,5,1,4,5,101,11
12,1,14,1,5,1,4,5,20,11
12,1,22,0,5,1,4,5,124,11
12,1,5,0,6,1,4,5,88,11
12,1,10,1,6,1,4,5,64,11
12,1,20,1,6,1,4,5,88,11
12,1,6,0,0,0,4,5,88,11
12,1,0,0,2,0,4,5,88,11
12,1,1,0,2,0,4,5,88,11
12,1,5,0,2,0,4,5,88,11
12,1,4,0,3,0,4,5,88,11
12,1,4,0,3,0,4,5,88,11
12,1,12,1,3,0,4,5,63,11
12,1,3,0,4,0,4,5,124,11
12,1,6,0,4,0,4,5,64,11
12,1,11,1,5,1,4,5,88,11
12,1,3,0,6,1,4,5,88,11
12,1,11,1,0,0,4,5,64,11
12,1,1,0,1,0,4,5,124,11
12,1,22,0,1,0,4,5,88,11
12,1,10,1,2,0,4,5,50,11
12,1,23,0,2,0,4,5,88,11
12,1,1,0,3,0,4,5,124,11
12,1,20,1,3,0,4,5,64,11
12,1,22,0,3,0,4,5,75,11
12,1,0,0,4,0,4,5,124,11
12,1,0,0,4,0,4,5,88,11
12,1,3,0,4,0,4,5,20,11
12,1,17,1,4,0,4,5,9,11
12,1,21,0,4,0,4,5,101,11
12,1,23,0,4,0,4,5,88,11
12,1,0,0,5,1,4,5,88,11
12,1,0,0,5,1,4,5,88,11
12,1,1,0,5,1,4,5,88,11
12,1,18,1,5,1,4,5,64,11
12,1,19,1,5,1,4,5,90,11
12,1,20,1,5,1,4,5,124,11
12,1,23,0,6,1,4,5,75,9
12,1,15,1,0,0,4,5,20,11
12,1,16,1,0,0,4,5,88,11
12,1,17,1,0,0,4,5,88,11
12,1,1,0,1,0,4,5,88,11
12,1,10,1,1,0,4,5,88,11
12,1,11,1,1,0,4,5,88,11
12,1,18,1,1,0,4,5,64,11
12,1,0,0,2,0,4,5,88,11
12,1,16,1,2,0,4,5,64,11
12,1,23,0,2,0,4,5,124,11
12,1,9,1,3,0,4,5,96,11
12,1,12,1,3,0,4,5,88,11
12,1,14,1,3,0,4,5,88,11
12,1,15,1,3,0,4,5,75,11
12,1,20,1,3,0,4,5,101,11
12,1,21,0,3,0,4,5,75,11
12,1,22,0,3,0,4,5,96,11
12,1,3,0,4,0,4,5,101,11
12,1,4,0,4,0,4,5,9,11
12,1,23,0,4,0,4,5,64,11
12,1,2,0,5,1,4,5,64,11
12,1,2,0,5,1,4,5,88,11
12,1,4,0,5,1,4,5,9,11
12,1,6,0,6,1,4,5,124,11
12,1,20,1,6,1,4,5,88,11
12,1,22,0,6,1,4,5,96,11
12,1,4,0,0,0,4,5,90,11
12,1,8,1,0,0,4,5,124,11
12,1,8,1,0,0,4,5,124,11
12,1,10,1,1,0,4,5,75,11
12,1,18,1,1,0,4,5,101,11
12,1,20,1,2,0,4,5,20,11
12,1,21,0,2,0,4,5,9,9
12,1,23,0,2,0,4,5,88,11
12,1,13,1,3,0,4,5,101,11
12,1,3,0,4,0,4,5,23,9
12,1,19,1,4,0,4,5,63,11
12,1,20,1,4,0,4,5,38,11
12,1,11,1,5,1,4,5,88,11
12,1,15,1,5,1,4,5,20,11
12,1,18,1,5,1,4,5,38,11
12,1,22,0,5,1,4,5,88,11
1,1,15,1,0,0,1,5,88,11
1,1,1,0,3,0,1,5,64,11
1,1,2,0,3,0,1,5,88,11
1,1,9,1,3,0,1,5,90,11
1,1,18,1,3,0,1,5,88,11
1,1,15,1,0,0,1,5,64,11
1,1,23,0,4,0,1,5,63,11
1,1,2,0,6,1,1,5,64,11
1,1,2,0,1,0,1,5,20,11
1,1,14,1,6,1,1,5,64,11
1,1,13,1,6,1,1,5,64,11
1,1,16,1,6,1,1,5,64,11
2,1,15,1,3,0,1,5,1,11
2,1,3,0,5,1,1,5,88,11
2,1,0,0,6,1,1,5,99,11
2,1,13,1,6,1,1,5,47,11
2,1,12,1,1,0,1,5,1,11
2,1,10,1,3,0,1,5,88,11
2,1,13,1,4,0,1,5,88,11
2,1,15,1,6,1,1,5,64,11
2,1,18,1,6,1,1,5,64,11
2,1,13,1,2,0,1,5,90,11
2,1,1,0,0,0,1,5,88,11
2,1,1,0,2,0,1,5,88,11
2,1,2,0,5,1,1,5,64,11
2,1,12,1,6,1,1,5,38,11
3,2,13,1,1,0,1,5,88,11
3,2,21,0,2,0,1,5,101,11
3,2,18,1,3,0,1,5,88,11
3,2,18,1,3,0,1,5,75,11
3,2,19,1,3,0,1,5,64,11
3,2,23,0,3,0,1,5,64,11
3,2,4,0,5,1,1,5,64,11
3,2,19,1,6,1,1,5,64,11
3,2,11,1,2,0,1,5,1,11
3,2,15,1,2,0,1,5,75,11
3,2,15,1,2,0,1,5,89,11
3,2,3,0,4,0,1,5,88,11
3,2,21,0,6,1,1,5,64,11
3,2,19,1,2,0,1,5,64,11
3,2,21,0,2,0,1,5,1,11
3,2,10,1,3,0,1,5,96,11
3,2,21,0,6,1,1,5,76,11
3,2,13,1,2,0,1,5,88,11
3,2,23,0,3,0,1,5,28,11
3,2,0,0,0,0,1,5,64,11
3,2,3,0,0,0,1,5,88,11
3,2,4,0,0,0,1,5,88,11
3,2,9,1,1,0,1,5,20,9
3,2,22,0,2,0,1,5,64,11
4,2,20,1,1,0,2,5,88,11
4,2,14,1,2,0,2,5,64,11
4,2,16,1,3,0,2,5,20,11
4,2,19,1,4,0,2,5,64,11
4,2,18,1,5,1,2,5,64,9
4,2,8,1,3,0,2,5,88,11
4,2,13,1,4,0,2,5,20,11
4,2,9,1,5,1,2,5,64,11
4,2,16,1,5,1,2,5,59,11
4,2,18,1,0,0,2,5,64,11
4,2,21,0,1,0,2,5,64,11
4,2,4,0,3,0,2,5,99,11
4,2,8,1,3,0,2,5,88,11
4,2,19,1,3,0,2,5,90,11
4,2,3,0,4,0,2,5,20,11
4,2,2,0,6,1,2,5,64,11
4,2,10,1,6,1,2,5,33,11
4,2,13,1,3,0,2,5,88,11
4,2,13,1,3,0,2,5,64,11
4,2,21,0,5,1,2,5,64,11
5,2,22,0,6,1,2,5,38,11
5,2,9,1,1,0,2,5,90,11
5,2,19,1,1,0,2,5,28,11
5,2,21,0,3,0,2,5,64,11
5,2,11,1,1,0,2,5,64,11
5,2,21,0,1,0,2,5,30,11
5,2,22,0,2,0,2,5,88,11
5,2,14,1,5,1,2,5,88,11
5,2,5,0,6,1,2,5,64,11
5,2,16,1,0,0,2,5,88,11
5,2,21,0,1,0,2,5,55,11
5,2,20,1,2,0,2,5,64,11
5,2,11,1,4,0,2,5,38,11
5,2,12,1,4,0,2,5,88,11
5,2,21,0,5,1,2,5,64,11
5,2,11,1,0,0,2,5,88,11
5,2,18,1,0,0,2,5,64,11
5,2,8,1,2,0,2,5,20,11
5,2,4,0,3,0,2,5,47,11
5,2,9,1,3,0,2,5,20,11
5,2,13,1,3,0,2,5,64,11
5,2,20,1,5,1,2,5,64,11
5,2,1,0,0,0,2,5,64,11
5,2,3,0,0,0,2,5,64,11
6,3,22,0,2,0,2,5,90,11
6,3,12,1,3,0,2,5,90,11
6,3,19,1,5,1,2,5,88,11
6,3,3,0,1,0,2,5,115,11
6,3,6,0,1,0,2,5,64,11
6,3,12,1,3,0,2,5,90,11
6,3,0,0,4,0,2,5,97,11
6,3,19,1,5,1,2,5,101,11
6,3,15,1,5,1,2,5,64,11
6,3,20,1,0,0,2,5,20,11
6,3,11,1,1,0,2,5,90,11
6,3,2,0,2,0,2,5,64,11
6,3,23,0,3,0,2,5,64,11
6,3,2,0,4,0,2,5,88,11
6,3,3,0,4,0,2,5,88,11
6,3,9,1,4,0,2,5,64,11
6,3,13,1,5,1,2,5,1,11
6,3,17,1,2,0,2,5,28,11
7,3,23,0,4,0,3,5,88,11
7,3,20,1,6,1,3,5,64,11
7,3,0,0,1,0,3,5,88,11
7,3,2,0,1,0,3,5,20,11
7,3,4,0,2,0,3,5,124,9
7,3,3,0,5,1,3,5,20,11
7,3,17,1,5,1,3,5,38,11
7,3,20,1,5,1,3,5,64,11
7,3,5,0,1,0,3,5,115,11
7,3,6,0,2,0,3,5,20,11
7,3,13,1,4,0,3,5,88,11
7,3,3,0,6,1,3,5,64,11
7,3,12,1,0,0,3,5,20,11
7,3,13,1,1,0,3,5,47,11
7,3,20,1,1,0,3,5,90,11
7,3,21,0,1,0,3,5,88,11
7,3,11,1,4,0,3,5,96,11
7,3,14,1,5,1,3,5,88,11
7,3,23,0,6,1,3,5,64,11
7,3,5,0,3,0,3,5,88,11
7,3,5,0,3,0,3,5,88,11
7,3,5,0,3,0,3,5,88,11
7,3,23,0,3,0,3,5,88,11
7,3,1,0,5,1,3,5,64,11
7,3,5,0,5,1,3,5,64,11
7,3,17,1,5,1,3,5,88,11
7,3,11,1,6,1,3,5,88,11
8,3,10,1,4,0,3,5,124,11
8,3,23,0,6,1,3,5,89,11
8,3,21,0,1,0,3,5,64,11
8,3,7,1,2,0,3,5,63,11
8,3,1,0,6,1,3,5,101,11
8,3,2,0,6,1,3,5,101,11
8,3,2,0,6,1,3,5,101,11
8,3,2,0,6,1,3,5,101,11
8,3,5,0,6,1,3,5,101,11
8,3,11,1,6,1,3,5,72,11
8,3,21,0,6,1,3,5,79,11
8,3,16,1,6,1,3,5,88,11
8,3,16,1,0,0,3,5,20,9
8,3,23,0,6,1,3,5,83,11
8,3,13,1,1,0,3,5,88,11
8,3,22,0,1,0,3,5,88,11
9,4,3,0,3,0,3,5,88,11
9,4,14,1,3,0,3,5,75,11
9,4,5,0,6,1,3,5,55,11
9,4,22,0,0,0,3,5,88,11
9,4,22,0,3,0,3,5,64,11
9,4,2,0,5,1,3,5,124,11
9,4,11,1,6,1,3,5,88,11
9,4,0,0,2,0,3,5,88,11
9,4,22,0,0,0,3,5,64,11
9,4,16,1,2,0,3,5,64,11
9,4,17,1,4,0,3,5,88,11
9,4,17,1,6,1,3,5,20,11
9,4,20,1,0,0,3,5,90,11
9,4,14,1,3,0,3,5,64,11
9,4,16,1,3,0,3,5,64,11
9,4,17,1,3,0,3,5,88,11
10,4,11,1,1,0,4,5,64,11
10,4,13,1,2,0,4,5,88,11
10,4,19,1,4,0,4,5,101,11
10,4,9,1,1,0,4,5,90,11
10,4,11,1,1,0,4,5,96,11
10,4,19,1,1,0,4,5,64,11
10,4,8,1,3,0,4,5,88,11
10,4,16,1,4,0,4,5,75,11
10,4,12,1,5,1,4,5,64,11
10,4,17,1,0,0,4,5,88,11
10,4,0,0,1,0,4,5,88,11
10,4,1,0,1,0,4,5,64,11
10,4,14,1,1,0,4,5,64,11
10,4,22,0,5,1,4,5,75,9
10,4,1,0,1,0,4,5,64,11
10,4,23,0,2,0,4,5,75,9
10,4,15,1,3,0,4,5,88,11
10,4,9,1,5,1,4,5,64,11
11,4,3,0,2,0,4,5,10,11
11,4,16,1,2,0,4,5,101,11
11,4,18,1,4,0,4,5,1,11
11,4,2,0,5,1,4,5,88,11
11,4,20,1,6,1,4,5,64,11
11,4,8,1,1,0,4,5,88,11
11,4,4,0,3,0,4,5,64,11
11,4,18,1,3,0,4,5,88,11
11,4,22,0,0,0,4,5,38,11
11,4,19,1,1,0,4,5,88,11
11,4,5,0,2,0,4,5,20,9
11,4,20,1,2,0,4,5,83,11
11,4,20,1,3,0,4,5,88,11
11,4,3,0,6,1,4,5,64,11
11,4,4,0,6,1,4,5,88,11
11,4,4,0,6,1,4,5,88,11
11,4,22,0,0,0,4,5,88,11
11,4,17,1,4,0,4,5,88,11
11,4,19,1,4,0,4,5,38,11
11,4,22,0,4,0,4,5,88,11
11,4,4,0,5,1,4,5,64,11
11,4,22,0,5,1,4,5,88,11
11,4,0,0,6,1,4,5,20,11
11,4,1,0,6,1,4,5,20,11
11,4,22,0,1,0,4,5,38,11
12,1,1,0,4,0,4,5,88,11
12,1,3,0,4,0,4,5,64,11
12,1,12,1,4,0,4,5,101,11
12,1,20,1,5,1,4,5,1,11
12,1,23,0,5,1,4,5,76,11
12,1,11,1,6,1,4,5,64,11
12,1,12,1,0,0,4,5,88,11
12,1,19,1,0,0,4,5,20,11
12,1,4,0,1,0,4,5,88,11
12,1,12,1,1,0,4,5,88,11
12,1,22,0,1,0,4,5,88,11
12,1,1,0,2,0,4,5,88,11
12,1,11,1,2,0,4,5,64,11
12,1,13,1,2,0,4,5,88,11
12,1,2,0,3,0,4,5,101,11
12,1,1,0,5,1,4,5,20,11
12,1,2,0,5,1,4,5,20,11
12,1,5,0,1,0,4,5,113,11
12,1,16,1,2,0,4,5,28,11
12,1,1,0,5,1,4,5,96,11
12,1,5,0,6,1,4,5,47,11
12,1,14,1,1,0,4,5,75,11
12,1,23,0,1,0,4,5,82,11
12,1,6,0,2,0,4,5,101,11
12,1,17,1,6,1,4,5,88,11
1,1,15,1,6,1,1,5,90,11
1,1,13,1,3,0,1,5,88,11
1,1,20,1,6,1,1,5,96,11
1,1,4,0,4,0,1,5,90,11
2,1,15,1,5,1,1,5,90,11
2,1,0,0,5,1,1,5,20,11
3,2,12,1,2,0,1,5,124,11
4,2,16,1,1,0,2,5,20,11
4,2,21,0,6,1,2,5,75,11
4,2,11,1,3,0,2,5,64,11
4,2,7,1,0,0,2,5,90,11
5,2,15,1,6,1,2,5,1,11
5,2,15,1,1,0,2,5,90,11
8,3,20,1,0,0,3,5,90,11
8,3,13,1,0,0,3,5,90,11
9,4,19,1,4,0,3,5,38,11
10,4,9,1,6,1,4,5,96,11
10,4,22,0,0,0,4,5,20,11
10,4,10,1,6,1,4,5,90,11
1,1,13,1,6,1,1,5,88,11
1,1,20,1,3,0,1,5,64,11
1,1,3,0,0,0,1,5,88,11
1,1,15,1,0,0,1,5,64,11
1,1,22,0,2,0,1,5,64,11
1,1,20,1,5,1,1,5,64,11
1,1,2,0,1,0,1,5,55,11
1,1,0,0,2,0,1,5,64,11
1,1,20,1,2,0,1,5,88,11
1,1,17,1,4,0,1,5,88,11
1,1,10,1,6,1,1,5,64,11
1,1,14,1,1,0,1,5,64,11
1,1,14,1,1,0,1,5,64,11
1,1,16,1,3,0,1,5,64,11
2,1,22,0,4,0,1,5,64,11
2,1,22,0,5,1,1,5,64,11
2,1,0,0,6,1,1,5,88,11
2,1,4,0,2,0,1,5,64,11
2,1,8,1,1,0,1,5,89,11
2,1,23,0,5,1,1,5,64,11
3,2,9,1,5,1,1,5,64,11
3,2,16,1,5,1,1,5,64,11
3,2,20,1,6,1,1,5,88,11
3,2,11,1,0,0,1,5,88,11
3,2,0,0,2,0,1,5,88,11
3,2,0,0,3,0,1,5,64,11
3,2,18,1,3,0,1,5,64,11
3,2,22,0,4,0,1,5,88,11
3,2,22,0,4,0,1,5,88,11
3,2,12,1,5,1,1,5,88,11
3,2,14,1,5,1,1,5,64,11
3,2,7,1,0,0,1,5,72,11
4,2,20,1,5,1,2,5,64,11
4,2,11,1,0,0,2,5,64,11
4,2,10,1,4,0,2,5,64,11
4,2,14,1,0,0,2,5,64,11
4,2,21,0,0,0,2,5,64,11
4,2,13,1,2,0,2,5,72,8
4,2,3,0,4,0,2,5,72,11
4,2,0,0,6,1,2,5,94,11
4,2,1,0,6,1,2,5,64,11
4,2,8,1,6,1,2,5,64,11
4,2,10,1,4,0,2,5,88,11
5,2,3,0,6,1,2,5,64,11
5,2,22,0,0,0,2,5,106,11
5,2,16,1,1,0,2,5,30,11
5,2,14,1,5,1,2,5,88,11
5,2,16,1,5,1,2,5,88,11
5,2,15,1,6,1,2,5,64,11
5,2,1,0,0,0,2,5,64,11
5,2,11,1,2,0,2,5,88,11
5,2,11,1,3,0,2,5,88,11
5,2,23,0,3,0,2,5,55,11
5,2,11,1,4,0,2,5,64,11
5,2,19,1,6,1,2,5,64,11
5,2,0,0,0,0,2,5,96,11
5,2,5,0,1,0,2,5,72,11
5,2,18,1,1,0,2,5,64,11
5,2,3,0,3,0,2,5,64,11
5,2,11,1,3,0,2,5,88,11
5,2,19,1,4,0,2,5,64,11
5,2,4,0,1,0,2,5,88,11
5,2,18,1,1,0,2,5,88,11
5,2,20,1,3,0,2,5,64,11
6,3,15,1,6,1,2,5,88,11
6,3,18,1,6,1,2,5,88,11
6,3,3,0,0,0,2,5,28,11
6,3,15,1,0,0,2,5,88,11
6,3,2,0,1,0,2,5,88,11
6,3,11,1,2,0,2,5,64,11
6,3,3,0,3,0,2,5,88,11
6,3,20,1,3,0,2,5,64,11
6,3,20,1,4,0,2,5,64,11
6,3,14,1,6,1,2,5,64,11
6,3,23,0,2,0,2,5,88,11
6,3,1,0,4,0,2,5,88,8
6,3,1,0,2,0,2,5,88,11
6,3,8,1,3,0,2,5,88,11
6,3,12,1,3,0,2,5,88,11
6,3,20,1,3,0,2,5,64,11
6,3,21,0,3,0,2,5,88,11
6,3,3,0,5,1,2,5,88,11
6,3,8,1,5,1,2,5,64,11
6,3,16,1,5,1,2,5,123,11
6,3,5,0,0,0,2,5,64,11
6,3,16,1,1,0,2,5,64,11
7,3,16,1,4,0,3,5,64,11
7,3,10,1,1,0,3,5,2,11
7,3,14,1,1,0,3,5,88,11
7,3,3,0,5,1,3,5,88,11
7,3,5,0,6,1,3,5,64,11
7,3,3,0,2,0,3,5,88,11
7,3,10,1,2,0,3,5,64,11
7,3,16,1,3,0,3,5,64,11
7,3,17,1,4,0,3,5,64,11
7,3,2,0,0,0,3,5,72,11
7,3,17,1,0,0,3,5,64,11
7,3,2,0,1,0,3,5,88,11
7,3,16,1,2,0,3,5,88,11
7,3,6,0,4,0,3,5,64,11
7,3,23,0,0,0,3,5,55,11
7,3,15,1,1,0,3,5,88,11
7,3,14,1,2,0,3,5,88,11
7,3,13,1,3,0,3,5,88,11
8,3,9,1,0,0,3,5,64,11
8,3,13,1,0,0,3,5,64,11
8,3,16,1,0,0,3,5,64,11
8,3,1,0,1,0,3,5,88,11
8,3,10,1,2,0,3,5,88,11
8,3,2,0,3,0,3,5,64,11
8,3,8,1,3,0,3,5,88,11
8,3,9,1,3,0,3,5,64,11
8,3,14,1,4,0,3,5,90,11
8,3,2,0,5,1,3,5,64,11
8,3,11,1,5,1,3,5,88,11
8,3,16,1,5,1,3,5,88,11
8,3,20,1,6,1,3,5,95,11
8,3,0,0,2,0,3,5,64,11
8,3,22,0,2,0,3,5,72,11
8,3,0,0,6,1,3,5,64,11
8,3,16,1,0,0,3,5,64,8
8,3,1,0,1,0,3,5,64,11
8,3,15,1,2,0,3,5,64,11
9,4,5,0,0,0,3,5,64,8
9,4,3,0,1,0,3,5,64,8
9,4,15,1,3,0,3,5,72,11
9,4,1,0,2,0,3,5,64,11
9,4,12,1,2,0,3,5,45,11
9,4,16,1,2,0,3,5,64,11
9,4,2,0,4,0,3,5,115,11
9,4,2,0,5,1,3,5,88,11
9,4,23,0,0,0,3,5,64,11
9,4,15,1,1,0,3,5,64,11
9,4,3,0,3,0,3,5,60,11
9,4,13,1,5,1,3,5,64,11
9,4,19,1,6,1,3,5,90,11
9,4,12,1,1,0,3,5,64,11
9,4,13,1,1,0,3,5,48,11
9,4,13,1,2,0,3,5,88,11
9,4,10,1,4,0,3,5,9,11
10,4,21,0,2,0,4,5,55,11
10,4,18,1,6,1,4,5,90,11
11,4,14,1,5,1,4,5,64,11
11,4,10,1,0,0,4,5,64,11
11,4,19,1,3,0,4,5,47,11
11,4,23,0,4,0,4,5,101,11
11,4,11,1,0,0,4,5,64,11
11,4,23,0,2,0,4,5,64,11
11,4,13,1,1,0,4,5,64,11
11,4,14,1,3,0,4,5,64,11
11,4,16,1,6,1,4,5,64,11
11,4,3,0,1,0,4,5,55,9
11,4,11,1,2,0,4,5,63,11
12,1,9,1,3,0,4,5,107,11
12,1,14,1,3,0,4,5,64,11
12,1,5,0,1,0,4,5,101,11
12,1,18,1,3,0,4,5,101,11
12,1,8,1,4,0,4,5,72,11
12,1,18,1,5,1,4,5,64,11
12,1,18,1,6,1,4,5,101,11
12,1,7,1,1,0,4,5,64,11
12,1,15,1,3,0,4,5,96,11
12,1,19,1,3,0,4,5,64,11
12,1,17,1,5,1,4,5,23,11
12,1,4,0,6,1,4,5,96,11
12,1,13,1,4,0,4,5,64,11
12,1,9,1,0,0,4,5,64,11
12,1,18,1,3,0,4,5,64,11
1,1,5,0,1,0,1,5,88,11
1,1,20,1,3,0,1,5,72,11
1,1,16,1,4,0,1,5,90,11
1,1,20,1,5,1,1,5,64,11
1,1,19,1,1,0,1,5,72,11
1,1,11,1,2,0,1,5,64,11
1,1,7,1,3,0,1,5,72,11
1,1,16,1,3,0,1,5,75,11
1,1,20,1,6,1,1,5,101,11
1,1,10,1,6,1,1,5,72,11
1,1,14,1,6,1,1,5,88,11
1,1,14,1,0,0,1,5,75,11
1,1,0,0,4,0,1,5,90,11
1,1,3,0,0,0,1,5,75,8
2,1,1,0,2,0,1,5,75,11
2,1,4,0,2,0,1,5,14,8
2,1,7,1,3,0,1,5,20,11
2,1,9,1,3,0,1,5,101,11
2,1,17,1,3,0,1,5,64,11
2,1,18,1,3,0,1,5,20,11
2,1,6,0,4,0,1,5,20,11
2,1,12,1,5,1,1,5,75,11
2,1,0,0,6,1,1,5,101,11
2,1,9,1,6,1,1,5,90,11
2,1,13,1,2,0,1,5,101,11
2,1,1,0,3,0,1,5,20,11
2,1,0,0,4,0,1,5,20,11
2,1,18,1,4,0,1,5,101,11
2,1,17,1,5,1,1,5,90,11
2,1,17,1,6,1,1,5,101,11
2,1,14,1,0,0,1,5,64,11
2,1,0,0,3,0,1,5,124,11
2,1,17,1,3,0,1,5,101,11
2,1,20,1,5,1,1,5,75,11
2,1,14,1,6,1,1,5,38,11
2,1,20,1,0,0,1,5,90,11
2,1,18,1,5,1,1,5,75,11
2,1,1,0,6,1,1,5,124,11
3,2,15,1,3,0,1,5,72,11
3,2,20,1,0,0,1,5,101,11
3,2,1,0,3,0,1,5,72,11
3,2,22,0,3,0,1,5,9,11
3,2,23,0,3,0,1,5,88,11
3,2,15,1,4,0,1,5,101,11
3,2,18,1,5,1,1,5,38,11
3,2,20,1,5,1,1,5,90,11
3,2,23,0,6,1,1,5,72,11
3,2,1,0,2,0,1,5,88,11
3,2,13,1,2,0,1,5,90,11
3,2,19,1,2,0,1,5,101,11
3,2,0,0,3,0,1,5,101,11
3,2,11,1,3,0,1,5,75,11
3,2,21,0,4,0,1,5,101,11
3,2,0,0,5,1,1,5,41,11
3,2,10,1,2,0,1,5,75,11
3,2,13,1,5,1,1,5,90,11
3,2,8,1,0,0,1,5,64,11
3,2,0,0,1,0,1,5,64,11
3,2,13,1,1,0,1,5,90,11
3,2,13,1,2,0,1,5,90,11
4,2,1,0,4,0,2,5,124,11
4,2,17,1,4,0,2,5,70,11
4,2,2,0,6,1,2,5,75,11
4,2,5,0,6,1,2,5,88,11
4,2,13,1,3,0,2,5,90,11
4,2,15,1,3,0,2,5,90,11
4,2,18,1,3,0,2,5,75,11
4,2,18,1,3,0,2,5,75,11
4,2,11,1,4,0,2,5,90,11
4,2,17,1,5,1,2,5,124,11
4,2,19,1,5,1,2,5,64,11
4,2,16,1,6,1,2,5,90,8
4,2,15,1,0,0,2,5,90,11
4,2,19,1,0,0,2,5,38,11
4,2,22,0,1,0,2,5,90,11
4,2,16,1,2,0,2,5,45,8
4,2,9,1,4,0,2,5,90,11
4,2,19,1,4,0,2,5,90,11
4,2,19,1,4,0,2,5,124,11
4,2,21,0,4,0,2,5,75,11
4,2,17,1,5,1,2,5,90,11
4,2,22,0,5,1,2,5,9,11
4,2,15,1,0,0,2,5,64,11
4,2,21,0,5,1,2,5,101,11
4,2,14,1,6,1,2,5,101,11
4,2,20,1,6,1,2,5,90,11
4,2,21,0,0,0,2,5,101,11
4,2,0,0,1,0,2,5,88,11
4,2,14,1,2,0,2,5,90,11
4,2,18,1,2,0,2,5,90,11
4,2,18,1,2,0,2,5,90,11
4,2,1,0,3,0,2,5,90,11
4,2,10,1,3,0,2,5,90,11
4,2,17,1,3,0,2,5,90,11
4,2,13,1,4,0,2,5,33,11
4,2,16,1,4,0,2,5,90,11
4,2,23,0,4,0,2,5,124,11
4,2,9,1,5,1,2,5,90,11
4,2,12,1,5,1,2,5,90,11
4,2,13,1,5,1,2,5,90,11
4,2,21,0,5,1,2,5,90,11
5,2,4,0,6,1,2,5,90,11
5,2,0,0,0,0,2,5,90,11
5,2,22,0,0,0,2,5,1,11
5,2,21,0,1,0,2,5,89,11
5,2,14,1,4,0,2,5,101,11
5,2,11,1,5,1,2,5,89,11
5,2,18,1,6,1,2,5,90,11
5,2,19,1,1,0,2,5,90,11
5,2,22,0,1,0,2,5,90,11
5,2,0,0,3,0,2,5,124,11
5,2,0,0,3,0,2,5,9,11
5,2,1,0,3,0,2,5,124,11
5,2,12,1,3,0,2,5,90,11
5,2,18,1,3,0,2,5,20,11
5,2,20,1,4,0,2,5,90,11
5,2,22,0,4,0,2,5,90,11
5,2,10,1,5,1,2,5,64,11
5,2,17,1,6,1,2,5,72,11
5,2,14,1,0,0,2,5,90,11
5,2,20,1,1,0,2,5,90,11
5,2,20,1,1,0,2,5,90,11
5,2,14,1,4,0,2,5,90,11
5,2,14,1,4,0,2,5,90,11
5,2,17,1,4,0,2,5,90,11
5,2,21,0,4,0,2,5,101,11
5,2,1,0,5,1,2,5,90,11
5,2,13,1,5,1,2,5,30,11
5,2,14,1,5,1,2,5,90,11
5,2,16,1,5,1,2,5,90,11
5,2,0,0,6,1,2,5,90,11
5,2,1,0,6,1,2,5,90,11
5,2,20,1,6,1,2,5,90,11
5,2,21,0,6,1,2,5,90,8
5,2,10,1,0,0,2,5,64,11
5,2,4,0,1,0,2,5,88,11
5,2,10,1,1,0,2,5,123,11
5,2,12,1,2,0,2,5,90,11
5,2,16,1,2,0,2,5,90,9
5,2,23,0,2,0,2,5,90,11
5,2,12,1,3,0,2,5,90,11
5,2,10,1,4,0,2,5,90,11
5,2,12,1,4,0,2,5,90,11
5,2,13,1,4,0,2,5,88,11
5,2,15,1,4,0,2,5,90,11
5,2,2,0,5,1,2,5,88,11
5,2,14,1,6,1,2,5,90,11
5,2,18,1,6,1,2,5,101,11
5,2,20,1,6,1,2,5,90,11
5,2,2,0,0,0,2,5,101,11
5,2,14,1,0,0,2,5,90,11
5,2,16,1,0,0,2,5,90,11
5,2,21,0,0,0,2,5,90,11
5,2,3,0,1,0,2,5,101,11
5,2,21,0,1,0,2,5,90,11
6,3,9,1,3,0,2,5,90,11
6,3,10,1,3,0,2,5,90,11
6,3,15,1,3,0,2,5,90,11
6,3,23,0,3,0,2,5,90,11
6,3,3,0,4,0,2,5,90,11
6,3,4,0,4,0,2,5,38,11
6,3,0,0,5,1,2,5,90,11
6,3,3,0,5,1,2,5,90,11
6,3,14,1,5,1,2,5,90,11
6,3,16,1,5,1,2,5,75,11
6,3,20,1,5,1,2,5,90,11
6,3,21,0,5,1,2,5,90,11
6,3,10,1,6,1,2,5,101,11
6,3,12,1,6,1,2,5,101,11
6,3,16,1,6,1,2,5,101,11
6,3,23,0,6,1,2,5,90,11
6,3,20,1,2,0,2,5,90,11
6,3,22,0,2,0,2,5,64,11
6,3,1,0,3,0,2,5,90,11
6,3,5,0,3,0,2,5,55,11
6,3,15,1,3,0,2,5,75,11
6,3,13,1,4,0,2,5,90,11
6,3,22,0,4,0,2,5,90,11
6,3,8,1,5,1,2,5,101,11
6,3,12,1,5,1,2,5,90,11
6,3,23,0,5,1,2,5,101,11
6,3,15,1,1,0,2,5,101,11
6,3,0,0,2,0,2,5,90,11
6,3,19,1,2,0,2,5,90,11
6,3,22,0,2,0,2,5,90,11
6,3,22,0,4,0,2,5,9,11
6,3,1,0,5,1,2,5,88,11
6,3,10,1,5,1,2,5,90,11
6,3,11,1,5,1,2,5,90,11
6,3,14,1,5,1,2,5,88,11
6,3,14,1,5,1,2,5,88,11
6,3,1,0,6,1,2,5,88,11
6,3,12,1,0,0,2,5,90,11
6,3,17,1,0,0,2,5,90,11
6,3,20,1,0,0,2,5,90,11
6,3,21,0,0,0,2,5,90,11
6,3,23,0,0,0,2,5,90,11
6,3,21,0,1,0,2,5,101,11
6,3,0,0,2,0,2,5,101,11
6,3,17,1,2,0,2,5,90,11
6,3,0,0,3,0,2,5,96,11
6,3,0,0,3,0,2,5,90,11
6,3,10,1,3,0,2,5,1,11
6,3,12,1,3,0,2,5,90,11
6,3,12,1,3,0,2,5,90,11
6,3,22,0,3,0,2,5,90,11
6,3,10,1,4,0,2,5,88,11
6,3,8,1,5,1,2,5,101,11
6,3,19,1,5,1,2,5,101,11
6,3,21,0,5,1,2,5,90,11
6,3,21,0,5,1,2,5,90,11
6,3,14,1,6,1,2,5,101,11
6,3,13,1,0,0,2,5,90,11
6,3,17,1,0,0,2,5,45,11
6,3,0,0,1,0,2,5,90,11
6,3,21,0,1,0,2,5,72,11
6,3,14,1,2,0,2,5,101,11
6,3,0,0,3,0,2,5,90,11
6,3,3,0,3,0,2,5,101,11
6,3,22,0,3,0,2,5,90,11
7,3,23,0,4,0,3,5,90,11
7,3,15,1,6,1,3,5,90,11
7,3,15,1,0,0,3,5,90,11
7,3,11,1,1,0,3,5,101,11
7,3,17,1,1,0,3,5,101,11
7,3,18,1,1,0,3,5,101,11
7,3,22,0,1,0,3,5,101,11
7,3,23,0,1,0,3,5,101,11
7,3,5,0,2,0,3,5,101,11
7,3,21,0,3,0,3,5,90,11
7,3,1,0,5,1,3,5,90,11
7,3,0,0,0,0,3,5,90,11
7,3,3,0,0,0,3,5,90,11
7,3,22,0,2,0,3,5,90,11
7,3,9,1,3,0,3,5,75,11
7,3,0,0,4,0,3,5,101,11
7,3,17,1,5,1,3,5,101,11
7,3,1,0,6,1,3,5,20,11
7,3,9,1,6,1,3,5,101,11
7,3,21,0,6,1,3,5,90,11
7,3,1,0,1,0,3,5,90,11
7,3,20,1,1,0,3,5,90,11
7,3,13,1,2,0,3,5,75,11
7,3,19,1,2,0,3,5,90,11
7,3,21,0,2,0,3,5,101,11
7,3,8,1,3,0,3,5,90,11
7,3,0,0,5,1,3,5,101,11
7,3,21,0,6,1,3,5,90,11
7,3,15,1,0,0,3,5,20,11
7,3,13,1,1,0,3,5,90,11
7,3,16,1,1,0,3,5,20,11
7,3,0,0,2,0,3,5,90,11
7,3,16,1,4,0,3,5,101,11
7,3,22,0,4,0,3,5,124,11
7,3,0,0,6,1,3,5,90,11
8,3,11,1,0,0,3,5,47,11
8,3,18,1,0,0,3,5,107,11
8,3,17,1,3,0,3,5,101,11
8,3,23,0,3,0,3,5,90,11
8,3,3,0,4,0,3,5,90,11
8,3,17,1,4,0,3,5,90,8
8,3,19,1,4,0,3,5,90,11
8,3,4,0,5,1,3,5,90,11
8,3,14,1,5,1,3,5,90,11
8,3,20,1,5,1,3,5,90,11
8,3,21,0,5,1,3,5,1,11
8,3,23,0,5,1,3,5,1,11
8,3,0,0,6,1,3,5,1,11
8,3,3,0,6,1,3,5,90,11
8,3,14,1,6,1,3,5,72,11
8,3,14,1,1,0,3,5,90,11
8,3,12,1,2,0,3,5,101,11
8,3,13,1,2,0,3,5,4,11
8,3,17,1,2,0,3,5,9,11
8,3,20,1,2,0,3,5,90,11
8,3,19,1,4,0,3,5,1,11
8,3,11,1,6,1,3,5,30,11
8,3,0,0,3,0,3,5,90,11
8,3,5,0,4,0,3,5,90,11
8,3,2,0,6,1,3,5,90,11
8,3,20,1,6,1,3,5,90,11
8,3,22,0,6,1,3,5,90,11
8,3,15,1,0,0,3,5,38,11
8,3,15,1,0,0,3,5,34,11
8,3,17,1,2,0,3,5,64,11
8,3,20,1,2,0,3,5,90,11
8,3,3,0,3,0,3,5,101,11
8,3,16,1,3,0,3,5,101,11
8,3,18,1,4,0,3,5,90,11
8,3,5,0,5,1,3,5,64,11
8,3,11,1,5,1,3,5,117,11
8,3,20,1,5,1,3,5,75,11
8,3,19,1,6,1,3,5,90,11
8,3,19,1,0,0,3,5,90,11
8,3,2,0,2,0,3,5,122,11
8,3,21,0,2,0,3,5,101,11
9,4,4,0,1,0,3,5,20,11
9,4,19,1,1,0,3,5,101,11
9,4,20,1,2,0,3,5,101,11
9,4,18,1,4,0,3,5,1,11
9,4,23,0,4,0,3,5,45,8
9,4,21,0,6,1,3,5,90,11
9,4,19,1,0,0,3,5,90,11
9,4,21,0,0,0,3,5,1,11
9,4,19,1,2,0,3,5,90,11
9,4,2,0,5,1,3,5,90,11
9,4,15,1,5,1,3,5,90,11
9,4,7,1,6,1,3,5,45,11
9,4,18,1,2,0,3,5,101,11
9,4,3,0,1,0,3,5,90,11
9,4,2,0,2,0,3,5,72,11
9,4,18,1,2,0,3,5,72,11
9,4,18,1,4,0,3,5,75,11
10,4,14,1,6,1,4,5,38,11
10,4,18,1,2,0,4,5,90,11
10,4,2,0,3,0,4,5,20,11
10,4,7,1,3,0,4,5,90,11
10,4,16,1,3,0,4,5,88,11
10,4,2,0,5,1,4,5,90,11
10,4,7,1,5,1,4,5,20,11
10,4,23,0,5,1,4,5,90,11
10,4,0,0,6,1,4,5,75,11
10,4,10,1,1,0,4,5,90,11
10,4,22,0,1,0,4,5,90,11
10,4,23,0,1,0,4,5,88,11
10,4,6,0,2,0,4,5,88,11
10,4,22,0,3,0,4,5,54,8
10,4,17,1,4,0,4,5,45,11
10,4,18,1,4,0,4,5,20,11
10,4,1,0,5,1,4,5,20,11
10,4,20,1,0,0,4,5,96,11
10,4,12,1,2,0,4,5,90,11
10,4,20,1,2,0,4,5,90,11
10,4,5,0,5,1,4,5,107,11
10,4,12,1,5,1,4,5,20,11
10,4,18,1,5,1,4,5,90,11
10,4,14,1,6,1,4,5,90,11
10,4,21,0,0,0,4,5,101,11
10,4,9,1,2,0,4,5,106,11
10,4,20,1,4,0,4,5,1,11
10,4,10,1,5,1,4,5,90,11
10,4,8,1,6,1,4,5,90,11
10,4,11,1,6,1,4,5,101,11
10,4,13,1,6,1,4,5,101,11
10,4,16,1,6,1,4,5,90,11
11,4,13,1,3,0,4,5,90,11
11,4,19,1,1,0,4,5,64,11
11,4,17,1,2,0,4,5,90,11
11,4,19,1,5,1,4,5,64,11
11,4,21,0,5,1,4,5,72,9
11,4,21,0,5,1,4,5,109,11
11,4,17,1,6,1,4,5,64,11
11,4,14,1,1,0,4,5,75,11
11,4,15,1,1,0,4,5,90,11
11,4,17,1,1,0,4,5,90,11
11,4,14,1,2,0,4,5,90,11
11,4,20,1,2,0,4,5,64,11
11,4,16,1,3,0,4,5,64,11
11,4,23,0,4,0,4,5,72,11
11,4,11,1,5,1,4,5,90,11
11,4,16,1,4,0,4,5,72,11
11,4,17,1,4,0,4,5,90,11
11,4,16,1,5,1,4,5,90,11
11,4,23,0,1,0,4,5,124,11
12,1,20,1,3,0,4,5,72,11
12,1,1,0,4,0,4,5,20,11
12,1,9,1,5,1,4,5,90,11
12,1,3,0,6,1,4,5,9,11
12,1,0,0,0,0,4,5,20,11
12,1,22,0,0,0,4,5,1,11
12,1,3,0,1,0,4,5,124,11
12,1,5,0,1,0,4,5,9,11
12,1,13,1,1,0,4,5,124,11
12,1,0,0,2,0,4,5,124,11
12,1,1,0,2,0,4,5,1,11
12,1,7,1,2,0,4,5,55,11
12,1,9,1,2,0,4,5,1,11
12,1,17,1,2,0,4,5,96,11
12,1,19,1,2,0,4,5,1,11
12,1,20,1,2,0,4,5,72,11
12,1,21,0,2,0,4,5,1,11
12,1,23,0,2,0,4,5,1,11
12,1,11,1,6,1,4,5,75,11
12,1,13,1,6,1,4,5,88,11
12,1,21,0,6,1,4,5,88,11
12,1,21,0,1,0,4,5,64,9
12,1,5,0,4,0,4,5,123,11
12,1,14,1,4,0,4,5,90,11
12,1,17,1,5,1,4,5,101,11
12,1,16,1,0,0,4,5,38,11
12,1,20,1,0,0,4,5,75,11
12,1,21,0,0,0,4,5,88,11
12,1,2,0,3,0,4,5,101,11
12,1,5,0,4,0,4,5,88,11
12,1,20,1,4,0,4,5,90,11
12,1,22,0,4,0,4,5,75,11
12,1,10,1,0,0,4,5,90,11
12,1,18,1,2,0,4,5,88,11
12,1,19,1,2,0,4,5,64,11
12,1,10,1,3,0,4,5,90,11
12,1,7,1,4,0,4,5,88,11
12,1,18,1,5,1,4,5,88,11
12,1,20,1,5,1,4,5,75,11
12,1,20,1,5,1,4,5,64,11
12,1,21,0,5,1,4,5,75,8
1,1,17,1,5,1,1,5,96,11
1,1,20,1,6,1,1,5,88,11
1,1,13,1,2,0,1,5,20,11
1,1,18,1,2,0,1,5,88,11
1,1,0,0,3,0,1,5,64,11
1,1,11,1,3,0,1,5,64,11
1,1,21,0,3,0,1,5,64,11
1,1,21,0,3,0,1,5,64,11
1,1,11,1,4,0,1,5,64,11
1,1,18,1,4,0,1,5,64,11
1,1,23,0,5,1,1,5,88,11
1,1,11,1,6,1,1,5,88,11
1,1,14,1,6,1,1,5,64,11
1,1,18,1,1,0,1,5,64,11
1,1,3,0,2,0,1,5,64,11
1,1,5,0,2,0,1,5,88,11
1,1,12,1,5,1,1,5,64,11
1,1,11,1,6,1,1,5,88,11
1,1,13,1,6,1,1,5,88,11
1,1,18,1,6,1,1,5,64,11
1,1,19,1,6,1,1,5,88,11
1,1,15,1,2,0,1,5,96,11
1,1,16,1,2,0,1,5,64,11
1,1,12,1,5,1,1,5,88,11
1,1,8,1,6,1,1,5,88,11
1,1,8,1,6,1,1,5,64,11
1,1,8,1,6,1,1,5,88,11
1,1,12,1,6,1,1,5,88,11
1,1,20,1,6,1,1,5,64,11
1,1,18,1,0,0,1,5,88,11
2,1,18,1,2,0,1,5,88,11
2,1,2,0,1,0,1,5,64,11
2,1,21,0,2,0,1,5,64,11
2,1,19,1,3,0,1,5,88,11
2,1,21,0,3,0,1,5,88,11
2,1,1,0,4,0,1,5,88,11
2,1,10,1,5,1,1,5,64,11
2,1,15,1,5,1,1,5,88,11
2,1,19,1,6,1,1,5,64,11
2,1,0,0,0,0,1,5,88,11
2,1,19,1,4,0,1,5,64,11
2,1,5,0,5,1,1,5,88,11
2,1,20,1,5,1,1,5,64,11
2,1,17,1,6,1,1,5,88,11
2,1,18,1,6,1,1,5,10,11
2,1,4,0,1,0,1,5,88,11
2,1,21,0,5,1,1,5,64,11
2,1,19,1,0,0,1,5,64,11
3,2,8,1,1,0,1,5,64,11
3,2,23,0,2,0,1,5,64,11
3,2,22,0,5,1,1,5,99,11
3,2,12,1,3,0,1,5,88,11
3,2,15,1,4,0,1,5,88,11
3,2,23,0,4,0,1,5,88,11
3,2,20,1,1,0,1,5,88,11
3,2,0,0,2,0,1,5,88,11
3,2,22,0,3,0,1,5,64,11
3,2,14,1,4,0,1,5,88,11
3,2,18,1,4,0,1,5,88,11
3,2,6,0,5,1,1,5,88,11
3,2,9,1,5,1,1,5,88,11
3,2,11,1,5,1,1,5,104,11
3,2,14,1,5,1,1,5,88,11
3,2,18,1,6,1,1,5,64,11
3,2,13,1,0,0,1,5,88,11
3,2,17,1,0,0,1,5,88,11
3,2,1,0,1,0,1,5,88,11
3,2,21,0,2,0,1,5,63,11
3,2,12,1,3,0,1,5,64,11
3,2,9,1,4,0,1,5,64,11
3,2,2,0,0,0,1,5,88,11
3,2,14,1,0,0,1,5,64,11
3,2,14,1,3,0,1,5,38,11
4,2,15,1,4,0,2,5,88,11
4,2,6,0,5,1,2,5,88,11
4,2,14,1,0,0,2,5,88,11
4,2,21,0,1,0,2,5,88,11
4,2,13,1,4,0,2,5,64,11
4,2,15,1,2,0,2,5,64,11
4,2,12,1,3,0,2,5,64,11
4,2,19,1,4,0,2,5,76,11
4,2,18,1,5,1,2,5,88,11
4,2,22,0,5,1,2,5,88,11
4,2,23,0,5,1,2,5,63,11
4,2,7,1,0,0,2,5,64,11
4,2,20,1,0,0,2,5,64,11
4,2,4,0,1,0,2,5,88,11
4,2,4,0,1,0,2,5,88,11
4,2,10,1,2,0,2,5,63,11
4,2,19,1,3,0,2,5,64,11
4,2,18,1,5,1,2,5,63,11
4,2,0,0,6,1,2,5,88,11
4,2,1,0,0,0,2,5,88,11
4,2,2,0,1,0,2,5,88,11
4,2,2,0,2,0,2,5,55,11
4,2,13,1,2,0,2,5,60,11
4,2,14,1,4,0,2,5,90,11
4,2,11,1,5,1,2,5,88,11
5,2,3,0,1,0,2,5,88,11
5,2,7,1,1,0,2,5,88,11
5,2,8,1,3,0,2,5,76,11
5,2,20,1,5,1,2,5,64,11
5,2,0,0,1,0,2,5,63,11
5,2,15,1,2,0,2,5,88,11
5,2,23,0,2,0,2,5,10,11
5,2,18,1,4,0,2,5,88,11
5,2,20,1,4,0,2,5,90,11
5,2,3,0,5,1,2,5,75,8
5,2,21,0,0,0,2,5,88,11
5,2,0,0,2,0,2,5,88,11
5,2,21,0,3,0,2,5,63,11
5,2,22,0,3,0,2,5,88,11
5,2,3,0,4,0,2,5,88,11
5,2,3,0,0,0,2,5,88,11
5,2,7,1,0,0,2,5,64,11
5,2,10,1,0,0,2,5,38,8
5,2,13,1,3,0,2,5,88,11
5,2,17,1,3,0,2,5,64,11
5,2,20,1,3,0,2,5,88,11
5,2,15,1,4,0,2,5,88,11
5,2,17,1,4,0,2,5,14,8
5,2,3,0,5,1,2,5,88,11
5,2,6,0,6,1,2,5,64,8
6,3,9,1,5,1,2,5,64,11
6,3,10,1,0,0,2,5,88,11
6,3,14,1,2,0,2,5,20,11
6,3,20,1,2,0,2,5,64,11
6,3,17,1,3,0,2,5,88,11
6,3,3,0,6,1,2,5,88,11
6,3,18,1,3,0,2,5,63,11
6,3,20,1,6,1,2,5,81,11
6,3,19,1,3,0,2,5,64,11
6,3,3,0,4,0,2,5,90,11
6,3,14,1,6,1,2,5,64,9
6,3,21,0,6,1,2,5,63,11
7,3,16,1,4,0,3,5,81,11
7,3,19,1,4,0,3,5,88,11
7,3,1,0,6,1,3,5,88,11
7,3,5,0,6,1,3,5,88,11
7,3,15,1,3,0,3,5,88,11
7,3,21,0,4,0,3,5,88,11
7,3,2,0,5,1,3,5,88,11
7,3,6,0,6,1,3,5,76,11
7,3,21,0,3,0,3,5,64,11
7,3,22,0,6,1,3,5,64,11
7,3,20,1,2,0,3,5,64,11
7,3,0,0,4,0,3,5,88,11
7,3,17,1,5,1,3,5,88,11
7,3,18,1,5,1,3,5,64,11
7,3,7,1,3,0,3,5,88,11
7,3,23,0,3,0,3,5,88,11
7,3,1,0,4,0,3,5,88,11
7,3,12,1,4,0,3,5,88,11
7,3,18,1,5,1,3,5,10,11
7,3,18,1,5,1,3,5,88,11
7,3,21,0,6,1,3,5,23,9
8,3,23,0,2,0,3,5,63,11
8,3,17,1,3,0,3,5,64,11
8,3,16,1,5,1,3,5,38,11
8,3,15,1,6,1,3,5,64,11
8,3,18,1,1,0,3,5,115,11
8,3,18,1,3,0,3,5,64,11
8,3,4,0,4,0,3,5,88,11
8,3,17,1,6,1,3,5,75,11
8,3,18,1,2,0,3,5,38,11
9,4,16,1,1,0,3,5,88,11
9,4,0,0,3,0,3,5,72,11
9,4,4,0,3,0,3,5,88,11
9,4,22,0,3,0,3,5,64,11
9,4,5,0,4,0,3,5,88,11
9,4,11,1,0,0,3,5,71,11
9,4,18,1,0,0,3,5,64,11
9,4,23,0,3,0,3,5,64,11
9,4,6,0,6,1,3,5,99,11
9,4,2,0,3,0,3,5,124,11
9,4,3,0,3,0,3,5,124,11
9,4,21,0,3,0,3,5,56,11
9,4,5,0,2,0,3,5,124,11
9,4,5,0,2,0,3,5,99,11
9,4,5,0,2,0,3,5,124,11
9,4,8,1,4,0,3,5,64,11
9,4,13,1,4,0,3,5,10,11
10,4,2,0,0,0,4,5,43,11
10,4,10,1,5,1,4,5,79,11
10,4,19,1,5,1,4,5,88,11
10,4,20,1,6,1,4,5,88,11
10,4,22,0,6,1,4,5,88,11
10,4,22,0,6,1,4,5,88,11
10,4,18,1,1,0,4,5,20,11
10,4,23,0,1,0,4,5,64,11
10,4,21,0,2,0,4,5,20,11
10,4,6,0,3,0,4,5,88,11
10,4,6,0,3,0,4,5,124,11
10,4,4,0,4,0,4,5,124,11
10,4,13,1,6,1,4,5,1,11
10,4,23,0,6,1,4,5,64,11
10,4,5,0,2,0,4,5,124,11
10,4,13,1,4,0,4,5,20,11
10,4,5,0,1,0,4,5,64,11
10,4,2,0,2,0,4,5,1,11
10,4,3,0,4,0,4,5,88,11
11,4,4,0,1,0,4,5,76,11
11,4,23,0,3,0,4,5,64,11
11,4,22,0,5,1,4,5,64,11
11,4,13,1,0,0,4,5,84,11
11,4,17,1,5,1,4,5,64,11
11,4,20,1,6,1,4,5,64,11
11,4,2,0,0,0,4,5,88,11
11,4,12,1,2,0,4,5,64,11
11,4,1,0,3,0,4,5,20,11
11,4,11,1,3,0,4,5,64,11
11,4,4,0,5,1,4,5,90,11
11,4,17,1,6,1,4,5,88,11
11,4,4,0,2,0,4,5,55,9
11,4,7,1,2,0,4,5,55,11
11,4,17,1,2,0,4,5,109,11
11,4,19,1,2,0,4,5,64,11
12,1,19,1,3,0,4,5,88,11
12,1,2,0,5,1,4,5,1,11
12,1,20,1,6,1,4,5,63,11
12,1,3,0,2,0,4,5,64,11
12,1,3,0,2,0,4,5,124,11
12,1,22,0,5,1,4,5,64,11
12,1,10,1,2,0,4,5,64,11
12,1,10,1,0,0,4,5,88,11
12,1,19,1,0,0,4,5,64,11
12,1,18,1,3,0,4,5,88,11
12,1,22,0,4,0,4,5,88,11
12,1,10,1,5,1,4,5,88,11
12,1,12,1,6,1,4,5,88,11
12,1,1,0,1,0,4,5,88,11
12,1,2,0,1,0,4,5,88,11
12,1,10,1,5,1,4,5,64,11
12,1,13,1,5,1,4,5,64,11
1,1,10,1,5,1,1,5,9,11
1,1,12,1,5,1,1,5,10,11
1,1,18,1,6,1,1,5,88,11
1,1,18,1,6,1,1,5,88,11
1,1,18,1,6,1,1,5,55,11
1,1,1,0,0,0,1,5,88,11
1,1,3,0,0,0,1,5,88,11
1,1,12,1,2,0,1,5,101,11
1,1,12,1,4,0,1,5,38,11
1,1,20,1,4,0,1,5,64,11
1,1,21,0,4,0,1,5,63,11
1,1,12,1,5,1,1,5,64,11
1,1,23,0,5,1,1,5,106,11
1,1,11,1,6,1,1,5,64,11
1,1,8,1,2,0,1,5,101,11
1,1,20,1,2,0,1,5,64,11
1,1,14,1,3,0,1,5,101,11
1,1,20,1,3,0,1,5,20,11
1,1,20,1,4,0,1,5,99,11
1,1,9,1,5,1,1,5,90,11
1,1,2,0,6,1,1,5,20,11
1,1,21,0,6,1,1,5,64,11
1,1,17,1,0,0,1,5,101,11
1,1,20,1,2,0,1,5,101,11
1,1,14,1,6,1,1,5,101,11
1,1,15,1,1,0,1,5,64,8
1,1,12,1,5,1,1,5,64,11
1,1,14,1,6,1,1,5,101,11
2,1,19,1,2,0,1,5,101,11
2,1,21,0,5,1,1,5,37,11
2,1,14,1,3,0,1,5,64,9
2,1,14,1,6,1,1,5,88,11
2,1,23,0,6,1,1,5,84,11
2,1,13,1,0,0,1,5,72,11
2,1,21,0,4,0,1,5,76,11
2,1,14,1,2,0,1,5,122,11
2,1,16,1,4,0,1,5,38,11
3,2,14,1,3,0,1,5,38,11
3,2,20,1,3,0,1,5,88,11
3,2,9,1,4,0,1,5,90,11
3,2,10,1,4,0,1,5,101,11
3,2,17,1,4,0,1,5,64,11
3,2,10,1,6,1,1,5,75,11
3,2,16,1,1,0,1,5,88,11
3,2,23,0,1,0,1,5,88,11
3,2,13,1,5,1,1,5,101,11
3,2,5,0,6,1,1,5,88,11
3,2,14,1,6,1,1,5,101,11
3,2,18,1,6,1,1,5,96,11
3,2,18,1,6,1,1,5,96,11
3,2,15,1,0,0,1,5,96,11
3,2,14,1,4,0,1,5,101,11
3,2,3,0,6,1,1,5,88,11
3,2,22,0,0,0,1,5,64,11
3,2,14,1,5,1,1,5,122,11
3,2,19,1,6,1,1,5,96,11
4,2,14,1,6,1,2,5,101,11
4,2,21,0,6,1,2,5,64,11
4,2,12,1,4,0,2,5,90,11
4,2,13,1,5,1,2,5,126,11
4,2,19,1,5,1,2,5,55,11
4,2,20,1,6,1,2,5,90,11
4,2,22,0,6,1,2,5,90,11
4,2,21,0,2,0,2,5,101,11
4,2,0,0,3,0,2,5,90,11
4,2,23,0,4,0,2,5,64,11
4,2,12,1,6,1,2,5,64,11
4,2,21,0,0,0,2,5,38,11
4,2,14,1,3,0,2,5,75,11
4,2,22,0,3,0,2,5,101,11
4,2,21,0,4,0,2,5,64,11
4,2,13,1,5,1,2,5,38,11
4,2,19,1,5,1,2,5,14,11
4,2,0,0,6,1,2,5,88,11
4,2,0,0,6,1,2,5,124,11
4,2,2,0,6,1,2,5,90,11
4,2,2,0,6,1,2,5,64,11
4,2,7,1,6,1,2,5,64,11
4,2,16,1,2,0,2,5,64,11
4,2,19,1,2,0,2,5,90,11
4,2,15,1,3,0,2,5,64,11
4,2,18,1,5,1,2,5,101,11
5,2,15,1,0,0,2,5,101,11
5,2,19,1,1,0,2,5,101,11
5,2,20,1,2,0,2,5,64,11
5,2,22,0,1,0,2,5,90,11
5,2,22,0,2,0,2,5,38,11
5,2,22,0,4,0,2,5,49,11
5,2,23,0,5,1,2,5,101,11
5,2,5,0,2,0,2,5,38,11
5,2,21,0,2,0,2,5,101,11
5,2,1,0,3,0,2,5,88,11
5,2,13,1,3,0,2,5,90,11
5,2,11,1,5,1,2,5,101,11
5,2,17,1,6,1,2,5,90,11
5,2,14,1,0,0,2,5,55,11
5,2,15,1,0,0,2,5,64,11
5,2,16,1,0,0,2,5,90,11
5,2,20,1,0,0,2,5,49,11
5,2,22,0,1,0,2,5,64,11
5,2,8,1,2,0,2,5,38,11
5,2,17,1,2,0,2,5,72,11
5,2,14,1,4,0,2,5,75,11
5,2,13,1,0,0,2,5,101,11
6,3,19,1,1,0,2,5,30,11
6,3,14,1,3,0,2,5,90,11
6,3,13,1,5,1,2,5,88,11
6,3,0,0,6,1,2,5,96,11
6,3,13,1,6,1,2,5,64,11
6,3,11,1,1,0,2,5,55,11
6,3,23,0,1,0,2,5,88,11
7,3,2,0,6,1,3,5,106,11
7,3,22,0,0,0,3,5,64,11
7,3,0,0,3,0,3,5,55,11
7,3,16,1,3,0,3,5,90,11
7,3,19,1,3,0,3,5,124,11
7,3,16,1,4,0,3,5,90,11
7,3,12,1,5,1,3,5,101,11
7,3,11,1,6,1,3,5,64,11
7,3,15,1,4,0,3,5,81,11
7,3,13,1,5,1,3,5,64,11
7,3,9,1,6,1,3,5,90,11
7,3,15,1,1,0,3,5,101,11
7,3,0,0,5,1,3,5,115,11
7,3,19,1,1,0,3,5,88,11
7,3,17,1,3,0,3,5,90,11
7,3,14,1,4,0,3,5,9,11
7,3,22,0,5,1,3,5,64,11
8,3,17,1,4,0,3,5,89,8
8,3,18,1,6,1,3,5,14,11
8,3,2,0,4,0,3,5,20,11
8,3,17,1,6,1,3,5,112,11
8,3,15,1,1,0,3,5,90,11
8,3,8,1,3,0,3,5,105,11
8,3,7,1,2,0,3,5,81,11
8,3,23,0,2,0,3,5,64,11
8,3,9,1,2,0,3,5,23,11
8,3,18,1,2,0,3,5,20,11
9,4,11,1,0,0,3,5,90,11
9,4,13,1,2,0,3,5,90,11
9,4,21,0,5,1,3,5,20,11
9,4,4,0,3,0,3,5,14,11
9,4,19,1,6,1,3,5,78,11
9,4,14,1,1,0,3,5,9,11
9,4,1,0,4,0,3,5,109,11
10,4,14,1,0,0,4,5,20,11
10,4,18,1,2,0,4,5,64,11
10,4,14,1,4,0,4,5,90,11
10,4,15,1,1,0,4,5,64,11
10,4,21,0,6,1,4,5,101,11
10,4,9,1,1,0,4,5,20,11
10,4,22,0,4,0,4,5,9,11
10,4,13,1,5,1,4,5,64,11
10,4,21,0,5,1,4,5,99,11
10,4,1,0,6,1,4,5,20,11
10,4,23,0,0,0,4,5,124,11
10,4,21,0,2,0,4,5,46,11
10,4,2,0,4,0,4,5,20,9
10,4,3,0,6,1,4,5,20,11
10,4,14,1,6,1,4,5,64,11
10,4,15,1,6,1,4,5,101,11
10,4,1,0,0,0,4,5,20,8
11,4,19,1,1,0,4,5,20,11
11,4,22,0,1,0,4,5,64,8
11,4,17,1,3,0,4,5,20,11
11,4,23,0,0,0,4,5,9,8
11,4,3,0,3,0,4,5,72,11
11,4,22,0,4,0,4,5,20,11
11,4,18,1,5,1,4,5,64,11
11,4,20,1,5,1,4,5,64,11
11,4,12,1,6,1,4,5,64,11
11,4,14,1,0,0,4,5,90,11
11,4,10,1,0,0,4,5,20,11
12,1,15,1,1,0,4,5,20,11
12,1,22,0,1,0,4,5,20,11
12,1,22,0,4,0,4,5,20,11
12,1,20,1,6,1,4,5,64,11
12,1,0,0,0,0,4,5,124,11
12,1,11,1,0,0,4,5,64,11
12,1,23,0,3,0,4,5,75,11
12,1,16,1,0,0,4,5,20,11
12,1,21,0,0,0,4,5,124,11
12,1,15,1,2,0,4,5,124,11
12,1,19,1,2,0,4,5,63,11
1,1,0,0,5,1,1,5,88,11
1,1,1,0,5,1,1,5,20,11
1,1,17,1,6,1,1,5,20,11
1,1,2,0,1,0,1,5,75,11
1,1,18,1,1,0,1,5,38,11
1,1,14,1,2,0,1,5,88,11
1,1,21,0,3,0,1,5,20,11
1,1,8,1,4,0,1,5,88,11
1,1,22,0,4,0,1,5,38,11
1,1,4,0,5,1,1,5,64,11
1,1,13,1,6,1,1,5,64,11
1,1,18,1,6,1,1,5,75,11
1,1,19,1,1,0,1,5,64,11
1,1,0,0,2,0,1,5,88,11
1,1,16,1,2,0,1,5,64,11
1,1,17,1,2,0,1,5,75,11
1,1,15,1,4,0,1,5,90,11
1,1,1,0,6,1,1,5,20,11
1,1,2,0,6,1,1,5,38,9
1,1,2,0,6,1,1,5,88,11
1,1,18,1,6,1,1,5,38,11
1,1,19,1,6,1,1,5,64,11
1,1,17,1,0,0,1,5,88,11
1,1,20,1,0,0,1,5,90,11
1,1,18,1,1,0,1,5,64,11
1,1,22,0,1,0,1,5,10,11
1,1,0,0,2,0,1,5,88,11
1,1,4,0,4,0,1,5,47,8
1,1,4,0,4,0,1,5,64,11
1,1,9,1,5,1,1,5,64,11
1,1,18,1,5,1,1,5,88,11
1,1,0,0,6,1,1,5,88,11
1,1,9,1,6,1,1,5,88,11
1,1,15,1,6,1,1,5,88,11
1,1,15,1,6,1,1,5,88,11
1,1,16,1,6,1,1,5,64,11
1,1,21,0,6,1,1,5,90,11
1,1,6,0,0,0,1,5,88,11
1,1,17,1,0,0,1,5,90,11
1,1,13,1,3,0,1,5,64,11
1,1,16,1,3,0,1,5,10,11
1,1,1,0,4,0,1,5,124,11
1,1,5,0,4,0,1,5,64,11
1,1,16,1,4,0,1,5,90,11
1,1,16,1,5,1,1,5,88,11
1,1,8,1,6,1,1,5,64,9
1,1,21,0,6,1,1,5,88,11
2,1,9,1,2,0,1,5,64,11
2,1,4,0,3,0,1,5,88,11
2,1,14,1,3,0,1,5,88,11
2,1,15,1,4,0,1,5,23,11
2,1,16,1,4,0,1,5,90,11
2,1,14,1,6,1,1,5,9,11
2,1,16,1,6,1,1,5,20,11
2,1,15,1,0,0,1,5,88,11
2,1,21,0,1,0,1,5,88,11
2,1,5,0,2,0,1,5,9,8
2,1,13,1,2,0,1,5,64,11
2,1,21,0,2,0,1,5,9,11
2,1,20,1,4,0,1,5,64,11
2,1,9,1,6,1,1,5,90,9
2,1,13,1,6,1,1,5,88,11
2,1,18,1,0,0,1,5,88,11
2,1,21,0,0,0,1,5,88,11
2,1,2,0,1,0,1,5,64,9
2,1,6,0,1,0,1,5,88,11
2,1,6,0,1,0,1,5,64,11
2,1,16,1,3,0,1,5,63,11
2,1,14,1,5,1,1,5,88,11
2,1,14,1,5,1,1,5,88,11
2,1,19,1,5,1,1,5,75,9
2,1,1,0,6,1,1,5,14,9
2,1,13,1,1,0,1,5,88,11
2,1,16,1,1,0,1,5,88,11
2,1,20,1,1,0,1,5,88,11
2,1,16,1,2,0,1,5,38,11
2,1,17,1,2,0,1,5,23,11
2,1,20,1,2,0,1,5,88,11
2,1,20,1,2,0,1,5,88,11
2,1,20,1,3,0,1,5,75,11
2,1,14,1,4,0,1,5,101,11
2,1,14,1,4,0,1,5,1,11
2,1,16,1,4,0,1,5,88,11
2,1,22,0,6,1,1,5,63,11
3,2,12,1,1,0,1,5,64,11
3,2,14,1,2,0,1,5,45,11
3,2,0,0,3,0,1,5,75,9
3,2,16,1,3,0,1,5,90,11
3,2,22,0,4,0,1,5,75,11
3,2,8,1,5,1,1,5,55,11
3,2,1,0,6,1,1,5,38,8
3,2,16,1,6,1,1,5,90,11
3,2,12,1,0,0,1,5,101,11
3,2,15,1,0,0,1,5,106,11
3,2,21,0,2,0,1,5,63,11
3,2,13,1,4,0,1,5,88,11
3,2,19,1,4,0,1,5,88,11
3,2,0,0,6,1,1,5,38,11
3,2,10,1,0,0,1,5,55,9
3,2,20,1,0,0,1,5,64,11
3,2,11,1,1,0,1,5,43,11
3,2,18,1,1,0,1,5,92,11
3,2,12,1,4,0,1,5,20,11
3,2,5,0,5,1,1,5,88,11
3,2,6,0,5,1,1,5,88,11
3,2,9,1,5,1,1,5,64,11
3,2,14,1,6,1,1,5,75,11
3,2,13,1,1,0,1,5,64,11
3,2,6,0,2,0,1,5,20,11
3,2,22,0,2,0,1,5,88,11
3,2,3,0,5,1,1,5,96,11
3,2,18,1,5,1,1,5,90,11
3,2,15,1,6,1,1,5,88,11
3,2,16,1,6,1,1,5,96,11
3,2,20,1,3,0,1,5,88,11
3,2,20,1,3,0,1,5,88,11
3,2,23,0,3,0,1,5,75,9
4,2,20,1,5,1,2,5,75,11
4,2,9,1,0,0,2,5,20,11
4,2,21,0,0,0,2,5,55,11
4,2,22,0,0,0,2,5,88,11
4,2,19,1,1,0,2,5,64,11
4,2,20,1,2,0,2,5,38,11
4,2,20,1,3,0,2,5,64,11
4,2,20,1,5,1,2,5,9,11
4,2,15,1,6,1,2,5,27,11
4,2,16,1,6,1,2,5,88,11
4,2,16,1,6,1,2,5,90,11
4,2,16,1,0,0,2,5,89,11
4,2,1,0,4,0,2,5,20,11
4,2,21,0,4,0,2,5,64,9
4,2,3,0,2,0,2,5,88,11
4,2,3,0,2,0,2,5,63,11
4,2,13,1,2,0,2,5,88,11
4,2,0,0,4,0,2,5,20,11
4,2,0,0,6,1,2,5,88,11
4,2,15,1,3,0,2,5,90,11
4,2,19,1,3,0,2,5,10,11
4,2,13,1,4,0,2,5,90,11
4,2,14,1,4,0,2,5,88,11
4,2,18,1,4,0,2,5,9,11
4,2,22,0,4,0,2,5,88,11
4,2,5,0,5,1,2,5,88,11
5,2,13,1,6,1,2,5,9,11
5,2,15,1,6,1,2,5,64,11
5,2,22,0,0,0,2,5,63,11
5,2,3,0,1,0,2,5,9,11
5,2,6,0,4,0,2,5,20,11
5,2,1,0,5,1,2,5,64,11
5,2,22,0,6,1,2,5,88,11
5,2,23,0,2,0,2,5,63,11
5,2,2,0,3,0,2,5,20,9
5,2,9,1,3,0,2,5,64,11
5,2,10,1,3,0,2,5,64,11
5,2,17,1,3,0,2,5,90,11
5,2,18,1,4,0,2,5,9,11
5,2,2,0,0,0,2,5,101,11
5,2,17,1,0,0,2,5,9,11
5,2,13,1,1,0,2,5,90,11
5,2,16,1,1,0,2,5,101,11
5,2,12,1,2,0,2,5,88,11
5,2,17,1,2,0,2,5,10,11
5,2,23,0,2,0,2,5,64,11
5,2,0,0,5,1,2,5,88,11
5,2,8,1,5,1,2,5,55,11
5,2,12,1,6,1,2,5,89,11
5,2,21,0,6,1,2,5,20,11
5,2,22,0,0,0,2,5,88,11
5,2,14,1,1,0,2,5,20,11
5,2,23,0,1,0,2,5,88,11
5,2,17,1,2,0,2,5,90,11
5,2,14,1,3,0,2,5,47,11
5,2,18,1,3,0,2,5,55,8
5,2,1,0,4,0,2,5,88,11
5,2,1,0,4,0,2,5,88,11
5,2,14,1,4,0,2,5,64,11
5,2,21,0,4,0,2,5,90,11
5,2,22,0,4,0,2,5,38,11
5,2,23,0,4,0,2,5,9,11
5,2,23,0,4,0,2,5,124,11
5,2,2,0,5,1,2,5,90,11
5,2,16,1,5,1,2,5,47,11
5,2,21,0,1,0,2,5,88,11
6,3,23,0,2,0,2,5,63,11
6,3,12,1,3,0,2,5,88,11
6,3,21,0,5,1,2,5,55,11
6,3,15,1,6,1,2,5,9,11
6,3,20,1,6,1,2,5,88,11
6,3,18,1,0,0,2,5,88,11
6,3,13,1,1,0,2,5,9,11
6,3,18,1,2,0,2,5,78,11
6,3,22,0,2,0,2,5,45,11
6,3,10,1,3,0,2,5,20,11
6,3,20,1,4,0,2,5,101,11
6,3,1,0,5,1,2,5,64,11
6,3,5,0,6,1,2,5,14,11
6,3,16,1,6,1,2,5,96,11
6,3,20,1,1,0,2,5,88,11
6,3,15,1,2,0,2,5,38,11
6,3,1,0,3,0,2,5,88,11
6,3,13,1,4,0,2,5,96,11
6,3,14,1,4,0,2,5,88,11
6,3,23,0,4,0,2,5,9,11
6,3,12,1,0,0,2,5,9,11
6,3,15,1,3,0,2,5,90,11
6,3,19,1,3,0,2,5,63,11
6,3,12,1,4,0,2,5,20,11
6,3,19,1,2,0,2,5,96,11
6,3,22,0,2,0,2,5,122,11
7,3,0,0,4,0,3,5,63,11
7,3,8,1,4,0,3,5,96,11
7,3,10,1,4,0,3,5,90,11
7,3,12,1,4,0,3,5,90,11
7,3,13,1,4,0,3,5,20,11
7,3,1,0,5,1,3,5,20,11
7,3,13,1,6,1,3,5,96,11
7,3,2,0,0,0,3,5,64,9
7,3,14,1,0,0,3,5,88,11
7,3,14,1,0,0,3,5,90,9
7,3,1,0,1,0,3,5,64,11
7,3,12,1,2,0,3,5,88,11
7,3,13,1,2,0,3,5,90,11
7,3,17,1,2,0,3,5,64,9
7,3,20,1,2,0,3,5,75,11
7,3,17,1,3,0,3,5,10,9
7,3,17,1,4,0,3,5,88,11
7,3,19,1,4,0,3,5,20,11
7,3,22,0,4,0,3,5,75,11
7,3,23,0,4,0,3,5,64,11
7,3,17,1,5,1,3,5,90,11
7,3,13,1,6,1,3,5,88,11
7,3,19,1,0,0,3,5,101,11
7,3,10,1,1,0,3,5,55,11
7,3,16,1,1,0,3,5,88,9
7,3,16,1,1,0,3,5,90,11
7,3,3,0,2,0,3,5,30,8
7,3,5,0,3,0,3,5,64,11
7,3,16,1,4,0,3,5,64,11
7,3,21,0,4,0,3,5,106,11
7,3,0,0,1,0,3,5,9,9
7,3,11,1,1,0,3,5,21,11
7,3,18,1,1,0,3,5,64,11
7,3,10,1,3,0,3,5,90,11
7,3,1,0,4,0,3,5,88,11
7,3,9,1,4,0,3,5,55,11
7,3,13,1,5,1,3,5,88,11
7,3,21,0,5,1,3,5,64,11
7,3,22,0,6,1,3,5,64,11
7,3,2,0,1,0,3,5,20,11
7,3,5,0,1,0,3,5,76,11
7,3,4,0,2,0,3,5,20,11
7,3,10,1,2,0,3,5,20,11
7,3,7,1,3,0,3,5,64,11
7,3,10,1,3,0,3,5,88,11
7,3,19,1,3,0,3,5,90,11
7,3,18,1,4,0,3,5,88,11
7,3,2,0,6,1,3,5,47,11
8,3,1,0,0,0,3,5,90,11
8,3,19,1,0,0,3,5,90,8
8,3,12,1,2,0,3,5,88,11
8,3,17,1,2,0,3,5,64,11
8,3,15,1,4,0,3,5,9,11
8,3,11,1,5,1,3,5,88,11
8,3,3,0,6,1,3,5,88,11
8,3,8,1,1,0,3,5,9,9
8,3,19,1,1,0,3,5,90,11
8,3,23,0,1,0,3,5,101,11
8,3,19,1,2,0,3,5,88,11
8,3,22,0,3,0,3,5,88,11
8,3,1,0,4,0,3,5,20,9
8,3,3,0,5,1,3,5,20,9
8,3,1,0,6,1,3,5,88,11
8,3,17,1,2,0,3,5,88,11
8,3,21,0,4,0,3,5,9,11
8,3,23,0,0,0,3,5,88,11
8,3,17,1,1,0,3,5,64,11
8,3,22,0,1,0,3,5,75,11
8,3,13,1,2,0,3,5,90,11
8,3,18,1,3,0,3,5,20,11
8,3,13,1,5,1,3,5,90,11
8,3,20,1,5,1,3,5,72,11
8,3,1,0,0,0,3,5,88,11
8,3,2,0,0,0,3,5,101,11
8,3,2,0,0,0,3,5,101,11
8,3,18,1,0,0,3,5,76,11
8,3,21,0,0,0,3,5,88,11
8,3,12,1,1,0,3,5,107,8
8,3,21,0,1,0,3,5,63,11
9,4,23,0,5,1,3,5,47,9
9,4,22,0,1,0,3,5,64,11
9,4,3,0,2,0,3,5,9,11
9,4,20,1,5,1,3,5,10,11
9,4,2,0,6,1,3,5,90,11
9,4,16,1,5,1,3,5,20,11
9,4,14,1,0,0,3,5,9,11
9,4,20,1,2,0,3,5,88,11
9,4,3,0,4,0,3,5,89,11
9,4,20,1,0,0,3,5,20,11
9,4,12,1,1,0,3,5,90,11
9,4,21,0,2,0,3,5,63,11
9,4,22,0,2,0,3,5,38,9
9,4,11,1,3,0,3,5,90,11
10,4,1,0,0,0,4,5,99,11
10,4,11,1,1,0,4,5,10,11
10,4,15,1,6,1,4,5,84,11
10,4,1,0,1,0,4,5,76,11
10,4,3,0,2,0,4,5,20,9
10,4,17,1,3,0,4,5,88,11
10,4,0,0,5,1,4,5,88,11
10,4,1,0,6,1,4,5,88,11
10,4,3,0,6,1,4,5,55,11
10,4,20,1,6,1,4,5,101,11
10,4,10,1,0,0,4,5,55,9
10,4,11,1,0,0,4,5,96,11
10,4,5,0,2,0,4,5,20,9
10,4,9,1,2,0,4,5,14,11
10,4,21,0,3,0,4,5,63,11
10,4,22,0,4,0,4,5,9,11
10,4,21,0,5,1,4,5,64,11
10,4,1,0,6,1,4,5,88,11
10,4,19,1,3,0,4,5,75,11
10,4,5,0,5,1,4,5,88,11
10,4,20,1,5,1,4,5,63,11
10,4,21,0,5,1,4,5,88,11
10,4,23,0,5,1,4,5,101,11
10,4,10,1,6,1,4,5,88,11
10,4,17,1,6,1,4,5,10,11
10,4,20,1,6,1,4,5,38,11
10,4,22,0,6,1,4,5,123,11
10,4,11,1,0,0,4,5,88,11
11,4,23,0,1,0,4,5,15,11
11,4,15,1,3,0,4,5,88,11
11,4,0,0,4,0,4,5,88,8
11,4,20,1,4,0,4,5,90,11
11,4,11,1,5,1,4,5,90,11
11,4,15,1,5,1,4,5,64,11
11,4,12,1,6,1,4,5,47,11
11,4,1,0,2,0,4,5,88,11
11,4,22,0,2,0,4,5,88,11
11,4,23,0,2,0,4,5,88,11
11,4,7,1,3,0,4,5,88,11
11,4,0,0,6,1,4,5,63,11
11,4,14,1,6,1,4,5,88,11
11,4,21,0,6,1,4,5,88,11
11,4,5,0,1,0,4,5,20,11
11,4,14,1,0,0,4,5,90,11
11,4,21,0,0,0,4,5,90,11
11,4,0,0,1,0,4,5,88,11
11,4,10,1,6,1,4,5,75,11
11,4,13,1,6,1,4,5,88,11
11,4,14,1,6,1,4,5,88,11
11,4,19,1,6,1,4,5,88,11
11,4,23,0,6,1,4,5,123,11
11,4,19,1,1,0,4,5,64,11
11,4,21,0,1,0,4,5,88,11
11,4,22,0,2,0,4,5,64,11
12,1,16,1,3,0,4,5,64,11
12,1,20,1,5,1,4,5,20,11
12,1,23,0,1,0,4,5,88,11
12,1,23,0,1,0,4,5,88,11
12,1,23,0,1,0,4,5,88,11
12,1,4,0,2,0,4,5,88,11
12,1,17,1,3,0,4,5,88,11
12,1,22,0,3,0,4,5,64,11
12,1,3,0,5,1,4,5,88,11
12,1,19,1,6,1,4,5,38,11
12,1,0,0,1,0,4,5,88,11
12,1,17,1,2,0,4,5,9,9
12,1,23,0,3,0,4,5,88,11
12,1,2,0,5,1,4,5,88,11
12,1,3,0,5,1,4,5,88,11
12,1,22,0,5,1,4,5,45,11
12,1,21,0,6,1,4,5,88,11
12,1,9,1,1,0,4,5,64,11
12,1,11,1,1,0,4,5,88,11
12,1,13,1,2,0,4,5,64,9
12,1,21,0,2,0,4,5,63,11
12,1,19,1,4,0,4,5,88,11
12,1,22,0,6,1,4,5,64,11
12,1,1,0,0,0,4,5,63,11
12,1,10,1,0,0,4,5,90,11
12,1,14,1,0,0,4,5,64,11
12,1,19,1,0,0,4,5,96,11
12,1,23,0,0,0,4,5,30,9
12,1,0,0,1,0,4,5,88,11
12,1,15,1,1,0,4,5,38,11
12,1,20,1,2,0,4,5,88,11
12,1,22,0,2,0,4,5,63,11
12,1,11,1,3,0,4,5,88,11
12,1,17,1,3,0,4,5,63,11
12,1,3,0,4,0,4,5,88,11
12,1,17,1,4,0,4,5,90,11
12,1,11,1,5,1,4,5,88,11
1,1,19,1,5,1,1,5,72,11
1,1,19,1,6,1,1,5,63,11
1,1,11,1,3,0,1,5,72,11
1,1,6,0,4,0,1,5,90,11
1,1,18,1,5,1,1,5,63,11
1,1,16,1,6,1,1,5,55,9
1,1,21,0,6,1,1,5,124,11
1,1,17,1,2,0,1,5,64,11
1,1,2,0,4,0,1,5,64,11
1,1,13,1,4,0,1,5,38,11
1,1,16,1,4,0,1,5,9,11
1,1,20,1,4,0,1,5,9,11
1,1,3,0,5,1,1,5,72,11
1,1,13,1,5,1,1,5,72,11
1,1,0,0,6,1,1,5,101,11
1,1,17,1,0,0,1,5,96,11
1,1,18,1,0,0,1,5,124,11
1,1,15,1,1,0,1,5,75,11
1,1,4,0,2,0,1,5,72,11
1,1,20,1,2,0,1,5,124,11
1,1,21,0,3,0,1,5,124,11
1,1,2,0,4,0,1,5,124,11
1,1,3,0,4,0,1,5,124,11
1,1,11,1,6,1,1,5,90,11
1,1,12,1,6,1,1,5,124,11
1,1,10,1,0,0,1,5,38,11
1,1,18,1,6,1,1,5,88,11
1,1,7,1,0,0,1,5,124,11
2,1,6,0,2,0,1,5,55,9
2,1,8,1,2,0,1,5,75,9
2,1,8,1,3,0,1,5,124,11
2,1,8,1,5,1,1,5,75,11
2,1,15,1,6,1,1,5,124,11
2,1,10,1,0,0,1,5,124,11
2,1,20,1,0,0,1,5,72,11
2,1,10,1,1,0,1,5,124,11
2,1,9,1,2,0,1,5,72,11
2,1,20,1,3,0,1,5,63,11
2,1,18,1,5,1,1,5,9,11
2,1,14,1,2,0,1,5,72,11
2,1,15,1,4,0,1,5,72,11
2,1,15,1,4,0,1,5,88,11
2,1,19,1,4,0,1,5,124,11
2,1,8,1,6,1,1,5,124,11
2,1,4,0,1,0,1,5,124,11
2,1,0,0,2,0,1,5,124,11
2,1,1,0,3,0,1,5,124,11
2,1,12,1,4,0,1,5,124,11
2,1,7,1,0,0,1,5,38,11
2,1,13,1,0,0,1,5,38,11
3,2,21,0,2,0,1,5,64,11
3,2,21,0,2,0,1,5,90,11
3,2,0,0,3,0,1,5,124,11
3,2,14,1,3,0,1,5,124,11
3,2,22,0,4,0,1,5,124,11
3,2,1,0,5,1,1,5,124,11
3,2,1,0,5,1,1,5,124,11
3,2,13,1,5,1,1,5,124,11
3,2,23,0,5,1,1,5,124,11
3,2,0,0,6,1,1,5,124,11
3,2,1,0,6,1,1,5,124,11
3,2,1,0,6,1,1,5,124,11
3,2,4,0,1,0,1,5,28,11
3,2,0,0,3,0,1,5,124,11
3,2,12,1,4,0,1,5,124,11
3,2,2,0,5,1,1,5,72,11
3,2,12,1,5,1,1,5,124,11
3,2,21,0,5,1,1,5,63,11
3,2,22,0,5,1,1,5,124,11
3,2,15,1,6,1,1,5,124,11
3,2,19,1,6,1,1,5,9,11
3,2,18,1,0,0,1,5,72,11
3,2,21,0,0,0,1,5,124,11
3,2,21,0,0,0,1,5,96,11
3,2,20,1,1,0,1,5,101,11
3,2,13,1,2,0,1,5,124,11
3,2,13,1,4,0,1,5,124,11
3,2,18,1,4,0,1,5,9,11
3,2,17,1,5,1,1,5,9,11
3,2,18,1,5,1,1,5,63,11
3,2,20,1,5,1,1,5,124,11
3,2,0,0,6,1,1,5,72,11
3,2,0,0,6,1,1,5,124,11
3,2,11,1,6,1,1,5,124,11
3,2,23,0,6,1,1,5,63,11
3,2,18,1,0,0,1,5,90,11
3,2,0,0,1,0,1,5,72,11
3,2,20,1,2,0,1,5,90,11
3,2,13,1,3,0,1,5,64,11
3,2,11,1,4,0,1,5,124,11
3,2,18,1,4,0,1,5,124,11
3,2,23,0,4,0,1,5,124,11
3,2,4,0,6,1,1,5,124,11
3,2,12,1,0,0,1,5,90,11
3,2,15,1,1,0,1,5,72,9
3,2,4,0,2,0,1,5,72,11
4,2,10,1,5,1,2,5,64,11
4,2,1,0,6,1,2,5,124,11
4,2,14,1,6,1,2,5,124,11
4,2,7,1,0,0,2,5,124,11
4,2,16,1,0,0,2,5,124,11
4,2,0,0,1,0,2,5,124,11
4,2,20,1,1,0,2,5,124,11
4,2,21,0,3,0,2,5,90,11
4,2,1,0,4,0,2,5,124,11
4,2,17,1,4,0,2,5,90,11
4,2,20,1,4,0,2,5,124,11
4,2,21,0,4,0,2,5,124,11
4,2,21,0,4,0,2,5,124,11
4,2,12,1,0,0,2,5,9,11
4,2,13,1,1,0,2,5,90,11
4,2,21,0,1,0,2,5,124,11
4,2,20,1,2,0,2,5,124,11
4,2,5,0,3,0,2,5,72,11
4,2,10,1,3,0,2,5,11,11
4,2,11,1,3,0,2,5,124,11
4,2,12,1,5,1,2,5,72,11
4,2,13,1,5,1,2,5,90,11
4,2,15,1,5,1,2,5,90,11
4,2,19,1,5,1,2,5,124,11
4,2,22,0,5,1,2,5,9,9
4,2,9,1,0,0,2,5,90,11
4,2,18,1,0,0,2,5,90,11
4,2,22,0,1,0,2,5,124,11
4,2,19,1,3,0,2,5,63,11
4,2,20,1,3,0,2,5,90,9
4,2,21,0,5,1,2,5,63,11
4,2,23,0,5,1,2,5,63,11
4,2,1,0,6,1,2,5,124,11
4,2,18,1,6,1,2,5,124,11
4,2,10,1,0,0,2,5,64,11
4,2,22,0,0,0,2,5,90,11
4,2,23,0,0,0,2,5,72,11
4,2,0,0,1,0,2,5,90,11
4,2,1,0,1,0,2,5,72,11
4,2,19,1,1,0,2,5,75,11
4,2,19,1,3,0,2,5,9,11
4,2,23,0,3,0,2,5,9,11
4,2,2,0,5,1,2,5,124,11
4,2,10,1,5,1,2,5,96,11
5,2,17,1,6,1,2,5,9,11
5,2,10,1,2,0,2,5,72,11
5,2,21,0,2,0,2,5,72,11
5,2,15,1,3,0,2,5,90,11
5,2,6,0,5,1,2,5,124,11
5,2,14,1,5,1,2,5,101,11
5,2,15,1,5,1,2,5,9,11
5,2,20,1,6,1,2,5,124,11
5,2,21,0,6,1,2,5,124,11
5,2,22,0,6,1,2,5,124,11
5,2,23,0,6,1,2,5,124,11
5,2,2,0,0,0,2,5,124,11
5,2,6,0,0,0,2,5,90,11
5,2,1,0,1,0,2,5,90,11
5,2,13,1,2,0,2,5,90,11
5,2,14,1,2,0,2,5,90,11
5,2,21,0,2,0,2,5,124,11
5,2,4,0,3,0,2,5,124,11
5,2,21,0,3,0,2,5,90,11
5,2,1,0,4,0,2,5,124,11
5,2,14,1,4,0,2,5,90,11
5,2,23,0,4,0,2,5,78,9
5,2,4,0,5,1,2,5,72,11
5,2,0,0,6,1,2,5,90,11
5,2,3,0,6,1,2,5,97,11
5,2,23,0,0,0,2,5,90,11
5,2,1,0,1,0,2,5,96,11
5,2,18,1,1,0,2,5,90,11
5,2,20,1,1,0,2,5,88,11
5,2,2,0,2,0,2,5,90,11
5,2,2,0,2,0,2,5,76,11
5,2,5,0,2,0,2,5,89,11
5,2,14,1,4,0,2,5,90,11
5,2,16,1,4,0,2,5,90,11
5,2,18,1,4,0,2,5,90,11
5,2,20,1,4,0,2,5,99,11
5,2,23,0,4,0,2,5,124,11
5,2,11,1,5,1,2,5,101,11
5,2,15,1,5,1,2,5,90,11
5,2,15,1,6,1,2,5,90,11
5,2,22,0,6,1,2,5,101,11
5,2,1,0,0,0,2,5,90,11
5,2,16,1,0,0,2,5,124,11
5,2,20,1,0,0,2,5,90,11
5,2,23,0,0,0,2,5,90,11
5,2,2,0,1,0,2,5,90,11
5,2,12,1,1,0,2,5,64,11
5,2,15,1,1,0,2,5,90,11
5,2,17,1,1,0,2,5,90,11
5,2,18,1,2,0,2,5,90,11
5,2,20,1,2,0,2,5,90,11
5,2,22,0,2,0,2,5,90,11
5,2,22,0,2,0,2,5,63,11
5,2,22,0,2,0,2,5,90,11
5,2,7,1,3,0,2,5,90,11
5,2,14,1,3,0,2,5,90,11
5,2,15,1,3,0,2,5,90,11
5,2,16,1,3,0,2,5,90,11
5,2,21,0,3,0,2,5,9,11
5,2,15,1,4,0,2,5,90,11
5,2,16,1,4,0,2,5,124,11
5,2,0,0,6,1,2,5,96,11
5,2,19,1,6,1,2,5,124,11
5,2,11,1,1,0,2,5,90,11
5,2,13,1,1,0,2,5,90,11
5,2,14,1,1,0,2,5,90,11
5,2,21,0,1,0,2,5,90,11
6,3,16,1,2,0,2,5,90,11
6,3,5,0,3,0,2,5,124,11
6,3,14,1,3,0,2,5,90,11
6,3,22,0,3,0,2,5,90,11
6,3,5,0,5,1,2,5,90,11
6,3,1,0,6,1,2,5,64,11
6,3,5,0,6,1,2,5,90,11
6,3,18,1,6,1,2,5,90,11
6,3,18,1,1,0,2,5,124,11
6,3,19,1,1,0,2,5,90,11
6,3,22,0,1,0,2,5,72,11
6,3,1,0,2,0,2,5,124,11
6,3,4,0,2,0,2,5,124,11
6,3,3,0,5,1,2,5,72,11
6,3,2,0,2,0,2,5,72,11
6,3,23,0,2,0,2,5,101,11
6,3,1,0,3,0,2,5,90,11
6,3,2,0,4,0,2,5,124,11
6,3,10,1,4,0,2,5,90,11
6,3,19,1,4,0,2,5,9,11
6,3,15,1,5,1,2,5,90,11
6,3,20,1,6,1,2,5,88,11
6,3,1,0,1,0,2,5,90,11
6,3,4,0,1,0,2,5,90,11
6,3,11,1,1,0,2,5,90,11
6,3,13,1,1,0,2,5,90,11
6,3,21,0,2,0,2,5,90,11
6,3,22,0,2,0,2,5,90,11
6,3,8,1,3,0,2,5,96,11
6,3,21,0,3,0,2,5,90,11
6,3,14,1,4,0,2,5,90,11
6,3,15,1,4,0,2,5,38,11
6,3,15,1,4,0,2,5,90,11
6,3,20,1,5,1,2,5,9,11
6,3,7,1,0,0,2,5,96,11
6,3,13,1,0,0,2,5,90,11
6,3,21,0,0,0,2,5,90,11
6,3,9,1,1,0,2,5,9,11
6,3,11,1,1,0,2,5,62,11
6,3,11,1,1,0,2,5,56,11
6,3,19,1,1,0,2,5,90,11
6,3,20,1,1,0,2,5,90,11
6,3,4,0,2,0,2,5,72,11
7,3,11,1,4,0,3,5,90,11
7,3,18,1,4,0,3,5,9,11
7,3,20,1,4,0,3,5,90,11
7,3,0,0,5,1,3,5,90,11
7,3,2,0,5,1,3,5,38,11
7,3,22,0,5,1,3,5,9,11
7,3,20,1,0,0,3,5,124,11
7,3,3,0,1,0,3,5,90,11
7,3,21,0,1,0,3,5,90,11
7,3,1,0,2,0,3,5,124,11
7,3,2,0,2,0,3,5,124,11
7,3,4,0,2,0,3,5,72,11
7,3,0,0,3,0,3,5,90,11
7,3,1,0,3,0,3,5,90,11
7,3,14,1,3,0,3,5,90,11
7,3,23,0,3,0,3,5,90,11
7,3,0,0,4,0,3,5,124,11
7,3,3,0,4,0,3,5,90,11
7,3,6,0,4,0,3,5,124,11
7,3,11,1,4,0,3,5,75,11
7,3,12,1,4,0,3,5,90,9
7,3,13,1,5,1,3,5,72,11
7,3,14,1,6,1,3,5,90,11
7,3,13,1,1,0,3,5,90,11
7,3,2,0,2,0,3,5,90,11
7,3,17,1,2,0,3,5,90,11
7,3,20,1,2,0,3,5,124,11
7,3,16,1,3,0,3,5,38,11
7,3,9,1,4,0,3,5,90,11
7,3,15,1,6,1,3,5,90,11
7,3,21,0,6,1,3,5,90,11
7,3,8,1,0,0,3,5,90,11
7,3,11,1,0,0,3,5,90,11
7,3,13,1,0,0,3,5,90,11
7,3,17,1,0,0,3,5,72,11
7,3,14,1,1,0,3,5,90,11
7,3,7,1,2,0,3,5,101,11
7,3,14,1,2,0,3,5,72,11
7,3,18,1,2,0,3,5,90,11
7,3,19,1,3,0,3,5,124,8
7,3,21,0,3,0,3,5,90,11
7,3,4,0,4,0,3,5,72,11
7,3,20,1,4,0,3,5,90,11
7,3,21,0,4,0,3,5,90,11
7,3,13,1,6,1,3,5,14,11
7,3,20,1,6,1,3,5,90,11
7,3,1,0,0,0,3,5,90,11
7,3,7,1,0,0,3,5,90,11
7,3,11,1,0,0,3,5,72,11
7,3,22,0,0,0,3,5,88,11
7,3,1,0,1,0,3,5,90,11
7,3,16,1,1,0,3,5,90,11
7,3,21,0,2,0,3,5,90,11
7,3,2,0,3,0,3,5,72,11
7,3,10,1,5,1,3,5,72,11
7,3,14,1,5,1,3,5,90,11
7,3,16,1,5,1,3,5,90,11
7,3,22,0,5,1,3,5,90,11
7,3,12,1,6,1,3,5,101,11
7,3,23,0,6,1,3,5,124,11
8,3,4,0,0,0,3,5,90,9
8,3,18,1,0,0,3,5,90,11
8,3,1,0,1,0,3,5,72,11
8,3,2,0,1,0,3,5,75,9
8,3,11,1,3,0,3,5,90,11
8,3,16,1,3,0,3,5,90,11
8,3,14,1,4,0,3,5,90,11
8,3,17,1,4,0,3,5,72,11
8,3,20,1,4,0,3,5,90,11
8,3,3,0,6,1,3,5,90,11
8,3,12,1,6,1,3,5,90,11
8,3,19,1,6,1,3,5,90,11
8,3,22,0,6,1,3,5,90,11
8,3,5,0,0,0,3,5,101,11
8,3,23,0,1,0,3,5,75,11
8,3,5,0,2,0,3,5,96,11
8,3,8,1,2,0,3,5,101,11
8,3,19,1,2,0,3,5,90,11
8,3,21,0,2,0,3,5,90,11
8,3,21,0,2,0,3,5,90,11
8,3,10,1,3,0,3,5,90,11
8,3,5,0,5,1,3,5,90,11
8,3,10,1,5,1,3,5,101,9
8,3,17,1,6,1,3,5,75,11
8,3,22,0,6,1,3,5,90,11
8,3,21,0,0,0,3,5,90,11
8,3,4,0,1,0,3,5,90,11
8,3,4,0,1,0,3,5,90,11
8,3,16,1,1,0,3,5,90,11
8,3,11,1,2,0,3,5,90,11
8,3,23,0,2,0,3,5,72,11
8,3,1,0,4,0,3,5,90,11
8,3,9,1,5,1,3,5,90,11
8,3,3,0,6,1,3,5,75,11
8,3,1,0,0,0,3,5,90,11
8,3,4,0,0,0,3,5,90,11
8,3,10,1,1,0,3,5,90,11
8,3,20,1,6,1,3,5,9,11
8,3,14,1,0,0,3,5,64,11
8,3,19,1,1,0,3,5,95,11
9,4,21,0,3,0,3,5,90,11
9,4,1,0,4,0,3,5,90,11
9,4,7,1,4,0,3,5,90,11
9,4,20,1,4,0,3,5,72,11
9,4,19,1,6,1,3,5,9,11
9,4,23,0,2,0,3,5,90,11
9,4,23,0,2,0,3,5,90,11
9,4,13,1,3,0,3,5,101,11
9,4,14,1,3,0,3,5,9,11
9,4,15,1,3,0,3,5,90,11
9,4,1,0,4,0,3,5,124,11
9,4,8,1,4,0,3,5,90,11
9,4,13,1,5,1,3,5,90,11
9,4,11,1,6,1,3,5,88,11
9,4,15,1,0,0,3,5,11,11
9,4,4,0,1,0,3,5,64,11
9,4,17,1,2,0,3,5,90,11
9,4,20,1,2,0,3,5,90,11
9,4,1,0,3,0,3,5,101,11
9,4,22,0,4,0,3,5,88,11
9,4,0,0,5,1,3,5,64,9
9,4,18,1,5,1,3,5,14,11
9,4,0,0,6,1,3,5,124,11
9,4,3,0,6,1,3,5,47,11
9,4,8,1,6,1,3,5,90,11
9,4,18,1,6,1,3,5,90,11
9,4,19,1,2,0,3,5,90,11
9,4,21,0,2,0,3,5,90,11
9,4,5,0,5,1,3,5,76,11
9,4,17,1,5,1,3,5,90,11
9,4,18,1,5,1,3,5,72,11
9,4,18,1,6,1,3,5,88,11
9,4,23,0,6,1,3,5,72,11
9,4,1,0,0,0,3,5,124,11
9,4,3,0,1,0,3,5,72,11
9,4,2,0,3,0,3,5,72,11
9,4,0,0,4,0,3,5,124,11
10,4,0,0,5,1,4,5,9,11
10,4,3,0,5,1,4,5,124,11
10,4,22,0,5,1,4,5,124,11
10,4,4,0,1,0,4,5,78,11
10,4,13,1,2,0,4,5,90,11
10,4,2,0,3,0,4,5,101,11
10,4,18,1,4,0,4,5,90,11
10,4,18,1,5,1,4,5,90,11
10,4,21,0,1,0,4,5,90,11
10,4,21,0,2,0,4,5,90,11
10,4,22,0,3,0,4,5,90,11
10,4,14,1,0,0,4,5,90,11
10,4,14,1,0,0,4,5,64,11
10,4,22,0,0,0,4,5,90,11
10,4,19,1,4,0,4,5,124,11
10,4,19,1,4,0,4,5,90,11
10,4,20,1,4,0,4,5,72,11
10,4,5,0,6,1,4,5,75,11
10,4,17,1,1,0,4,5,72,11
10,4,16,1,2,0,4,5,72,11
10,4,3,0,3,0,4,5,124,11
10,4,18,1,4,0,4,5,90,11
10,4,22,0,5,1,4,5,88,11
10,4,1,0,6,1,4,5,124,11
10,4,6,0,6,1,4,5,90,11
10,4,11,1,0,0,4,5,90,11
10,4,23,0,0,0,4,5,90,11
11,4,0,0,1,0,4,5,124,11
11,4,20,1,1,0,4,5,124,11
11,4,0,0,2,0,4,5,72,11
11,4,9,1,5,1,4,5,90,11
11,4,1,0,6,1,4,5,38,11
11,4,17,1,6,1,4,5,90,11
11,4,14,1,0,0,4,5,90,11
11,4,22,0,0,0,4,5,72,11
11,4,0,0,3,0,4,5,90,11
11,4,21,0,4,0,4,5,72,11
11,4,0,0,6,1,4,5,64,11
11,4,17,1,6,1,4,5,72,11
11,4,21,0,6,1,4,5,88,11
11,4,21,0,6,1,4,5,88,11
11,4,19,1,0,0,4,5,63,11
11,4,12,1,1,0,4,5,90,11
11,4,19,1,2,0,4,5,90,11
11,4,19,1,3,0,4,5,124,11
11,4,18,1,4,0,4,5,72,11
11,4,22,0,5,1,4,5,90,11
11,4,0,0,6,1,4,5,124,11
11,4,5,0,6,1,4,5,124,11
11,4,15,1,6,1,4,5,90,11
11,4,19,1,6,1,4,5,72,11
11,4,21,0,1,0,4,5,124,11
11,4,2,0,2,0,4,5,72,11
11,4,15,1,3,0,4,5,72,11
11,4,0,0,4,0,4,5,72,11
11,4,16,1,4,0,4,5,90,11
11,4,18,1,4,0,4,5,64,11
11,4,21,0,4,0,4,5,72,11
11,4,12,1,6,1,4,5,90,11
11,4,21,0,6,1,4,5,72,11
11,4,0,0,0,0,4,5,101,11
11,4,4,0,0,0,4,5,72,11
11,4,23,0,0,0,4,5,124,11
11,4,0,0,1,0,4,5,124,11
11,4,18,1,1,0,4,5,64,11
12,1,13,1,3,0,4,5,101,11
12,1,3,0,5,1,4,5,72,11
12,1,6,0,5,1,4,5,90,11
12,1,21,0,5,1,4,5,101,11
12,1,11,1,6,1,4,5,90,11
12,1,20,1,6,1,4,5,101,11
12,1,22,0,6,1,4,5,64,11
12,1,15,1,1,0,4,5,124,11
12,1,23,0,1,0,4,5,101,9
12,1,23,0,1,0,4,5,101,11
12,1,0,0,2,0,4,5,88,11
12,1,2,0,2,0,4,5,88,11
12,1,8,1,2,0,4,5,101,11
12,1,10,1,2,0,4,5,64,11
12,1,21,0,2,0,4,5,72,9
12,1,2,0,3,0,4,5,72,9
12,1,16,1,3,0,4,5,64,11
12,1,20,1,4,0,4,5,90,11
12,1,22,0,6,1,4,5,89,11
12,1,11,1,0,0,4,5,124,11
12,1,19,1,0,0,4,5,90,11
12,1,20,1,0,0,4,5,72,11
12,1,21,0,0,0,4,5,75,9
12,1,12,1,3,0,4,5,90,11
12,1,16,1,3,0,4,5,72,11
12,1,23,0,3,0,4,5,124,11
12,1,0,0,5,1,4,5,72,11
12,1,5,0,5,1,4,5,90,11
12,1,11,1,0,0,4,5,38,11
12,1,13,1,1,0,4,5,64,11
12,1,22,0,1,0,4,5,64,11
12,1,20,1,2,0,4,5,63,11
12,1,21,0,2,0,4,5,88,11
12,1,8,1,3,0,4,5,72,11
12,1,10,1,3,0,4,5,123,11
12,1,15,1,3,0,4,5,72,11
12,1,12,1,5,1,4,5,72,11
12,1,16,1,6,1,4,5,88,11
12,1,19,1,6,1,4,5,88,11
12,1,21,0,6,1,4,5,99,11
12,1,3,0,0,0,4,5,72,11
12,1,19,1,0,0,4,5,72,9
12,1,21,0,0,0,4,5,88,11
12,1,21,0,0,0,4,5,88,11
12,1,23,0,2,0,4,5,88,11
12,1,19,1,5,1,4,5,64,11
1,1,17,1,6,1,1,5,90,11
1,1,19,1,6,1,1,5,124,11
1,1,7,1,1,0,1,5,124,11
1,1,20,1,1,0,1,5,20,11
1,1,23,0,2,0,1,5,20,8
1,1,19,1,3,0,1,5,124,11
1,1,1,0,4,0,1,5,124,11
1,1,12,1,2,0,1,5,124,11
1,1,23,0,2,0,1,5,64,11
1,1,20,1,3,0,1,5,88,11
1,1,22,0,3,0,1,5,88,11
1,1,16,1,4,0,1,5,90,11
1,1,9,1,5,1,1,5,90,11
1,1,18,1,6,1,1,5,88,11
1,1,22,0,6,1,1,5,38,11
1,1,11,1,0,0,1,5,124,11
1,1,17,1,1,0,1,5,90,11
1,1,2,0,4,0,1,5,38,8
1,1,7,1,4,0,1,5,124,11
1,1,11,1,5,1,1,5,89,11
1,1,5,0,0,0,1,5,72,8
2,1,2,0,3,0,1,5,75,11
2,1,17,1,5,1,1,5,90,11
2,1,23,0,5,1,1,5,64,11
2,1,16,1,2,0,1,5,88,11
2,1,11,1,4,0,1,5,90,11
2,1,18,1,4,0,1,5,90,11
2,1,17,1,5,1,1,5,90,11
2,1,6,0,6,1,1,5,20,11
2,1,12,1,6,1,1,5,75,11
2,1,9,1,4,0,1,5,88,11
2,1,13,1,4,0,1,5,90,11
2,1,19,1,5,1,1,5,64,11
2,1,20,1,5,1,1,5,88,11
2,1,20,1,6,1,1,5,88,11
2,1,1,0,3,0,1,5,90,11
2,1,3,0,5,1,1,5,64,11
2,1,18,1,5,1,1,5,90,11
2,1,18,1,5,1,1,5,64,11
2,1,20,1,5,1,1,5,64,11
2,1,0,0,6,1,1,5,88,11
2,1,12,1,6,1,1,5,47,11
2,1,16,1,6,1,1,5,88,11
2,1,20,1,6,1,1,5,99,11
2,1,1,0,0,0,1,5,75,11
2,1,1,0,0,0,1,5,20,11
3,2,10,1,2,0,1,5,64,11
3,2,22,0,3,0,1,5,43,11
3,2,5,0,4,0,1,5,64,8
3,2,17,1,6,1,1,5,88,11
3,2,19,1,0,0,1,5,64,11
3,2,7,1,1,0,1,5,72,11
3,2,18,1,3,0,1,5,38,11
3,2,10,1,4,0,1,5,88,11
3,2,2,0,6,1,1,5,64,11
3,2,15,1,6,1,1,5,96,11
3,2,17,1,6,1,1,5,64,11
3,2,18,1,6,1,1,5,47,11
3,2,11,1,0,0,1,5,23,11
3,2,14,1,0,0,1,5,90,11
3,2,18,1,0,0,1,5,88,11
3,2,9,1,1,0,1,5,88,11
3,2,16,1,1,0,1,5,88,11
3,2,2,0,2,0,1,5,88,11
3,2,11,1,2,0,1,5,90,11
3,2,13,1,2,0,1,5,90,11
3,2,15,1,4,0,1,5,88,11
3,2,22,0,5,1,1,5,64,11
3,2,13,1,6,1,1,5,90,11
3,2,17,1,6,1,1,5,1,11
3,2,20,1,0,0,1,5,88,11
3,2,0,0,1,0,1,5,75,11
3,2,16,1,1,0,1,5,38,11
3,2,20,1,2,0,1,5,20,11
3,2,23,0,4,0,1,5,38,11
3,2,0,0,6,1,1,5,20,11
4,2,16,1,4,0,2,5,20,11
4,2,22,0,4,0,2,5,88,11
4,2,21,0,6,1,2,5,90,11
4,2,11,1,3,0,2,5,1,11
4,2,19,1,5,1,2,5,64,11
4,2,22,0,5,1,2,5,64,11
4,2,2,0,1,0,2,5,64,11
4,2,20,1,1,0,2,5,90,11
4,2,20,1,1,0,2,5,64,11
4,2,21,0,1,0,2,5,90,11
4,2,18,1,2,0,2,5,90,11
4,2,23,0,2,0,2,5,64,11
4,2,9,1,5,1,2,5,1,11
4,2,19,1,5,1,2,5,64,11
4,2,9,1,0,0,2,5,64,11
4,2,7,1,3,0,2,5,88,11
4,2,12,1,3,0,2,5,90,11
4,2,21,0,3,0,2,5,75,11
4,2,0,0,1,0,2,5,88,11
4,2,2,0,1,0,2,5,88,11
4,2,18,1,1,0,2,5,90,11
4,2,14,1,2,0,2,5,90,11
4,2,0,0,4,0,2,5,88,11
5,2,8,1,6,1,2,5,90,11
5,2,14,1,2,0,2,5,90,11
5,2,15,1,2,0,2,5,90,11
5,2,15,1,4,0,2,5,64,11
5,2,16,1,4,0,2,5,88,11
5,2,23,0,4,0,2,5,64,11
5,2,22,0,5,1,2,5,75,11
5,2,16,1,6,1,2,5,64,11
5,2,0,0,0,0,2,5,55,11
5,2,12,1,0,0,2,5,90,11
5,2,14,1,1,0,2,5,90,11
5,2,2,0,2,0,2,5,38,11
5,2,13,1,2,0,2,5,90,11
5,2,17,1,3,0,2,5,55,11
5,2,10,1,4,0,2,5,88,11
5,2,20,1,4,0,2,5,90,11
5,2,18,1,5,1,2,5,88,11
5,2,10,1,0,0,2,5,88,11
5,2,23,0,0,0,2,5,72,11
5,2,21,0,1,0,2,5,90,11
5,2,22,0,2,0,2,5,90,11
5,2,0,0,1,0,2,5,64,11
5,2,12,1,2,0,2,5,64,11
5,2,13,1,4,0,2,5,90,11
5,2,15,1,0,0,2,5,75,11
6,3,5,0,5,1,2,5,75,11
6,3,22,0,5,1,2,5,41,11
6,3,2,0,0,0,2,5,20,11
6,3,4,0,0,0,2,5,1,11
6,3,16,1,3,0,2,5,64,11
6,3,2,0,4,0,2,5,88,11
6,3,18,1,6,1,2,5,88,11
6,3,23,0,6,1,2,5,90,8
6,3,19,1,2,0,2,5,20,11
6,3,11,1,4,0,2,5,75,11
6,3,20,1,4,0,2,5,1,11
6,3,18,1,5,1,2,5,20,11
6,3,20,1,5,1,2,5,90,8
6,3,9,1,5,1,2,5,20,11
6,3,19,1,5,1,2,5,20,11
6,3,19,1,5,1,2,5,90,11
6,3,19,1,5,1,2,5,90,9
6,3,21,0,6,1,2,5,90,11
6,3,9,1,3,0,2,5,64,11
7,3,19,1,4,0,3,5,20,11
7,3,17,1,5,1,3,5,90,11
7,3,10,1,0,0,3,5,64,11
7,3,13,1,1,0,3,5,90,11
7,3,14,1,1,0,3,5,88,11
7,3,22,0,1,0,3,5,38,11
7,3,7,1,2,0,3,5,38,11
7,3,13,1,2,0,3,5,88,11
7,3,16,1,3,0,3,5,90,11
7,3,9,1,4,0,3,5,90,11
7,3,22,0,4,0,3,5,88,11
7,3,21,0,0,0,3,5,88,11
7,3,10,1,1,0,3,5,90,11
7,3,2,0,2,0,3,5,75,8
7,3,8,1,2,0,3,5,64,11
7,3,13,1,3,0,3,5,90,11
7,3,6,0,5,1,3,5,38,11
7,3,20,1,5,1,3,5,90,11
7,3,14,1,6,1,3,5,90,11
7,3,12,1,0,0,3,5,88,11
7,3,8,1,6,1,3,5,55,11
7,3,10,1,6,1,3,5,90,11
7,3,6,0,0,0,3,5,20,11
8,3,1,0,2,0,3,5,76,11
8,3,1,0,4,0,3,5,20,11
8,3,12,1,0,0,3,5,88,11
8,3,14,1,0,0,3,5,90,11
8,3,8,1,1,0,3,5,20,11
8,3,12,1,3,0,3,5,90,11
8,3,0,0,5,1,3,5,55,11
8,3,22,0,5,1,3,5,90,11
8,3,14,1,6,1,3,5,90,11
8,3,1,0,0,0,3,5,64,11
8,3,23,0,1,0,3,5,90,11
8,3,0,0,2,0,3,5,101,8
8,3,11,1,6,1,3,5,64,11
8,3,20,1,1,0,3,5,101,11
8,3,4,0,1,0,3,5,90,11
9,4,19,1,3,0,3,5,23,11
9,4,4,0,5,1,3,5,64,11
9,4,15,1,5,1,3,5,64,11
9,4,23,0,1,0,3,5,88,11
9,4,21,0,2,0,3,5,88,11
9,4,22,0,6,1,3,5,88,11
9,4,16,1,2,0,3,5,90,11
9,4,0,0,3,0,3,5,30,11
9,4,2,0,3,0,3,5,88,11
9,4,13,1,4,0,3,5,20,11
9,4,17,1,4,0,3,5,90,11
9,4,23,0,4,0,3,5,124,11
9,4,3,0,1,0,3,5,56,11
9,4,19,1,1,0,3,5,20,11
9,4,14,1,2,0,3,5,75,11
9,4,19,1,6,1,3,5,124,11
9,4,22,0,1,0,3,5,124,11
9,4,0,0,2,0,3,5,124,11
10,4,0,0,5,1,4,5,20,11
10,4,11,1,6,1,4,5,90,11
10,4,8,1,3,0,4,5,23,11
10,4,15,1,4,0,4,5,64,11
10,4,16,1,5,1,4,5,90,11
10,4,16,1,6,1,4,5,90,11
10,4,10,1,4,0,4,5,90,11
10,4,17,1,4,0,4,5,20,11
10,4,16,1,5,1,4,5,90,11
10,4,22,0,1,0,4,5,23,11
10,4,8,1,2,0,4,5,101,11
10,4,3,0,3,0,4,5,124,11
10,4,15,1,3,0,4,5,72,8
10,4,22,0,5,1,4,5,64,11
10,4,19,1,0,0,4,5,14,11
10,4,20,1,1,0,4,5,88,11
10,4,19,1,5,1,4,5,124,11
10,4,18,1,6,1,4,5,124,11
11,4,12,1,2,0,4,5,20,11
11,4,20,1,3,0,4,5,124,11
11,4,14,1,4,0,4,5,90,11
11,4,15,1,4,0,4,5,90,11
11,4,16,1,4,0,4,5,90,11
11,4,18,1,4,0,4,5,20,11
11,4,19,1,4,0,4,5,72,11
11,4,21,0,4,0,4,5,101,11
11,4,22,0,4,0,4,5,90,11
11,4,19,1,5,1,4,5,96,11
11,4,21,0,5,1,4,5,96,11
11,4,21,0,5,1,4,5,88,11
11,4,18,1,6,1,4,5,88,11
11,4,19,1,6,1,4,5,88,11
11,4,1,0,2,0,4,5,64,11
11,4,15,1,2,0,4,5,90,11
11,4,15,1,2,0,4,5,90,11
11,4,1,0,4,0,4,5,90,11
11,4,21,0,4,0,4,5,124,11
11,4,13,1,5,1,4,5,90,11
11,4,2,0,6,1,4,5,88,11
11,4,15,1,0,0,4,5,124,11
11,4,0,0,3,0,4,5,64,11
11,4,16,1,4,0,4,5,88,11
11,4,18,1,5,1,4,5,20,11
11,4,14,1,6,1,4,5,101,11
11,4,14,1,6,1,4,5,88,11
11,4,16,1,6,1,4,5,88,11
11,4,20,1,6,1,4,5,64,11
11,4,13,1,0,0,4,5,88,11
11,4,15,1,0,0,4,5,64,11
11,4,21,0,0,0,4,5,88,11
11,4,0,0,1,0,4,5,88,11
11,4,16,1,1,0,4,5,88,11
12,1,23,0,6,1,4,5,64,11
12,1,13,1,0,0,4,5,96,11
12,1,17,1,0,0,4,5,64,11
12,1,22,0,0,0,4,5,64,11
12,1,21,0,1,0,4,5,23,11
12,1,14,1,2,0,4,5,90,11
12,1,14,1,0,0,4,5,90,11
12,1,17,1,0,0,4,5,64,11
12,1,20,1,1,0,4,5,76,11
12,1,12,1,3,0,4,5,90,11
12,1,0,0,5,1,4,5,64,11
12,1,12,1,6,1,4,5,90,11
12,1,10,1,1,0,4,5,64,11
12,1,11,1,1,0,4,5,64,11
12,1,17,1,1,0,4,5,64,11
12,1,18,1,1,0,4,5,64,11
12,1,16,1,5,1,4,5,64,11
12,1,12,1,6,1,4,5,124,11
12,1,0,0,2,0,4,5,64,11
12,1,20,1,2,0,4,5,88,11
12,1,20,1,2,0,4,5,88,11
12,1,22,0,4,0,4,5,38,11
12,1,12,1,5,1,4,5,20,11
1,1,0,0,0,0,1,5,75,11
1,1,5,0,0,0,1,5,124,11
1,1,11,1,4,0,1,5,90,11
1,1,14,1,0,0,1,5,101,11
1,1,13,1,2,0,1,5,124,11
1,1,11,1,6,1,1,5,90,11
1,1,17,1,6,1,1,5,90,11
1,1,13,1,0,0,1,5,90,11
2,1,0,0,4,0,1,5,38,11
2,1,22,0,5,1,1,5,90,11
2,1,20,1,0,0,1,5,90,11
2,1,15,1,3,0,1,5,90,11
2,1,6,0,6,1,1,5,101,11
2,1,13,1,5,1,1,5,90,11
2,1,19,1,5,1,1,5,90,11
3,2,4,0,2,0,1,5,75,11
3,2,16,1,6,1,1,5,90,11
3,2,10,1,3,0,1,5,90,11
3,2,0,0,2,0,1,5,123,11
3,2,5,0,6,1,1,5,90,11
3,2,8,1,6,1,1,5,75,11
3,2,10,1,6,1,1,5,124,11
3,2,14,1,4,0,1,5,90,11
3,2,11,1,6,1,1,5,90,11
3,2,18,1,0,0,1,5,75,9
3,2,17,1,3,0,1,5,90,11
4,2,8,1,5,1,2,5,90,11
4,2,23,0,0,0,2,5,90,11
4,2,20,1,2,0,2,5,124,11
4,2,17,1,5,1,2,5,75,11
4,2,11,1,6,1,2,5,90,11
4,2,19,1,6,1,2,5,121,11
4,2,20,1,0,0,2,5,124,11
4,2,17,1,1,0,2,5,90,11
4,2,19,1,1,0,2,5,124,11
4,2,19,1,1,0,2,5,90,11
4,2,12,1,5,1,2,5,121,11
4,2,11,1,0,0,2,5,90,11
4,2,22,0,1,0,2,5,101,11
4,2,0,0,2,0,2,5,124,11
4,2,5,0,4,0,2,5,90,9
4,2,4,0,5,1,2,5,124,11
4,2,8,1,5,1,2,5,75,11
4,2,11,1,5,1,2,5,90,11
4,2,17,1,5,1,2,5,20,11
4,2,0,0,6,1,2,5,90,11
4,2,12,1,6,1,2,5,90,11
4,2,22,0,0,0,2,5,90,11
4,2,12,1,1,0,2,5,90,11
4,2,12,1,2,0,2,5,90,11
4,2,14,1,2,0,2,5,90,11
4,2,21,0,2,0,2,5,20,11
4,2,10,1,4,0,2,5,90,11
4,2,10,1,5,1,2,5,90,11
4,2,18,1,5,1,2,5,90,11
4,2,20,1,5,1,2,5,90,11
5,2,15,1,3,0,2,5,90,11
5,2,19,1,6,1,2,5,124,11
5,2,13,1,2,0,2,5,65,11
5,2,15,1,3,0,2,5,90,11
5,2,23,0,3,0,2,5,90,11
5,2,13,1,4,0,2,5,82,11
5,2,10,1,0,0,2,5,90,11
5,2,12,1,0,0,2,5,90,11
5,2,7,1,2,0,2,5,90,11
5,2,9,1,3,0,2,5,90,11
5,2,15,1,5,1,2,5,124,11
5,2,8,1,0,0,2,5,90,11
5,2,19,1,0,0,2,5,90,11
5,2,3,0,6,1,2,5,75,11
5,2,12,1,1,0,2,5,90,11
6,3,23,0,6,1,2,5,90,11
6,3,6,0,0,0,2,5,90,11
6,3,11,1,0,0,2,5,75,11
6,3,9,1,3,0,2,5,90,11
6,3,5,0,3,0,2,5,90,11
6,3,16,1,4,0,2,5,90,9
6,3,12,1,6,1,2,5,90,11
6,3,23,0,5,1,2,5,20,11
6,3,15,1,6,1,2,5,20,11
6,3,11,1,2,0,2,5,75,11
6,3,10,1,3,0,2,5,75,11
7,3,11,1,6,1,3,5,90,11
7,3,17,1,5,1,3,5,90,11
7,3,10,1,3,0,3,5,16,11
7,3,11,1,3,0,3,5,90,11
7,3,23,0,3,0,3,5,90,11
7,3,17,1,4,0,3,5,90,11
7,3,18,1,6,1,3,5,101,11
7,3,16,1,2,0,3,5,90,11
7,3,18,1,3,0,3,5,90,11
8,3,19,1,0,0,3,5,65,11
8,3,12,1,2,0,3,5,20,11
8,3,20,1,2,0,3,5,75,11
8,3,10,1,4,0,3,5,90,11
8,3,4,0,6,1,3,5,90,11
8,3,20,1,1,0,3,5,90,9
8,3,10,1,2,0,3,5,90,11
8,3,13,1,4,0,3,5,20,11
8,3,17,1,4,0,3,5,20,11
8,3,21,0,4,0,3,5,20,11
9,4,13,1,3,0,3,5,90,11
9,4,8,1,6,1,3,5,11,11
9,4,23,0,1,0,3,5,14,9
9,4,19,1,5,1,3,5,101,11
9,4,19,1,1,0,3,5,90,11
9,4,1,0,2,0,3,5,20,11
10,4,23,0,6,1,4,5,14,8
10,4,19,1,6,1,4,5,90,11
10,4,10,1,1,0,4,5,47,11
10,4,10,1,4,0,4,5,90,11
10,4,15,1,6,1,4,5,75,11
10,4,0,0,0,0,4,5,72,11
10,4,17,1,4,0,4,5,121,9
10,4,0,0,6,1,4,5,90,11
11,4,10,1,2,0,4,5,90,11
11,4,11,1,4,0,4,5,90,11
11,4,23,0,6,1,4,5,20,11
11,4,18,1,0,0,4,5,75,11
11,4,21,0,3,0,4,5,90,11
11,4,2,0,0,0,4,5,124,11
11,4,19,1,2,0,4,5,75,11
11,4,17,1,6,1,4,5,101,11
11,4,17,1,3,0,4,5,90,11
11,4,17,1,4,0,4,5,90,11
11,4,12,1,6,1,4,5,90,11
11,4,9,1,0,0,4,5,90,11
11,4,22,0,0,0,4,5,75,11
12,1,16,1,3,0,4,5,90,11
12,1,22,0,4,0,4,5,78,11
12,1,15,1,0,0,4,5,124,11
12,1,12,1,1,0,4,5,90,11
12,1,9,1,3,0,4,5,75,11
12,1,10,1,2,0,4,5,75,11
12,1,17,1,4,0,4,5,90,11
12,1,13,1,6,1,4,5,90,11
12,1,12,1,0,0,4,5,75,9
12,1,11,1,6,1,4,5,90,11
12,1,11,1,0,0,4,5,90,11
12,1,13,1,3,0,4,5,90,11
1,1,10,1,1,0,1,5,13,11
1,1,18,1,2,0,1,5,90,11
1,1,18,1,4,0,1,5,90,11
1,1,12,1,5,1,1,5,90,11
1,1,16,1,5,1,1,5,38,9
1,1,17,1,4,0,1,5,90,11
1,1,17,1,6,1,1,5,38,11
2,1,16,1,3,0,1,5,96,11
2,1,16,1,0,0,1,5,90,11
2,1,14,1,1,0,1,5,96,11
2,1,14,1,0,0,1,5,90,11
3,2,10,1,1,0,1,5,90,11
3,2,22,0,4,0,1,5,90,11
3,2,11,1,5,1,1,5,88,11
3,2,13,1,6,1,1,5,90,11
4,2,10,1,4,0,2,5,90,11
4,2,18,1,4,0,2,5,90,11
4,2,19,1,4,0,2,5,90,11
4,2,16,1,5,1,2,5,124,11
5,2,9,1,2,0,2,5,90,11
5,2,18,1,6,1,2,5,38,11
5,2,5,0,3,0,2,5,71,11
5,2,18,1,2,0,2,5,90,11
5,2,19,1,5,1,2,5,90,11
5,2,15,1,0,0,2,5,38,11
6,3,4,0,1,0,2,5,88,11
8,3,1,0,3,0,3,5,67,9
8,3,23,0,4,0,3,5,49,11
9,4,14,1,6,1,3,5,28,11
10,4,19,1,6,1,4,5,1,11
10,4,23,0,6,1,4,5,124,11
10,4,12,1,4,0,4,5,90,11
11,4,15,1,2,0,4,5,64,11
11,4,16,1,2,0,4,5,38,11
11,4,14,1,5,1,4,5,90,11
11,4,14,1,0,0,4,5,90,11
11,4,18,1,3,0,4,5,34,11
12,1,13,1,3,0,4,5,90,11
12,1,20,1,4,0,4,5,90,11
12,1,1,0,0,0,4,5,20,11
12,1,13,1,1,0,4,5,90,11
12,1,15,1,4,0,4,5,90,11
1,1,1,0,2,0,1,5,101,11
1,1,12,1,5,1,1,5,9,11
1,1,12,1,3,0,1,5,88,11
1,1,15,1,3,0,1,5,124,11
1,1,21,0,4,0,1,5,14,11
1,1,11,1,6,1,1,5,64,11
1,1,19,1,6,1,1,5,90,11
1,1,15,1,0,0,1,5,64,11
1,1,20,1,3,0,1,5,90,11
2,1,23,0,1,0,1,5,14,11
2,1,6,0,6,1,1,5,64,8
2,1,15,1,5,1,1,5,20,9
2,1,21,0,5,1,1,5,64,11
3,2,22,0,4,0,1,5,88,11
3,2,10,1,0,0,1,5,64,11
3,2,0,0,4,0,1,5,90,11
3,2,22,0,5,1,1,5,64,11
3,2,23,0,5,1,1,5,88,11
3,2,16,1,2,0,1,5,64,11
4,2,23,0,3,0,2,5,88,11
4,2,15,1,4,0,2,5,90,9
4,2,0,0,6,1,2,5,90,11
4,2,5,0,6,1,2,5,64,11
5,2,1,0,1,0,2,5,20,11
5,2,10,1,3,0,2,5,88,11
5,2,20,1,3,0,2,5,88,11
5,2,15,1,3,0,2,5,64,11
5,2,19,1,3,0,2,5,88,11
6,3,7,1,4,0,2,5,122,9
6,3,1,0,4,0,2,5,23,8
6,3,13,1,3,0,2,5,90,11
6,3,16,1,4,0,2,5,88,11
6,3,0,0,0,0,2,5,88,11
6,3,23,0,3,0,2,5,90,11
7,3,16,1,5,1,3,5,101,11
7,3,10,1,6,1,3,5,90,11
7,3,0,0,1,0,3,5,2,11
7,3,21,0,1,0,3,5,88,11
7,3,13,1,1,0,3,5,43,11
7,3,8,1,5,1,3,5,88,9
7,3,22,0,6,1,3,5,88,11
7,3,14,1,4,0,3,5,64,11
8,3,0,0,1,0,3,5,64,11
8,3,8,1,2,0,3,5,90,8
8,3,10,1,4,0,3,5,64,11
8,3,22,0,1,0,3,5,90,11
8,3,13,1,1,0,3,5,88,9
8,3,14,1,4,0,3,5,64,11
8,3,17,1,4,0,3,5,88,11
8,3,3,0,1,0,3,5,64,8
8,3,23,0,1,0,3,5,23,11
8,3,3,0,1,0,3,5,88,11
9,4,7,1,0,0,3,5,88,11
9,4,14,1,3,0,3,5,88,11
9,4,0,0,1,0,3,5,41,11
9,4,12,1,2,0,3,5,64,11
9,4,23,0,3,0,3,5,88,11
9,4,20,1,6,1,3,5,124,11
9,4,19,1,2,0,3,5,101,11
9,4,15,1,3,0,3,5,75,11
10,4,16,1,0,0,4,5,90,11
10,4,2,0,2,0,4,5,124,11
10,4,12,1,2,0,4,5,124,11
10,4,10,1,3,0,4,5,64,11
10,4,21,0,4,0,4,5,64,11
11,4,16,1,1,0,4,5,55,11
11,4,19,1,5,1,4,5,64,11
11,4,1,0,1,0,4,5,96,11
12,1,6,0,6,1,4,5,20,11
12,1,19,1,0,0,4,5,20,11
12,1,1,0,2,0,4,5,20,11
12,1,18,1,1,0,4,5,63,11
12,1,19,1,5,1,4,5,90,11
12,1,15,1,6,1,4,5,64,11
12,1,20,1,2,0,4,5,64,11
1,1,22,0,5,1,1,5,64,11
1,1,15,1,4,0,1,5,55,11
1,1,23,0,4,0,1,5,124,11
1,1,0,0,5,1,1,5,124,11
1,1,11,1,0,0,1,5,64,11
1,1,10,1,1,0,1,5,20,9
1,1,15,1,3,0,1,5,124,11
1,1,22,0,4,0,1,5,64,11
1,1,18,1,6,1,1,5,124,11
2,1,8,1,2,0,1,5,109,11
2,1,6,0,4,0,1,5,23,9
2,1,17,1,5,1,1,5,64,11
2,1,13,1,6,1,1,5,38,9
2,1,13,1,4,0,1,5,55,9
2,1,18,1,4,0,1,5,64,11
2,1,19,1,4,0,1,5,64,11
2,1,23,0,6,1,1,5,64,11
2,1,14,1,3,0,1,5,20,11
2,1,9,1,5,1,1,5,124,11
2,1,23,0,0,0,1,5,64,11
2,1,15,1,3,0,1,5,64,11
2,1,10,1,5,1,1,5,64,11
2,1,13,1,5,1,1,5,23,11
2,1,16,1,5,1,1,5,9,11
3,2,12,1,1,0,1,5,64,11
3,2,22,0,1,0,1,5,67,11
3,2,19,1,2,0,1,5,63,11
3,2,11,1,5,1,1,5,84,9
3,2,12,1,5,1,1,5,47,11
3,2,20,1,3,0,1,5,124,11
3,2,4,0,4,0,1,5,124,11
3,2,6,0,2,0,1,5,72,11
4,2,6,0,4,0,2,5,72,11
4,2,14,1,6,1,2,5,88,11
4,2,20,1,0,0,2,5,90,11
4,2,0,0,1,0,2,5,64,11
4,2,1,0,1,0,2,5,88,11
4,2,4,0,1,0,2,5,64,11
4,2,23,0,5,1,2,5,124,11
4,2,21,0,1,0,2,5,64,11
4,2,3,0,4,0,2,5,78,11
4,2,22,0,5,1,2,5,124,11
4,2,4,0,6,1,2,5,64,11
4,2,23,0,2,0,2,5,20,11
4,2,10,1,4,0,2,5,88,11
5,2,2,0,1,0,2,5,124,11
5,2,4,0,1,0,2,5,124,11
5,2,23,0,6,1,2,5,20,11
5,2,20,1,6,1,2,5,88,11
5,2,1,0,3,0,2,5,1,11
5,2,2,0,3,0,2,5,122,8
5,2,19,1,3,0,2,5,122,11
5,2,18,1,6,1,2,5,90,11
5,2,3,0,1,0,2,5,88,11
5,2,20,1,1,0,2,5,30,11
6,3,13,1,5,1,2,5,90,9
6,3,1,0,6,1,2,5,88,11
6,3,21,0,1,0,2,5,55,11
6,3,12,1,1,0,2,5,64,11
6,3,22,0,1,0,2,5,124,11
6,3,9,1,3,0,2,5,10,11
6,3,23,0,1,0,2,5,64,11
7,3,17,1,0,0,3,5,88,11
7,3,13,1,2,0,3,5,88,11
7,3,18,1,2,0,3,5,64,11
7,3,1,0,4,0,3,5,88,11
7,3,16,1,0,0,3,5,88,11
7,3,11,1,1,0,3,5,20,11
7,3,22,0,3,0,3,5,20,11
7,3,17,1,4,0,3,5,64,11
7,3,23,0,4,0,3,5,90,11
7,3,11,1,6,1,3,5,124,11
7,3,7,1,3,0,3,5,90,11
7,3,17,1,3,0,3,5,64,11
7,3,13,1,4,0,3,5,64,11
7,3,14,1,4,0,3,5,90,11
7,3,13,1,4,0,3,5,10,11
8,3,19,1,0,0,3,5,64,11
8,3,20,1,1,0,3,5,88,11
8,3,21,0,1,0,3,5,45,9
8,3,9,1,1,0,3,5,124,11
8,3,20,1,6,1,3,5,64,11
8,3,21,0,0,0,3,5,38,11
8,3,15,1,1,0,3,5,38,11
8,3,12,1,2,0,3,5,75,11
9,4,16,1,3,0,3,5,20,11
9,4,21,0,3,0,3,5,20,11
9,4,20,1,4,0,3,5,64,11
9,4,3,0,5,1,3,5,72,11
9,4,12,1,6,1,3,5,55,11
9,4,19,1,0,0,3,5,69,11
9,4,23,0,2,0,3,5,88,11
9,4,13,1,1,0,3,5,55,11
9,4,2,0,2,0,3,5,88,11
9,4,21,0,2,0,3,5,124,11
9,4,23,0,3,0,3,5,124,11
9,4,6,0,0,0,3,5,64,9
9,4,7,1,0,0,3,5,64,11
10,4,2,0,3,0,4,5,124,11
10,4,7,1,3,0,4,5,90,11
10,4,23,0,4,0,4,5,64,11
10,4,13,1,1,0,4,5,43,11
10,4,17,1,6,1,4,5,124,11
10,4,22,0,0,0,4,5,124,11
10,4,15,1,3,0,4,5,64,11
10,4,2,0,3,0,4,5,124,11
10,4,22,0,4,0,4,5,124,11
10,4,22,0,5,1,4,5,72,11
10,4,23,0,6,1,4,5,124,11
10,4,1,0,0,0,4,5,64,11
11,4,14,1,2,0,4,5,64,11
11,4,12,1,5,1,4,5,64,11
11,4,18,1,5,1,4,5,72,11
11,4,0,0,1,0,4,5,124,11
11,4,0,0,1,0,4,5,124,11
11,4,1,0,2,0,4,5,124,11
11,4,11,1,2,0,4,5,88,11
11,4,7,1,4,0,4,5,123,11
11,4,19,1,5,1,4,5,90,11
11,4,12,1,1,0,4,5,90,11
11,4,11,1,3,0,4,5,64,11
11,4,20,1,3,0,4,5,64,11
11,4,10,1,5,1,4,5,90,11
11,4,8,1,2,0,4,5,55,11
12,1,17,1,6,1,4,5,64,11
12,1,4,0,2,0,4,5,64,11
12,1,18,1,3,0,4,5,124,11
12,1,23,0,5,1,4,5,66,11
12,1,14,1,1,0,4,5,124,11
12,1,8,1,4,0,4,5,64,11
12,1,4,0,0,0,4,5,124,11
12,1,13,1,4,0,4,5,72,11
12,1,22,0,4,0,4,5,101,11
12,1,23,0,4,0,4,5,124,11
12,1,7,1,5,1,4,5,72,11
1,1,9,1,5,1,1,5,124,11
1,1,17,1,0,0,1,5,109,11
1,1,0,0,4,0,1,5,124,11
1,1,12,1,5,1,1,5,90,11
1,1,20,1,3,0,1,5,124,11
1,1,12,1,0,0,1,5,64,11
2,1,10,1,4,0,1,5,64,8
2,1,16,1,2,0,1,5,38,11
2,1,8,1,4,0,1,5,90,11
2,1,15,1,5,1,1,5,96,11
3,2,18,1,5,1,1,5,64,11
3,2,20,1,2,0,1,5,64,11
3,2,9,1,2,0,1,5,75,11
3,2,4,0,3,0,1,5,64,8
3,2,13,1,3,0,1,5,64,8
4,2,20,1,5,1,2,5,124,11
4,2,20,1,5,1,2,5,88,11
4,2,4,0,1,0,2,5,124,11
4,2,17,1,5,1,2,5,124,11
4,2,0,0,5,1,2,5,90,11
4,2,21,0,6,1,2,5,124,11
5,2,7,1,5,1,2,5,88,11
5,2,22,0,1,0,2,5,90,11
5,2,1,0,3,0,2,5,10,11
5,2,18,1,4,0,2,5,88,11
6,3,11,1,6,1,2,5,90,11
6,3,21,0,6,1,2,5,90,11
6,3,20,1,1,0,2,5,90,11
6,3,7,1,5,1,2,5,88,11
6,3,1,0,0,0,2,5,90,11
6,3,8,1,0,0,2,5,90,11
6,3,10,1,0,0,2,5,90,11
6,3,14,1,0,0,2,5,90,11
6,3,16,1,0,0,2,5,90,11
6,3,20,1,0,0,2,5,90,11
6,3,1,0,1,0,2,5,88,11
7,3,20,1,4,0,3,5,90,11
7,3,14,1,6,1,3,5,109,11
7,3,0,0,4,0,3,5,124,11
7,3,10,1,1,0,3,5,64,11
7,3,17,1,6,1,3,5,64,11
8,3,13,1,0,0,3,5,64,11
8,3,13,1,3,0,3,5,38,11
8,3,18,1,5,1,3,5,64,11
8,3,11,1,6,1,3,5,63,11
8,3,13,1,2,0,3,5,124,11
8,3,5,0,5,1,3,5,88,11
8,3,17,1,3,0,3,5,64,11
8,3,19,1,3,0,3,5,75,11
8,3,18,1,6,1,3,5,64,11
8,3,19,1,6,1,3,5,64,11
9,4,4,0,5,1,3,5,88,11
9,4,15,1,0,0,3,5,64,11
9,4,3,0,0,0,3,5,96,11
9,4,1,0,3,0,3,5,124,11
10,4,23,0,5,1,4,5,10,11
10,4,19,1,6,1,4,5,101,11
10,4,4,0,1,0,4,5,88,11
10,4,4,0,4,0,4,5,75,11
10,4,19,1,3,0,4,5,90,11
10,4,19,1,5,1,4,5,88,11
10,4,14,1,0,0,4,5,90,11
11,4,5,0,2,0,4,5,101,11
11,4,16,1,2,0,4,5,38,11
11,4,4,0,3,0,4,5,12,11
11,4,13,1,3,0,4,5,64,11
11,4,8,1,3,0,4,5,88,9
11,4,10,1,3,0,4,5,90,11
11,4,1,0,6,1,4,5,88,11
11,4,2,0,6,1,4,5,78,9
12,1,21,0,5,1,4,5,64,11
12,1,22,0,3,0,4,5,64,8
12,1,1,0,4,0,4,5,14,11
12,1,9,1,5,1,4,5,90,11
12,1,22,0,3,0,4,5,64,9
12,1,2,0,5,1,4,5,124,9
1,1,0,0,0,0,1,5,90,11
1,1,3,0,0,0,1,5,90,11
1,1,19,1,3,0,1,5,90,11
1,1,4,0,4,0,1,5,90,11
1,1,0,0,0,0,1,5,64,9
1,1,2,0,6,1,1,5,90,11
1,1,21,0,6,1,1,5,72,9
2,1,11,1,2,0,1,5,90,11
2,1,16,1,3,0,1,5,64,11
2,1,14,1,4,0,1,5,38,11
3,2,7,1,4,0,1,5,88,11
3,2,1,0,6,1,1,5,99,11
3,2,4,0,6,1,1,5,88,11
3,2,13,1,2,0,1,5,88,11
3,2,17,1,1,0,1,5,88,11
3,2,3,0,2,0,1,5,56,11
4,2,11,1,0,0,2,5,64,11
4,2,14,1,3,0,2,5,90,11
4,2,14,1,0,0,2,5,90,9
4,2,8,1,1,0,2,5,88,11
4,2,0,0,6,1,2,5,90,11
4,2,15,1,6,1,2,5,90,11
4,2,15,1,6,1,2,5,90,11
5,2,20,1,4,0,2,5,88,11
5,2,10,1,3,0,2,5,122,11
5,2,18,1,3,0,2,5,101,11
5,2,18,1,6,1,2,5,75,11
5,2,8,1,2,0,2,5,88,11
5,2,22,0,3,0,2,5,90,11
5,2,21,0,5,1,2,5,64,9
5,2,10,1,1,0,2,5,90,11
5,2,10,1,2,0,2,5,123,11
5,2,19,1,0,0,2,5,90,11
5,2,5,0,1,0,2,5,90,11
6,3,12,1,3,0,2,5,90,11
6,3,21,0,0,0,2,5,64,11
6,3,18,1,5,1,2,5,88,11
6,3,14,1,6,1,2,5,90,11
6,3,11,1,1,0,2,5,80,9
6,3,9,1,2,0,2,5,80,9
6,3,15,1,2,0,2,5,88,11
7,3,11,1,6,1,3,5,64,8
7,3,2,0,4,0,3,5,90,11
8,3,11,1,0,0,3,5,90,11
8,3,13,1,2,0,3,5,90,11
8,3,17,1,6,1,3,5,48,11
8,3,11,1,0,0,3,5,88,11
8,3,16,1,2,0,3,5,88,11
8,3,19,1,6,1,3,5,101,11
9,4,14,1,0,0,3,5,122,11
9,4,14,1,2,0,3,5,38,11
9,4,4,0,4,0,3,5,88,11
9,4,21,0,6,1,3,5,88,11
9,4,1,0,6,1,3,5,88,11
9,4,14,1,2,0,3,5,90,11
10,4,2,0,6,1,4,5,88,11
10,4,17,1,2,0,4,5,90,11
10,4,9,1,4,0,4,5,88,11
10,4,10,1,1,0,4,5,107,11
10,4,20,1,3,0,4,5,90,11
10,4,11,1,5,1,4,5,90,9
10,4,15,1,0,0,4,5,101,11
11,4,18,1,2,0,4,5,88,11
11,4,17,1,6,1,4,5,30,11
11,4,12,1,0,0,4,5,88,11
11,4,11,1,2,0,4,5,85,11
11,4,14,1,5,1,4,5,88,11
12,1,21,0,4,0,4,5,88,11
12,1,11,1,5,1,4,5,90,11
12,1,16,1,6,1,4,5,88,11
12,1,13,1,4,0,4,5,90,11
12,1,11,1,5,1,4,5,101,11
12,1,16,1,4,0,4,5,101,11
12,1,18,1,5,1,4,5,38,11
12,1,18,1,0,0,4,5,88,11
8,3,17,1,0,0,3,5,100,9
11,4,6,0,2,0,4,5,100,11
1,1,11,1,2,0,1,5,72,11
1,1,20,1,2,0,1,5,55,9
1,1,18,1,4,0,1,5,64,11
1,1,1,0,5,1,1,5,20,9
1,1,12,1,5,1,1,5,20,11
1,1,7,1,4,0,1,5,72,11
1,1,9,1,0,0,1,5,20,11
1,1,5,0,2,0,1,5,64,9
1,1,8,1,2,0,1,5,14,9
1,1,7,1,6,1,1,5,20,11
1,1,14,1,6,1,1,5,124,11
1,1,18,1,0,0,1,5,72,11
2,1,2,0,4,0,1,5,90,11
2,1,23,0,6,1,1,5,38,11
2,1,21,0,0,0,1,5,90,11
2,1,12,1,1,0,1,5,72,11
2,1,17,1,2,0,1,5,4,11
2,1,23,0,2,0,1,5,72,11
2,1,6,0,5,1,1,5,45,11
2,1,13,1,6,1,1,5,38,11
3,2,2,0,1,0,1,5,20,11
3,2,10,1,1,0,1,5,20,11
3,2,10,1,3,0,1,5,90,11
3,2,19,1,3,0,1,5,90,11
3,2,23,0,3,0,1,5,14,9
3,2,20,1,0,0,1,5,90,11
3,2,10,1,1,0,1,5,90,9
3,2,10,1,1,0,1,5,124,11
3,2,18,1,2,0,1,5,88,11
3,2,19,1,4,0,1,5,90,11
3,2,12,1,6,1,1,5,75,9
3,2,20,1,2,0,1,5,90,11
3,2,1,0,3,0,1,5,90,11
3,2,13,1,3,0,1,5,23,11
3,2,13,1,3,0,1,5,75,8
3,2,10,1,4,0,1,5,90,11
3,2,20,1,4,0,1,5,90,11
3,2,22,0,5,1,1,5,20,11
3,2,9,1,3,0,1,5,72,11
4,2,21,0,5,1,2,5,90,11
4,2,17,1,6,1,2,5,41,11
4,2,17,1,1,0,2,5,20,11
4,2,13,1,2,0,2,5,88,11
4,2,7,1,5,1,2,5,90,11
4,2,18,1,5,1,2,5,90,11
4,2,20,1,6,1,2,5,90,11
4,2,1,0,2,0,2,5,1,11
4,2,14,1,4,0,2,5,90,11
4,2,20,1,4,0,2,5,101,11
4,2,4,0,5,1,2,5,20,11
4,2,1,0,6,1,2,5,1,11
4,2,19,1,0,0,2,5,90,11
4,2,21,0,2,0,2,5,124,11
4,2,10,1,3,0,2,5,90,11
4,2,13,1,4,0,2,5,90,11
4,2,17,1,4,0,2,5,90,9
4,2,21,0,4,0,2,5,90,11
4,2,12,1,6,1,2,5,124,11
4,2,5,0,0,0,2,5,88,11
4,2,11,1,1,0,2,5,101,11
4,2,19,1,2,0,2,5,124,11
5,2,4,0,6,1,2,5,20,11
5,2,17,1,6,1,2,5,90,11
5,2,22,0,2,0,2,5,121,11
5,2,14,1,3,0,2,5,90,11
5,2,1,0,5,1,2,5,20,11
5,2,12,1,5,1,2,5,90,11
5,2,15,1,5,1,2,5,90,9
5,2,17,1,6,1,2,5,20,11
5,2,22,0,0,0,2,5,90,11
5,2,17,1,3,0,2,5,90,11
5,2,20,1,3,0,2,5,90,11
5,2,20,1,3,0,2,5,90,11
5,2,21,0,3,0,2,5,90,11
5,2,21,0,3,0,2,5,90,11
5,2,14,1,4,0,2,5,90,11
5,2,23,0,5,1,2,5,54,11
5,2,11,1,6,1,2,5,90,11
5,2,12,1,6,1,2,5,90,11
5,2,15,1,6,1,2,5,90,9
5,2,20,1,6,1,2,5,90,11
5,2,14,1,1,0,2,5,20,11
5,2,22,0,3,0,2,5,90,11
5,2,12,1,4,0,2,5,90,11
5,2,20,1,4,0,2,5,90,11
5,2,13,1,5,1,2,5,90,11
5,2,20,1,5,1,2,5,124,11
5,2,21,0,5,1,2,5,90,11
5,2,13,1,6,1,2,5,90,11
5,2,13,1,6,1,2,5,90,8
5,2,19,1,6,1,2,5,90,11
5,2,23,0,6,1,2,5,90,11
5,2,14,1,0,0,2,5,121,9
5,2,0,0,1,0,2,5,100,9
5,2,13,1,1,0,2,5,90,11
5,2,15,1,1,0,2,5,38,11
5,2,7,1,2,0,2,5,121,9
5,2,15,1,2,0,2,5,90,8
5,2,23,0,2,0,2,5,90,11
5,2,9,1,3,0,2,5,20,11
5,2,16,1,4,0,2,5,90,11
5,2,0,0,5,1,2,5,90,11
5,2,2,0,5,1,2,5,90,11
5,2,22,0,0,0,2,5,14,9
5,2,23,0,1,0,2,5,90,11
6,3,16,1,2,0,2,5,90,11
6,3,8,1,3,0,2,5,41,11
6,3,15,1,3,0,2,5,90,11
6,3,11,1,4,0,2,5,45,11
6,3,12,1,4,0,2,5,90,9
6,3,14,1,4,0,2,5,90,8
6,3,2,0,5,1,2,5,90,11
6,3,18,1,5,1,2,5,90,11
6,3,12,1,6,1,2,5,124,8
6,3,21,0,6,1,2,5,90,11
6,3,9,1,0,0,2,5,45,8
6,3,12,1,0,0,2,5,90,11
6,3,1,0,1,0,2,5,20,9
6,3,11,1,2,0,2,5,90,11
6,3,16,1,5,1,2,5,90,11
6,3,18,1,5,1,2,5,90,11
6,3,21,0,6,1,2,5,90,11
6,3,22,0,6,1,2,5,90,11
6,3,15,1,0,0,2,5,124,9
6,3,16,1,0,0,2,5,90,11
6,3,0,0,1,0,2,5,90,11
6,3,0,0,1,0,2,5,90,11
6,3,9,1,1,0,2,5,124,11
6,3,9,1,2,0,2,5,72,11
6,3,11,1,3,0,2,5,90,11
6,3,12,1,3,0,2,5,88,11
6,3,10,1,4,0,2,5,90,11
6,3,10,1,5,1,2,5,90,11
6,3,10,1,6,1,2,5,90,11
6,3,14,1,6,1,2,5,90,11
6,3,22,0,6,1,2,5,90,11
6,3,6,0,0,0,2,5,45,8
6,3,10,1,2,0,2,5,90,11
6,3,11,1,2,0,2,5,90,9
6,3,21,0,3,0,2,5,90,11
6,3,21,0,5,1,2,5,90,11
6,3,21,0,5,1,2,5,90,11
6,3,3,0,6,1,2,5,124,11
6,3,9,1,6,1,2,5,9,11
6,3,19,1,6,1,2,5,90,11
6,3,19,1,6,1,2,5,90,11
6,3,11,1,0,0,2,5,90,11
6,3,14,1,0,0,2,5,90,8
6,3,16,1,1,0,2,5,90,11
6,3,22,0,1,0,2,5,90,11
6,3,1,0,2,0,2,5,75,11
6,3,9,1,2,0,2,5,90,11
6,3,15,1,3,0,2,5,23,11
7,3,13,1,4,0,3,5,124,11
7,3,13,1,5,1,3,5,90,11
7,3,1,0,6,1,3,5,90,11
7,3,6,0,6,1,3,5,90,11
7,3,20,1,2,0,3,5,90,11
7,3,20,1,4,0,3,5,90,11
7,3,22,0,4,0,3,5,45,11
7,3,5,0,6,1,3,5,20,11
7,3,22,0,6,1,3,5,20,11
7,3,18,1,0,0,3,5,90,11
7,3,14,1,2,0,3,5,90,11
7,3,3,0,3,0,3,5,64,8
7,3,5,0,5,1,3,5,124,11
7,3,8,1,0,0,3,5,90,9
7,3,11,1,1,0,3,5,124,11
7,3,20,1,1,0,3,5,90,11
7,3,21,0,1,0,3,5,64,11
7,3,7,1,3,0,3,5,72,11
7,3,18,1,3,0,3,5,14,8
7,3,17,1,0,0,3,5,90,11
7,3,18,1,0,0,3,5,90,11
7,3,2,0,1,0,3,5,72,9
7,3,15,1,5,1,3,5,90,9
7,3,22,0,5,1,3,5,90,11
7,3,2,0,6,1,3,5,88,11
7,3,16,1,6,1,3,5,45,11
8,3,7,1,0,0,3,5,90,11
8,3,18,1,2,0,3,5,90,11
8,3,10,1,4,0,3,5,90,11
8,3,22,0,0,0,3,5,101,11
8,3,13,1,1,0,3,5,90,11
8,3,11,1,2,0,3,5,90,11
8,3,13,1,2,0,3,5,20,11
8,3,15,1,2,0,3,5,90,11
8,3,23,0,2,0,3,5,20,11
8,3,12,1,5,1,3,5,90,9
8,3,2,0,1,0,3,5,20,11
8,3,20,1,3,0,3,5,90,11
8,3,0,0,4,0,3,5,1,9
8,3,17,1,4,0,3,5,9,9
8,3,11,1,5,1,3,5,72,11
8,3,22,0,5,1,3,5,20,11
8,3,13,1,6,1,3,5,90,11
8,3,1,0,1,0,3,5,72,9
8,3,3,0,5,1,3,5,88,11
8,3,0,0,0,0,3,5,90,11
8,3,3,0,0,0,3,5,90,11
8,3,6,0,0,0,3,5,20,11
8,3,15,1,1,0,3,5,90,11
8,3,16,1,2,0,3,5,90,9
9,4,14,1,4,0,3,5,90,11
9,4,3,0,5,1,3,5,20,11
9,4,14,1,6,1,3,5,20,11
9,4,8,1,0,0,3,5,90,11
9,4,13,1,0,0,3,5,90,11
9,4,19,1,1,0,3,5,101,11
9,4,16,1,4,0,3,5,90,11
9,4,4,0,5,1,3,5,90,11
9,4,23,0,3,0,3,5,64,9
9,4,14,1,5,1,3,5,90,11
9,4,15,1,0,0,3,5,75,11
9,4,8,1,1,0,3,5,90,11
9,4,21,0,1,0,3,5,90,11
9,4,13,1,4,0,3,5,1,11
9,4,13,1,4,0,3,5,90,11
9,4,17,1,4,0,3,5,90,11
9,4,22,0,6,1,3,5,90,11
9,4,13,1,0,0,3,5,14,9
10,4,16,1,6,1,4,5,90,11
10,4,22,0,6,1,4,5,106,11
10,4,2,0,1,0,4,5,90,9
10,4,5,0,1,0,4,5,90,9
10,4,11,1,2,0,4,5,101,11
10,4,9,1,3,0,4,5,90,11
10,4,17,1,3,0,4,5,90,11
10,4,22,0,3,0,4,5,88,11
10,4,14,1,5,1,4,5,90,11
10,4,11,1,4,0,4,5,90,11
10,4,3,0,1,0,4,5,20,11
10,4,14,1,3,0,4,5,90,11
10,4,9,1,5,1,4,5,90,11
10,4,19,1,5,1,4,5,4,11
11,4,21,0,2,0,4,5,72,9
11,4,16,1,5,1,4,5,90,11
11,4,16,1,5,1,4,5,90,9
11,4,8,1,1,0,4,5,72,11
11,4,1,0,2,0,4,5,72,11
11,4,19,1,2,0,4,5,75,11
11,4,11,1,4,0,4,5,90,11
11,4,13,1,6,1,4,5,90,11
11,4,1,0,0,0,4,5,90,11
11,4,9,1,0,0,4,5,9,11
11,4,11,1,0,0,4,5,90,11
11,4,17,1,0,0,4,5,90,11
11,4,18,1,2,0,4,5,12,11
11,4,9,1,3,0,4,5,90,9
11,4,10,1,5,1,4,5,90,11
11,4,15,1,6,1,4,5,89,11
11,4,7,1,0,0,4,5,45,11
11,4,3,0,1,0,4,5,72,11
11,4,20,1,1,0,4,5,90,11
11,4,15,1,2,0,4,5,23,8
11,4,21,0,4,0,4,5,20,11
11,4,12,1,5,1,4,5,90,11
11,4,13,1,5,1,4,5,13,11
11,4,2,0,1,0,4,5,90,11
11,4,17,1,1,0,4,5,121,11
12,1,11,1,4,0,4,5,75,11
12,1,13,1,0,0,4,5,23,11
12,1,23,0,2,0,4,5,72,11
12,1,5,0,1,0,4,5,90,11
12,1,0,0,3,0,4,5,72,11
12,1,23,0,6,1,4,5,90,11
1,1,17,1,4,0,1,5,1,11
1,1,16,1,3,0,1,5,20,11
1,1,11,1,5,1,1,5,75,11
1,1,11,1,6,1,1,5,90,11
1,1,19,1,6,1,1,5,124,11
1,1,21,0,1,0,1,5,124,11
1,1,15,1,4,0,1,5,90,11
1,1,18,1,6,1,1,5,90,11
1,1,11,1,0,0,1,5,20,11
1,1,11,1,3,0,1,5,88,11
1,1,23,0,4,0,1,5,4,11
1,1,15,1,0,0,1,5,62,11
2,1,17,1,3,0,1,5,124,11
2,1,18,1,3,0,1,5,124,11
2,1,12,1,6,1,1,5,90,11
2,1,16,1,2,0,1,5,90,9
2,1,17,1,0,0,1,5,4,11
2,1,8,1,4,0,1,5,111,11
2,1,23,0,0,0,1,5,75,9
3,2,9,1,1,0,1,5,65,11
3,2,4,0,5,1,1,5,88,11
3,2,20,1,5,1,1,5,90,11
3,2,19,1,4,0,1,5,81,11
3,2,13,1,6,1,1,5,101,11
3,2,0,0,0,0,1,5,72,11
3,2,11,1,0,0,1,5,90,11
3,2,20,1,1,0,1,5,1,11
3,2,11,1,2,0,1,5,16,11
3,2,17,1,2,0,1,5,55,8
3,2,12,1,3,0,1,5,90,11
3,2,13,1,3,0,1,5,4,11
3,2,11,1,5,1,1,5,4,11
3,2,20,1,6,1,1,5,90,11
3,2,13,1,0,0,1,5,75,9
4,2,15,1,5,1,2,5,72,11
4,2,20,1,2,0,2,5,65,11
4,2,22,0,2,0,2,5,1,11
4,2,4,0,3,0,2,5,65,11
4,2,14,1,4,0,2,5,90,11
4,2,10,1,6,1,2,5,124,11
4,2,15,1,1,0,2,5,4,11
4,2,20,1,2,0,2,5,90,11
4,2,20,1,3,0,2,5,124,9
4,2,9,1,4,0,2,5,27,11
4,2,15,1,4,0,2,5,4,11
4,2,16,1,4,0,2,5,34,11
4,2,22,0,5,1,2,5,101,11
4,2,11,1,4,0,2,5,4,9
4,2,16,1,2,0,2,5,4,11
4,2,16,1,4,0,2,5,109,11
5,2,16,1,6,1,2,5,62,11
5,2,18,1,1,0,2,5,4,11
5,2,10,1,5,1,2,5,90,11
5,2,19,1,0,0,2,5,90,11
5,2,19,1,1,0,2,5,88,11
5,2,14,1,2,0,2,5,4,11
5,2,13,1,5,1,2,5,54,11
5,2,19,1,0,0,2,5,90,11
5,2,11,1,4,0,2,5,101,11
5,2,12,1,5,1,2,5,20,11
5,2,13,1,0,0,2,5,72,11
5,2,1,0,4,0,2,5,20,11
5,2,20,1,5,1,2,5,90,11
5,2,12,1,0,0,2,5,4,11
5,2,20,1,0,0,2,5,101,11
5,2,12,1,1,0,2,5,121,11
6,3,13,1,2,0,2,5,4,11
6,3,9,1,5,1,2,5,88,11
6,3,10,1,5,1,2,5,23,11
6,3,21,0,0,0,2,5,75,11
6,3,2,0,6,1,2,5,88,11
6,3,17,1,6,1,2,5,90,11
6,3,21,0,6,1,2,5,64,11
6,3,14,1,2,0,2,5,27,9
6,3,16,1,4,0,2,5,124,11
6,3,22,0,4,0,2,5,124,11
6,3,23,0,4,0,2,5,90,11
6,3,19,1,6,1,2,5,4,11
6,3,21,0,6,1,2,5,4,11
6,3,19,1,0,0,2,5,20,11
6,3,21,0,0,0,2,5,90,11
7,3,11,1,4,0,3,5,90,11
7,3,16,1,6,1,3,5,90,11
7,3,14,1,4,0,3,5,75,11
7,3,6,0,6,1,3,5,90,9
7,3,10,1,6,1,3,5,20,11
7,3,10,1,6,1,3,5,4,11
7,3,11,1,2,0,3,5,90,11
7,3,9,1,1,0,3,5,90,11
7,3,17,1,4,0,3,5,4,9
8,3,7,1,0,0,3,5,90,9
8,3,18,1,6,1,3,5,20,9
8,3,21,0,1,0,3,5,101,11
8,3,12,1,3,0,3,5,90,11
8,3,19,1,3,0,3,5,90,11
8,3,10,1,6,1,3,5,90,11
8,3,15,1,2,0,3,5,90,11
8,3,15,1,2,0,3,5,75,11
8,3,15,1,4,0,3,5,90,11
8,3,22,0,1,0,3,5,90,11
8,3,21,0,4,0,3,5,90,11
8,3,18,1,2,0,3,5,14,11
8,3,20,1,2,0,3,5,101,11
9,4,19,1,5,1,3,5,90,11
9,4,23,0,5,1,3,5,90,11
9,4,17,1,6,1,3,5,90,9
9,4,1,0,2,0,3,5,101,11
9,4,13,1,5,1,3,5,75,9
9,4,10,1,1,0,3,5,121,11
9,4,19,1,4,0,3,5,90,11
9,4,19,1,4,0,3,5,64,11
9,4,10,1,5,1,3,5,88,11
9,4,9,1,1,0,3,5,101,11
9,4,13,1,3,0,3,5,90,11
10,4,11,1,1,0,4,5,121,11
10,4,13,1,1,0,4,5,20,11
10,4,14,1,1,0,4,5,121,11
10,4,14,1,2,0,4,5,121,11
10,4,9,1,3,0,4,5,90,11
10,4,11,1,3,0,4,5,90,11
10,4,12,1,3,0,4,5,4,11
10,4,14,1,5,1,4,5,90,11
10,4,20,1,0,0,4,5,20,9
10,4,3,0,2,0,4,5,106,11
10,4,9,1,3,0,4,5,90,11
10,4,13,1,6,1,4,5,90,11
10,4,11,1,2,0,4,5,90,11
10,4,0,0,0,0,4,5,78,9
10,4,10,1,1,0,4,5,90,11
11,4,17,1,3,0,4,5,90,11
11,4,11,1,5,1,4,5,4,11
11,4,16,1,1,0,4,5,4,9
11,4,18,1,1,0,4,5,101,11
11,4,14,1,2,0,4,5,4,11
11,4,17,1,3,0,4,5,4,11
11,4,18,1,4,0,4,5,4,11
11,4,22,0,0,0,4,5,101,9
11,4,12,1,6,1,4,5,90,11
11,4,17,1,6,1,4,5,4,11
11,4,22,0,6,1,4,5,90,9
11,4,16,1,0,0,4,5,90,9
11,4,18,1,2,0,4,5,4,9
11,4,2,0,5,1,4,5,90,11
11,4,9,1,5,1,4,5,101,11
11,4,10,1,5,1,4,5,4,11
11,4,10,1,6,1,4,5,121,11
11,4,14,1,6,1,4,5,124,11
12,1,17,1,0,0,4,5,4,11
12,1,16,1,1,0,4,5,88,11
12,1,22,0,1,0,4,5,88,11
12,1,20,1,3,0,4,5,88,11
12,1,9,1,4,0,4,5,75,9
12,1,22,0,4,0,4,5,65,11
12,1,17,1,2,0,4,5,90,11
12,1,17,1,0,0,4,5,124,11
12,1,11,1,1,0,4,5,38,11
12,1,12,1,1,0,4,5,38,11
12,1,23,0,3,0,4,5,64,11
3,2,16,1,6,1,1,5,90,11
4,2,16,1,4,0,2,5,90,11
7,3,20,1,4,0,3,5,124,11
7,3,19,1,5,1,3,5,33,11
7,3,10,1,6,1,3,5,124,11
7,3,17,1,6,1,3,5,90,11
8,3,18,1,4,0,3,5,124,11
8,3,20,1,4,0,3,5,88,11
8,3,21,0,4,0,3,5,101,11
8,3,22,0,4,0,3,5,101,11
8,3,22,0,4,0,3,5,20,11
8,3,12,1,6,1,3,5,90,11
9,4,9,1,0,0,3,5,124,11
9,4,10,1,4,0,3,5,124,11
1,1,20,1,5,1,1,5,72,11
1,1,18,1,4,0,1,5,72,11
2,1,10,1,5,1,1,5,121,11
3,2,16,1,2,0,1,5,72,11
4,2,11,1,5,1,2,5,88,9
4,2,20,1,3,0,2,5,72,11
4,2,18,1,6,1,2,5,101,11
5,2,14,1,5,1,2,5,72,11
6,3,21,0,6,1,2,5,72,11
7,3,15,1,0,0,3,5,101,11
7,3,11,1,3,0,3,5,72,11
8,3,8,1,1,0,3,5,72,11
8,3,21,0,1,0,3,5,37,11
9,4,7,1,0,0,3,5,72,11
9,4,16,1,2,0,3,5,72,11
11,4,10,1,5,1,4,5,72,11
11,4,19,1,5,1,4,5,72,11
12,1,16,1,6,1,4,5,20,11
1,1,0,0,5,1,1,5,88,11
1,1,9,1,1,0,1,5,20,11
1,1,11,1,5,1,1,5,88,11
1,1,20,1,4,0,1,5,109,11
1,1,17,1,0,0,1,5,90,11
1,1,10,1,3,0,1,5,20,11
2,1,14,1,6,1,1,5,88,11
2,1,10,1,0,0,1,5,88,11
2,1,7,1,5,1,1,5,71,11
2,1,13,1,4,0,1,5,20,11
3,2,13,1,1,0,1,5,90,11
3,2,17,1,6,1,1,5,20,11
3,2,17,1,3,0,1,5,101,11
3,2,22,0,1,0,1,5,109,11
3,2,20,1,2,0,1,5,66,11
3,2,13,1,5,1,1,5,90,11
3,2,13,1,0,0,1,5,4,11
4,2,12,1,4,0,2,5,90,11
4,2,14,1,6,1,2,5,101,11
4,2,8,1,2,0,2,5,101,11
4,2,19,1,3,0,2,5,90,11
4,2,17,1,4,0,2,5,75,11
4,2,17,1,2,0,2,5,20,11
4,2,23,0,5,1,2,5,90,11
4,2,15,1,6,1,2,5,14,9
4,2,16,1,1,0,2,5,88,11
4,2,13,1,4,0,2,5,64,11
5,2,16,1,2,0,2,5,20,11
5,2,17,1,0,0,2,5,14,11
5,2,20,1,0,0,2,5,20,11
5,2,11,1,4,0,2,5,75,8
5,2,18,1,0,0,2,5,20,11
6,3,10,1,4,0,2,5,90,11
6,3,13,1,5,1,2,5,90,11
6,3,20,1,6,1,2,5,1,11
6,3,18,1,0,0,2,5,101,11
6,3,16,1,4,0,2,5,47,11
7,3,7,1,6,1,3,5,20,11
7,3,0,0,3,0,3,5,20,11
7,3,12,1,3,0,3,5,64,11
7,3,18,1,5,1,3,5,88,11
7,3,9,1,6,1,3,5,101,11
8,3,20,1,0,0,3,5,90,11
8,3,12,1,4,0,3,5,90,11
8,3,21,0,5,1,3,5,1,11
8,3,13,1,3,0,3,5,90,11
8,3,13,1,0,0,3,5,90,11
9,4,15,1,3,0,3,5,90,11
10,4,18,1,2,0,4,5,124,11
10,4,15,1,1,0,4,5,90,11
10,4,21,0,4,0,4,5,90,11
11,4,10,1,4,0,4,5,90,11
11,4,14,1,2,0,4,5,90,11
11,4,14,1,4,0,4,5,90,11
11,4,17,1,4,0,4,5,52,11
11,4,16,1,3,0,4,5,90,11
11,4,20,1,4,0,4,5,101,11
12,1,15,1,5,1,4,5,75,11
12,1,14,1,5,1,4,5,75,11
12,1,21,0,5,1,4,5,64,11
12,1,5,0,0,0,4,5,51,11
12,1,18,1,1,0,4,5,101,11
1,1,11,1,0,0,1,5,90,11
1,1,15,1,1,0,1,5,90,11
1,1,11,1,1,0,1,5,90,11
1,1,10,1,4,0,1,5,90,11
1,1,12,1,6,1,1,5,88,11
1,1,16,1,6,1,1,5,90,11
1,1,17,1,0,0,1,5,90,11
1,1,13,1,1,0,1,5,38,8
1,1,8,1,2,0,1,5,13,11
1,1,19,1,0,0,1,5,75,8
1,1,21,0,2,0,1,5,14,11
2,1,3,0,3,0,1,5,38,11
2,1,16,1,4,0,1,5,90,11
2,1,13,1,6,1,1,5,101,11
2,1,14,1,6,1,1,5,101,11
2,1,12,1,0,0,1,5,90,11
2,1,11,1,6,1,1,5,90,11
2,1,13,1,6,1,1,5,90,11
2,1,18,1,0,0,1,5,90,11
2,1,20,1,1,0,1,5,90,11
2,1,23,0,1,0,1,5,101,11
2,1,14,1,2,0,1,5,90,11
2,1,16,1,3,0,1,5,90,11
2,1,19,1,4,0,1,5,90,11
3,2,4,0,1,0,1,5,90,11
3,2,8,1,1,0,1,5,90,11
3,2,14,1,3,0,1,5,90,11
3,2,19,1,0,0,1,5,90,11
3,2,7,1,1,0,1,5,90,11
3,2,23,0,3,0,1,5,124,11
3,2,12,1,5,1,1,5,75,11
3,2,23,0,0,0,1,5,75,11
3,2,18,1,1,0,1,5,90,11
3,2,21,0,4,0,1,5,75,11
3,2,16,1,5,1,1,5,75,11
3,2,11,1,0,0,1,5,88,11
3,2,12,1,0,0,1,5,75,8
3,2,17,1,0,0,1,5,90,11
3,2,17,1,0,0,1,5,90,11
3,2,18,1,1,0,1,5,124,11
3,2,8,1,2,0,1,5,90,11
3,2,11,1,3,0,1,5,90,11
4,2,15,1,5,1,2,5,90,11
4,2,13,1,6,1,2,5,90,11
4,2,14,1,0,0,2,5,38,11
4,2,12,1,6,1,2,5,88,11
4,2,13,1,6,1,2,5,90,11
4,2,14,1,6,1,2,5,101,11
4,2,20,1,2,0,2,5,75,11
4,2,15,1,4,0,2,5,90,11
4,2,12,1,4,0,2,5,90,11
4,2,22,0,5,1,2,5,90,11
4,2,1,0,6,1,2,5,75,11
4,2,5,0,6,1,2,5,99,11
4,2,15,1,0,0,2,5,88,11
4,2,20,1,2,0,2,5,90,11
4,2,13,1,4,0,2,5,90,11
4,2,20,1,4,0,2,5,88,11
4,2,10,1,5,1,2,5,101,11
5,2,19,1,1,0,2,5,90,11
5,2,17,1,3,0,2,5,101,11
5,2,20,1,3,0,2,5,101,11
5,2,22,0,5,1,2,5,124,11
5,2,15,1,6,1,2,5,90,11
5,2,13,1,1,0,2,5,64,11
5,2,3,0,5,1,2,5,28,11
5,2,22,0,2,0,2,5,90,11
5,2,1,0,3,0,2,5,90,11
5,2,20,1,5,1,2,5,124,11
5,2,20,1,1,0,2,5,90,11
6,3,17,1,2,0,2,5,101,11
6,3,9,1,0,0,2,5,90,11
6,3,11,1,1,0,2,5,75,11
6,3,21,0,5,1,2,5,101,11
6,3,19,1,0,0,2,5,90,8
6,3,18,1,1,0,2,5,90,11
6,3,7,1,4,0,2,5,101,11
6,3,14,1,5,1,2,5,20,11
6,3,17,1,6,1,2,5,88,11
6,3,16,1,1,0,2,5,90,11
7,3,15,1,0,0,3,5,101,11
7,3,17,1,0,0,3,5,88,11
7,3,13,1,1,0,3,5,101,11
7,3,9,1,2,0,3,5,90,11
7,3,22,0,3,0,3,5,75,11
7,3,14,1,0,0,3,5,90,11
7,3,11,1,5,1,3,5,90,11
7,3,23,0,1,0,3,5,90,11
7,3,16,1,5,1,3,5,90,11
8,3,16,1,0,0,3,5,90,11
8,3,0,0,2,0,3,5,101,11
8,3,19,1,0,0,3,5,101,11
8,3,14,1,1,0,3,5,104,11
8,3,21,0,1,0,3,5,90,11
8,3,10,1,4,0,3,5,20,11
8,3,7,1,5,1,3,5,90,8
8,3,21,0,5,1,3,5,20,11
8,3,15,1,0,0,3,5,90,11
8,3,14,1,3,0,3,5,47,11
8,3,14,1,2,0,3,5,20,11
9,4,8,1,3,0,3,5,101,11
9,4,8,1,1,0,3,5,101,11
9,4,14,1,2,0,3,5,88,11
9,4,16,1,0,0,3,5,55,11
9,4,17,1,5,1,3,5,101,11
9,4,13,1,6,1,3,5,90,11
9,4,7,1,1,0,3,5,75,11
9,4,19,1,1,0,3,5,90,11
9,4,14,1,3,0,3,5,72,11
10,4,12,1,6,1,4,5,90,11
10,4,13,1,2,0,4,5,90,11
10,4,19,1,4,0,4,5,75,11
10,4,12,1,6,1,4,5,90,11
10,4,17,1,6,1,4,5,90,11
10,4,17,1,6,1,4,5,124,11
10,4,14,1,6,1,4,5,90,11
10,4,10,1,0,0,4,5,5,11
11,4,16,1,1,0,4,5,90,11
11,4,0,0,2,0,4,5,90,11
11,4,16,1,2,0,4,5,90,11
11,4,1,0,6,1,4,5,90,11
11,4,16,1,0,0,4,5,90,11
11,4,2,0,3,0,4,5,90,11
11,4,23,0,4,0,4,5,90,11
11,4,22,0,1,0,4,5,90,11
11,4,13,1,6,1,4,5,90,11
11,4,21,0,6,1,4,5,90,11
11,4,12,1,0,0,4,5,75,11
11,4,18,1,0,0,4,5,90,11
11,4,21,0,0,0,4,5,90,11
11,4,5,0,1,0,4,5,88,11
11,4,9,1,4,0,4,5,90,11
11,4,11,1,4,0,4,5,90,11
11,4,3,0,5,1,4,5,90,11
11,4,15,1,5,1,4,5,124,11
11,4,18,1,6,1,4,5,124,11
11,4,17,1,0,0,4,5,88,11
12,1,11,1,3,0,4,5,20,11
12,1,14,1,4,0,4,5,90,11
12,1,19,1,0,0,4,5,90,11
12,1,12,1,4,0,4,5,90,11
12,1,14,1,4,0,4,5,90,11
12,1,21,0,5,1,4,5,4,11
12,1,20,1,6,1,4,5,90,11
12,1,3,0,0,0,4,5,90,11
12,1,19,1,0,0,4,5,90,11
12,1,22,0,0,0,4,5,90,11
12,1,17,1,4,0,4,5,101,11
12,1,20,1,4,0,4,5,90,11
12,1,15,1,0,0,4,5,124,11
12,1,12,1,4,0,4,5,90,11
12,1,19,1,6,1,4,5,124,11
12,1,15,1,0,0,4,5,124,11
12,1,18,1,0,0,4,5,90,11
12,1,16,1,1,0,4,5,90,11
12,1,20,1,5,1,4,5,109,11
1,1,18,1,6,1,1,5,90,11
1,1,18,1,6,1,1,5,90,11
1,1,7,1,0,0,1,5,90,11
1,1,14,1,1,0,1,5,90,11
1,1,17,1,1,0,1,5,90,11
1,1,1,0,2,0,1,5,90,11
1,1,19,1,4,0,1,5,64,11
1,1,11,1,5,1,1,5,90,11
1,1,12,1,5,1,1,5,90,11
1,1,22,0,6,1,1,5,90,11
1,1,4,0,0,0,1,5,20,11
1,1,15,1,0,0,1,5,90,11
1,1,19,1,2,0,1,5,90,11
1,1,14,1,5,1,1,5,90,11
1,1,11,1,0,0,1,5,90,11
1,1,14,1,0,0,1,5,90,11
1,1,16,1,0,0,1,5,101,11
1,1,17,1,1,0,1,5,75,9
1,1,8,1,2,0,1,5,20,11
1,1,21,0,2,0,1,5,88,11
1,1,8,1,4,0,1,5,90,11
1,1,16,1,4,0,1,5,90,11
1,1,15,1,5,1,1,5,75,11
1,1,17,1,6,1,1,5,101,11
1,1,8,1,0,0,1,5,88,11
1,1,9,1,0,0,1,5,88,11
2,1,15,1,2,0,1,5,90,9
2,1,14,1,5,1,1,5,88,11
2,1,0,0,0,0,1,5,14,8
2,1,12,1,1,0,1,5,90,11
2,1,17,1,3,0,1,5,14,8
2,1,8,1,6,1,1,5,90,11
2,1,13,1,6,1,1,5,75,11
2,1,16,1,0,0,1,5,90,11
2,1,13,1,2,0,1,5,90,11
2,1,19,1,2,0,1,5,90,11
2,1,9,1,3,0,1,5,14,8
3,2,9,1,1,0,1,5,23,11
3,2,19,1,1,0,1,5,45,11
3,2,19,1,2,0,1,5,90,11
3,2,12,1,4,0,1,5,90,11
3,2,15,1,4,0,1,5,88,11
3,2,14,1,5,1,1,5,90,11
3,2,17,1,0,0,1,5,45,11
3,2,20,1,4,0,1,5,90,11
3,2,15,1,5,1,1,5,64,11
3,2,9,1,6,1,1,5,90,11
3,2,22,0,6,1,1,5,90,9
3,2,11,1,0,0,1,5,109,11
3,2,0,0,2,0,1,5,43,11
3,2,13,1,2,0,1,5,90,11
3,2,4,0,3,0,1,5,90,11
3,2,7,1,5,1,1,5,90,11
3,2,9,1,1,0,1,5,14,11
3,2,12,1,6,1,1,5,90,11
3,2,5,0,0,0,1,5,90,11
3,2,11,1,1,0,1,5,84,11
3,2,12,1,1,0,1,5,90,11
3,2,13,1,1,0,1,5,90,11
3,2,13,1,3,0,1,5,90,11
4,2,20,1,6,1,2,5,90,11
4,2,13,1,0,0,2,5,90,11
4,2,12,1,2,0,2,5,88,11
4,2,14,1,4,0,2,5,90,11
4,2,21,0,4,0,2,5,90,11
4,2,18,1,6,1,2,5,101,11
4,2,22,0,6,1,2,5,49,11
4,2,23,0,6,1,2,5,90,11
4,2,10,1,1,0,2,5,90,11
4,2,13,1,2,0,2,5,90,11
4,2,19,1,2,0,2,5,90,11
4,2,20,1,3,0,2,5,63,11
4,2,13,1,0,0,2,5,90,11
4,2,18,1,1,0,2,5,90,11
4,2,17,1,3,0,2,5,90,11
4,2,14,1,4,0,2,5,72,11
4,2,11,1,6,1,2,5,90,11
4,2,9,1,0,0,2,5,90,11
4,2,21,0,0,0,2,5,90,11
4,2,10,1,2,0,2,5,90,11
4,2,11,1,2,0,2,5,90,11
4,2,11,1,3,0,2,5,90,11
5,2,10,1,6,1,2,5,20,11
5,2,17,1,2,0,2,5,90,9
5,2,4,0,4,0,2,5,90,11
5,2,9,1,5,1,2,5,72,11
5,2,11,1,5,1,2,5,90,9
5,2,14,1,6,1,2,5,90,11
5,2,15,1,1,0,2,5,90,11
5,2,17,1,1,0,2,5,90,11
5,2,5,0,3,0,2,5,90,9
5,2,8,1,3,0,2,5,90,11
5,2,13,1,4,0,2,5,88,11
5,2,20,1,2,0,2,5,90,11
5,2,14,1,3,0,2,5,90,9
5,2,15,1,3,0,2,5,45,11
5,2,13,1,4,0,2,5,90,9
5,2,11,1,5,1,2,5,90,11
5,2,17,1,5,1,2,5,90,11
5,2,14,1,0,0,2,5,90,11
5,2,4,0,1,0,2,5,88,11
5,2,13,1,1,0,2,5,90,11
5,2,17,1,1,0,2,5,90,9
5,2,13,1,3,0,2,5,90,9
5,2,14,1,5,1,2,5,90,11
5,2,9,1,0,0,2,5,90,11
5,2,9,1,0,0,2,5,90,11
6,3,20,1,2,0,2,5,90,11
6,3,21,0,2,0,2,5,9,11
6,3,14,1,0,0,2,5,90,11
6,3,11,1,1,0,2,5,90,11
6,3,14,1,3,0,2,5,90,11
6,3,21,0,6,1,2,5,90,11
6,3,2,0,0,0,2,5,90,8
6,3,11,1,1,0,2,5,88,11
6,3,17,1,4,0,2,5,90,11
6,3,21,0,5,1,2,5,64,11
6,3,21,0,6,1,2,5,90,11
6,3,14,1,0,0,2,5,88,11
6,3,18,1,0,0,2,5,90,11
7,3,18,1,4,0,3,5,90,11
7,3,15,1,6,1,3,5,90,11
7,3,16,1,6,1,3,5,64,9
7,3,12,1,3,0,3,5,101,11
7,3,4,0,4,0,3,5,90,11
7,3,8,1,4,0,3,5,90,11
7,3,19,1,4,0,3,5,90,11
7,3,21,0,4,0,3,5,55,11
7,3,6,0,5,1,3,5,90,11
7,3,11,1,6,1,3,5,9,11
7,3,12,1,5,1,3,5,90,11
7,3,17,1,5,1,3,5,101,11
7,3,18,1,5,1,3,5,90,11
7,3,19,1,5,1,3,5,64,11
7,3,23,0,1,0,3,5,90,9
7,3,20,1,6,1,3,5,90,11
7,3,1,0,0,0,3,5,75,11
7,3,18,1,0,0,3,5,90,11
7,3,19,1,3,0,3,5,64,11
7,3,11,1,5,1,3,5,90,11
7,3,17,1,6,1,3,5,90,11
7,3,22,0,6,1,3,5,88,11
8,3,22,0,0,0,3,5,90,11
8,3,15,1,1,0,3,5,101,11
8,3,13,1,2,0,3,5,90,11
8,3,11,1,5,1,3,5,90,11
8,3,12,1,5,1,3,5,88,11
8,3,13,1,5,1,3,5,90,11
8,3,16,1,5,1,3,5,90,11
8,3,11,1,1,0,3,5,90,11
8,3,15,1,1,0,3,5,90,11
8,3,10,1,4,0,3,5,90,11
8,3,19,1,4,0,3,5,90,11
8,3,12,1,0,0,3,5,90,11
8,3,16,1,1,0,3,5,88,11
8,3,11,1,3,0,3,5,90,11
9,4,14,1,3,0,3,5,90,11
9,4,15,1,4,0,3,5,90,11
9,4,2,0,0,0,3,5,20,11
9,4,9,1,4,0,3,5,23,11
9,4,14,1,4,0,3,5,90,11
9,4,15,1,4,0,3,5,90,11
9,4,8,1,5,1,3,5,90,11
9,4,10,1,5,1,3,5,90,11
9,4,10,1,6,1,3,5,90,11
9,4,15,1,0,0,3,5,90,11
9,4,7,1,1,0,3,5,90,11
9,4,13,1,1,0,3,5,90,11
9,4,9,1,2,0,3,5,90,11
9,4,18,1,2,0,3,5,90,11
9,4,21,0,5,1,3,5,90,11
9,4,15,1,6,1,3,5,90,11
9,4,18,1,1,0,3,5,90,11
9,4,9,1,2,0,3,5,90,11
9,4,11,1,2,0,3,5,90,11
9,4,17,1,5,1,3,5,101,11
9,4,15,1,6,1,3,5,90,9
9,4,18,1,6,1,3,5,90,11
9,4,22,0,6,1,3,5,90,11
9,4,9,1,4,0,3,5,75,11
10,4,22,0,6,1,4,5,90,9
10,4,15,1,3,0,4,5,90,11
10,4,10,1,4,0,4,5,90,11
10,4,3,0,6,1,4,5,14,11
10,4,14,1,6,1,4,5,9,11
10,4,18,1,6,1,4,5,90,11
10,4,3,0,2,0,4,5,90,11
10,4,8,1,2,0,4,5,90,11
10,4,11,1,2,0,4,5,90,11
10,4,18,1,5,1,4,5,90,11
10,4,18,1,6,1,4,5,90,11
10,4,11,1,0,0,4,5,90,11
10,4,11,1,1,0,4,5,90,11
10,4,16,1,2,0,4,5,90,11
10,4,17,1,2,0,4,5,90,11
10,4,4,0,4,0,4,5,90,11
10,4,11,1,5,1,4,5,90,11
10,4,14,1,0,0,4,5,90,11
11,4,9,1,2,0,4,5,90,11
11,4,12,1,2,0,4,5,90,11
11,4,13,1,2,0,4,5,90,11
11,4,15,1,2,0,4,5,90,11
11,4,16,1,2,0,4,5,90,11
11,4,11,1,3,0,4,5,90,11
11,4,14,1,3,0,4,5,90,11
11,4,5,0,5,1,4,5,90,11
11,4,9,1,5,1,4,5,90,11
11,4,14,1,5,1,4,5,90,11
11,4,11,1,6,1,4,5,90,11
11,4,13,1,6,1,4,5,90,11
11,4,14,1,6,1,4,5,90,11
11,4,23,0,6,1,4,5,90,11
11,4,17,1,4,0,4,5,90,11
11,4,12,1,6,1,4,5,90,11
11,4,17,1,0,0,4,5,101,11
11,4,13,1,1,0,4,5,90,11
11,4,11,1,2,0,4,5,88,11
11,4,13,1,2,0,4,5,90,11
11,4,13,1,3,0,4,5,90,11
11,4,15,1,4,0,4,5,90,11
11,4,11,1,5,1,4,5,90,11
11,4,15,1,5,1,4,5,88,11
11,4,16,1,6,1,4,5,90,11
11,4,20,1,6,1,4,5,90,11
11,4,13,1,0,0,4,5,75,11
11,4,12,1,1,0,4,5,20,11
11,4,15,1,1,0,4,5,88,11
11,4,23,0,2,0,4,5,90,11
11,4,16,1,3,0,4,5,90,11
11,4,16,1,4,0,4,5,90,11
11,4,11,1,6,1,4,5,90,11
11,4,10,1,0,0,4,5,90,11
11,4,10,1,0,0,4,5,90,11
12,1,17,1,5,1,4,5,90,11
12,1,17,1,5,1,4,5,90,11
12,1,17,1,6,1,4,5,90,11
12,1,11,1,1,0,4,5,90,11
12,1,16,1,1,0,4,5,90,11
12,1,22,0,1,0,4,5,90,11
12,1,11,1,3,0,4,5,90,11
12,1,22,0,5,1,4,5,90,11
12,1,1,0,6,1,4,5,90,11
12,1,18,1,1,0,4,5,90,11
12,1,15,1,2,0,4,5,90,11
12,1,15,1,3,0,4,5,101,11
12,1,20,1,3,0,4,5,88,11
12,1,21,0,3,0,4,5,88,11
12,1,18,1,5,1,4,5,90,11
12,1,13,1,6,1,4,5,90,9
12,1,17,1,6,1,4,5,88,11
12,1,18,1,6,1,4,5,90,11
12,1,13,1,0,0,4,5,90,11
12,1,14,1,0,0,4,5,90,11
12,1,13,1,1,0,4,5,90,11
12,1,16,1,1,0,4,5,90,11
12,1,21,0,1,0,4,5,64,11
12,1,10,1,4,0,4,5,90,11
12,1,11,1,4,0,4,5,90,11
12,1,14,1,5,1,4,5,90,11
12,1,16,1,5,1,4,5,64,11
12,1,2,0,6,1,4,5,20,11
12,1,14,1,6,1,4,5,90,11
12,1,12,1,0,0,4,5,101,11
12,1,12,1,1,0,4,5,90,11
12,1,14,1,3,0,4,5,90,11
12,1,8,1,4,0,4,5,90,11
12,1,16,1,4,0,4,5,90,11
12,1,18,1,4,0,4,5,72,9
1,1,1,0,5,1,1,5,90,11
1,1,14,1,2,0,1,5,90,11
1,1,15,1,1,0,1,5,89,11
1,1,22,0,2,0,1,5,75,11
1,1,10,1,3,0,1,5,101,11
1,1,11,1,4,0,1,5,90,11
1,1,10,1,5,1,1,5,101,11
1,1,11,1,5,1,1,5,75,11
1,1,12,1,5,1,1,5,90,11
1,1,17,1,5,1,1,5,90,11
1,1,8,1,6,1,1,5,90,11
1,1,8,1,6,1,1,5,90,11
1,1,17,1,6,1,1,5,90,11
1,1,18,1,2,0,1,5,101,11
1,1,18,1,3,0,1,5,90,11
1,1,4,0,4,0,1,5,101,11
1,1,13,1,5,1,1,5,90,11
1,1,12,1,1,0,1,5,55,11
1,1,23,0,4,0,1,5,90,11
1,1,16,1,0,0,1,5,90,11
2,1,6,0,1,0,1,5,101,11
2,1,16,1,1,0,1,5,90,11
2,1,16,1,2,0,1,5,90,11
2,1,9,1,5,1,1,5,101,11
2,1,13,1,5,1,1,5,90,11
2,1,16,1,6,1,1,5,75,11
2,1,16,1,2,0,1,5,90,11
2,1,18,1,2,0,1,5,90,11
2,1,18,1,2,0,1,5,90,11
2,1,10,1,0,0,1,5,90,11
2,1,16,1,0,0,1,5,89,11
2,1,21,0,1,0,1,5,101,11
2,1,19,1,3,0,1,5,75,11
2,1,15,1,5,1,1,5,90,11
2,1,7,1,6,1,1,5,75,11
2,1,20,1,6,1,1,5,38,11
2,1,13,1,4,0,1,5,101,11
2,1,13,1,5,1,1,5,101,11
2,1,17,1,0,0,1,5,90,11
3,2,12,1,2,0,1,5,45,8
3,2,9,1,5,1,1,5,90,11
3,2,19,1,0,0,1,5,90,11
3,2,12,1,3,0,1,5,101,11
3,2,14,1,3,0,1,5,101,11
3,2,14,1,6,1,1,5,101,11
3,2,14,1,1,0,1,5,101,11
3,2,1,0,2,0,1,5,64,11
3,2,10,1,5,1,1,5,90,11
3,2,13,1,0,0,1,5,101,11
3,2,21,0,0,0,1,5,90,11
3,2,10,1,1,0,1,5,75,11
3,2,19,1,1,0,1,5,101,11
3,2,12,1,1,0,1,5,90,11
3,2,20,1,2,0,1,5,90,11
3,2,10,1,3,0,1,5,90,11
3,2,21,0,3,0,1,5,90,11
4,2,18,1,4,0,2,5,90,11
4,2,10,1,5,1,2,5,90,11
4,2,11,1,0,0,2,5,90,11
4,2,14,1,1,0,2,5,75,8
4,2,13,1,2,0,2,5,90,11
4,2,7,1,3,0,2,5,90,11
4,2,14,1,5,1,2,5,101,11
4,2,18,1,0,0,2,5,90,11
4,2,17,1,1,0,2,5,90,11
4,2,8,1,2,0,2,5,90,11
4,2,16,1,5,1,2,5,90,11
4,2,22,0,5,1,2,5,90,11
4,2,20,1,3,0,2,5,90,11
4,2,7,1,5,1,2,5,90,11
4,2,20,1,5,1,2,5,90,11
5,2,12,1,6,1,2,5,90,11
5,2,22,0,6,1,2,5,90,11
5,2,10,1,1,0,2,5,90,11
5,2,17,1,2,0,2,5,38,11
5,2,11,1,3,0,2,5,90,11
5,2,9,1,6,1,2,5,101,11
5,2,12,1,6,1,2,5,90,11
5,2,14,1,0,0,2,5,90,11
5,2,17,1,0,0,2,5,90,11
5,2,19,1,1,0,2,5,90,11
5,2,10,1,2,0,2,5,101,11
5,2,0,0,4,0,2,5,101,11
5,2,8,1,0,0,2,5,90,11
5,2,13,1,1,0,2,5,101,11
5,2,16,1,2,0,2,5,101,11
5,2,21,0,2,0,2,5,75,9
5,2,22,0,2,0,2,5,101,11
5,2,13,1,6,1,2,5,101,11
5,2,15,1,6,1,2,5,90,11
5,2,23,0,1,0,2,5,23,11
6,3,18,1,2,0,2,5,90,11
6,3,19,1,4,0,2,5,90,11
6,3,17,1,3,0,2,5,90,11
6,3,3,0,5,1,2,5,90,11
6,3,11,1,4,0,2,5,101,11
6,3,22,0,5,1,2,5,90,11
6,3,12,1,6,1,2,5,75,11
6,3,15,1,3,0,2,5,101,11
6,3,13,1,5,1,2,5,75,11
6,3,2,0,0,0,2,5,90,11
6,3,7,1,1,0,2,5,90,11
6,3,21,0,2,0,2,5,90,11
6,3,12,1,3,0,2,5,90,11
7,3,11,1,4,0,3,5,101,11
7,3,13,1,5,1,3,5,90,11
7,3,13,1,5,1,3,5,90,11
7,3,17,1,3,0,3,5,90,11
7,3,11,1,0,0,3,5,90,11
7,3,11,1,0,0,3,5,90,11
7,3,17,1,1,0,3,5,90,8
7,3,13,1,5,1,3,5,75,11
7,3,0,0,1,0,3,5,63,11
7,3,20,1,1,0,3,5,90,11
7,3,2,0,2,0,3,5,90,11
7,3,14,1,4,0,3,5,90,11
7,3,1,0,5,1,3,5,90,11
8,3,22,0,1,0,3,5,75,11
8,3,15,1,1,0,3,5,23,11
8,3,21,0,5,1,3,5,90,11
8,3,23,0,5,1,3,5,90,11
8,3,16,1,6,1,3,5,90,11
8,3,21,0,5,1,3,5,90,11
8,3,19,1,0,0,3,5,75,11
9,4,15,1,5,1,3,5,90,11
9,4,13,1,3,0,3,5,90,11
9,4,12,1,1,0,3,5,90,11
10,4,2,0,5,1,4,5,75,11
10,4,18,1,5,1,4,5,64,11
10,4,9,1,1,0,4,5,90,11
10,4,9,1,2,0,4,5,90,11
10,4,12,1,2,0,4,5,90,11
10,4,14,1,3,0,4,5,101,11
10,4,18,1,6,1,4,5,75,11
10,4,16,1,1,0,4,5,90,11
10,4,15,1,4,0,4,5,90,8
10,4,13,1,6,1,4,5,101,11
10,4,17,1,6,1,4,5,90,11
10,4,12,1,2,0,4,5,75,11
10,4,13,1,1,0,4,5,90,8
10,4,15,1,1,0,4,5,90,11
10,4,22,0,0,0,4,5,101,11
11,4,16,1,3,0,4,5,90,11
11,4,18,1,3,0,4,5,90,11
11,4,16,1,5,1,4,5,90,11
11,4,10,1,2,0,4,5,90,11
11,4,10,1,6,1,4,5,90,11
11,4,11,1,3,0,4,5,1,11
11,4,12,1,3,0,4,5,90,11
11,4,15,1,3,0,4,5,101,11
11,4,19,1,3,0,4,5,75,11
11,4,13,1,6,1,4,5,90,11
11,4,2,0,0,0,4,5,101,11
11,4,22,0,1,0,4,5,90,11
11,4,20,1,3,0,4,5,101,11
11,4,5,0,4,0,4,5,30,11
11,4,14,1,5,1,4,5,90,11
12,1,13,1,3,0,4,5,101,11
12,1,22,0,0,0,4,5,75,11
12,1,23,0,1,0,4,5,90,11
12,1,6,0,4,0,4,5,101,11
12,1,0,0,6,1,4,5,90,11
12,1,21,0,5,1,4,5,101,11
12,1,21,0,6,1,4,5,90,11
12,1,14,1,1,0,4,5,101,11
12,1,8,1,2,0,4,5,90,11
12,1,11,1,2,0,4,5,90,11
12,1,20,1,2,0,4,5,101,11
12,1,12,1,4,0,4,5,101,11
12,1,14,1,4,0,4,5,90,11
12,1,11,1,5,1,4,5,90,11
12,1,12,1,5,1,4,5,90,11
12,1,12,1,1,0,4,5,75,11
1,1,11,1,2,0,1,42,47,11
1,1,9,1,6,1,1,42,38,11
1,1,13,1,6,1,1,42,88,11
1,1,13,1,2,0,1,42,88,11
1,1,21,0,4,0,1,42,88,11
1,1,17,1,6,1,1,42,90,11
1,1,8,1,0,0,1,42,20,8
1,1,17,1,6,1,1,42,88,11
1,1,10,1,0,0,1,42,84,11
2,1,10,1,4,0,1,42,75,11
2,1,15,1,6,1,1,42,88,11
2,1,15,1,1,0,1,42,20,11
2,1,16,1,1,0,1,42,20,11
2,1,18,1,0,0,1,42,88,11
2,1,17,1,1,0,1,42,88,11
2,1,16,1,2,0,1,42,111,11
2,1,15,1,3,0,1,42,88,11
2,1,17,1,0,0,1,42,75,9
2,1,11,1,4,0,1,42,88,11
2,1,12,1,6,1,1,42,55,11
2,1,15,1,0,0,1,42,75,9
3,2,13,1,1,0,1,42,88,11
3,2,18,1,2,0,1,42,88,11
3,2,12,1,5,1,1,42,88,11
3,2,21,0,6,1,1,42,64,11
3,2,11,1,1,0,1,42,90,9
3,2,21,0,3,0,1,42,20,11
3,2,20,1,4,0,1,42,88,11
3,2,12,1,6,1,1,42,75,9
3,2,12,1,0,0,1,42,101,11
3,2,17,1,4,0,1,42,88,11
3,2,19,1,5,1,1,42,20,11
4,2,23,0,0,0,2,42,88,11
4,2,17,1,2,0,2,42,101,11
4,2,13,1,3,0,2,42,81,11
4,2,15,1,4,0,2,42,88,11
4,2,7,1,0,0,2,42,75,11
4,2,23,0,2,0,2,42,88,11
4,2,3,0,1,0,2,42,88,11
4,2,8,1,1,0,2,42,108,11
4,2,21,0,1,0,2,42,20,11
4,2,1,0,2,0,2,42,76,11
4,2,20,1,3,0,2,42,13,11
5,2,16,1,6,1,2,42,64,9
5,2,16,1,1,0,2,42,88,11
5,2,12,1,3,0,2,42,88,11
5,2,18,1,3,0,2,42,88,11
5,2,11,1,0,0,2,42,20,11
5,2,20,1,1,0,2,42,14,9
6,3,14,1,5,1,2,42,4,9
6,3,8,1,6,1,2,42,20,11
6,3,17,1,2,0,2,42,88,11
6,3,13,1,3,0,2,42,90,11
6,3,18,1,6,1,2,42,20,11
6,3,18,1,0,0,2,42,90,11
6,3,16,1,1,0,2,42,101,11
6,3,11,1,4,0,2,42,1,11
6,3,18,1,6,1,2,42,101,11
6,3,15,1,0,0,2,42,101,11
6,3,11,1,3,0,2,42,75,11
7,3,19,1,5,1,3,42,64,11
7,3,14,1,0,0,3,42,88,11
7,3,16,1,1,0,3,42,90,11
7,3,20,1,1,0,3,42,121,11
7,3,21,0,3,0,3,42,47,11
7,3,8,1,0,0,3,42,109,11
8,3,15,1,0,0,3,42,101,11
8,3,12,1,2,0,3,42,121,11
8,3,19,1,4,0,3,42,101,11
8,3,13,1,5,1,3,42,64,11
8,3,16,1,5,1,3,42,124,11
8,3,21,0,5,1,3,42,90,11
8,3,10,1,0,0,3,42,75,11
9,4,21,0,5,1,3,42,41,11
9,4,15,1,5,1,3,42,72,11
9,4,22,0,5,1,3,42,20,11
9,4,15,1,0,0,3,42,90,11
9,4,18,1,0,0,3,42,90,11
9,4,8,1,2,0,3,42,20,11
9,4,4,0,3,0,3,42,101,11
9,4,12,1,3,0,3,42,101,9
9,4,11,1,5,1,3,42,14,11
10,4,19,1,3,0,4,42,88,11
10,4,9,1,4,0,4,42,90,11
10,4,16,1,4,0,4,42,25,11
10,4,15,1,6,1,4,42,23,8
10,4,10,1,2,0,4,42,25,11
10,4,20,1,0,0,4,42,124,11
10,4,23,0,1,0,4,42,38,11
10,4,1,0,4,0,4,42,124,11
10,4,17,1,4,0,4,42,64,11
10,4,1,0,0,0,4,42,90,11
10,4,8,1,0,0,4,42,101,11
10,4,22,0,0,0,4,42,75,11
11,4,14,1,4,0,4,42,38,11
11,4,5,0,1,0,4,42,124,11
11,4,0,0,3,0,4,42,124,11
11,4,15,1,3,0,4,42,2,11
11,4,10,1,6,1,4,42,24,11
12,1,15,1,0,0,4,42,75,9
12,1,21,0,1,0,4,42,64,11
12,1,3,0,2,0,4,42,64,11
12,1,1,0,3,0,4,42,88,11
1,1,18,1,6,1,1,42,14,8
1,1,18,1,6,1,1,42,88,11
2,1,10,1,2,0,1,42,75,11
2,1,20,1,6,1,1,42,20,11
2,1,11,1,3,0,1,42,20,11
2,1,12,1,3,0,1,42,20,11
3,2,8,1,3,0,1,42,88,11
3,2,11,1,5,1,1,42,88,11
3,2,20,1,1,0,1,42,88,11
4,2,14,1,4,0,2,42,75,9
4,2,13,1,5,1,2,42,108,11
5,2,20,1,2,0,2,42,109,11
6,3,16,1,3,0,2,42,75,11
6,3,1,0,5,1,2,42,88,11
7,3,10,1,4,0,3,42,4,11
7,3,14,1,1,0,3,42,90,11
7,3,20,1,3,0,3,42,4,11
7,3,15,1,5,1,3,42,88,11
7,3,5,0,2,0,3,42,88,11
7,3,11,1,4,0,3,42,14,11
8,3,22,0,2,0,3,42,101,11
8,3,2,0,6,1,3,42,90,9
8,3,0,0,2,0,3,42,20,11
8,3,3,0,5,1,3,42,88,11
8,3,18,1,1,0,3,42,109,11
9,4,14,1,1,0,3,42,4,11
10,4,17,1,2,0,4,42,4,11
10,4,18,1,3,0,4,42,4,11
10,4,11,1,1,0,4,42,4,11
10,4,16,1,3,0,4,42,90,11
10,4,11,1,0,0,4,42,90,11
11,4,11,1,6,1,4,42,90,11
11,4,20,1,5,1,4,42,124,11
1,1,17,1,4,0,1,42,90,11
1,1,12,1,0,0,1,42,90,11
3,2,15,1,4,0,1,42,13,8
5,2,10,1,5,1,2,42,101,11
6,3,14,1,2,0,2,42,20,9
6,3,11,1,0,0,2,42,90,8
6,3,22,0,2,0,2,42,20,11
7,3,6,0,0,0,3,42,109,11
7,3,17,1,3,0,3,42,101,11
8,3,11,1,1,0,3,42,62,9
9,4,5,0,1,0,3,42,62,11
9,4,20,1,4,0,3,42,13,8
10,4,15,1,4,0,4,42,72,9
10,4,10,1,5,1,4,42,13,9
10,4,23,0,4,0,4,42,25,8
11,4,11,1,3,0,4,42,108,11
12,1,10,1,6,1,4,42,116,11
3,2,7,1,4,0,1,42,75,11
6,3,12,1,3,0,2,42,101,11
7,3,11,1,3,0,3,42,90,11
7,3,9,1,3,0,3,42,90,11
9,4,9,1,0,0,3,42,25,11
9,4,16,1,0,0,3,42,25,11
9,4,21,0,1,0,3,42,101,11
10,4,21,0,6,1,4,42,20,11
11,4,17,1,1,0,4,42,101,11
11,4,12,1,6,1,4,42,45,11
11,4,10,1,2,0,4,42,101,11
1,1,18,1,0,0,1,21,64,11
1,1,9,1,4,0,1,21,96,11
1,1,3,0,5,1,1,21,72,11
1,1,6,0,6,1,1,21,96,11
1,1,12,1,6,1,1,21,96,11
1,1,8,1,0,0,1,21,75,11
1,1,9,1,0,0,1,21,66,11
1,1,19,1,0,0,1,21,96,11
1,1,13,1,2,0,1,21,88,11
1,1,23,0,2,0,1,21,72,9
1,1,19,1,5,1,1,21,101,11
1,1,16,1,6,1,1,21,88,11
1,1,13,1,0,0,1,21,88,11
1,1,9,1,1,0,1,21,13,9
1,1,12,1,1,0,1,21,38,9
1,1,17,1,2,0,1,21,88,11
1,1,10,1,3,0,1,21,96,11
1,1,15,1,3,0,1,21,96,11
2,1,8,1,2,0,1,21,78,11
2,1,9,1,2,0,1,21,96,11
2,1,0,0,2,0,1,21,38,8
2,1,6,0,5,1,1,21,96,11
2,1,14,1,3,0,1,21,72,11
2,1,16,1,5,1,1,21,88,11
3,2,13,1,1,0,1,21,122,11
3,2,18,1,4,0,1,21,75,11
3,2,15,1,0,0,1,21,96,11
3,2,19,1,5,1,1,21,47,11
3,2,18,1,0,0,1,21,78,11
3,2,16,1,2,0,1,21,101,11
3,2,18,1,6,1,1,21,89,11
3,2,1,0,2,0,1,21,96,11
4,2,3,0,1,0,2,21,72,9
4,2,19,1,3,0,2,21,75,11
4,2,21,0,5,1,2,21,39,8
4,2,19,1,0,0,2,21,101,11
4,2,21,0,2,0,2,21,64,11
5,2,1,0,4,0,2,21,89,9
5,2,14,1,4,0,2,21,72,11
5,2,11,1,2,0,2,21,72,11
5,2,21,0,3,0,2,21,101,11
5,2,11,1,0,0,2,21,72,11
6,3,20,1,5,1,2,21,72,11
6,3,3,0,3,0,2,21,64,8
7,3,12,1,1,0,3,21,25,11
7,3,12,1,3,0,3,21,121,11
7,3,8,1,0,0,3,21,96,11
7,3,9,1,3,0,3,21,90,11
7,3,1,0,5,1,3,21,88,11
8,3,13,1,1,0,3,21,64,11
8,3,10,1,2,0,3,21,38,11
8,3,15,1,3,0,3,21,15,11
8,3,18,1,6,1,3,21,112,11
8,3,17,1,2,0,3,21,90,11
8,3,12,1,5,1,3,21,75,11
8,3,12,1,6,1,3,21,101,11
8,3,23,0,5,1,3,21,72,11
8,3,23,0,6,1,3,21,72,11
8,3,10,1,2,0,3,21,64,11
9,4,12,1,1,0,3,21,64,11
9,4,13,1,2,0,3,21,101,11
9,4,15,1,3,0,3,21,24,11
9,4,22,0,5,1,3,21,101,11
9,4,4,0,6,1,3,21,88,11
9,4,17,1,0,0,3,21,101,11
9,4,21,0,5,1,3,21,34,11
9,4,20,1,4,0,3,21,101,11
10,4,13,1,0,0,4,21,101,11
10,4,10,1,4,0,4,21,104,9
10,4,18,1,0,0,4,21,88,11
10,4,16,1,1,0,4,21,101,11
10,4,11,1,2,0,4,21,90,11
11,4,8,1,6,1,4,21,45,8
11,4,2,0,3,0,4,21,109,11
11,4,22,0,5,1,4,21,64,11
11,4,17,1,6,1,4,21,75,11
12,1,20,1,0,0,4,21,66,11
12,1,9,1,2,0,4,21,90,11
12,1,15,1,4,0,4,21,64,11
12,1,22,0,1,0,4,21,101,11
1,1,10,1,5,1,1,21,109,11
1,1,12,1,0,0,1,21,109,11
3,2,3,0,1,0,1,21,14,9
4,2,16,1,2,0,2,21,101,11
4,2,13,1,5,1,2,21,90,11
5,2,20,1,2,0,2,21,109,11
6,3,12,1,2,0,2,21,20,11
8,3,20,1,1,0,3,21,101,11
8,3,2,0,3,0,3,21,47,11
8,3,19,1,2,0,3,21,101,11
9,4,16,1,5,1,3,21,38,11
9,4,20,1,6,1,3,21,46,11
9,4,19,1,0,0,3,21,88,11
9,4,14,1,5,1,3,21,76,11
9,4,5,0,5,1,3,21,20,11
9,4,8,1,4,0,3,21,20,11
11,4,17,1,2,0,4,21,90,11
12,1,12,1,6,1,4,21,101,11
12,1,19,1,5,1,4,21,75,9
1,1,9,1,0,0,1,21,64,9
1,1,14,1,5,1,1,21,20,9
1,1,2,0,4,0,1,21,75,11
1,1,8,1,5,1,1,21,75,9
1,1,16,1,0,0,1,21,88,9
1,1,16,1,1,0,1,21,101,11
1,1,14,1,3,0,1,21,101,11
1,1,16,1,0,0,1,21,101,11
1,1,18,1,0,0,1,21,101,9
1,1,18,1,0,0,1,21,101,11
2,1,19,1,0,0,1,21,75,11
3,2,17,1,1,0,1,21,101,11
3,2,2,0,0,0,1,21,75,11
4,2,19,1,5,1,2,21,75,9
4,2,20,1,2,0,2,21,101,11
5,2,23,0,2,0,2,21,20,11
5,2,16,1,6,1,2,21,75,9
6,3,17,1,2,0,2,21,90,9
7,3,15,1,5,1,3,21,64,11
7,3,12,1,0,0,3,21,101,11
7,3,22,0,5,1,3,21,6,11
7,3,18,1,3,0,3,21,88,11
7,3,10,1,0,0,3,21,75,11
7,3,19,1,0,0,3,21,64,9
7,3,21,0,2,0,3,21,64,11
8,3,9,1,4,0,3,21,90,11
8,3,20,1,4,0,3,21,90,11
8,3,19,1,6,1,3,21,101,9
9,4,17,1,5,1,3,21,90,11
10,4,19,1,5,1,4,21,101,11
10,4,12,1,3,0,4,21,101,11
10,4,14,1,4,0,4,21,20,9
11,4,13,1,1,0,4,21,64,9
11,4,13,1,3,0,4,21,90,11
11,4,21,0,4,0,4,21,20,9
11,4,20,1,1,0,4,21,75,11
12,1,16,1,0,0,4,21,64,11
12,1,23,0,4,0,4,21,75,11
12,1,16,1,5,1,4,21,75,11
12,1,15,1,1,0,4,21,75,11
12,1,10,1,5,1,4,21,124,11
1,1,14,1,0,0,1,21,101,11
1,1,14,1,2,0,1,21,101,11
2,1,3,0,2,0,1,21,14,11
2,1,0,0,0,0,1,21,88,11
2,1,22,0,6,1,1,21,62,11
3,2,14,1,2,0,1,21,20,11
3,2,6,0,0,0,1,21,75,11
3,2,13,1,1,0,1,21,90,11
3,2,13,1,1,0,1,21,90,11
3,2,15,1,1,0,1,21,90,8
3,2,19,1,1,0,1,21,90,11
3,2,6,0,3,0,1,21,75,11
3,2,12,1,6,1,1,21,108,9
4,2,13,1,0,0,2,21,14,11
4,2,18,1,3,0,2,21,75,11
4,2,20,1,0,0,2,21,90,11
4,2,2,0,6,1,2,21,124,11
5,2,21,0,4,0,2,21,90,11
5,2,20,1,2,0,2,21,88,11
5,2,15,1,0,0,2,21,90,11
6,3,22,0,2,0,2,21,90,11
6,3,0,0,1,0,2,21,88,11
6,3,22,0,6,1,2,21,101,11
8,3,0,0,6,1,3,21,20,11
8,3,13,1,6,1,3,21,62,11
8,3,18,1,2,0,3,21,101,11
10,4,5,0,5,1,4,21,20,11
10,4,13,1,6,1,4,21,88,11
10,4,13,1,5,1,4,21,101,11
11,4,11,1,3,0,4,21,90,11
12,1,14,1,3,0,4,21,25,11
12,1,19,1,2,0,4,21,14,11
1,1,15,1,1,0,1,9,79,11
1,1,14,1,5,1,1,9,88,11
1,1,10,1,4,0,1,9,20,11
1,1,11,1,5,1,1,9,101,11
1,1,17,1,1,0,1,9,64,11
1,1,18,1,2,0,1,9,14,11
1,1,11,1,5,1,1,9,13,11
1,1,7,1,1,0,1,9,101,11
1,1,11,1,1,0,1,9,64,11
1,1,6,0,3,0,1,9,64,11
1,1,9,1,4,0,1,9,75,11
1,1,2,0,5,1,1,9,75,11
1,1,14,1,0,0,1,9,96,11
1,1,18,1,0,0,1,9,75,11
1,1,18,1,0,0,1,9,64,11
1,1,22,0,0,0,1,9,101,11
2,1,12,1,3,0,1,9,101,11
2,1,18,1,3,0,1,9,38,11
2,1,12,1,5,1,1,9,101,11
2,1,21,0,0,0,1,9,101,11
2,1,16,1,3,0,1,9,64,11
2,1,19,1,5,1,1,9,101,11
2,1,14,1,6,1,1,9,101,11
2,1,16,1,6,1,1,9,101,11
2,1,18,1,1,0,1,9,101,11
2,1,2,0,4,0,1,9,88,11
2,1,20,1,4,0,1,9,101,11
2,1,15,1,0,0,1,9,101,11
2,1,14,1,1,0,1,9,101,11
2,1,15,1,1,0,1,9,101,11
2,1,9,1,6,1,1,9,101,11
2,1,13,1,6,1,1,9,75,11
3,2,15,1,2,0,1,9,64,11
3,2,12,1,3,0,1,9,14,9
3,2,17,1,3,0,1,9,101,11
3,2,21,0,5,1,1,9,101,11
3,2,18,1,6,1,1,9,64,11
3,2,0,0,1,0,1,9,101,11
3,2,11,1,3,0,1,9,38,11
3,2,19,1,4,0,1,9,101,11
3,2,23,0,4,0,1,9,38,11
3,2,18,1,6,1,1,9,64,11
3,2,6,0,0,0,1,9,75,11
3,2,20,1,2,0,1,9,90,11
3,2,17,1,4,0,1,9,101,11
3,2,23,0,5,1,1,9,88,11
3,2,5,0,1,0,1,9,112,9
3,2,18,1,1,0,1,9,101,11
3,2,11,1,2,0,1,9,101,11
3,2,18,1,4,0,1,9,101,11
3,2,14,1,5,1,1,9,45,11
3,2,16,1,5,1,1,9,101,11
3,2,17,1,2,0,1,9,101,11
3,2,18,1,2,0,1,9,62,11
3,2,20,1,2,0,1,9,64,11
4,2,9,1,4,0,2,9,88,11
4,2,20,1,5,1,2,9,88,11
4,2,17,1,6,1,2,9,101,11
4,2,0,0,2,0,2,9,75,11
4,2,23,0,5,1,2,9,101,11
4,2,15,1,4,0,2,9,20,11
4,2,14,1,6,1,2,9,64,11
4,2,18,1,6,1,2,9,101,11
4,2,12,1,0,0,2,9,75,11
4,2,5,0,5,1,2,9,64,11
4,2,15,1,6,1,2,9,64,11
4,2,8,1,1,0,2,9,64,11
4,2,17,1,1,0,2,9,101,11
4,2,16,1,3,0,2,9,101,11
5,2,6,0,1,0,2,9,64,11
5,2,11,1,0,0,2,9,88,11
5,2,13,1,0,0,2,9,101,11
5,2,17,1,2,0,2,9,101,11
5,2,17,1,6,1,2,9,75,11
5,2,19,1,0,0,2,9,101,11
5,2,12,1,1,0,2,9,101,11
5,2,17,1,4,0,2,9,101,11
5,2,10,1,5,1,2,9,79,11
5,2,14,1,0,0,2,9,65,11
6,3,16,1,2,0,2,9,23,11
6,3,20,1,5,1,2,9,64,11
6,3,20,1,1,0,2,9,75,11
6,3,18,1,2,0,2,9,20,11
6,3,9,1,4,0,2,9,20,11
6,3,10,1,4,0,2,9,20,11
6,3,12,1,4,0,2,9,75,11
6,3,12,1,1,0,2,9,75,11
6,3,13,1,1,0,2,9,90,11
6,3,17,1,2,0,2,9,90,11
6,3,11,1,4,0,2,9,64,11
6,3,13,1,5,1,2,9,90,11
6,3,14,1,3,0,2,9,64,11
7,3,18,1,5,1,3,9,40,11
7,3,15,1,0,0,3,9,55,11
7,3,16,1,0,0,3,9,101,11
7,3,5,0,1,0,3,9,23,9
7,3,12,1,4,0,3,9,101,11
7,3,13,1,4,0,3,9,64,11
7,3,4,0,0,0,3,9,109,11
7,3,19,1,6,1,3,9,101,11
8,3,10,1,3,0,3,9,101,11
8,3,19,1,5,1,3,9,101,11
8,3,9,1,1,0,3,9,101,11
8,3,18,1,1,0,3,9,101,11
8,3,13,1,2,0,3,9,90,11
8,3,19,1,4,0,3,9,101,11
8,3,18,1,0,0,3,9,101,11
8,3,13,1,3,0,3,9,25,11
8,3,8,1,0,0,3,9,20,11
8,3,1,0,1,0,3,9,64,11
9,4,2,0,3,0,3,9,101,11
9,4,11,1,3,0,3,9,64,11
9,4,5,0,0,0,3,9,109,11
9,4,13,1,1,0,3,9,90,11
9,4,14,1,3,0,3,9,101,11
9,4,15,1,3,0,3,9,101,11
9,4,20,1,1,0,3,9,20,11
9,4,9,1,2,0,3,9,20,11
9,4,18,1,5,1,3,9,101,11
9,4,16,1,6,1,3,9,101,11
9,4,6,0,2,0,3,9,20,11
9,4,12,1,3,0,3,9,90,8
9,4,13,1,1,0,3,9,101,11
9,4,7,1,2,0,3,9,81,11
9,4,14,1,2,0,3,9,90,11
10,4,10,1,5,1,4,9,121,11
10,4,16,1,6,1,4,9,64,11
10,4,12,1,0,0,4,9,25,11
10,4,2,0,1,0,4,9,20,11
10,4,13,1,4,0,4,9,90,11
10,4,15,1,6,1,4,9,90,11
10,4,16,1,6,1,4,9,101,11
10,4,16,1,6,1,4,9,101,11
10,4,11,1,0,0,4,9,101,11
10,4,13,1,0,0,4,9,25,9
10,4,16,1,0,0,4,9,25,11
10,4,18,1,0,0,4,9,101,11
10,4,19,1,0,0,4,9,101,11
10,4,15,1,1,0,4,9,64,11
10,4,16,1,3,0,4,9,101,11
10,4,17,1,4,0,4,9,90,11
10,4,14,1,5,1,4,9,90,11
10,4,10,1,6,1,4,9,90,11
10,4,14,1,6,1,4,9,14,11
10,4,16,1,6,1,4,9,90,11
10,4,18,1,0,0,4,9,101,11
10,4,18,1,0,0,4,9,101,11
10,4,13,1,2,0,4,9,90,11
10,4,16,1,2,0,4,9,101,11
10,4,18,1,3,0,4,9,101,11
10,4,4,0,4,0,4,9,41,11
10,4,17,1,6,1,4,9,101,11
10,4,19,1,6,1,4,9,89,11
10,4,12,1,1,0,4,9,101,11
10,4,23,0,2,0,4,9,75,11
10,4,4,0,3,0,4,9,20,11
10,4,17,1,3,0,4,9,90,11
10,4,12,1,4,0,4,9,101,11
10,4,15,1,5,1,4,9,101,11
10,4,14,1,0,0,4,9,101,11
11,4,12,1,1,0,4,9,101,11
11,4,14,1,1,0,4,9,101,11
11,4,11,1,2,0,4,9,90,11
11,4,21,0,2,0,4,9,101,11
11,4,13,1,4,0,4,9,90,11
11,4,18,1,4,0,4,9,101,11
11,4,19,1,4,0,4,9,101,11
11,4,11,1,5,1,4,9,101,11
11,4,14,1,6,1,4,9,64,11
11,4,5,0,0,0,4,9,124,11
11,4,10,1,0,0,4,9,75,11
11,4,12,1,6,1,4,9,64,11
11,4,18,1,0,0,4,9,75,11
11,4,5,0,6,1,4,9,101,11
11,4,22,0,4,0,4,9,75,9
11,4,14,1,5,1,4,9,101,11
11,4,1,0,6,1,4,9,64,11
12,1,20,1,5,1,4,9,75,9
12,1,22,0,2,0,4,9,64,11
12,1,21,0,1,0,4,9,75,11
12,1,23,0,2,0,4,9,20,11
12,1,18,1,6,1,4,9,75,11
12,1,5,0,0,0,4,9,88,11
12,1,17,1,0,0,4,9,75,11
12,1,14,1,1,0,4,9,101,11
1,1,14,1,3,0,1,9,101,11
1,1,17,1,3,0,1,9,75,11
4,2,9,1,6,1,2,9,101,11
5,2,15,1,1,0,2,9,88,11
5,2,16,1,1,0,2,9,101,11
6,3,10,1,5,1,2,9,38,11
8,3,12,1,3,0,3,9,25,9
9,4,10,1,1,0,3,9,88,11
9,4,11,1,3,0,3,9,101,11
9,4,14,1,4,0,3,9,101,11
10,4,10,1,2,0,4,9,75,9
11,4,13,1,6,1,4,9,20,11
3,2,14,1,0,0,1,9,101,11
5,2,20,1,6,1,2,9,101,11
1,1,20,1,6,1,1,37,38,11
1,1,21,0,2,0,1,37,20,11
1,1,22,0,2,0,1,37,96,11
1,1,3,0,1,0,1,37,96,11
1,1,17,1,1,0,1,37,64,11
1,1,0,0,2,0,1,37,64,11
1,1,16,1,0,0,1,37,90,11
1,1,10,1,1,0,1,37,14,8
1,1,20,1,2,0,1,37,90,11
1,1,16,1,3,0,1,37,101,11
1,1,16,1,3,0,1,37,64,11
1,1,21,0,3,0,1,37,90,11
1,1,16,1,4,0,1,37,64,11
1,1,13,1,5,1,1,37,20,11
1,1,17,1,5,1,1,37,101,11
1,1,23,0,5,1,1,37,64,11
1,1,3,0,6,1,1,37,99,11
1,1,15,1,0,0,1,37,64,11
1,1,19,1,1,0,1,37,101,11
1,1,14,1,4,0,1,37,101,11
1,1,12,1,6,1,1,37,101,11
1,1,13,1,6,1,1,37,101,11
1,1,14,1,6,1,1,37,45,11
1,1,12,1,0,0,1,37,20,11
1,1,13,1,0,0,1,37,101,11
2,1,13,1,4,0,1,37,20,11
2,1,12,1,0,0,1,37,64,11
2,1,13,1,0,0,1,37,13,11
2,1,14,1,3,0,1,37,101,11
2,1,11,1,0,0,1,37,64,11
2,1,15,1,1,0,1,37,38,11
2,1,17,1,2,0,1,37,64,11
2,1,3,0,4,0,1,37,96,11
2,1,17,1,4,0,1,37,23,11
2,1,19,1,4,0,1,37,101,11
2,1,11,1,5,1,1,37,101,11
2,1,12,1,5,1,1,37,101,11
2,1,17,1,5,1,1,37,101,11
2,1,13,1,6,1,1,37,64,11
2,1,20,1,2,0,1,37,64,11
2,1,13,1,3,0,1,37,38,11
2,1,15,1,3,0,1,37,75,11
2,1,1,0,4,0,1,37,96,11
2,1,10,1,4,0,1,37,20,11
2,1,8,1,6,1,1,37,101,11
2,1,15,1,6,1,1,37,64,11
3,2,13,1,2,0,1,37,101,11
3,2,7,1,3,0,1,37,101,11
3,2,10,1,3,0,1,37,96,11
3,2,7,1,4,0,1,37,64,11
3,2,9,1,4,0,1,37,64,11
3,2,23,0,4,0,1,37,38,11
3,2,14,1,2,0,1,37,75,11
3,2,19,1,3,0,1,37,90,11
3,2,20,1,3,0,1,37,64,11
3,2,23,0,5,1,1,37,64,11
3,2,6,0,6,1,1,37,90,11
3,2,18,1,0,0,1,37,32,11
3,2,12,1,1,0,1,37,108,9
3,2,18,1,1,0,1,37,101,11
3,2,19,1,4,0,1,37,64,11
3,2,12,1,5,1,1,37,75,11
3,2,18,1,5,1,1,37,64,11
3,2,18,1,5,1,1,37,38,11
3,2,12,1,6,1,1,37,101,11
3,2,13,1,6,1,1,37,101,11
3,2,14,1,6,1,1,37,101,11
3,2,19,1,6,1,1,37,101,11
3,2,20,1,6,1,1,37,64,11
3,2,21,0,1,0,1,37,96,11
3,2,7,1,2,0,1,37,101,11
3,2,15,1,4,0,1,37,20,11
3,2,13,1,5,1,1,37,101,11
3,2,18,1,5,1,1,37,101,11
3,2,12,1,0,0,1,37,101,11
3,2,19,1,0,0,1,37,101,11
3,2,5,0,1,0,1,37,64,11
3,2,16,1,2,0,1,37,25,11
3,2,15,1,3,0,1,37,64,11
3,2,21,0,3,0,1,37,101,11
4,2,14,1,5,1,2,37,96,11
4,2,19,1,5,1,2,37,101,11
4,2,13,1,0,0,2,37,75,11
4,2,14,1,2,0,2,37,101,11
4,2,22,0,3,0,2,37,101,11
4,2,10,1,5,1,2,37,20,11
4,2,0,0,0,0,2,37,96,11
4,2,0,0,0,0,2,37,75,11
4,2,19,1,1,0,2,37,96,11
4,2,19,1,3,0,2,37,63,11
4,2,16,1,4,0,2,37,20,11
4,2,10,1,0,0,2,37,20,11
4,2,12,1,4,0,2,37,101,11
4,2,21,0,4,0,2,37,90,11
5,2,19,1,2,0,2,37,101,11
5,2,19,1,3,0,2,37,101,11
5,2,16,1,1,0,2,37,101,11
5,2,17,1,1,0,2,37,23,11
5,2,20,1,2,0,2,37,101,11
5,2,12,1,4,0,2,37,20,11
5,2,16,1,4,0,2,37,101,11
5,2,1,0,6,1,2,37,90,11
5,2,17,1,6,1,2,37,101,11
5,2,4,0,0,0,2,37,20,11
5,2,18,1,4,0,2,37,43,11
5,2,2,0,0,0,2,37,20,11
5,2,15,1,0,0,2,37,90,11
5,2,3,0,1,0,2,37,124,11
5,2,12,1,1,0,2,37,101,11
5,2,12,1,2,0,2,37,101,11
5,2,16,1,2,0,2,37,106,11
5,2,19,1,5,1,2,37,101,11
5,2,20,1,5,1,2,37,101,11
5,2,22,0,5,1,2,37,101,11
5,2,12,1,6,1,2,37,101,11
5,2,21,0,6,1,2,37,101,11
5,2,13,1,0,0,2,37,101,11
5,2,16,1,0,0,2,37,101,11
5,2,18,1,0,0,2,37,101,11
5,2,13,1,1,0,2,37,101,11
5,2,14,1,1,0,2,37,101,11
5,2,18,1,1,0,2,37,101,11
6,3,14,1,2,0,2,37,101,11
6,3,10,1,3,0,2,37,101,11
6,3,14,1,3,0,2,37,90,11
6,3,15,1,3,0,2,37,90,11
6,3,16,1,3,0,2,37,101,11
6,3,17,1,3,0,2,37,101,11
6,3,18,1,3,0,2,37,101,11
6,3,19,1,3,0,2,37,101,11
6,3,5,0,4,0,2,37,75,11
6,3,13,1,4,0,2,37,101,11
6,3,21,0,4,0,2,37,101,11
6,3,16,1,5,1,2,37,101,11
6,3,18,1,5,1,2,37,101,11
6,3,7,1,6,1,2,37,90,9
6,3,16,1,6,1,2,37,101,11
6,3,11,1,0,0,2,37,101,11
6,3,19,1,2,0,2,37,101,11
6,3,19,1,2,0,2,37,101,11
6,3,9,1,3,0,2,37,101,11
6,3,15,1,3,0,2,37,101,11
6,3,18,1,3,0,2,37,101,11
6,3,13,1,4,0,2,37,96,11
6,3,18,1,5,1,2,37,90,11
6,3,11,1,6,1,2,37,90,11
6,3,15,1,6,1,2,37,90,8
6,3,7,1,1,0,2,37,104,11
6,3,18,1,2,0,2,37,64,11
6,3,15,1,3,0,2,37,101,11
6,3,15,1,4,0,2,37,88,11
6,3,17,1,4,0,2,37,101,11
6,3,13,1,5,1,2,37,75,11
6,3,15,1,5,1,2,37,101,11
6,3,13,1,6,1,2,37,101,11
6,3,20,1,6,1,2,37,90,11
6,3,16,1,0,0,2,37,101,11
6,3,17,1,0,0,2,37,4,11
6,3,20,1,0,0,2,37,20,11
6,3,21,0,0,0,2,37,101,11
6,3,23,0,0,0,2,37,103,11
6,3,1,0,1,0,2,37,103,11
6,3,19,1,1,0,2,37,101,11
6,3,14,1,2,0,2,37,90,11
6,3,16,1,2,0,2,37,101,11
6,3,19,1,4,0,2,37,64,11
6,3,2,0,6,1,2,37,14,11
6,3,21,0,0,0,2,37,20,11
6,3,17,1,1,0,2,37,101,11
6,3,18,1,1,0,2,37,101,11
6,3,21,0,3,0,2,37,101,11
7,3,15,1,4,0,3,37,88,11
7,3,13,1,5,1,3,37,101,11
7,3,17,1,5,1,3,37,90,11
7,3,20,1,5,1,3,37,101,11
7,3,11,1,6,1,3,37,101,11
7,3,11,1,6,1,3,37,101,11
7,3,18,1,6,1,3,37,96,11
7,3,15,1,0,0,3,37,101,11
7,3,15,1,0,0,3,37,90,11
7,3,16,1,0,0,3,37,90,11
7,3,14,1,4,0,3,37,64,11
7,3,19,1,4,0,3,37,14,11
7,3,4,0,6,1,3,37,75,11
7,3,11,1,1,0,3,37,101,11
7,3,13,1,1,0,3,37,101,11
7,3,19,1,1,0,3,37,101,11
7,3,10,1,3,0,3,37,101,11
7,3,11,1,3,0,3,37,90,11
7,3,18,1,3,0,3,37,101,11
7,3,21,0,5,1,3,37,101,11
7,3,9,1,6,1,3,37,101,11
7,3,11,1,6,1,3,37,101,11
7,3,14,1,6,1,3,37,55,11
7,3,16,1,0,0,3,37,101,11
7,3,18,1,2,0,3,37,101,11
7,3,19,1,2,0,3,37,101,11
7,3,8,1,3,0,3,37,90,11
7,3,14,1,3,0,3,37,101,11
7,3,11,1,4,0,3,37,20,11
7,3,14,1,4,0,3,37,101,11
7,3,22,0,4,0,3,37,101,11
7,3,19,1,6,1,3,37,101,11
7,3,20,1,0,0,3,37,101,11
7,3,18,1,1,0,3,37,101,11
7,3,20,1,1,0,3,37,101,11
7,3,10,1,2,0,3,37,101,11
7,3,5,0,3,0,3,37,47,11
7,3,10,1,3,0,3,37,64,11
7,3,17,1,4,0,3,37,101,11
7,3,15,1,5,1,3,37,101,11
7,3,20,1,5,1,3,37,101,11
7,3,10,1,6,1,3,37,90,11
8,3,20,1,0,0,3,37,101,11
8,3,21,0,0,0,3,37,101,11
8,3,19,1,2,0,3,37,101,11
8,3,14,1,3,0,3,37,101,11
8,3,14,1,3,0,3,37,20,11
8,3,15,1,3,0,3,37,101,11
8,3,18,1,3,0,3,37,90,11
8,3,21,0,3,0,3,37,90,11
8,3,18,1,4,0,3,37,101,11
8,3,11,1,5,1,3,37,101,11
8,3,15,1,5,1,3,37,101,11
8,3,20,1,6,1,3,37,121,11
8,3,9,1,0,0,3,37,101,11
8,3,17,1,0,0,3,37,90,11
8,3,20,1,0,0,3,37,101,11
8,3,21,0,0,0,3,37,101,11
8,3,6,0,1,0,3,37,88,11
8,3,14,1,1,0,3,37,101,11
8,3,17,1,1,0,3,37,101,11
8,3,18,1,1,0,3,37,101,11
8,3,21,0,1,0,3,37,101,11
8,3,23,0,1,0,3,37,101,11
8,3,7,1,2,0,3,37,90,11
8,3,9,1,2,0,3,37,90,11
8,3,20,1,2,0,3,37,101,11
8,3,17,1,3,0,3,37,101,11
8,3,19,1,4,0,3,37,101,11
8,3,1,0,5,1,3,37,72,11
8,3,12,1,5,1,3,37,101,11
8,3,16,1,5,1,3,37,101,11
8,3,22,0,6,1,3,37,96,11
8,3,12,1,0,0,3,37,101,11
8,3,14,1,2,0,3,37,101,11
8,3,22,0,2,0,3,37,64,11
8,3,15,1,3,0,3,37,62,11
8,3,18,1,3,0,3,37,101,11
8,3,0,0,4,0,3,37,88,11
8,3,18,1,4,0,3,37,20,11
8,3,13,1,5,1,3,37,14,11
8,3,12,1,0,0,3,37,101,11
8,3,20,1,1,0,3,37,101,11
8,3,18,1,2,0,3,37,101,11
8,3,11,1,4,0,3,37,72,11
8,3,20,1,5,1,3,37,101,11
8,3,8,1,6,1,3,37,72,11
8,3,9,1,0,0,3,37,90,11
8,3,17,1,1,0,3,37,101,11
9,4,11,1,3,0,3,37,90,11
9,4,21,0,3,0,3,37,101,11
9,4,14,1,4,0,3,37,90,11
9,4,16,1,4,0,3,37,90,11
9,4,17,1,4,0,3,37,90,11
9,4,13,1,5,1,3,37,101,11
9,4,16,1,5,1,3,37,90,11
9,4,19,1,5,1,3,37,101,11
9,4,14,1,0,0,3,37,38,11
9,4,19,1,1,0,3,37,101,11
9,4,11,1,3,0,3,37,96,11
9,4,20,1,3,0,3,37,101,11
9,4,13,1,4,0,3,37,101,11
9,4,18,1,4,0,3,37,101,11
9,4,20,1,4,0,3,37,101,11
9,4,17,1,5,1,3,37,90,11
9,4,11,1,6,1,3,37,101,11
9,4,17,1,6,1,3,37,124,11
9,4,19,1,6,1,3,37,101,11
9,4,15,1,0,0,3,37,101,11
9,4,16,1,2,0,3,37,101,11
9,4,23,0,3,0,3,37,101,11
9,4,14,1,5,1,3,37,20,11
9,4,9,1,6,1,3,37,101,11
9,4,15,1,6,1,3,37,90,11
9,4,16,1,0,0,3,37,101,11
9,4,17,1,0,0,3,37,90,11
9,4,15,1,1,0,3,37,101,11
9,4,16,1,1,0,3,37,101,11
9,4,16,1,2,0,3,37,101,11
9,4,18,1,2,0,3,37,90,11
9,4,14,1,3,0,3,37,101,11
9,4,22,0,4,0,3,37,75,11
9,4,15,1,6,1,3,37,101,11
9,4,18,1,6,1,3,37,101,11
9,4,2,0,1,0,3,37,96,11
9,4,1,0,2,0,3,37,20,11
9,4,2,0,2,0,3,37,20,11
10,4,17,1,0,0,4,37,101,11
10,4,8,1,1,0,4,37,90,11
10,4,16,1,1,0,4,37,90,11
10,4,17,1,1,0,4,37,124,11
10,4,17,1,1,0,4,37,90,11
10,4,0,0,4,0,4,37,20,11
10,4,18,1,4,0,4,37,101,11
10,4,22,0,1,0,4,37,90,11
10,4,12,1,2,0,4,37,25,11
10,4,15,1,2,0,4,37,90,11
10,4,16,1,2,0,4,37,101,11
10,4,18,1,3,0,4,37,90,11
10,4,23,0,3,0,4,37,20,11
10,4,5,0,4,0,4,37,90,11
10,4,15,1,4,0,4,37,101,11
10,4,17,1,4,0,4,37,121,11
10,4,11,1,5,1,4,37,101,11
10,4,19,1,6,1,4,37,101,11
10,4,20,1,6,1,4,37,20,11
10,4,11,1,0,0,4,37,101,11
10,4,16,1,0,0,4,37,101,11
10,4,17,1,0,0,4,37,101,11
10,4,17,1,2,0,4,37,90,11
10,4,19,1,2,0,4,37,101,11
10,4,12,1,3,0,4,37,90,11
10,4,13,1,3,0,4,37,90,11
10,4,19,1,3,0,4,37,101,11
10,4,15,1,4,0,4,37,101,11
10,4,17,1,4,0,4,37,101,11
10,4,19,1,4,0,4,37,101,11
10,4,17,1,5,1,4,37,101,11
10,4,18,1,5,1,4,37,101,11
10,4,16,1,1,0,4,37,88,11
10,4,8,1,3,0,4,37,101,11
10,4,11,1,4,0,4,37,90,11
10,4,14,1,5,1,4,37,101,11
10,4,14,1,5,1,4,37,90,11
10,4,19,1,5,1,4,37,90,11
10,4,21,0,5,1,4,37,75,11
10,4,16,1,0,0,4,37,101,11
11,4,11,1,1,0,4,37,101,11
11,4,12,1,1,0,4,37,13,11
11,4,18,1,1,0,4,37,101,11
11,4,11,1,2,0,4,37,90,11
11,4,16,1,2,0,4,37,90,11
11,4,17,1,2,0,4,37,101,11
11,4,18,1,3,0,4,37,101,11
11,4,21,0,3,0,4,37,101,11
11,4,11,1,4,0,4,37,90,11
11,4,7,1,5,1,4,37,101,11
11,4,10,1,5,1,4,37,90,11
11,4,15,1,5,1,4,37,101,11
11,4,20,1,1,0,4,37,13,11
11,4,13,1,2,0,4,37,101,11
11,4,11,1,3,0,4,37,124,11
11,4,12,1,5,1,4,37,101,11
11,4,16,1,5,1,4,37,101,11
11,4,15,1,6,1,4,37,20,11
11,4,17,1,6,1,4,37,101,11
11,4,22,0,6,1,4,37,101,11
11,4,4,0,0,0,4,37,101,11
11,4,14,1,1,0,4,37,101,11
11,4,17,1,2,0,4,37,101,11
11,4,14,1,5,1,4,37,20,11
11,4,6,0,4,0,4,37,88,11
11,4,21,0,5,1,4,37,124,11
11,4,0,0,0,0,4,37,101,11
12,1,22,0,5,1,4,37,75,11
12,1,19,1,0,0,4,37,88,11
12,1,18,1,2,0,4,37,90,11
12,1,16,1,4,0,4,37,101,11
12,1,13,1,0,0,4,37,76,11
12,1,19,1,0,0,4,37,124,11
12,1,8,1,2,0,4,37,101,11
12,1,17,1,2,0,4,37,101,11
12,1,20,1,5,1,4,37,75,11
12,1,17,1,6,1,4,37,101,11
12,1,16,1,0,0,4,37,101,11
12,1,17,1,3,0,4,37,90,11
12,1,18,1,4,0,4,37,101,11
12,1,19,1,6,1,4,37,64,11
12,1,13,1,0,0,4,37,64,11
12,1,14,1,2,0,4,37,101,11
12,1,17,1,2,0,4,37,101,11
12,1,21,0,3,0,4,37,96,11
1,1,15,1,0,0,1,37,96,11
2,1,10,1,6,1,1,37,75,11
3,2,14,1,5,1,1,37,101,11
5,2,13,1,4,0,2,37,101,11
7,3,21,0,4,0,3,37,101,11
10,4,13,1,6,1,4,37,101,11
2,1,13,1,4,0,1,37,101,11
2,1,21,0,4,0,1,37,75,11
3,2,12,1,4,0,1,37,101,11
3,2,18,1,5,1,1,37,101,11
3,2,19,1,1,0,1,37,101,11
4,2,14,1,5,1,2,37,101,11
4,2,22,0,0,0,2,37,75,9
4,2,15,1,1,0,2,37,101,11
4,2,10,1,3,0,2,37,101,11
4,2,17,1,3,0,2,37,101,11
4,2,17,1,1,0,2,37,101,11
4,2,15,1,3,0,2,37,101,11
5,2,2,0,6,1,2,37,101,11
5,2,12,1,6,1,2,37,101,11
6,3,18,1,2,0,2,37,4,9
6,3,14,1,0,0,2,37,101,11
7,3,23,0,5,1,3,37,88,11
8,3,20,1,1,0,3,37,90,11
8,3,14,1,0,0,3,37,72,11
9,4,1,0,3,0,3,37,101,11
10,4,2,0,6,1,4,37,90,11
10,4,8,1,5,1,4,37,38,8
11,4,13,1,3,0,4,37,101,11
11,4,13,1,6,1,4,37,88,11
12,1,17,1,0,0,4,37,101,11
12,1,16,1,1,0,4,37,90,11
1,1,11,1,2,0,1,11,90,11
1,1,18,1,3,0,1,11,88,11
1,1,7,1,1,0,1,11,75,11
1,1,18,1,5,1,1,11,101,11
1,1,14,1,6,1,1,11,101,11
1,1,0,0,0,0,1,11,124,11
1,1,21,0,2,0,1,11,96,11
1,1,21,0,2,0,1,11,38,11
1,1,14,1,3,0,1,11,96,11
1,1,16,1,4,0,1,11,96,11
1,1,19,1,4,0,1,11,96,11
2,1,18,1,0,0,1,11,96,11
2,1,19,1,6,1,1,11,38,11
2,1,13,1,0,0,1,11,88,11
2,1,15,1,4,0,1,11,88,11
3,2,16,1,1,0,1,11,88,11
3,2,15,1,0,0,1,11,75,8
3,2,18,1,0,0,1,11,101,11
3,2,7,1,1,0,1,11,101,11
3,2,13,1,2,0,1,11,64,11
3,2,18,1,5,1,1,11,23,11
3,2,13,1,0,0,1,11,101,11
3,2,19,1,1,0,1,11,88,11
3,2,2,0,3,0,1,11,20,11
3,2,23,0,3,0,1,11,20,9
3,2,23,0,3,0,1,11,88,11
3,2,10,1,6,1,1,11,90,11
3,2,15,1,6,1,1,11,23,9
4,2,13,1,4,0,2,11,99,11
4,2,21,0,4,0,2,11,101,11
4,2,10,1,5,1,2,11,20,11
4,2,16,1,0,0,2,11,111,9
4,2,13,1,6,1,2,11,116,9
4,2,1,0,6,1,2,11,106,11
4,2,1,0,6,1,2,11,64,11
4,2,15,1,6,1,2,11,75,11
4,2,17,1,0,0,2,11,90,11
4,2,10,1,1,0,2,11,72,11
4,2,20,1,5,1,2,11,101,11
5,2,17,1,1,0,2,11,88,11
5,2,18,1,6,1,2,11,88,11
5,2,10,1,2,0,2,11,88,11
5,2,14,1,2,0,2,11,90,11
5,2,0,0,1,0,2,11,64,11
6,3,7,1,3,0,2,11,4,11
6,3,17,1,3,0,2,11,88,11
6,3,18,1,3,0,2,11,88,11
6,3,7,1,1,0,2,11,20,11
6,3,11,1,4,0,2,11,90,11
6,3,14,1,4,0,2,11,64,9
6,3,13,1,5,1,2,11,101,11
6,3,23,0,3,0,2,11,13,11
6,3,15,1,1,0,2,11,90,11
6,3,7,1,3,0,2,11,88,11
7,3,10,1,0,0,3,11,55,11
7,3,12,1,1,0,3,11,90,11
7,3,23,0,4,0,3,11,64,11
7,3,19,1,5,1,3,11,96,11
7,3,12,1,0,0,3,11,90,11
7,3,19,1,5,1,3,11,27,11
7,3,19,1,2,0,3,11,23,11
7,3,7,1,3,0,3,11,101,11
7,3,16,1,3,0,3,11,20,11
7,3,21,0,2,0,3,11,88,11
7,3,16,1,4,0,3,11,88,11
7,3,13,1,5,1,3,11,13,8
8,3,17,1,4,0,3,11,101,9
8,3,22,0,4,0,3,11,90,11
8,3,22,0,5,1,3,11,90,11
8,3,12,1,6,1,3,11,124,11
8,3,9,1,2,0,3,11,90,11
8,3,20,1,4,0,3,11,14,11
8,3,10,1,5,1,3,11,121,11
8,3,17,1,0,0,3,11,121,11
8,3,7,1,0,0,3,11,62,11
8,3,4,0,5,1,3,11,75,11
8,3,18,1,2,0,3,11,101,11
9,4,11,1,0,0,3,11,72,11
9,4,14,1,2,0,3,11,88,11
9,4,14,1,2,0,3,11,101,11
9,4,10,1,1,0,3,11,88,11
10,4,9,1,3,0,4,11,67,8
10,4,10,1,3,0,4,11,64,11
10,4,18,1,2,0,4,11,90,11
10,4,13,1,3,0,4,11,101,11
10,4,4,0,4,0,4,11,14,11
10,4,15,1,5,1,4,11,23,11
10,4,11,1,1,0,4,11,101,11
10,4,22,0,4,0,4,11,101,11
10,4,15,1,0,0,4,11,101,11
10,4,12,1,2,0,4,11,64,11
11,4,15,1,4,0,4,11,101,11
11,4,8,1,5,1,4,11,101,11
11,4,12,1,6,1,4,11,75,11
11,4,0,0,0,0,4,11,96,11
11,4,10,1,0,0,4,11,96,11
11,4,14,1,0,0,4,11,75,11
11,4,15,1,2,0,4,11,96,11
11,4,17,1,3,0,4,11,101,11
11,4,2,0,6,1,4,11,109,11
11,4,13,1,6,1,4,11,101,11
11,4,16,1,2,0,4,11,101,11
12,1,19,1,5,1,4,11,109,11
12,1,16,1,4,0,4,11,90,11
12,1,21,0,1,0,4,11,88,11
12,1,0,0,6,1,4,11,106,8
12,1,21,0,2,0,4,11,101,11
2,1,23,0,0,0,1,11,64,11
5,2,10,1,0,0,2,11,88,11
1,1,12,1,0,0,1,11,13,9
5,2,20,1,3,0,2,11,75,11
6,3,10,1,3,0,2,11,101,11
7,3,11,1,3,0,3,11,88,11
8,3,23,0,2,0,3,11,64,11
10,4,14,1,1,0,4,11,62,11
10,4,10,1,3,0,4,11,72,11
10,4,12,1,3,0,4,11,90,11
11,4,10,1,1,0,4,11,90,11
11,4,18,1,2,0,4,11,72,11
12,1,20,1,3,0,4,11,88,11
1,1,17,1,2,0,1,11,88,11
1,1,15,1,2,0,1,11,38,11
1,1,10,1,3,0,1,11,20,11
1,1,11,1,4,0,1,11,88,11
1,1,12,1,6,1,1,11,88,11
1,1,14,1,2,0,1,11,75,9
1,1,20,1,0,0,1,11,64,11
1,1,20,1,1,0,1,11,75,11
1,1,12,1,3,0,1,11,88,11
1,1,18,1,3,0,1,11,88,11
1,1,13,1,4,0,1,11,88,11
2,1,23,0,4,0,1,11,88,11
2,1,19,1,6,1,1,11,88,11
3,2,13,1,0,0,1,11,88,11
3,2,14,1,1,0,1,11,88,11
3,2,13,1,0,0,1,11,75,11
3,2,14,1,5,1,1,11,62,11
3,2,17,1,5,1,1,11,66,9
3,2,15,1,6,1,1,11,88,11
3,2,9,1,3,0,1,11,90,11
3,2,14,1,3,0,1,11,114,11
4,2,10,1,4,0,2,11,75,11
4,2,21,0,6,1,2,11,109,11
4,2,14,1,5,1,2,11,124,11
4,2,2,0,0,0,2,11,75,9
5,2,15,1,5,1,2,11,72,11
5,2,15,1,0,0,2,11,124,11
5,2,9,1,5,1,2,11,25,11
6,3,14,1,1,0,2,11,47,9
7,3,10,1,4,0,3,11,81,11
7,3,18,1,3,0,3,11,101,11
8,3,20,1,2,0,3,11,101,11
8,3,22,0,0,0,3,11,101,11
9,4,13,1,4,0,3,11,75,9
9,4,11,1,6,1,3,11,101,11
9,4,15,1,3,0,3,11,14,11
10,4,18,1,5,1,4,11,124,11
10,4,21,0,3,0,4,11,25,11
10,4,15,1,0,0,4,11,25,11
10,4,15,1,0,0,4,11,25,11
11,4,15,1,1,0,4,11,109,11
11,4,18,1,3,0,4,11,90,11
11,4,14,1,4,0,4,11,40,11
11,4,21,0,6,1,4,11,75,9
11,4,10,1,0,0,4,11,90,11
12,1,16,1,6,1,4,11,75,11
12,1,0,0,4,0,4,11,90,11
12,1,10,1,6,1,4,11,75,9
1,1,9,1,1,0,1,11,75,11
8,3,20,1,0,0,3,11,90,11
10,4,17,1,3,0,4,11,25,9
11,4,14,1,5,1,4,11,90,11
11,4,22,0,3,0,4,11,75,11
1,1,18,1,5,1,1,11,96,11
1,1,15,1,2,0,1,11,75,11
1,1,0,0,4,0,1,11,64,11
1,1,11,1,0,0,1,11,75,11
1,1,19,1,0,0,1,11,75,11
1,1,6,0,4,0,1,11,101,11
2,1,20,1,3,0,1,11,75,9
2,1,22,0,5,1,1,11,38,11
2,1,18,1,5,1,1,11,75,11
2,1,13,1,3,0,1,11,101,11
3,2,20,1,0,0,1,11,38,11
3,2,11,1,2,0,1,11,75,9
3,2,19,1,6,1,1,11,38,11
3,2,13,1,0,0,1,11,101,11
3,2,13,1,5,1,1,11,90,11
3,2,12,1,1,0,1,11,101,11
4,2,13,1,4,0,2,11,101,11
4,2,16,1,6,1,2,11,101,11
4,2,15,1,3,0,2,11,90,11
4,2,14,1,6,1,2,11,64,11
4,2,22,0,1,0,2,11,101,11
4,2,23,0,1,0,2,11,101,11
4,2,23,0,1,0,2,11,101,11
4,2,23,0,1,0,2,11,101,11
4,2,6,0,3,0,2,11,101,11
6,3,14,1,5,1,2,11,101,11
6,3,8,1,0,0,2,11,109,11
7,3,13,1,4,0,3,11,64,11
7,3,23,0,2,0,3,11,109,11
7,3,18,1,1,0,3,11,90,11
7,3,12,1,3,0,3,11,90,11
7,3,16,1,6,1,3,11,101,11
8,3,22,0,5,1,3,11,109,11
8,3,11,1,2,0,3,11,96,11
8,3,17,1,3,0,3,11,121,11
8,3,16,1,0,0,3,11,101,11
9,4,17,1,1,0,3,11,20,11
9,4,20,1,2,0,3,11,90,11
10,4,10,1,3,0,4,11,72,11
11,4,15,1,1,0,4,11,101,11
12,1,19,1,2,0,4,11,38,11
1,1,2,0,0,0,1,11,124,11
1,1,11,1,1,0,1,11,109,11
1,1,17,1,5,1,1,11,101,11
2,1,13,1,1,0,1,11,75,11
2,1,13,1,1,0,1,11,101,11
3,2,13,1,0,0,1,11,101,11
3,2,10,1,0,0,1,11,101,11
3,2,14,1,3,0,1,11,101,11
3,2,14,1,3,0,1,11,101,11
3,2,17,1,3,0,1,11,20,9
4,2,20,1,5,1,2,11,101,11
4,2,15,1,3,0,2,11,101,11
4,2,21,0,2,0,2,11,38,11
5,2,13,1,5,1,2,11,101,11
5,2,11,1,6,1,2,11,75,11
6,3,9,1,5,1,2,11,4,11
6,3,19,1,6,1,2,11,75,9
8,3,16,1,0,0,3,11,101,11
9,4,6,0,6,1,3,11,76,11
10,4,11,1,0,0,4,11,101,11
11,4,10,1,3,0,4,11,101,11
11,4,16,1,3,0,4,11,101,11
11,4,18,1,3,0,4,11,101,11
11,4,8,1,5,1,4,11,75,8
11,4,17,1,5,1,4,11,101,11
11,4,2,0,6,1,4,11,101,11
11,4,20,1,0,0,4,11,38,11
12,1,9,1,0,0,4,11,75,11
12,1,23,0,5,1,4,11,124,11
1,1,15,1,0,0,1,19,88,11
1,1,0,0,0,0,1,19,64,11
1,1,0,0,6,1,1,19,88,11
1,1,0,0,6,1,1,19,88,11
1,1,11,1,0,0,1,19,107,11
1,1,22,0,0,0,1,19,101,11
1,1,0,0,4,0,1,19,46,11
1,1,23,0,4,0,1,19,64,11
1,1,18,1,1,0,1,19,64,11
1,1,6,0,6,1,1,19,96,11
1,1,7,1,0,0,1,19,30,11
1,1,18,1,0,0,1,19,75,11
2,1,4,0,4,0,1,19,96,11
2,1,12,1,5,1,1,19,64,11
2,1,23,0,5,1,1,19,88,11
2,1,2,0,1,0,1,19,68,11
2,1,10,1,2,0,1,19,20,11
2,1,17,1,6,1,1,19,88,11
2,1,0,0,0,0,1,19,88,11
2,1,3,0,1,0,1,19,124,11
2,1,16,1,1,0,1,19,64,11
2,1,16,1,1,0,1,19,64,11
2,1,19,1,1,0,1,19,55,8
2,1,2,0,2,0,1,19,124,11
2,1,10,1,2,0,1,19,64,11
2,1,2,0,5,1,1,19,72,9
2,1,20,1,5,1,1,19,64,11
2,1,22,0,0,0,1,19,64,11
3,2,0,0,4,0,1,19,75,11
3,2,15,1,2,0,1,19,30,11
3,2,23,0,2,0,1,19,64,11
3,2,23,0,4,0,1,19,64,11
3,2,21,0,5,1,1,19,64,11
3,2,20,1,0,0,1,19,47,11
3,2,0,0,1,0,1,19,55,11
3,2,7,1,1,0,1,19,72,11
3,2,20,1,1,0,1,19,96,11
3,2,4,0,3,0,1,19,64,11
3,2,0,0,0,0,1,19,64,11
3,2,18,1,0,0,1,19,64,11
3,2,18,1,0,0,1,19,96,11
3,2,23,0,1,0,1,19,124,11
3,2,13,1,4,0,1,19,124,11
3,2,9,1,6,1,1,19,64,11
3,2,2,0,2,0,1,19,75,11
3,2,21,0,2,0,1,19,124,11
3,2,20,1,3,0,1,19,9,11
3,2,23,0,3,0,1,19,1,11
4,2,3,0,4,0,2,19,64,11
4,2,14,1,4,0,2,19,64,11
4,2,14,1,5,1,2,19,64,11
4,2,16,1,6,1,2,19,64,11
4,2,17,1,2,0,2,19,124,11
4,2,19,1,3,0,2,19,96,11
4,2,4,0,6,1,2,19,20,11
4,2,4,0,1,0,2,19,75,11
4,2,17,1,1,0,2,19,63,11
4,2,15,1,2,0,2,19,20,11
4,2,22,0,2,0,2,19,55,11
4,2,7,1,3,0,2,19,64,11
4,2,22,0,5,1,2,19,47,11
4,2,3,0,3,0,2,19,124,11
4,2,13,1,3,0,2,19,56,11
4,2,18,1,3,0,2,19,64,11
5,2,0,0,0,0,2,19,55,11
5,2,5,0,0,0,2,19,124,11
5,2,18,1,5,1,2,19,21,11
5,2,20,1,1,0,2,19,124,11
5,2,13,1,4,0,2,19,64,11
5,2,14,1,5,1,2,19,47,11
5,2,17,1,2,0,2,19,90,11
5,2,21,0,4,0,2,19,88,11
5,2,19,1,5,1,2,19,96,11
5,2,12,1,0,0,2,19,64,11
5,2,13,1,0,0,2,19,64,11
5,2,11,1,2,0,2,19,47,11
5,2,21,0,3,0,2,19,88,11
5,2,12,1,4,0,2,19,64,11
6,3,19,1,2,0,2,19,124,11
6,3,15,1,3,0,2,19,124,11
6,3,21,0,5,1,2,19,101,11
6,3,19,1,5,1,2,19,124,11
6,3,14,1,0,0,2,19,101,9
6,3,17,1,0,0,2,19,55,11
6,3,18,1,1,0,2,19,64,11
6,3,3,0,2,0,2,19,124,11
6,3,5,0,4,0,2,19,124,11
6,3,5,0,4,0,2,19,88,11
6,3,6,0,5,1,2,19,55,11
6,3,7,1,0,0,2,19,64,11
6,3,0,0,2,0,2,19,88,11
6,3,3,0,3,0,2,19,101,11
6,3,17,1,6,1,2,19,64,11
6,3,20,1,0,0,2,19,106,11
6,3,20,1,1,0,2,19,55,11
6,3,1,0,3,0,2,19,124,11
6,3,6,0,3,0,2,19,96,11
7,3,13,1,0,0,3,19,72,11
7,3,11,1,2,0,3,19,76,11
7,3,2,0,4,0,3,19,64,11
7,3,3,0,0,0,3,19,64,11
7,3,18,1,1,0,3,19,18,11
7,3,18,1,4,0,3,19,64,11
7,3,19,1,4,0,3,19,72,11
7,3,3,0,5,1,3,19,64,11
7,3,16,1,5,1,3,19,96,11
7,3,11,1,1,0,3,19,72,11
7,3,14,1,2,0,3,19,64,11
7,3,12,1,3,0,3,19,79,11
7,3,4,0,3,0,3,19,64,11
7,3,11,1,4,0,3,19,72,11
7,3,18,1,4,0,3,19,64,11
7,3,1,0,5,1,3,19,72,11
8,3,21,0,4,0,3,19,64,11
8,3,15,1,5,1,3,19,55,11
8,3,13,1,1,0,3,19,72,11
8,3,10,1,2,0,3,19,99,11
8,3,22,0,5,1,3,19,64,11
8,3,0,0,1,0,3,19,64,11
8,3,15,1,3,0,3,19,72,11
8,3,20,1,5,1,3,19,64,11
8,3,3,0,0,0,3,19,64,11
8,3,13,1,2,0,3,19,101,11
9,4,12,1,3,0,3,19,72,11
9,4,4,0,4,0,3,19,64,11
9,4,13,1,4,0,3,19,64,11
9,4,14,1,4,0,3,19,63,11
9,4,14,1,4,0,3,19,64,11
9,4,19,1,5,1,3,19,64,9
9,4,20,1,6,1,3,19,64,11
9,4,4,0,1,0,3,19,55,11
9,4,9,1,2,0,3,19,64,11
9,4,11,1,2,0,3,19,124,11
9,4,23,0,2,0,3,19,124,11
9,4,11,1,5,1,3,19,75,9
9,4,15,1,2,0,3,19,101,11
9,4,1,0,5,1,3,19,88,11
9,4,18,1,6,1,3,19,72,11
9,4,1,0,0,0,3,19,96,11
9,4,23,0,1,0,3,19,90,11
9,4,15,1,2,0,3,19,72,11
9,4,20,1,3,0,3,19,124,11
9,4,3,0,0,0,3,19,124,11
9,4,3,0,0,0,3,19,124,11
9,4,14,1,4,0,3,19,1,11
10,4,2,0,5,1,4,19,88,11
10,4,23,0,0,0,4,19,96,11
10,4,16,1,3,0,4,19,72,11
10,4,17,1,5,1,4,19,64,11
10,4,13,1,0,0,4,19,64,11
10,4,5,0,1,0,4,19,101,11
10,4,18,1,1,0,4,19,124,11
10,4,13,1,3,0,4,19,64,11
10,4,1,0,5,1,4,19,96,11
10,4,5,0,6,1,4,19,124,11
10,4,1,0,0,0,4,19,64,11
10,4,12,1,3,0,4,19,64,11
10,4,3,0,6,1,4,19,125,11
10,4,12,1,0,0,4,19,55,11
10,4,22,0,0,0,4,19,64,11
11,4,13,1,1,0,4,19,64,11
11,4,19,1,2,0,4,19,64,11
11,4,18,1,3,0,4,19,63,11
11,4,18,1,5,1,4,19,124,11
11,4,19,1,5,1,4,19,64,11
11,4,13,1,2,0,4,19,101,11
11,4,18,1,3,0,4,19,64,11
11,4,4,0,4,0,4,19,124,11
11,4,4,0,5,1,4,19,96,11
11,4,6,0,0,0,4,19,124,11
11,4,2,0,2,0,4,19,99,11
11,4,22,0,2,0,4,19,64,11
11,4,2,0,4,0,4,19,90,11
11,4,6,0,5,1,4,19,124,11
11,4,3,0,2,0,4,19,64,11
11,4,17,1,6,1,4,19,64,11
12,1,5,0,3,0,4,19,124,11
12,1,1,0,5,1,4,19,124,11
12,1,8,1,5,1,4,19,64,11
12,1,20,1,0,0,4,19,124,11
12,1,8,1,1,0,4,19,72,9
12,1,20,1,1,0,4,19,101,11
12,1,21,0,1,0,4,19,101,11
12,1,2,0,2,0,4,19,64,8
12,1,2,0,3,0,4,19,124,11
12,1,13,1,0,0,4,19,64,11
12,1,21,0,1,0,4,19,55,11
12,1,23,0,1,0,4,19,124,11
12,1,1,0,2,0,4,19,88,11
12,1,1,0,2,0,4,19,88,11
12,1,5,0,2,0,4,19,72,11
12,1,1,0,0,0,4,19,88,11
12,1,0,0,4,0,4,19,88,11
12,1,11,1,5,1,4,19,64,11
12,1,22,0,5,1,4,19,124,11
12,1,2,0,6,1,4,19,124,11
12,1,2,0,6,1,4,19,124,11
12,1,4,0,6,1,4,19,124,11
12,1,6,0,6,1,4,19,124,11
12,1,7,1,6,1,4,19,124,11
12,1,9,1,6,1,4,19,124,11
12,1,19,1,0,0,4,19,124,11
12,1,21,0,5,1,4,19,124,11
1,1,19,1,5,1,1,19,38,11
1,1,16,1,6,1,1,19,90,11
1,1,14,1,1,0,1,19,101,11
1,1,0,0,2,0,1,19,96,11
1,1,5,0,3,0,1,19,20,9
1,1,13,1,3,0,1,19,64,11
1,1,10,1,5,1,1,19,124,9
1,1,22,0,6,1,1,19,96,11
1,1,6,0,0,0,1,19,64,11
1,1,15,1,0,0,1,19,64,11
1,1,3,0,1,0,1,19,20,11
1,1,18,1,2,0,1,19,38,11
1,1,21,0,2,0,1,19,38,11
1,1,8,1,3,0,1,19,102,11
1,1,16,1,3,0,1,19,64,11
1,1,16,1,3,0,1,19,64,9
1,1,17,1,3,0,1,19,101,11
1,1,4,0,4,0,1,19,38,11
1,1,15,1,4,0,1,19,101,11
1,1,18,1,4,0,1,19,38,11
1,1,16,1,5,1,1,19,96,11
1,1,16,1,5,1,1,19,96,11
1,1,21,0,5,1,1,19,38,11
1,1,23,0,5,1,1,19,96,11
1,1,11,1,6,1,1,19,101,9
1,1,19,1,0,0,1,19,64,11
1,1,21,0,0,0,1,19,101,11
1,1,18,1,1,0,1,19,101,11
1,1,19,1,1,0,1,19,9,11
1,1,20,1,1,0,1,19,45,11
1,1,21,0,1,0,1,19,64,11
1,1,21,0,2,0,1,19,90,11
1,1,19,1,3,0,1,19,122,11
1,1,17,1,4,0,1,19,101,11
1,1,18,1,4,0,1,19,96,11
1,1,11,1,5,1,1,19,75,11
1,1,14,1,5,1,1,19,101,11
1,1,14,1,5,1,1,19,38,11
1,1,19,1,5,1,1,19,96,11
1,1,23,0,5,1,1,19,75,11
1,1,12,1,6,1,1,19,96,11
1,1,12,1,6,1,1,19,96,11
1,1,14,1,6,1,1,19,101,11
1,1,14,1,6,1,1,19,96,11
1,1,15,1,6,1,1,19,101,11
1,1,19,1,6,1,1,19,64,11
1,1,19,1,6,1,1,19,38,11
1,1,14,1,0,0,1,19,90,11
1,1,19,1,0,0,1,19,64,11
1,1,1,0,1,0,1,19,64,11
1,1,17,1,1,0,1,19,96,11
1,1,17,1,2,0,1,19,64,11
1,1,20,1,4,0,1,19,96,11
1,1,22,0,4,0,1,19,90,11
1,1,1,0,5,1,1,19,75,11
1,1,13,1,5,1,1,19,96,11
1,1,14,1,5,1,1,19,38,11
1,1,21,0,5,1,1,19,75,11
1,1,22,0,5,1,1,19,124,11
1,1,6,0,6,1,1,19,124,11
1,1,13,1,6,1,1,19,90,11
1,1,13,1,6,1,1,19,64,11
1,1,16,1,6,1,1,19,96,11
1,1,19,1,6,1,1,19,14,11
1,1,14,1,0,0,1,19,64,11
1,1,17,1,0,0,1,19,90,11
2,1,18,1,1,0,1,19,101,11
2,1,19,1,1,0,1,19,101,11
2,1,12,1,2,0,1,19,64,11
2,1,18,1,2,0,1,19,101,11
2,1,22,0,2,0,1,19,90,11
2,1,22,0,2,0,1,19,20,9
2,1,19,1,3,0,1,19,38,11
2,1,16,1,4,0,1,19,101,11
2,1,2,0,5,1,1,19,90,11
2,1,3,0,5,1,1,19,96,11
2,1,7,1,5,1,1,19,75,9
2,1,13,1,5,1,1,19,90,11
2,1,15,1,5,1,1,19,20,11
2,1,18,1,5,1,1,19,101,11
2,1,19,1,5,1,1,19,96,11
2,1,4,0,6,1,1,19,20,9
2,1,13,1,6,1,1,19,90,11
2,1,16,1,6,1,1,19,63,11
2,1,17,1,6,1,1,19,90,11
2,1,20,1,6,1,1,19,96,11
2,1,10,1,0,0,1,19,75,11
2,1,23,0,0,0,1,19,64,11
2,1,8,1,1,0,1,19,101,11
2,1,13,1,1,0,1,19,90,11
2,1,10,1,3,0,1,19,9,11
2,1,17,1,3,0,1,19,10,11
2,1,18,1,3,0,1,19,90,11
2,1,21,0,3,0,1,19,23,11
2,1,13,1,4,0,1,19,35,11
2,1,19,1,5,1,1,19,101,11
2,1,19,1,5,1,1,19,96,11
2,1,20,1,6,1,1,19,96,11
2,1,23,0,0,0,1,19,38,11
2,1,12,1,1,0,1,19,124,9
2,1,17,1,1,0,1,19,64,11
2,1,17,1,2,0,1,19,64,11
2,1,21,0,3,0,1,19,101,11
2,1,13,1,4,0,1,19,52,11
2,1,23,0,5,1,1,19,96,11
2,1,12,1,6,1,1,19,90,11
2,1,14,1,6,1,1,19,96,11
2,1,21,0,6,1,1,19,64,11
2,1,20,1,1,0,1,19,57,11
2,1,18,1,2,0,1,19,90,11
2,1,19,1,2,0,1,19,114,11
2,1,21,0,3,0,1,19,87,9
2,1,19,1,4,0,1,19,72,11
2,1,9,1,5,1,1,19,30,11
2,1,19,1,5,1,1,19,90,11
2,1,11,1,6,1,1,19,38,11
2,1,5,0,0,0,1,19,38,11
2,1,20,1,0,0,1,19,9,9
3,2,9,1,1,0,1,19,101,11
3,2,18,1,1,0,1,19,101,11
3,2,19,1,2,0,1,19,90,11
3,2,22,0,2,0,1,19,101,11
3,2,10,1,3,0,1,19,23,11
3,2,18,1,3,0,1,19,9,11
3,2,7,1,4,0,1,19,90,11
3,2,18,1,4,0,1,19,64,11
3,2,19,1,4,0,1,19,64,11
3,2,20,1,4,0,1,19,64,11
3,2,22,0,4,0,1,19,9,11
3,2,1,0,5,1,1,19,9,11
3,2,6,0,5,1,1,19,9,9
3,2,14,1,6,1,1,19,38,11
3,2,22,0,6,1,1,19,64,11
3,2,11,1,1,0,1,19,38,11
3,2,19,1,1,0,1,19,64,11
3,2,20,1,1,0,1,19,1,11
3,2,20,1,1,0,1,19,64,11
3,2,14,1,2,0,1,19,64,11
3,2,15,1,2,0,1,19,123,11
3,2,16,1,2,0,1,19,90,11
3,2,9,1,3,0,1,19,75,11
3,2,10,1,3,0,1,19,64,11
3,2,16,1,3,0,1,19,101,11
3,2,21,0,3,0,1,19,90,11
3,2,19,1,4,0,1,19,90,11
3,2,23,0,4,0,1,19,45,11
3,2,18,1,5,1,1,19,90,11
3,2,20,1,5,1,1,19,64,11
3,2,21,0,5,1,1,19,38,11
3,2,19,1,6,1,1,19,38,11
3,2,4,0,1,0,1,19,124,8
3,2,17,1,1,0,1,19,23,11
3,2,4,0,2,0,1,19,38,9
3,2,10,1,2,0,1,19,10,11
3,2,18,1,2,0,1,19,20,11
3,2,18,1,2,0,1,19,124,11
3,2,19,1,2,0,1,19,64,11
3,2,23,0,2,0,1,19,96,11
3,2,12,1,4,0,1,19,75,11
3,2,17,1,5,1,1,19,90,11
3,2,12,1,6,1,1,19,90,11
3,2,14,1,6,1,1,19,64,11
3,2,16,1,0,0,1,19,23,11
3,2,20,1,0,0,1,19,9,11
3,2,23,0,0,0,1,19,96,11
3,2,6,0,1,0,1,19,20,11
3,2,19,1,1,0,1,19,20,9
3,2,21,0,1,0,1,19,64,11
3,2,13,1,2,0,1,19,64,11
3,2,3,0,3,0,1,19,20,11
3,2,4,0,3,0,1,19,64,9
3,2,6,0,3,0,1,19,20,11
3,2,17,1,3,0,1,19,20,11
3,2,20,1,3,0,1,19,63,11
3,2,0,0,4,0,1,19,90,11
3,2,6,0,4,0,1,19,90,11
3,2,16,1,4,0,1,19,64,11
3,2,10,1,5,1,1,19,90,11
3,2,18,1,5,1,1,19,64,11
3,2,23,0,5,1,1,19,76,11
3,2,2,0,6,1,1,19,20,11
3,2,18,1,6,1,1,19,64,11
3,2,20,1,6,1,1,19,90,11
3,2,9,1,0,0,1,19,101,11
3,2,15,1,0,0,1,19,101,11
3,2,17,1,0,0,1,19,101,11
3,2,19,1,0,0,1,19,38,11
3,2,22,0,1,0,1,19,64,11
3,2,13,1,2,0,1,19,90,11
3,2,14,1,2,0,1,19,38,11
3,2,21,0,2,0,1,19,20,11
3,2,19,1,3,0,1,19,64,11
3,2,21,0,3,0,1,19,96,11
4,2,10,1,4,0,2,19,114,11
4,2,21,0,4,0,2,19,123,11
4,2,6,0,5,1,2,19,96,11
4,2,12,1,6,1,2,19,96,11
4,2,4,0,0,0,2,19,101,11
4,2,10,1,0,0,2,19,101,11
4,2,23,0,1,0,2,19,96,11
4,2,23,0,1,0,2,19,64,11
4,2,9,1,2,0,2,19,83,8
4,2,10,1,2,0,2,19,90,11
4,2,1,0,3,0,2,19,75,11
4,2,11,1,4,0,2,19,64,11
4,2,15,1,4,0,2,19,111,11
4,2,0,0,5,1,2,19,96,11
4,2,11,1,5,1,2,19,64,11
4,2,18,1,5,1,2,19,90,11
4,2,20,1,6,1,2,19,9,11
4,2,8,1,0,0,2,19,66,11
4,2,8,1,0,0,2,19,101,11
4,2,12,1,0,0,2,19,64,11
4,2,7,1,3,0,2,19,75,11
4,2,13,1,3,0,2,19,64,11
4,2,22,0,3,0,2,19,101,11
4,2,1,0,5,1,2,19,96,11
4,2,12,1,5,1,2,19,14,9
4,2,13,1,5,1,2,19,75,11
4,2,20,1,5,1,2,19,101,11
4,2,21,0,5,1,2,19,124,11
4,2,22,0,5,1,2,19,14,11
4,2,0,0,6,1,2,19,101,11
4,2,0,0,6,1,2,19,4,11
4,2,16,1,6,1,2,19,9,11
4,2,18,1,6,1,2,19,87,9
4,2,15,1,0,0,2,19,90,11
4,2,15,1,0,0,2,19,90,11
4,2,18,1,0,0,2,19,20,11
4,2,19,1,0,0,2,19,101,11
4,2,18,1,1,0,2,19,9,11
4,2,13,1,2,0,2,19,124,11
4,2,20,1,3,0,2,19,90,11
4,2,4,0,4,0,2,19,20,11
4,2,20,1,4,0,2,19,90,11
4,2,16,1,5,1,2,19,64,11
4,2,0,0,6,1,2,19,64,11
4,2,2,0,6,1,2,19,96,11
4,2,2,0,6,1,2,19,64,11
4,2,11,1,0,0,2,19,38,11
4,2,14,1,0,0,2,19,96,11
4,2,11,1,1,0,2,19,9,11
4,2,19,1,1,0,2,19,101,11
4,2,11,1,2,0,2,19,90,11
4,2,12,1,2,0,2,19,101,11
4,2,20,1,2,0,2,19,101,11
4,2,13,1,3,0,2,19,101,11
4,2,17,1,3,0,2,19,90,11
4,2,12,1,4,0,2,19,101,11
4,2,13,1,4,0,2,19,64,11
4,2,18,1,4,0,2,19,101,11
4,2,20,1,4,0,2,19,101,11
4,2,9,1,5,1,2,19,90,11
5,2,15,1,6,1,2,19,9,11
5,2,0,0,0,0,2,19,55,11
5,2,13,1,0,0,2,19,101,11
5,2,18,1,1,0,2,19,64,11
5,2,5,0,3,0,2,19,20,11
5,2,13,1,4,0,2,19,101,11
5,2,19,1,4,0,2,19,64,11
5,2,6,0,5,1,2,19,20,11
5,2,6,0,5,1,2,19,96,11
5,2,20,1,5,1,2,19,101,11
5,2,11,1,6,1,2,19,23,8
5,2,21,0,0,0,2,19,90,11
5,2,23,0,0,0,2,19,90,11
5,2,7,1,1,0,2,19,101,11
5,2,19,1,1,0,2,19,23,11
5,2,1,0,2,0,2,19,124,11
5,2,22,0,2,0,2,19,75,11
5,2,12,1,3,0,2,19,90,11
5,2,19,1,3,0,2,19,96,11
5,2,22,0,4,0,2,19,4,11
5,2,18,1,5,1,2,19,64,11
5,2,18,1,5,1,2,19,96,11
5,2,0,0,6,1,2,19,90,11
5,2,22,0,6,1,2,19,90,11
5,2,16,1,0,0,2,19,101,11
5,2,0,0,1,0,2,19,90,11
5,2,1,0,1,0,2,19,96,11
5,2,9,1,2,0,2,19,90,11
5,2,11,1,2,0,2,19,101,11
5,2,15,1,2,0,2,19,64,11
5,2,11,1,4,0,2,19,29,11
5,2,17,1,4,0,2,19,20,11
5,2,10,1,5,1,2,19,90,11
5,2,11,1,5,1,2,19,23,8
5,2,21,0,6,1,2,19,23,11
5,2,14,1,1,0,2,19,75,11
5,2,20,1,1,0,2,19,64,11
5,2,0,0,3,0,2,19,90,11
5,2,12,1,4,0,2,19,20,11
5,2,0,0,5,1,2,19,96,11
5,2,12,1,5,1,2,19,96,11
5,2,11,1,6,1,2,19,101,11
5,2,23,0,6,1,2,19,90,11
5,2,18,1,0,0,2,19,64,11
6,3,9,1,2,0,2,19,90,11
6,3,13,1,2,0,2,19,90,11
6,3,17,1,2,0,2,19,101,8
6,3,17,1,2,0,2,19,101,11
6,3,14,1,3,0,2,19,124,11
6,3,14,1,3,0,2,19,90,11
6,3,16,1,3,0,2,19,90,8
6,3,18,1,3,0,2,19,114,8
6,3,20,1,3,0,2,19,90,11
6,3,0,0,4,0,2,19,124,11
6,3,8,1,4,0,2,19,101,11
6,3,17,1,4,0,2,19,101,11
6,3,19,1,4,0,2,19,101,11
6,3,19,1,4,0,2,19,101,11
6,3,2,0,5,1,2,19,101,11
6,3,11,1,5,1,2,19,90,11
6,3,16,1,5,1,2,19,101,11
6,3,22,0,5,1,2,19,101,11
6,3,0,0,6,1,2,19,90,11
6,3,2,0,6,1,2,19,101,11
6,3,6,0,6,1,2,19,101,11
6,3,10,1,6,1,2,19,101,11
6,3,18,1,6,1,2,19,101,11
6,3,19,1,6,1,2,19,101,11
6,3,15,1,0,0,2,19,90,11
6,3,18,1,0,0,2,19,64,11
6,3,3,0,1,0,2,19,55,11
6,3,5,0,1,0,2,19,101,11
6,3,12,1,2,0,2,19,64,11
6,3,13,1,2,0,2,19,20,11
6,3,21,0,2,0,2,19,64,11
6,3,21,0,2,0,2,19,101,11
6,3,23,0,2,0,2,19,101,11
6,3,12,1,3,0,2,19,38,11
6,3,1,0,4,0,2,19,96,11
6,3,2,0,4,0,2,19,20,11
6,3,5,0,4,0,2,19,75,11
6,3,20,1,6,1,2,19,4,11
6,3,4,0,0,0,2,19,64,11
6,3,22,0,0,0,2,19,101,11
6,3,0,0,1,0,2,19,9,11
6,3,12,1,1,0,2,19,20,11
6,3,6,0,3,0,2,19,124,11
6,3,11,1,3,0,2,19,101,11
6,3,23,0,3,0,2,19,90,11
6,3,16,1,4,0,2,19,90,11
6,3,14,1,6,1,2,19,90,11
6,3,19,1,6,1,2,19,101,11
6,3,1,0,0,0,2,19,124,11
6,3,3,0,0,0,2,19,124,11
6,3,12,1,0,0,2,19,101,11
6,3,19,1,0,0,2,19,90,11
6,3,0,0,1,0,2,19,101,11
6,3,4,0,2,0,2,19,101,11
6,3,11,1,2,0,2,19,64,11
6,3,19,1,2,0,2,19,111,11
6,3,14,1,3,0,2,19,20,11
6,3,16,1,3,0,2,19,101,11
6,3,16,1,4,0,2,19,57,11
6,3,1,0,5,1,2,19,64,11
6,3,15,1,6,1,2,19,64,11
6,3,6,0,1,0,2,19,64,11
6,3,13,1,1,0,2,19,111,11
6,3,12,1,3,0,2,19,90,11
7,3,9,1,5,1,3,19,20,11
7,3,19,1,5,1,3,19,14,11
7,3,20,1,5,1,3,19,88,11
7,3,2,0,0,0,3,19,96,11
7,3,12,1,0,0,3,19,111,11
7,3,4,0,1,0,3,19,96,11
7,3,12,1,1,0,3,19,96,11
7,3,18,1,1,0,3,19,111,11
7,3,11,1,2,0,3,19,90,11
7,3,14,1,2,0,3,19,38,11
7,3,19,1,2,0,3,19,101,11
7,3,0,0,3,0,3,19,96,11
7,3,12,1,3,0,3,19,101,11
7,3,14,1,3,0,3,19,101,11
7,3,19,1,3,0,3,19,23,11
7,3,2,0,4,0,3,19,90,8
7,3,2,0,4,0,3,19,101,11
7,3,15,1,4,0,3,19,90,11
7,3,17,1,4,0,3,19,101,11
7,3,20,1,4,0,3,19,101,11
7,3,20,1,4,0,3,19,101,11
7,3,18,1,5,1,3,19,9,11
7,3,22,0,5,1,3,19,63,11
7,3,16,1,6,1,3,19,90,11
7,3,19,1,6,1,3,19,90,11
7,3,0,0,0,0,3,19,37,11
7,3,4,0,0,0,3,19,90,11
7,3,10,1,0,0,3,19,4,11
7,3,12,1,0,0,3,19,90,11
7,3,23,0,0,0,3,19,90,11
7,3,19,1,1,0,3,19,101,11
7,3,6,0,3,0,3,19,124,11
7,3,14,1,3,0,3,19,90,11
7,3,11,1,4,0,3,19,20,9
7,3,14,1,4,0,3,19,124,11
7,3,18,1,4,0,3,19,45,11
7,3,23,0,4,0,3,19,64,11
7,3,0,0,5,1,3,19,101,11
7,3,4,0,6,1,3,19,20,11
7,3,11,1,6,1,3,19,111,11
7,3,8,1,0,0,3,19,90,11
7,3,9,1,0,0,3,19,124,11
7,3,11,1,0,0,3,19,20,11
7,3,17,1,0,0,3,19,90,11
7,3,21,0,0,0,3,19,90,11
7,3,23,0,0,0,3,19,101,11
7,3,4,0,1,0,3,19,96,11
7,3,11,1,1,0,3,19,101,11
7,3,16,1,2,0,3,19,17,11
7,3,0,0,3,0,3,19,64,11
7,3,13,1,3,0,3,19,20,11
7,3,22,0,3,0,3,19,101,11
7,3,1,0,4,0,3,19,101,11
7,3,9,1,4,0,3,19,101,11
7,3,23,0,4,0,3,19,96,11
7,3,7,1,5,1,3,19,101,11
7,3,19,1,5,1,3,19,20,11
7,3,16,1,6,1,3,19,101,11
7,3,12,1,1,0,3,19,64,11
7,3,23,0,1,0,3,19,101,11
7,3,14,1,2,0,3,19,126,11
7,3,21,0,2,0,3,19,64,11
7,3,18,1,3,0,3,19,90,11
7,3,4,0,4,0,3,19,101,11
7,3,13,1,4,0,3,19,124,11
7,3,0,0,5,1,3,19,101,11
7,3,8,1,5,1,3,19,64,11
7,3,14,1,5,1,3,19,64,11
7,3,10,1,6,1,3,19,90,11
7,3,17,1,6,1,3,19,101,11
8,3,4,0,0,0,3,19,101,11
8,3,4,0,1,0,3,19,23,11
8,3,19,1,1,0,3,19,90,11
8,3,7,1,2,0,3,19,90,11
8,3,21,0,2,0,3,19,90,11
8,3,21,0,2,0,3,19,64,11
8,3,0,0,3,0,3,19,64,11
8,3,15,1,3,0,3,19,90,11
8,3,21,0,3,0,3,19,101,11
8,3,23,0,3,0,3,19,64,11
8,3,15,1,5,1,3,19,101,11
8,3,23,0,6,1,3,19,90,11
8,3,11,1,0,0,3,19,101,11
8,3,11,1,0,0,3,19,109,11
8,3,15,1,0,0,3,19,64,11
8,3,17,1,0,0,3,19,96,11
8,3,5,0,1,0,3,19,64,11
8,3,15,1,1,0,3,19,90,11
8,3,17,1,1,0,3,19,20,11
8,3,8,1,2,0,3,19,90,8
8,3,17,1,2,0,3,19,90,11
8,3,23,0,5,1,3,19,90,11
8,3,7,1,0,0,3,19,9,11
8,3,7,1,0,0,3,19,14,11
8,3,20,1,2,0,3,19,75,11
8,3,19,1,3,0,3,19,90,11
8,3,21,0,3,0,3,19,96,11
8,3,6,0,4,0,3,19,75,11
8,3,11,1,4,0,3,19,49,11
8,3,13,1,4,0,3,19,20,11
8,3,17,1,4,0,3,19,101,11
8,3,12,1,6,1,3,19,64,11
8,3,18,1,6,1,3,19,101,11
8,3,22,0,1,0,3,19,64,11
8,3,19,1,3,0,3,19,20,11
8,3,22,0,3,0,3,19,64,11
8,3,11,1,4,0,3,19,64,11
8,3,5,0,5,1,3,19,20,11
8,3,11,1,5,1,3,19,101,11
8,3,3,0,0,0,3,19,124,8
8,3,15,1,0,0,3,19,90,11
8,3,2,0,1,0,3,19,64,11
8,3,12,1,1,0,3,19,101,11
8,3,18,1,2,0,3,19,96,11
8,3,20,1,2,0,3,19,23,11
9,4,0,0,3,0,3,19,96,11
9,4,1,0,3,0,3,19,90,11
9,4,2,0,3,0,3,19,124,8
9,4,9,1,5,1,3,19,64,11
9,4,21,0,1,0,3,19,55,11
9,4,5,0,2,0,3,19,55,11
9,4,15,1,2,0,3,19,101,11
9,4,3,0,3,0,3,19,124,11
9,4,16,1,3,0,3,19,101,11
9,4,19,1,5,1,3,19,124,11
9,4,5,0,6,1,3,19,75,11
9,4,12,1,0,0,3,19,64,11
9,4,16,1,2,0,3,19,101,11
9,4,21,0,2,0,3,19,64,11
9,4,4,0,3,0,3,19,124,11
9,4,21,0,3,0,3,19,9,11
9,4,21,0,4,0,3,19,124,11
9,4,19,1,5,1,3,19,20,11
9,4,5,0,6,1,3,19,9,11
9,4,11,1,6,1,3,19,56,11
9,4,15,1,6,1,3,19,90,11
9,4,16,1,6,1,3,19,9,11
9,4,13,1,0,0,3,19,23,11
9,4,16,1,0,0,3,19,101,11
9,4,17,1,0,0,3,19,9,11
9,4,19,1,0,0,3,19,90,11
9,4,14,1,1,0,3,19,75,8
9,4,20,1,2,0,3,19,90,11
9,4,22,0,2,0,3,19,90,11
9,4,8,1,4,0,3,19,20,11
9,4,20,1,4,0,3,19,23,11
9,4,10,1,5,1,3,19,20,11
9,4,16,1,5,1,3,19,101,11
9,4,16,1,5,1,3,19,101,11
9,4,19,1,6,1,3,19,96,11
9,4,21,0,0,0,3,19,63,11
9,4,13,1,1,0,3,19,69,11
9,4,3,0,2,0,3,19,101,11
9,4,13,1,2,0,3,19,90,11
9,4,13,1,3,0,3,19,20,11
10,4,4,0,5,1,4,19,101,11
10,4,1,0,6,1,4,19,101,11
10,4,13,1,6,1,4,19,96,11
10,4,12,1,0,0,4,19,64,11
10,4,19,1,2,0,4,19,101,11
10,4,14,1,3,0,4,19,90,11
10,4,22,0,3,0,4,19,101,11
10,4,22,0,3,0,4,19,90,11
10,4,9,1,6,1,4,19,101,11
10,4,14,1,6,1,4,19,23,11
10,4,16,1,6,1,4,19,101,11
10,4,16,1,6,1,4,19,124,11
10,4,17,1,6,1,4,19,101,11
10,4,0,0,0,0,4,19,101,11
10,4,9,1,1,0,4,19,101,11
10,4,19,1,1,0,4,19,84,11
10,4,8,1,4,0,4,19,14,8
10,4,17,1,4,0,4,19,101,11
10,4,13,1,5,1,4,19,15,8
10,4,14,1,6,1,4,19,101,11
10,4,3,0,0,0,4,19,20,9
10,4,12,1,1,0,4,19,96,11
10,4,13,1,1,0,4,19,20,11
10,4,16,1,1,0,4,19,90,11
10,4,20,1,2,0,4,19,20,11
10,4,20,1,4,0,4,19,101,11
10,4,23,0,4,0,4,19,64,11
10,4,13,1,5,1,4,19,75,11
10,4,14,1,5,1,4,19,101,11
10,4,15,1,5,1,4,19,101,11
10,4,20,1,5,1,4,19,38,11
10,4,9,1,6,1,4,19,75,11
10,4,13,1,6,1,4,19,64,11
10,4,15,1,6,1,4,19,64,11
10,4,8,1,0,0,4,19,20,11
10,4,20,1,0,0,4,19,64,11
10,4,22,0,2,0,4,19,96,11
10,4,22,0,2,0,4,19,101,11
10,4,11,1,4,0,4,19,124,11
10,4,20,1,4,0,4,19,101,11
10,4,21,0,5,1,4,19,101,11
10,4,15,1,6,1,4,19,64,11
10,4,16,1,0,0,4,19,90,11
11,4,13,1,1,0,4,19,101,11
11,4,15,1,3,0,4,19,101,11
11,4,9,1,4,0,4,19,64,11
11,4,20,1,4,0,4,19,75,11
11,4,12,1,5,1,4,19,101,11
11,4,15,1,5,1,4,19,124,11
11,4,20,1,5,1,4,19,101,11
11,4,22,0,5,1,4,19,76,11
11,4,4,0,0,0,4,19,90,11
11,4,0,0,2,0,4,19,101,11
11,4,13,1,2,0,4,19,90,11
11,4,16,1,2,0,4,19,90,11
11,4,19,1,4,0,4,19,63,11
11,4,16,1,5,1,4,19,124,9
11,4,22,0,5,1,4,19,14,11
11,4,17,1,0,0,4,19,90,11
11,4,11,1,1,0,4,19,101,11
11,4,14,1,2,0,4,19,101,11
11,4,17,1,2,0,4,19,101,11
11,4,19,1,2,0,4,19,124,11
11,4,17,1,3,0,4,19,76,11
11,4,20,1,4,0,4,19,96,11
11,4,15,1,5,1,4,19,64,11
11,4,18,1,5,1,4,19,90,11
11,4,4,0,6,1,4,19,101,11
11,4,10,1,2,0,4,19,90,11
11,4,14,1,2,0,4,19,99,11
11,4,11,1,3,0,4,19,109,11
11,4,19,1,3,0,4,19,75,11
11,4,0,0,5,1,4,19,101,11
11,4,19,1,5,1,4,19,22,11
11,4,20,1,5,1,4,19,101,11
11,4,22,0,5,1,4,19,38,11
11,4,16,1,6,1,4,19,90,11
11,4,19,1,6,1,4,19,64,11
11,4,20,1,6,1,4,19,121,11
11,4,0,0,0,0,4,19,38,11
11,4,1,0,0,0,4,19,85,11
11,4,19,1,0,0,4,19,96,11
11,4,8,1,1,0,4,19,20,11
11,4,13,1,1,0,4,19,90,11
11,4,11,1,2,0,4,19,96,11
12,1,21,0,3,0,4,19,9,11
12,1,10,1,4,0,4,19,90,11
12,1,15,1,4,0,4,19,64,11
12,1,15,1,5,1,4,19,56,11
12,1,9,1,1,0,4,19,14,11
12,1,19,1,1,0,4,19,90,11
12,1,19,1,1,0,4,19,93,11
12,1,0,0,2,0,4,19,96,11
12,1,6,0,4,0,4,19,20,11
12,1,10,1,4,0,4,19,20,11
12,1,19,1,5,1,4,19,101,11
12,1,13,1,2,0,4,19,20,11
12,1,10,1,3,0,4,19,11,11
12,1,17,1,3,0,4,19,64,11
12,1,16,1,5,1,4,19,20,11
12,1,17,1,6,1,4,19,90,11
12,1,20,1,1,0,4,19,20,11
12,1,5,0,3,0,4,19,9,11
12,1,10,1,3,0,4,19,101,11
12,1,15,1,4,0,4,19,79,11
12,1,10,1,5,1,4,19,1,11
12,1,17,1,5,1,4,19,20,11
12,1,14,1,6,1,4,19,96,11
12,1,17,1,1,0,4,19,63,11
12,1,22,0,3,0,4,19,90,11
12,1,4,0,5,1,4,19,20,11
12,1,6,0,5,1,4,19,124,11
1,1,17,1,3,0,1,19,75,11
1,1,16,1,4,0,1,19,20,11
1,1,5,0,5,1,1,19,75,11
1,1,12,1,6,1,1,19,101,11
1,1,18,1,3,0,1,19,38,11
1,1,18,1,4,0,1,19,101,11
1,1,23,0,6,1,1,19,20,11
2,1,18,1,6,1,1,19,101,11
2,1,20,1,4,0,1,19,38,11
2,1,18,1,4,0,1,19,101,11
2,1,5,0,5,1,1,19,96,11
2,1,6,0,4,0,1,19,101,11
2,1,19,1,5,1,1,19,75,11
2,1,22,0,5,1,1,19,75,11
3,2,16,1,2,0,1,19,72,9
3,2,16,1,3,0,1,19,99,11
3,2,14,1,4,0,1,19,101,11
3,2,17,1,4,0,1,19,101,11
3,2,20,1,2,0,1,19,101,11
4,2,19,1,5,1,2,19,101,11
4,2,21,0,1,0,2,19,75,11
4,2,11,1,3,0,2,19,4,11
4,2,18,1,4,0,2,19,4,11
5,2,15,1,5,1,2,19,101,11
5,2,12,1,0,0,2,19,101,11
6,3,15,1,5,1,2,19,47,11
6,3,12,1,0,0,2,19,64,11
6,3,2,0,1,0,2,19,90,11
6,3,18,1,5,1,2,19,101,11
6,3,20,1,5,1,2,19,101,11
7,3,12,1,4,0,3,19,38,11
7,3,18,1,2,0,3,19,101,11
7,3,0,0,5,1,3,19,84,11
7,3,9,1,6,1,3,19,75,11
7,3,13,1,4,0,3,19,124,11
8,3,16,1,1,0,3,19,90,11
8,3,17,1,1,0,3,19,4,11
8,3,9,1,3,0,3,19,20,11
8,3,14,1,5,1,3,19,90,11
8,3,6,0,0,0,3,19,101,11
8,3,3,0,3,0,3,19,20,11
8,3,15,1,2,0,3,19,90,9
9,4,16,1,6,1,3,19,101,11
9,4,4,0,1,0,3,19,42,9
9,4,22,0,1,0,3,19,96,11
10,4,3,0,3,0,4,19,101,11
10,4,9,1,3,0,4,19,20,11
10,4,19,1,6,1,4,19,101,11
10,4,19,1,0,0,4,19,90,11
10,4,18,1,0,0,4,19,90,11
10,4,14,1,2,0,4,19,90,11
10,4,13,1,3,0,4,19,101,11
11,4,16,1,2,0,4,19,101,11
11,4,12,1,5,1,4,19,101,11
11,4,18,1,6,1,4,19,90,11
12,1,20,1,1,0,4,19,38,11
12,1,10,1,2,0,4,19,38,11
12,1,12,1,2,0,4,19,117,9
12,1,23,0,5,1,4,19,101,11
12,1,17,1,3,0,4,19,101,11
1,1,11,1,5,1,1,19,38,11
1,1,11,1,5,1,1,19,109,11
1,1,15,1,2,0,1,19,30,11
1,1,9,1,5,1,1,19,75,11
1,1,2,0,6,1,1,19,20,9
1,1,8,1,1,0,1,19,66,11
1,1,20,1,5,1,1,19,38,11
1,1,21,0,5,1,1,19,101,11
1,1,11,1,6,1,1,19,75,11
1,1,12,1,6,1,1,19,96,11
1,1,17,1,6,1,1,19,101,11
1,1,10,1,1,0,1,19,101,11
1,1,6,0,2,0,1,19,66,11
1,1,8,1,5,1,1,19,20,11
1,1,18,1,5,1,1,19,38,11
1,1,12,1,6,1,1,19,96,11
1,1,18,1,0,0,1,19,101,11
2,1,14,1,4,0,1,19,101,11
2,1,15,1,5,1,1,19,20,11
2,1,16,1,5,1,1,19,62,9
2,1,23,0,4,0,1,19,38,11
2,1,18,1,5,1,1,19,101,11
2,1,16,1,0,0,1,19,20,11
2,1,14,1,3,0,1,19,101,11
2,1,18,1,4,0,1,19,101,11
2,1,8,1,0,0,1,19,101,11
2,1,13,1,0,0,1,19,101,11
2,1,20,1,1,0,1,19,90,11
2,1,9,1,6,1,1,19,101,11
3,2,11,1,6,1,1,19,38,11
3,2,17,1,1,0,1,19,75,11
3,2,18,1,1,0,1,19,75,11
3,2,11,1,3,0,1,19,4,11
3,2,21,0,4,0,1,19,101,11
3,2,13,1,1,0,1,19,75,11
3,2,10,1,2,0,1,19,90,11
3,2,12,1,2,0,1,19,75,11
3,2,19,1,4,0,1,19,38,11
3,2,20,1,4,0,1,19,75,11
3,2,19,1,6,1,1,19,75,11
3,2,18,1,1,0,1,19,101,11
3,2,18,1,3,0,1,19,75,11
3,2,17,1,4,0,1,19,101,11
3,2,20,1,4,0,1,19,101,11
3,2,8,1,5,1,1,19,101,11
3,2,12,1,5,1,1,19,75,11
3,2,7,1,0,0,1,19,101,11
3,2,15,1,0,0,1,19,101,11
3,2,15,1,1,0,1,19,101,11
4,2,20,1,4,0,2,19,101,11
4,2,19,1,5,1,2,19,101,11
4,2,11,1,5,1,2,19,101,11
4,2,10,1,0,0,2,19,4,11
4,2,15,1,1,0,2,19,90,11
4,2,3,0,3,0,2,19,101,11
4,2,22,0,3,0,2,19,87,11
4,2,14,1,4,0,2,19,101,11
4,2,11,1,0,0,2,19,51,11
4,2,16,1,4,0,2,19,90,11
5,2,12,1,5,1,2,19,75,11
5,2,9,1,6,1,2,19,101,11
5,2,21,0,6,1,2,19,20,11
5,2,22,0,0,0,2,19,46,11
5,2,10,1,1,0,2,19,101,11
5,2,17,1,1,0,2,19,101,11
5,2,9,1,0,0,2,19,87,11
5,2,15,1,0,0,2,19,101,11
5,2,5,0,2,0,2,19,38,9
5,2,17,1,5,1,2,19,101,11
5,2,18,1,5,1,2,19,27,11
5,2,12,1,6,1,2,19,108,9
5,2,8,1,4,0,2,19,101,11
5,2,17,1,4,0,2,19,101,11
6,3,16,1,6,1,2,19,101,11
6,3,17,1,6,1,2,19,101,11
6,3,19,1,1,0,2,19,101,11
6,3,19,1,5,1,2,19,101,11
6,3,6,0,6,1,2,19,75,11
6,3,13,1,1,0,2,19,34,11
6,3,11,1,3,0,2,19,101,11
6,3,15,1,1,0,2,19,4,11
6,3,18,1,4,0,2,19,20,11
6,3,13,1,0,0,2,19,75,11
6,3,19,1,3,0,2,19,54,11
7,3,16,1,4,0,3,19,23,11
7,3,8,1,1,0,3,19,101,11
7,3,19,1,2,0,3,19,90,11
7,3,9,1,4,0,3,19,4,11
7,3,21,0,4,0,3,19,101,11
7,3,9,1,2,0,3,19,101,11
7,3,18,1,6,1,3,19,101,11
7,3,15,1,1,0,3,19,20,11
7,3,18,1,1,0,3,19,101,11
7,3,19,1,4,0,3,19,101,11
7,3,17,1,6,1,3,19,101,11
7,3,18,1,6,1,3,19,101,11
8,3,17,1,0,0,3,19,90,11
8,3,11,1,1,0,3,19,20,11
8,3,15,1,4,0,3,19,101,11
8,3,11,1,5,1,3,19,101,11
8,3,20,1,5,1,3,19,101,11
8,3,14,1,0,0,3,19,101,11
8,3,14,1,0,0,3,19,101,11
8,3,18,1,0,0,3,19,101,11
8,3,7,1,1,0,3,19,101,11
8,3,10,1,6,1,3,19,38,11
8,3,19,1,2,0,3,19,101,11
8,3,20,1,2,0,3,19,101,11
8,3,18,1,5,1,3,19,101,11
9,4,18,1,2,0,3,19,124,11
9,4,21,0,3,0,3,19,112,11
9,4,16,1,0,0,3,19,101,11
9,4,11,1,2,0,3,19,101,11
9,4,17,1,2,0,3,19,101,11
10,4,17,1,1,0,4,19,101,11
10,4,20,1,1,0,4,19,124,11
10,4,18,1,3,0,4,19,101,11
10,4,17,1,4,0,4,19,75,9
10,4,21,0,3,0,4,19,101,11
10,4,13,1,5,1,4,19,101,11
10,4,20,1,0,0,4,19,75,11
10,4,14,1,2,0,4,19,101,11
10,4,20,1,2,0,4,19,101,9
10,4,12,1,5,1,4,19,101,11
10,4,15,1,0,0,4,19,101,11
10,4,17,1,0,0,4,19,101,11
11,4,14,1,3,0,4,19,101,11
11,4,17,1,5,1,4,19,75,11
11,4,22,0,5,1,4,19,90,11
11,4,10,1,6,1,4,19,13,11
11,4,15,1,0,0,4,19,101,11
11,4,15,1,4,0,4,19,75,11
11,4,19,1,0,0,4,19,75,11
11,4,15,1,2,0,4,19,20,11
12,1,21,0,5,1,4,19,38,11
12,1,15,1,1,0,4,19,66,11
12,1,7,1,3,0,4,19,90,11
12,1,16,1,5,1,4,19,38,11
1,1,2,0,5,1,1,19,96,11
1,1,6,0,1,0,1,19,72,11
1,1,10,1,2,0,1,19,64,11
1,1,13,1,2,0,1,19,38,11
1,1,21,0,2,0,1,19,63,11
1,1,16,1,6,1,1,19,4,11
1,1,0,0,0,0,1,19,96,11
1,1,21,0,1,0,1,19,64,11
1,1,1,0,2,0,1,19,72,11
1,1,20,1,2,0,1,19,64,11
1,1,14,1,3,0,1,19,64,11
1,1,17,1,4,0,1,19,64,11
1,1,1,0,0,0,1,19,89,11
1,1,14,1,0,0,1,19,96,11
1,1,22,0,2,0,1,19,96,11
1,1,16,1,3,0,1,19,64,11
1,1,17,1,3,0,1,19,90,11
1,1,23,0,3,0,1,19,75,11
1,1,12,1,4,0,1,19,89,11
1,1,19,1,5,1,1,19,64,11
1,1,22,0,0,0,1,19,64,11
1,1,14,1,1,0,1,19,64,11
1,1,16,1,1,0,1,19,64,11
1,1,17,1,1,0,1,19,96,11
1,1,2,0,2,0,1,19,64,11
1,1,16,1,2,0,1,19,4,11
1,1,3,0,3,0,1,19,96,11
1,1,14,1,3,0,1,19,64,11
1,1,8,1,4,0,1,19,96,11
1,1,13,1,4,0,1,19,64,11
1,1,17,1,4,0,1,19,96,11
1,1,19,1,4,0,1,19,96,11
1,1,12,1,6,1,1,19,96,11
1,1,19,1,6,1,1,19,64,11
1,1,20,1,6,1,1,19,96,11
1,1,18,1,0,0,1,19,64,11
2,1,17,1,3,0,1,19,90,11
2,1,19,1,3,0,1,19,72,11
2,1,15,1,4,0,1,19,64,11
2,1,18,1,4,0,1,19,90,11
2,1,14,1,6,1,1,19,63,11
2,1,15,1,0,0,1,19,13,11
2,1,22,0,0,0,1,19,90,11
2,1,22,0,1,0,1,19,64,11
2,1,19,1,2,0,1,19,64,11
2,1,6,0,5,1,1,19,64,11
2,1,7,1,6,1,1,19,14,11
2,1,13,1,6,1,1,19,64,11
2,1,20,1,0,0,1,19,96,11
2,1,20,1,0,0,1,19,38,11
2,1,17,1,5,1,1,19,64,11
2,1,18,1,5,1,1,19,64,11
2,1,19,1,5,1,1,19,96,11
2,1,5,0,0,0,1,19,72,11
2,1,13,1,0,0,1,19,55,11
2,1,18,1,0,0,1,19,96,11
2,1,17,1,3,0,1,19,96,11
2,1,21,0,3,0,1,19,75,11
2,1,13,1,5,1,1,19,96,11
2,1,14,1,6,1,1,19,75,11
3,2,19,1,1,0,1,19,96,11
3,2,20,1,1,0,1,19,64,11
3,2,8,1,3,0,1,19,55,11
3,2,0,0,5,1,1,19,101,11
3,2,14,1,5,1,1,19,75,11
3,2,12,1,0,0,1,19,64,11
3,2,14,1,0,0,1,19,96,11
3,2,19,1,0,0,1,19,64,11
3,2,23,0,1,0,1,19,64,11
3,2,15,1,3,0,1,19,90,11
3,2,18,1,3,0,1,19,64,11
3,2,20,1,3,0,1,19,64,11
3,2,21,0,3,0,1,19,72,11
3,2,7,1,4,0,1,19,64,11
3,2,9,1,4,0,1,19,64,11
3,2,15,1,4,0,1,19,64,11
3,2,18,1,5,1,1,19,101,11
3,2,7,1,6,1,1,19,64,11
3,2,13,1,6,1,1,19,64,11
3,2,19,1,6,1,1,19,101,11
3,2,3,0,2,0,1,19,96,11
3,2,18,1,2,0,1,19,64,11
3,2,13,1,3,0,1,19,64,11
3,2,17,1,3,0,1,19,72,11
3,2,19,1,5,1,1,19,90,11
3,2,15,1,0,0,1,19,64,11
3,2,15,1,0,0,1,19,96,11
3,2,21,0,1,0,1,19,64,11
3,2,17,1,3,0,1,19,64,11
3,2,0,0,4,0,1,19,64,11
3,2,7,1,4,0,1,19,96,11
3,2,18,1,1,0,1,19,64,11
3,2,15,1,3,0,1,19,90,11
4,2,1,0,6,1,2,19,96,11
4,2,21,0,2,0,2,19,63,11
4,2,0,0,3,0,2,19,96,11
4,2,16,1,3,0,2,19,64,11
4,2,9,1,6,1,2,19,47,9
4,2,20,1,6,1,2,19,38,11
4,2,21,0,0,0,2,19,96,11
4,2,11,1,2,0,2,19,72,11
4,2,14,1,3,0,2,19,64,11
4,2,16,1,3,0,2,19,64,11
4,2,20,1,3,0,2,19,90,11
4,2,22,0,4,0,2,19,106,11
4,2,21,0,5,1,2,19,64,11
4,2,18,1,6,1,2,19,96,11
4,2,18,1,6,1,2,19,64,11
4,2,1,0,2,0,2,19,38,11
4,2,17,1,3,0,2,19,64,11
4,2,11,1,4,0,2,19,75,11
4,2,16,1,4,0,2,19,90,11
4,2,22,0,4,0,2,19,64,11
4,2,23,0,4,0,2,19,56,11
4,2,1,0,6,1,2,19,64,11
4,2,2,0,6,1,2,19,64,11
4,2,19,1,0,0,2,19,23,9
4,2,20,1,0,0,2,19,90,11
4,2,11,1,3,0,2,19,64,11
4,2,15,1,3,0,2,19,64,11
4,2,22,0,3,0,2,19,96,11
4,2,22,0,3,0,2,19,72,9
4,2,17,1,4,0,2,19,90,11
4,2,18,1,4,0,2,19,47,11
5,2,18,1,0,0,2,19,96,11
5,2,8,1,1,0,2,19,14,9
5,2,15,1,2,0,2,19,47,11
5,2,15,1,4,0,2,19,72,11
5,2,18,1,4,0,2,19,64,11
5,2,12,1,5,1,2,19,89,11
5,2,11,1,1,0,2,19,101,11
5,2,12,1,1,0,2,19,4,11
5,2,0,0,2,0,2,19,90,11
5,2,21,0,2,0,2,19,90,11
5,2,20,1,6,1,2,19,64,11
5,2,21,0,0,0,2,19,96,11
5,2,12,1,1,0,2,19,90,11
5,2,16,1,1,0,2,19,64,11
5,2,10,1,4,0,2,19,55,11
5,2,11,1,4,0,2,19,101,11
5,2,13,1,6,1,2,19,64,11
5,2,16,1,6,1,2,19,96,11
5,2,17,1,0,0,2,19,23,9
5,2,9,1,5,1,2,19,64,11
5,2,20,1,5,1,2,19,45,11
5,2,0,0,6,1,2,19,64,11
5,2,12,1,6,1,2,19,64,11
5,2,12,1,0,0,2,19,20,11
6,3,10,1,2,0,2,19,64,11
6,3,13,1,2,0,2,19,99,11
6,3,17,1,2,0,2,19,72,11
6,3,20,1,2,0,2,19,72,11
6,3,21,0,2,0,2,19,64,11
6,3,4,0,5,1,2,19,72,11
6,3,4,0,6,1,2,19,124,11
6,3,9,1,1,0,2,19,90,11
6,3,7,1,2,0,2,19,64,11
6,3,12,1,0,0,2,19,90,11
6,3,17,1,0,0,2,19,64,11
6,3,22,0,2,0,2,19,64,11
6,3,23,0,4,0,2,19,64,11
6,3,13,1,1,0,2,19,64,11
6,3,13,1,1,0,2,19,78,11
6,3,16,1,1,0,2,19,23,11
6,3,18,1,1,0,2,19,101,11
6,3,13,1,2,0,2,19,64,11
6,3,15,1,2,0,2,19,4,9
6,3,16,1,2,0,2,19,101,11
6,3,20,1,4,0,2,19,64,11
6,3,21,0,0,0,2,19,101,11
6,3,21,0,2,0,2,19,101,11
6,3,21,0,3,0,2,19,64,11
7,3,19,1,4,0,3,19,64,11
7,3,21,0,4,0,3,19,20,11
7,3,16,1,5,1,3,19,20,11
7,3,6,0,6,1,3,19,64,11
7,3,17,1,6,1,3,19,4,11
7,3,8,1,0,0,3,19,101,11
7,3,13,1,0,0,3,19,96,11
7,3,13,1,0,0,3,19,101,11
7,3,13,1,1,0,3,19,29,11
7,3,14,1,1,0,3,19,72,11
7,3,14,1,4,0,3,19,64,11
7,3,5,0,0,0,3,19,75,11
7,3,10,1,1,0,3,19,96,11
7,3,14,1,1,0,3,19,64,11
7,3,20,1,1,0,3,19,64,11
7,3,15,1,2,0,3,19,43,8
7,3,23,0,2,0,3,19,101,11
7,3,21,0,3,0,3,19,96,11
7,3,19,1,5,1,3,19,64,11
7,3,7,1,2,0,3,19,72,11
7,3,10,1,2,0,3,19,101,11
7,3,21,0,3,0,3,19,64,11
7,3,3,0,4,0,3,19,101,11
7,3,16,1,0,0,3,19,64,11
7,3,21,0,0,0,3,19,76,11
7,3,17,1,1,0,3,19,64,11
7,3,23,0,1,0,3,19,96,11
7,3,19,1,2,0,3,19,101,11
8,3,8,1,0,0,3,19,64,11
8,3,10,1,0,0,3,19,47,11
8,3,20,1,0,0,3,19,20,11
8,3,13,1,2,0,3,19,64,11
8,3,4,0,3,0,3,19,48,11
8,3,8,1,3,0,3,19,99,11
8,3,20,1,4,0,3,19,64,11
8,3,4,0,5,1,3,19,96,11
8,3,16,1,5,1,3,19,64,11
8,3,0,0,3,0,3,19,96,11
8,3,7,1,3,0,3,19,4,11
8,3,12,1,3,0,3,19,96,11
8,3,18,1,5,1,3,19,90,11
8,3,19,1,5,1,3,19,90,11
8,3,23,0,5,1,3,19,38,11
8,3,13,1,6,1,3,19,96,11
8,3,18,1,1,0,3,19,64,11
8,3,17,1,2,0,3,19,4,11
8,3,22,0,3,0,3,19,64,11
8,3,22,0,3,0,3,19,90,11
8,3,18,1,5,1,3,19,4,11
8,3,0,0,6,1,3,19,96,11
8,3,0,0,0,0,3,19,96,11
8,3,3,0,0,0,3,19,20,11
8,3,19,1,0,0,3,19,64,9
8,3,20,1,2,0,3,19,72,11
9,4,17,1,5,1,3,19,72,11
9,4,22,0,6,1,3,19,64,11
9,4,21,0,0,0,3,19,64,11
9,4,0,0,1,0,3,19,64,11
9,4,0,0,1,0,3,19,64,11
9,4,19,1,2,0,3,19,72,11
9,4,12,1,6,1,3,19,64,11
9,4,14,1,1,0,3,19,64,11
9,4,20,1,1,0,3,19,101,11
9,4,23,0,1,0,3,19,96,11
9,4,21,0,4,0,3,19,96,11
9,4,21,0,0,0,3,19,96,11
9,4,12,1,1,0,3,19,64,11
9,4,18,1,1,0,3,19,64,11
9,4,16,1,2,0,3,19,47,11
9,4,7,1,5,1,3,19,96,11
9,4,4,0,1,0,3,19,20,11
9,4,17,1,2,0,3,19,96,11
9,4,23,0,3,0,3,19,47,11
10,4,21,0,5,1,4,19,106,11
10,4,19,1,0,0,4,19,90,11
10,4,14,1,1,0,4,19,96,11
10,4,20,1,1,0,4,19,72,11
10,4,14,1,3,0,4,19,72,11
10,4,17,1,3,0,4,19,72,11
10,4,22,0,4,0,4,19,38,11
10,4,18,1,5,1,4,19,64,11
10,4,18,1,5,1,4,19,64,11
10,4,11,1,0,0,4,19,64,11
10,4,13,1,0,0,4,19,72,11
10,4,14,1,0,0,4,19,101,11
10,4,22,0,1,0,4,19,23,11
10,4,22,0,1,0,4,19,64,11
10,4,19,1,4,0,4,19,20,11
10,4,3,0,5,1,4,19,89,9
10,4,15,1,6,1,4,19,64,11
10,4,0,0,1,0,4,19,80,8
10,4,4,0,2,0,4,19,96,11
10,4,23,0,3,0,4,19,96,11
10,4,14,1,5,1,4,19,64,11
10,4,15,1,5,1,4,19,96,11
10,4,22,0,5,1,4,19,96,11
10,4,3,0,6,1,4,19,96,11
11,4,13,1,2,0,4,19,64,11
11,4,9,1,3,0,4,19,89,11
11,4,12,1,4,0,4,19,64,11
11,4,12,1,6,1,4,19,64,11
11,4,13,1,0,0,4,19,64,11
11,4,14,1,0,0,4,19,64,11
11,4,1,0,2,0,4,19,64,11
11,4,16,1,2,0,4,19,64,11
11,4,4,0,6,1,4,19,72,11
11,4,22,0,0,0,4,19,55,11
11,4,6,0,2,0,4,19,72,11
11,4,11,1,2,0,4,19,90,11
11,4,4,0,3,0,4,19,72,11
11,4,13,1,4,0,4,19,72,11
11,4,4,0,6,1,4,19,72,11
11,4,14,1,6,1,4,19,101,11
11,4,17,1,6,1,4,19,106,11
11,4,23,0,6,1,4,19,96,11
11,4,2,0,0,0,4,19,64,11
11,4,20,1,3,0,4,19,4,11
11,4,0,0,4,0,4,19,96,11
11,4,8,1,4,0,4,19,75,11
11,4,12,1,5,1,4,19,57,11
11,4,20,1,5,1,4,19,64,11
11,4,7,1,0,0,4,19,96,11
11,4,20,1,1,0,4,19,64,11
12,1,4,0,3,0,4,19,64,11
12,1,9,1,3,0,4,19,101,11
12,1,12,1,3,0,4,19,64,11
12,1,20,1,3,0,4,19,90,11
12,1,0,0,4,0,4,19,64,11
12,1,7,1,4,0,4,19,90,11
12,1,15,1,4,0,4,19,96,11
12,1,14,1,5,1,4,19,64,11
12,1,19,1,5,1,4,19,90,11
12,1,19,1,0,0,4,19,96,11
12,1,3,0,1,0,4,19,90,11
12,1,14,1,2,0,4,19,96,11
12,1,23,0,2,0,4,19,96,11
12,1,0,0,4,0,4,19,90,11
12,1,20,1,5,1,4,19,90,11
12,1,23,0,5,1,4,19,96,11
12,1,20,1,0,0,4,19,96,11
12,1,18,1,4,0,4,19,14,11
12,1,15,1,5,1,4,19,64,11
12,1,19,1,5,1,4,19,64,11
12,1,14,1,2,0,4,19,64,11
12,1,21,0,2,0,4,19,96,11
12,1,0,0,4,0,4,19,47,11
12,1,20,1,4,0,4,19,96,11
12,1,22,0,4,0,4,19,64,11
12,1,0,0,5,1,4,19,64,11
12,1,16,1,5,1,4,19,64,11
12,1,4,0,6,1,4,19,72,11
12,1,13,1,6,1,4,19,101,11
12,1,14,1,6,1,4,19,96,11
12,1,13,1,0,0,4,19,38,11
12,1,17,1,3,0,4,19,64,11
12,1,23,0,4,0,4,19,72,11
9,4,18,1,3,0,3,19,20,11
1,1,14,1,6,1,1,19,90,11
1,1,12,1,0,0,1,19,10,11
1,1,18,1,1,0,1,19,124,11
1,1,14,1,3,0,1,19,124,11
1,1,22,0,3,0,1,19,124,9
1,1,19,1,4,0,1,19,124,9
1,1,14,1,5,1,1,19,38,11
1,1,3,0,0,0,1,19,14,11
1,1,15,1,3,0,1,19,90,9
1,1,9,1,4,0,1,19,75,9
1,1,10,1,5,1,1,19,14,11
1,1,23,0,6,1,1,19,88,9
1,1,17,1,0,0,1,19,20,11
1,1,17,1,1,0,1,19,90,11
1,1,13,1,3,0,1,19,101,11
1,1,17,1,5,1,1,19,38,11
1,1,3,0,6,1,1,19,38,9
1,1,4,0,6,1,1,19,75,9
1,1,0,0,1,0,1,19,75,9
1,1,13,1,2,0,1,19,124,11
1,1,16,1,3,0,1,19,101,11
1,1,21,0,3,0,1,19,124,11
1,1,1,0,4,0,1,19,124,11
1,1,4,0,4,0,1,19,124,11
1,1,6,0,4,0,1,19,15,11
1,1,7,1,4,0,1,19,88,11
1,1,15,1,5,1,1,19,119,11
1,1,17,1,0,0,1,19,101,11
2,1,12,1,4,0,1,19,101,11
2,1,21,0,4,0,1,19,90,11
2,1,13,1,6,1,1,19,4,9
2,1,18,1,0,0,1,19,101,11
2,1,18,1,0,0,1,19,124,11
2,1,8,1,1,0,1,19,124,11
2,1,15,1,1,0,1,19,124,11
2,1,11,1,2,0,1,19,90,11
2,1,15,1,2,0,1,19,4,11
2,1,15,1,3,0,1,19,90,11
2,1,12,1,4,0,1,19,124,11
2,1,13,1,4,0,1,19,124,11
2,1,22,0,4,0,1,19,124,11
2,1,10,1,5,1,1,19,90,11
2,1,21,0,5,1,1,19,124,9
2,1,7,1,0,0,1,19,90,11
2,1,18,1,4,0,1,19,101,11
2,1,13,1,5,1,1,19,101,11
2,1,0,0,0,0,1,19,124,11
2,1,13,1,0,0,1,19,124,8
2,1,20,1,0,0,1,19,38,11
2,1,2,0,3,0,1,19,75,9
2,1,14,1,3,0,1,19,90,9
2,1,23,0,3,0,1,19,90,11
2,1,11,1,4,0,1,19,124,11
2,1,19,1,5,1,1,19,20,11
2,1,23,0,6,1,1,19,75,11
3,2,14,1,4,0,1,19,101,11
3,2,18,1,4,0,1,19,124,9
3,2,13,1,5,1,1,19,124,11
3,2,15,1,0,0,1,19,124,11
3,2,4,0,2,0,1,19,20,11
3,2,19,1,3,0,1,19,72,11
3,2,23,0,3,0,1,19,109,11
3,2,21,0,5,1,1,19,14,11
3,2,8,1,0,0,1,19,14,11
3,2,20,1,1,0,1,19,101,11
3,2,20,1,1,0,1,19,75,11
3,2,22,0,1,0,1,19,72,11
3,2,16,1,2,0,1,19,72,11
3,2,21,0,2,0,1,19,54,11
3,2,8,1,3,0,1,19,14,11
3,2,15,1,4,0,1,19,101,11
3,2,16,1,5,1,1,19,101,11
3,2,12,1,6,1,1,19,101,11
3,2,17,1,6,1,1,19,124,9
3,2,19,1,0,0,1,19,124,11
3,2,21,0,1,0,1,19,101,11
3,2,21,0,2,0,1,19,90,11
3,2,23,0,2,0,1,19,124,9
3,2,0,0,3,0,1,19,124,9
3,2,13,1,3,0,1,19,101,11
4,2,20,1,4,0,2,19,124,11
4,2,21,0,4,0,2,19,101,11
4,2,16,1,6,1,2,19,90,11
4,2,19,1,6,1,2,19,90,11
4,2,20,1,6,1,2,19,101,11
4,2,17,1,0,0,2,19,121,11
4,2,12,1,2,0,2,19,20,11
4,2,15,1,3,0,2,19,24,11
4,2,14,1,4,0,2,19,90,11
4,2,17,1,5,1,2,19,101,11
4,2,7,1,6,1,2,19,124,11
4,2,0,0,0,0,2,19,101,11
4,2,11,1,1,0,2,19,101,11
4,2,12,1,3,0,2,19,101,11
4,2,13,1,3,0,2,19,101,11
4,2,17,1,3,0,2,19,90,11
4,2,19,1,3,0,2,19,101,11
4,2,11,1,5,1,2,19,72,8
4,2,11,1,5,1,2,19,25,11
4,2,21,0,5,1,2,19,124,11
4,2,3,0,6,1,2,19,124,11
4,2,16,1,0,0,2,19,38,11
4,2,8,1,3,0,2,19,90,11
4,2,20,1,4,0,2,19,14,8
4,2,20,1,1,0,2,19,90,11
4,2,22,0,2,0,2,19,101,11
4,2,17,1,3,0,2,19,124,8
4,2,6,0,4,0,2,19,124,11
4,2,12,1,4,0,2,19,90,11
4,2,21,0,4,0,2,19,90,9
4,2,8,1,5,1,2,19,72,11
5,2,6,0,6,1,2,19,72,11
5,2,8,1,6,1,2,19,72,11
5,2,13,1,3,0,2,19,101,11
5,2,16,1,3,0,2,19,101,11
5,2,22,0,4,0,2,19,4,11
5,2,11,1,6,1,2,19,101,11
5,2,12,1,0,0,2,19,101,11
5,2,7,1,1,0,2,19,90,11
5,2,18,1,1,0,2,19,4,11
5,2,13,1,2,0,2,19,101,11
5,2,16,1,2,0,2,19,90,11
5,2,16,1,3,0,2,19,90,11
5,2,0,0,4,0,2,19,124,11
5,2,16,1,4,0,2,19,124,11
5,2,18,1,5,1,2,19,90,11
5,2,10,1,6,1,2,19,101,11
5,2,13,1,6,1,2,19,101,11
5,2,15,1,0,0,2,19,45,11
5,2,16,1,0,0,2,19,101,11
5,2,13,1,1,0,2,19,90,11
5,2,8,1,2,0,2,19,124,11
5,2,15,1,2,0,2,19,109,11
5,2,22,0,2,0,2,19,101,11
5,2,15,1,3,0,2,19,101,11
5,2,11,1,4,0,2,19,90,9
5,2,17,1,4,0,2,19,101,11
5,2,12,1,5,1,2,19,101,11
5,2,14,1,5,1,2,19,90,9
5,2,16,1,5,1,2,19,90,9
5,2,13,1,6,1,2,19,101,11
5,2,6,0,0,0,2,19,124,11
5,2,21,0,0,0,2,19,124,9
5,2,22,0,1,0,2,19,90,11
5,2,11,1,2,0,2,19,101,11
5,2,22,0,2,0,2,19,124,11
5,2,0,0,3,0,2,19,101,11
5,2,6,0,3,0,2,19,101,11
5,2,8,1,3,0,2,19,90,11
5,2,22,0,3,0,2,19,124,11
5,2,18,1,4,0,2,19,101,11
5,2,19,1,4,0,2,19,90,11
5,2,0,0,5,1,2,19,90,11
5,2,13,1,5,1,2,19,90,11
5,2,17,1,5,1,2,19,101,11
5,2,3,0,6,1,2,19,30,11
5,2,14,1,6,1,2,19,101,11
5,2,15,1,0,0,2,19,124,11
5,2,21,0,0,0,2,19,124,11
5,2,17,1,1,0,2,19,90,8
6,3,10,1,2,0,2,19,90,11
6,3,17,1,2,0,2,19,101,9
6,3,20,1,2,0,2,19,101,11
6,3,17,1,3,0,2,19,101,11
6,3,0,0,4,0,2,19,124,11
6,3,23,0,4,0,2,19,101,11
6,3,21,0,5,1,2,19,124,11
6,3,6,0,6,1,2,19,124,9
6,3,10,1,6,1,2,19,101,11
6,3,23,0,6,1,2,19,101,11
6,3,16,1,0,0,2,19,101,11
6,3,10,1,1,0,2,19,72,9
6,3,9,1,2,0,2,19,124,11
6,3,17,1,2,0,2,19,124,11
6,3,18,1,5,1,2,19,90,11
6,3,15,1,0,0,2,19,54,11
6,3,9,1,1,0,2,19,124,11
6,3,2,0,3,0,2,19,75,11
6,3,21,0,3,0,2,19,101,11
6,3,11,1,5,1,2,19,124,11
6,3,15,1,0,0,2,19,20,11
6,3,18,1,0,0,2,19,75,11
6,3,20,1,0,0,2,19,124,11
6,3,20,1,1,0,2,19,90,11
6,3,15,1,2,0,2,19,101,8
6,3,20,1,2,0,2,19,4,11
6,3,15,1,3,0,2,19,4,11
7,3,2,0,4,0,3,19,124,11
7,3,20,1,4,0,3,19,101,11
7,3,22,0,4,0,3,19,13,9
7,3,16,1,5,1,3,19,4,11
7,3,19,1,5,1,3,19,101,11
7,3,18,1,6,1,3,19,22,11
7,3,18,1,0,0,3,19,90,9
7,3,10,1,3,0,3,19,101,9
7,3,22,0,3,0,3,19,101,11
7,3,0,0,4,0,3,19,101,11
7,3,4,0,1,0,3,19,90,11
7,3,13,1,2,0,3,19,101,11
7,3,19,1,2,0,3,19,101,11
7,3,20,1,4,0,3,19,101,11
7,3,16,1,6,1,3,19,4,9
7,3,18,1,6,1,3,19,87,11
7,3,5,0,0,0,3,19,121,11
7,3,9,1,0,0,3,19,101,11
7,3,17,1,0,0,3,19,90,8
7,3,14,1,2,0,3,19,101,11
7,3,20,1,4,0,3,19,101,11
7,3,4,0,5,1,3,19,90,9
7,3,13,1,5,1,3,19,101,11
7,3,15,1,5,1,3,19,101,11
7,3,19,1,5,1,3,19,90,11
7,3,1,0,0,0,3,19,90,11
7,3,21,0,1,0,3,19,90,11
7,3,10,1,4,0,3,19,124,11
7,3,19,1,5,1,3,19,75,11
7,3,1,0,6,1,3,19,88,11
7,3,13,1,6,1,3,19,124,9
7,3,19,1,6,1,3,19,4,11
8,3,11,1,0,0,3,19,101,9
8,3,3,0,1,0,3,19,101,11
8,3,18,1,2,0,3,19,90,11
8,3,9,1,3,0,3,19,23,11
8,3,11,1,3,0,3,19,90,8
8,3,21,0,3,0,3,19,124,11
8,3,2,0,4,0,3,19,124,11
8,3,1,0,6,1,3,19,101,11
8,3,10,1,0,0,3,19,124,11
8,3,12,1,0,0,3,19,101,11
8,3,17,1,3,0,3,19,90,9
8,3,21,0,3,0,3,19,75,11
8,3,11,1,4,0,3,19,109,11
8,3,14,1,1,0,3,19,90,11
8,3,21,0,2,0,3,19,124,11
8,3,17,1,3,0,3,19,101,9
8,3,21,0,4,0,3,19,90,11
8,3,1,0,5,1,3,19,101,11
8,3,14,1,5,1,3,19,124,11
8,3,22,0,0,0,3,19,90,11
8,3,22,0,6,1,3,19,14,11
8,3,2,0,2,0,3,19,72,11
9,4,10,1,6,1,3,19,61,11
9,4,20,1,6,1,3,19,101,11
9,4,17,1,2,0,3,19,14,11
9,4,10,1,3,0,3,19,101,11
9,4,18,1,5,1,3,19,124,11
9,4,18,1,0,0,3,19,90,11
9,4,22,0,0,0,3,19,23,11
9,4,12,1,1,0,3,19,90,8
9,4,18,1,2,0,3,19,101,11
9,4,3,0,6,1,3,19,14,11
9,4,12,1,6,1,3,19,90,11
9,4,11,1,2,0,3,19,101,11
9,4,20,1,2,0,3,19,101,11
9,4,1,0,5,1,3,19,101,9
9,4,13,1,6,1,3,19,90,11
9,4,3,0,0,0,3,19,72,11
9,4,12,1,0,0,3,19,101,9
9,4,22,0,1,0,3,19,90,11
9,4,16,1,3,0,3,19,45,9
10,4,12,1,5,1,4,19,90,11
10,4,18,1,5,1,4,19,1,11
10,4,20,1,5,1,4,19,45,11
10,4,12,1,6,1,4,19,45,9
10,4,21,0,6,1,4,19,101,11
10,4,14,1,1,0,4,19,72,9
10,4,7,1,3,0,4,19,124,11
10,4,13,1,3,0,4,19,124,11
10,4,12,1,4,0,4,19,101,9
10,4,14,1,5,1,4,19,101,11
10,4,16,1,5,1,4,19,124,9
10,4,11,1,6,1,4,19,124,11
10,4,3,0,1,0,4,19,124,11
10,4,14,1,1,0,4,19,90,9
10,4,9,1,2,0,4,19,101,11
10,4,9,1,4,0,4,19,101,11
10,4,19,1,1,0,4,19,72,11
10,4,21,0,1,0,4,19,124,9
10,4,0,0,2,0,4,19,63,11
10,4,11,1,2,0,4,19,90,11
10,4,13,1,2,0,4,19,72,11
10,4,1,0,6,1,4,19,72,11
10,4,16,1,6,1,4,19,72,11
10,4,23,0,0,0,4,19,23,8
10,4,11,1,1,0,4,19,124,11
10,4,9,1,2,0,4,19,124,11
10,4,14,1,2,0,4,19,101,11
10,4,14,1,0,0,4,19,101,11
11,4,21,0,1,0,4,19,90,11
11,4,16,1,3,0,4,19,101,11
11,4,20,1,4,0,4,19,101,11
11,4,10,1,5,1,4,19,124,11
11,4,22,0,0,0,4,19,124,11
11,4,17,1,2,0,4,19,124,11
11,4,17,1,2,0,4,19,101,11
11,4,16,1,5,1,4,19,101,11
11,4,9,1,6,1,4,19,75,11
11,4,12,1,1,0,4,19,90,9
11,4,17,1,1,0,4,19,124,11
11,4,17,1,5,1,4,19,101,11
11,4,14,1,6,1,4,19,90,11
11,4,15,1,6,1,4,19,4,11
11,4,17,1,6,1,4,19,64,11
11,4,1,0,2,0,4,19,20,11
11,4,9,1,2,0,4,19,82,11
12,1,16,1,1,0,4,19,88,9
12,1,19,1,2,0,4,19,90,11
12,1,16,1,4,0,4,19,88,11
12,1,6,0,0,0,4,19,88,11
12,1,15,1,5,1,4,19,124,11
12,1,18,1,5,1,4,19,124,11
12,1,16,1,0,0,4,19,90,11
12,1,0,0,3,0,4,19,72,11
12,1,19,1,3,0,4,19,75,11
12,1,19,1,0,0,4,19,124,11
12,1,15,1,1,0,4,19,90,11
12,1,12,1,4,0,4,19,75,11
1,1,3,0,5,1,1,19,75,11
1,1,7,1,5,1,1,19,20,11
1,1,11,1,5,1,1,19,47,11
1,1,14,1,1,0,1,19,90,11
1,1,9,1,2,0,1,19,90,11
1,1,17,1,2,0,1,19,4,11
1,1,19,1,2,0,1,19,101,11
1,1,11,1,5,1,1,19,38,11
1,1,14,1,6,1,1,19,101,11
1,1,14,1,4,0,1,19,75,11
1,1,12,1,0,0,1,19,101,11
2,1,20,1,3,0,1,19,124,11
2,1,8,1,6,1,1,19,124,11
2,1,21,0,1,0,1,19,64,8
2,1,17,1,5,1,1,19,4,11
2,1,18,1,6,1,1,19,75,11
2,1,10,1,0,0,1,19,75,11
2,1,19,1,1,0,1,19,38,11
2,1,18,1,4,0,1,19,90,11
2,1,19,1,4,0,1,19,75,11
2,1,21,0,4,0,1,19,64,11
2,1,22,0,4,0,1,19,4,11
2,1,10,1,3,0,1,19,101,11
3,2,22,0,2,0,1,19,38,11
3,2,6,0,6,1,1,19,4,11
3,2,3,0,0,0,1,19,38,11
3,2,16,1,0,0,1,19,14,9
3,2,17,1,3,0,1,19,124,9
4,2,18,1,5,1,2,19,90,11
4,2,18,1,1,0,2,19,4,11
4,2,10,1,3,0,2,19,20,11
4,2,15,1,6,1,2,19,90,11
4,2,21,0,6,1,2,19,90,11
4,2,20,1,2,0,2,19,64,11
4,2,22,0,2,0,2,19,64,11
4,2,22,0,3,0,2,19,116,11
4,2,0,0,4,0,2,19,20,11
4,2,11,1,1,0,2,19,101,11
4,2,10,1,6,1,2,19,4,11
5,2,16,1,0,0,2,19,101,11
5,2,12,1,6,1,2,19,89,11
5,2,11,1,0,0,2,19,75,11
5,2,9,1,2,0,2,19,75,9
5,2,13,1,2,0,2,19,4,11
5,2,18,1,2,0,2,19,4,11
5,2,11,1,3,0,2,19,90,11
5,2,12,1,3,0,2,19,72,11
5,2,11,1,6,1,2,19,90,11
5,2,15,1,6,1,2,19,90,11
5,2,16,1,0,0,2,19,20,11
5,2,12,1,1,0,2,19,4,11
6,3,10,1,2,0,2,19,90,11
6,3,18,1,3,0,2,19,90,11
6,3,15,1,4,0,2,19,4,11
6,3,17,1,0,0,2,19,4,11
6,3,12,1,2,0,2,19,64,11
6,3,15,1,2,0,2,19,4,11
6,3,17,1,2,0,2,19,4,11
6,3,18,1,2,0,2,19,101,11
6,3,19,1,2,0,2,19,72,11
6,3,21,0,2,0,2,19,4,11
6,3,13,1,3,0,2,19,101,11
6,3,20,1,5,1,2,19,101,11
6,3,20,1,1,0,2,19,90,9
6,3,17,1,3,0,2,19,101,8
6,3,18,1,3,0,2,19,101,9
6,3,16,1,4,0,2,19,90,11
6,3,21,0,4,0,2,19,90,11
6,3,23,0,6,1,2,19,20,11
6,3,0,0,2,0,2,19,90,11
6,3,17,1,3,0,2,19,90,11
6,3,19,1,3,0,2,19,64,11
7,3,20,1,6,1,3,19,9,11
7,3,8,1,1,0,3,19,90,11
7,3,13,1,1,0,3,19,90,9
7,3,13,1,3,0,3,19,62,9
7,3,8,1,4,0,3,19,75,11
7,3,16,1,0,0,3,19,90,9
7,3,12,1,2,0,3,19,4,9
7,3,10,1,3,0,3,19,90,11
7,3,19,1,3,0,3,19,20,11
7,3,11,1,4,0,3,19,20,11
7,3,12,1,0,0,3,19,56,11
8,3,7,1,0,0,3,19,90,11
8,3,13,1,0,0,3,19,90,11
8,3,18,1,3,0,3,19,4,11
8,3,0,0,5,1,3,19,4,11
8,3,20,1,6,1,3,19,90,11
8,3,18,1,2,0,3,19,4,11
8,3,22,0,2,0,3,19,101,11
8,3,8,1,3,0,3,19,90,11
8,3,18,1,5,1,3,19,90,11
8,3,23,0,5,1,3,19,124,11
8,3,7,1,6,1,3,19,4,11
8,3,18,1,0,0,3,19,121,11
8,3,14,1,1,0,3,19,88,9
8,3,21,0,2,0,3,19,89,11
8,3,18,1,3,0,3,19,4,11
8,3,16,1,1,0,3,19,4,9
8,3,17,1,1,0,3,19,4,9
9,4,13,1,4,0,3,19,89,11
9,4,7,1,0,0,3,19,89,9
9,4,20,1,0,0,3,19,90,11
9,4,16,1,6,1,3,19,4,8
9,4,14,1,0,0,3,19,88,11
9,4,18,1,1,0,3,19,90,11
9,4,8,1,4,0,3,19,88,11
9,4,17,1,4,0,3,19,90,11
9,4,23,0,4,0,3,19,4,11
9,4,12,1,5,1,3,19,90,11
9,4,8,1,1,0,3,19,90,11
9,4,20,1,1,0,3,19,90,11
9,4,23,0,1,0,3,19,90,11
9,4,16,1,3,0,3,19,4,9
9,4,16,1,3,0,3,19,4,11
9,4,20,1,3,0,3,19,90,11
9,4,9,1,4,0,3,19,90,11
9,4,16,1,4,0,3,19,4,9
10,4,15,1,6,1,4,19,90,9
10,4,18,1,0,0,4,19,90,8
10,4,20,1,3,0,4,19,89,9
10,4,20,1,5,1,4,19,90,11
10,4,17,1,0,0,4,19,90,11
10,4,14,1,6,1,4,19,90,11
10,4,18,1,6,1,4,19,4,11
10,4,14,1,1,0,4,19,4,11
10,4,18,1,1,0,4,19,4,11
10,4,11,1,3,0,4,19,4,11
10,4,9,1,0,0,4,19,90,11
10,4,19,1,0,0,4,19,90,11
10,4,21,0,3,0,4,19,90,11
10,4,21,0,5,1,4,19,75,9
11,4,13,1,2,0,4,19,45,11
11,4,18,1,5,1,4,19,90,8
11,4,22,0,5,1,4,19,21,11
11,4,18,1,1,0,4,19,4,11
11,4,20,1,0,0,4,19,4,11
11,4,10,1,5,1,4,19,20,11
11,4,19,1,1,0,4,19,90,11
11,4,17,1,3,0,4,19,90,9
11,4,11,1,5,1,4,19,4,11
11,4,20,1,6,1,4,19,75,11
11,4,21,0,6,1,4,19,4,11
11,4,12,1,0,0,4,19,14,11
12,1,12,1,5,1,4,19,90,11
12,1,14,1,6,1,4,19,30,11
12,1,16,1,1,0,4,19,101,11
12,1,1,0,1,0,4,19,88,11
12,1,20,1,1,0,4,19,89,9
12,1,8,1,2,0,4,19,90,9
12,1,17,1,4,0,4,19,88,11
12,1,12,1,6,1,4,19,4,9
1,1,15,1,1,0,1,44,20,11
1,1,13,1,3,0,1,44,38,11
1,1,0,0,6,1,1,44,20,11
1,1,15,1,5,1,1,44,96,11
1,1,12,1,1,0,1,44,101,11
1,1,16,1,2,0,1,44,96,11
1,1,4,0,0,0,1,44,20,11
1,1,9,1,1,0,1,44,38,11
1,1,12,1,3,0,1,44,64,11
1,1,15,1,4,0,1,44,25,11
1,1,10,1,6,1,1,44,75,11
2,1,0,0,2,0,1,44,64,11
2,1,15,1,1,0,1,44,101,11
2,1,13,1,4,0,1,44,88,11
2,1,15,1,4,0,1,44,88,11
2,1,16,1,5,1,1,44,64,11
2,1,18,1,0,0,1,44,23,11
2,1,20,1,1,0,1,44,101,11
2,1,20,1,2,0,1,44,96,11
2,1,21,0,3,0,1,44,96,11
2,1,19,1,5,1,1,44,101,11
3,2,23,0,1,0,1,44,75,11
3,2,16,1,3,0,1,44,21,11
3,2,18,1,3,0,1,44,20,11
3,2,19,1,3,0,1,44,101,11
3,2,0,0,5,1,1,44,64,11
3,2,14,1,6,1,1,44,75,11
3,2,17,1,1,0,1,44,101,11
3,2,13,1,2,0,1,44,101,11
3,2,17,1,2,0,1,44,101,11
3,2,14,1,1,0,1,44,101,11
3,2,20,1,1,0,1,44,101,11
3,2,10,1,2,0,1,44,101,11
3,2,12,1,2,0,1,44,101,11
3,2,21,0,2,0,1,44,101,11
3,2,18,1,3,0,1,44,101,11
3,2,12,1,4,0,1,44,101,11
3,2,12,1,4,0,1,44,101,11
3,2,15,1,5,1,1,44,101,11
3,2,11,1,2,0,1,44,90,11
4,2,1,0,6,1,2,44,75,11
4,2,10,1,4,0,2,44,101,11
4,2,13,1,4,0,2,44,4,11
4,2,12,1,1,0,2,44,90,11
4,2,18,1,1,0,2,44,101,11
4,2,23,0,6,1,2,44,101,11
4,2,11,1,3,0,2,44,20,11
4,2,17,1,4,0,2,44,75,11
4,2,11,1,5,1,2,44,47,11
5,2,12,1,1,0,2,44,4,11
5,2,14,1,3,0,2,44,101,11
5,2,11,1,4,0,2,44,101,11
5,2,13,1,4,0,2,44,101,11
5,2,16,1,4,0,2,44,25,11
5,2,16,1,5,1,2,44,101,11
5,2,17,1,2,0,2,44,90,11
5,2,12,1,4,0,2,44,90,11
5,2,7,1,5,1,2,44,43,11
5,2,14,1,5,1,2,44,101,11
6,3,5,0,3,0,2,44,96,11
6,3,23,0,3,0,2,44,75,11
6,3,12,1,4,0,2,44,101,11
6,3,16,1,5,1,2,44,90,11
6,3,17,1,5,1,2,44,101,11
6,3,16,1,6,1,2,44,101,11
6,3,0,0,5,1,2,44,101,11
6,3,15,1,0,0,2,44,4,11
6,3,14,1,2,0,2,44,101,11
6,3,12,1,3,0,2,44,90,11
6,3,20,1,4,0,2,44,14,11
6,3,20,1,0,0,2,44,101,11
7,3,13,1,5,1,3,44,25,11
7,3,18,1,6,1,3,44,20,11
7,3,20,1,6,1,3,44,62,11
7,3,20,1,0,0,3,44,124,11
7,3,19,1,1,0,3,44,101,11
7,3,18,1,3,0,3,44,101,11
7,3,17,1,2,0,3,44,101,11
7,3,23,0,2,0,3,44,101,11
7,3,21,0,3,0,3,44,101,11
7,3,12,1,4,0,3,44,101,11
7,3,7,1,5,1,3,44,72,11
7,3,12,1,1,0,3,44,20,11
7,3,19,1,2,0,3,44,101,11
7,3,20,1,2,0,3,44,101,11
7,3,15,1,3,0,3,44,88,11
7,3,18,1,5,1,3,44,101,11
7,3,19,1,5,1,3,44,89,11
7,3,20,1,6,1,3,44,101,11
8,3,10,1,5,1,3,44,101,11
8,3,13,1,0,0,3,44,101,11
8,3,11,1,1,0,3,44,101,11
8,3,13,1,6,1,3,44,109,11
8,3,20,1,4,0,3,44,101,11
8,3,3,0,6,1,3,44,109,11
8,3,17,1,0,0,3,44,101,11
8,3,0,0,1,0,3,44,109,11
8,3,12,1,0,0,3,44,101,11
9,4,20,1,6,1,3,44,101,11
9,4,11,1,0,0,3,44,101,11
9,4,11,1,0,0,3,44,101,11
9,4,18,1,0,0,3,44,90,11
9,4,2,0,2,0,3,44,15,11
9,4,1,0,5,1,3,44,124,11
9,4,12,1,0,0,3,44,75,11
9,4,19,1,6,1,3,44,101,11
9,4,20,1,6,1,3,44,101,11
9,4,11,1,2,0,3,44,20,11
9,4,19,1,2,0,3,44,101,11
9,4,14,1,3,0,3,44,101,11
9,4,19,1,3,0,3,44,101,11
10,4,16,1,6,1,4,44,23,9
10,4,15,1,0,0,4,44,90,11
10,4,12,1,1,0,4,44,101,11
10,4,13,1,1,0,4,44,96,11
10,4,20,1,1,0,4,44,101,11
10,4,14,1,2,0,4,44,101,11
10,4,14,1,4,0,4,44,101,11
10,4,15,1,6,1,4,44,63,11
10,4,19,1,6,1,4,44,101,11
10,4,18,1,5,1,4,44,90,11
10,4,10,1,0,0,4,44,101,11
10,4,10,1,4,0,4,44,101,11
10,4,13,1,5,1,4,44,101,11
10,4,15,1,6,1,4,44,101,11
10,4,16,1,6,1,4,44,90,11
10,4,12,1,1,0,4,44,90,11
10,4,22,0,2,0,4,44,20,11
10,4,13,1,3,0,4,44,64,11
10,4,21,0,3,0,4,44,101,11
10,4,17,1,6,1,4,44,101,11
10,4,17,1,0,0,4,44,4,11
10,4,18,1,0,0,4,44,101,11
11,4,18,1,1,0,4,44,101,11
11,4,14,1,2,0,4,44,4,11
11,4,14,1,2,0,4,44,101,11
11,4,15,1,3,0,4,44,101,11
11,4,16,1,3,0,4,44,101,11
11,4,16,1,3,0,4,44,4,11
11,4,18,1,3,0,4,44,101,11
11,4,15,1,4,0,4,44,101,11
11,4,15,1,4,0,4,44,4,11
11,4,17,1,4,0,4,44,101,11
11,4,8,1,2,0,4,44,4,11
11,4,17,1,2,0,4,44,4,11
11,4,11,1,3,0,4,44,75,11
11,4,11,1,3,0,4,44,13,11
11,4,22,0,2,0,4,44,64,9
11,4,16,1,4,0,4,44,45,11
11,4,19,1,1,0,4,44,20,11
11,4,14,1,2,0,4,44,64,11
11,4,13,1,4,0,4,44,101,11
11,4,22,0,6,1,4,44,96,11
12,1,23,0,6,1,4,44,64,11
1,1,21,0,6,1,1,44,75,11
1,1,13,1,6,1,1,44,4,11
2,1,13,1,4,0,1,44,88,11
2,1,19,1,4,0,1,44,101,11
3,2,21,0,1,0,1,44,14,11
3,2,10,1,0,0,1,44,75,11
3,2,23,0,6,1,1,44,88,11
3,2,21,0,1,0,1,44,101,11
3,2,19,1,3,0,1,44,20,11
3,2,19,1,4,0,1,44,101,11
3,2,21,0,6,1,1,44,38,11
4,2,16,1,0,0,2,44,101,11
4,2,14,1,2,0,2,44,96,11
4,2,19,1,3,0,2,44,4,11
5,2,17,1,0,0,2,44,55,11
5,2,1,0,2,0,2,44,45,9
5,2,19,1,5,1,2,44,4,11
6,3,21,0,2,0,2,44,4,11
6,3,15,1,6,1,2,44,101,11
6,3,10,1,5,1,2,44,101,11
6,3,5,0,2,0,2,44,116,11
6,3,20,1,3,0,2,44,101,11
7,3,19,1,6,1,3,44,79,8
7,3,12,1,3,0,3,44,101,11
7,3,14,1,3,0,3,44,101,11
7,3,14,1,4,0,3,44,21,11
7,3,14,1,0,0,3,44,101,11
7,3,13,1,1,0,3,44,101,11
7,3,14,1,4,0,3,44,101,11
8,3,22,0,0,0,3,44,101,11
8,3,10,1,3,0,3,44,101,11
8,3,21,0,2,0,3,44,109,11
9,4,11,1,0,0,3,44,101,11
9,4,14,1,4,0,3,44,4,11
9,4,18,1,4,0,3,44,25,11
10,4,12,1,3,0,4,44,101,11
10,4,13,1,3,0,4,44,101,11
10,4,18,1,0,0,4,44,4,11
10,4,17,1,2,0,4,44,101,11
11,4,18,1,1,0,4,44,101,11
11,4,17,1,2,0,4,44,101,11
11,4,12,1,3,0,4,44,101,11
11,4,14,1,3,0,4,44,101,11
11,4,18,1,3,0,4,44,101,11
11,4,21,0,5,1,4,44,101,11
11,4,4,0,6,1,4,44,109,11
11,4,19,1,4,0,4,44,101,11
11,4,23,0,6,1,4,44,75,11
11,4,14,1,2,0,4,44,21,11
12,1,0,0,1,0,4,44,72,11
12,1,3,0,3,0,4,44,20,11
1,1,20,1,5,1,1,44,101,11
1,1,8,1,6,1,1,44,101,11
1,1,18,1,5,1,1,44,4,11
1,1,18,1,2,0,1,44,101,11
1,1,10,1,4,0,1,44,64,11
1,1,12,1,6,1,1,44,111,11
1,1,14,1,4,0,1,44,4,11
1,1,16,1,0,0,1,44,4,11
2,1,18,1,6,1,1,44,101,11
2,1,18,1,1,0,1,44,66,11
2,1,12,1,4,0,1,44,101,11
2,1,14,1,6,1,1,44,101,11
2,1,17,1,6,1,1,44,101,11
2,1,20,1,1,0,1,44,101,11
2,1,16,1,3,0,1,44,101,11
2,1,19,1,3,0,1,44,101,11
2,1,13,1,4,0,1,44,101,11
2,1,18,1,4,0,1,44,88,11
2,1,10,1,6,1,1,44,101,11
3,2,15,1,3,0,1,44,54,11
3,2,18,1,1,0,1,44,101,11
3,2,18,1,0,0,1,44,101,11
3,2,23,0,1,0,1,44,90,11
3,2,15,1,2,0,1,44,101,11
3,2,19,1,3,0,1,44,101,11
3,2,17,1,4,0,1,44,75,9
3,2,23,0,4,0,1,44,90,9
3,2,18,1,6,1,1,44,101,11
3,2,13,1,0,0,1,44,101,11
3,2,16,1,1,0,1,44,101,11
3,2,19,1,1,0,1,44,101,11
4,2,12,1,2,0,2,44,101,11
4,2,19,1,6,1,2,44,20,11
4,2,21,0,1,0,2,44,4,11
4,2,11,1,5,1,2,44,4,11
5,2,12,1,3,0,2,44,101,11
5,2,17,1,3,0,2,44,101,11
5,2,13,1,4,0,2,44,4,11
5,2,9,1,6,1,2,44,4,11
5,2,2,0,1,0,2,44,88,11
5,2,15,1,2,0,2,44,4,11
5,2,13,1,3,0,2,44,90,11
5,2,18,1,6,1,2,44,101,11
5,2,10,1,5,1,2,44,101,11
5,2,18,1,0,0,2,44,21,11
5,2,12,1,1,0,2,44,64,11
6,3,12,1,4,0,2,44,101,11
6,3,17,1,4,0,2,44,101,11
6,3,16,1,0,0,2,44,109,11
6,3,8,1,2,0,2,44,4,11
6,3,13,1,5,1,2,44,4,11
6,3,18,1,0,0,2,44,90,11
6,3,19,1,2,0,2,44,4,11
6,3,19,1,2,0,2,44,4,11
6,3,19,1,4,0,2,44,124,11
6,3,11,1,5,1,2,44,20,11
6,3,0,0,2,0,2,44,109,11
6,3,21,0,2,0,2,44,124,11
6,3,13,1,3,0,2,44,101,11
7,3,22,0,0,0,3,44,4,11
7,3,16,1,1,0,3,44,101,11
7,3,10,1,6,1,3,44,75,11
7,3,11,1,1,0,3,44,4,11
7,3,12,1,2,0,3,44,111,11
7,3,14,1,2,0,3,44,101,11
7,3,19,1,5,1,3,44,101,11
7,3,0,0,1,0,3,44,101,11
7,3,12,1,0,0,3,44,66,11
7,3,13,1,0,0,3,44,75,11
7,3,7,1,3,0,3,44,90,11
7,3,21,0,4,0,3,44,101,11
8,3,16,1,0,0,3,44,101,11
8,3,20,1,1,0,3,44,101,11
8,3,23,0,4,0,3,44,101,11
8,3,14,1,2,0,3,44,101,11
8,3,3,0,5,1,3,44,90,11
8,3,1,0,6,1,3,44,9,11
8,3,18,1,2,0,3,44,4,11
8,3,11,1,3,0,3,44,20,11
9,4,16,1,4,0,3,44,101,11
9,4,17,1,1,0,3,44,101,11
9,4,14,1,3,0,3,44,101,11
9,4,9,1,6,1,3,44,101,11
9,4,15,1,6,1,3,44,25,11
9,4,15,1,4,0,3,44,25,11
9,4,18,1,4,0,3,44,90,11
10,4,15,1,1,0,4,44,101,11
10,4,19,1,1,0,4,44,101,11
10,4,19,1,6,1,4,44,96,11
10,4,13,1,0,0,4,44,101,11
10,4,17,1,1,0,4,44,101,11
11,4,15,1,2,0,4,44,4,11
11,4,15,1,2,0,4,44,4,11
11,4,10,1,3,0,4,44,4,11
11,4,18,1,0,0,4,44,101,11
12,1,18,1,6,1,4,44,38,9
12,1,0,0,3,0,4,44,75,9
12,1,17,1,1,0,4,44,72,11
12,1,10,1,1,0,4,44,72,11
12,1,12,1,2,0,4,44,75,11
1,1,10,1,4,0,1,44,75,11
1,1,9,1,1,0,1,44,23,11
1,1,11,1,1,0,1,44,75,11
1,1,0,0,4,0,1,44,75,11
2,1,14,1,5,1,1,44,25,11
2,1,12,1,4,0,1,44,101,11
2,1,17,1,6,1,1,44,101,11
2,1,21,0,3,0,1,44,57,11
3,2,16,1,2,0,1,44,101,11
3,2,18,1,3,0,1,44,101,11
3,2,10,1,4,0,1,44,101,11
3,2,16,1,4,0,1,44,101,11
3,2,19,1,0,0,1,44,101,11
4,2,13,1,0,0,2,44,4,11
4,2,15,1,1,0,2,44,101,11
4,2,20,1,5,1,2,44,4,11
5,2,20,1,0,0,2,44,124,11
5,2,19,1,4,0,2,44,25,11
6,3,12,1,6,1,2,44,4,11
7,3,14,1,3,0,3,44,101,11
7,3,19,1,6,1,3,44,75,11
7,3,9,1,0,0,3,44,101,11
7,3,19,1,3,0,3,44,109,11
8,3,18,1,0,0,3,44,4,11
9,4,11,1,1,0,3,44,75,11
9,4,12,1,2,0,3,44,101,11
9,4,16,1,2,0,3,44,101,11
10,4,9,1,0,0,4,44,90,11
10,4,17,1,0,0,4,44,101,11
11,4,16,1,2,0,4,44,101,11
1,1,18,1,6,1,1,44,75,11
1,1,11,1,4,0,1,44,75,11
1,1,8,1,0,0,1,44,75,9
2,1,19,1,5,1,1,44,90,11
2,1,16,1,0,0,1,44,101,11
3,2,20,1,4,0,1,44,4,11
3,2,8,1,3,0,1,44,101,11
3,2,19,1,4,0,1,44,101,11
3,2,15,1,6,1,1,44,62,11
3,2,16,1,6,1,1,44,101,11
4,2,22,0,2,0,2,44,75,11
5,2,17,1,1,0,2,44,4,11
5,2,14,1,4,0,2,44,101,11
6,3,9,1,0,0,2,44,109,11
6,3,10,1,5,1,2,44,75,11
7,3,9,1,3,0,3,44,20,11
7,3,8,1,6,1,3,44,38,11
8,3,13,1,1,0,3,44,75,11
8,3,10,1,2,0,3,44,101,11
8,3,7,1,1,0,3,44,109,11
8,3,2,0,1,0,3,44,101,11
10,4,18,1,4,0,4,44,101,11
10,4,16,1,0,0,4,44,20,11
10,4,20,1,1,0,4,44,20,11
10,4,16,1,0,0,4,44,101,11
11,4,14,1,2,0,4,44,4,11
11,4,16,1,2,0,4,44,4,11
11,4,7,1,4,0,4,44,101,11
11,4,17,1,4,0,4,44,90,11
1,1,15,1,4,0,1,44,4,11
2,1,21,0,3,0,1,44,38,11
3,2,11,1,1,0,1,44,101,11
3,2,19,1,5,1,1,44,75,11
4,2,1,0,5,1,2,44,101,11
5,2,14,1,4,0,2,44,101,11
6,3,9,1,4,0,2,44,88,11
6,3,19,1,6,1,2,44,88,11
6,3,17,1,1,0,2,44,20,11
7,3,15,1,2,0,3,44,25,11
8,3,18,1,0,0,3,44,38,11
8,3,17,1,0,0,3,44,101,11
8,3,18,1,3,0,3,44,75,9
8,3,23,0,5,1,3,44,88,11
8,3,21,0,2,0,3,44,109,11
9,4,11,1,3,0,3,44,38,11
9,4,18,1,4,0,3,44,88,11
9,4,15,1,0,0,3,44,101,11
10,4,19,1,5,1,4,44,101,11
10,4,12,1,3,0,4,44,4,11
10,4,20,1,5,1,4,44,101,11
10,4,15,1,3,0,4,44,21,11
11,4,12,1,2,0,4,44,4,11
11,4,14,1,2,0,4,44,27,11
11,4,17,1,1,0,4,44,101,11
12,1,23,0,6,1,4,44,13,8
12,1,21,0,2,0,4,44,13,9
1,1,16,1,3,0,1,49,124,11
1,1,0,0,3,0,1,49,124,11
1,1,21,0,3,0,1,49,124,11
1,1,23,0,6,1,1,49,14,11
1,1,19,1,0,0,1,49,75,9
2,1,11,1,6,1,1,49,13,11
2,1,10,1,6,1,1,49,109,11
2,1,21,0,0,0,1,49,38,11
4,2,12,1,4,0,2,49,64,11
4,2,19,1,0,0,2,49,38,11
4,2,7,1,6,1,2,49,76,11
4,2,16,1,0,0,2,49,38,11
5,2,17,1,3,0,2,49,101,11
5,2,11,1,5,1,2,49,47,11
6,3,16,1,2,0,2,49,90,11
6,3,14,1,4,0,2,49,109,11
6,3,14,1,6,1,2,49,90,11
6,3,16,1,4,0,2,49,20,11
6,3,12,1,4,0,2,49,90,9
6,3,12,1,1,0,2,49,20,11
7,3,1,0,1,0,3,49,85,11
7,3,19,1,1,0,3,49,90,11
7,3,14,1,6,1,3,49,84,11
8,3,12,1,6,1,3,49,90,11
8,3,20,1,4,0,3,49,90,11
8,3,8,1,1,0,3,49,61,11
8,3,12,1,1,0,3,49,20,11
8,3,20,1,5,1,3,49,38,11
8,3,13,1,1,0,3,49,20,11
9,4,6,0,0,0,3,49,13,11
9,4,19,1,0,0,3,49,101,11
9,4,20,1,3,0,3,49,20,9
10,4,23,0,6,1,4,49,90,11
10,4,9,1,3,0,4,49,20,11
11,4,21,0,5,1,4,49,75,11
11,4,10,1,6,1,4,49,101,11
11,4,23,0,4,0,4,49,15,11
11,4,5,0,6,1,4,49,75,8
11,4,0,0,0,0,4,49,20,11
12,1,14,1,6,1,4,49,38,11
1,1,19,1,6,1,1,49,38,9
6,3,5,0,5,1,2,49,14,9
10,4,4,0,1,0,4,49,14,11
1,1,2,0,6,1,1,49,20,11
1,1,12,1,3,0,1,49,75,11
1,1,20,1,5,1,1,49,89,11
2,1,16,1,4,0,1,49,14,11
2,1,21,0,3,0,1,49,124,11
2,1,4,0,4,0,1,49,38,11
2,1,16,1,6,1,1,49,101,11
2,1,16,1,6,1,1,49,101,11
3,2,19,1,2,0,1,49,96,11
3,2,15,1,1,0,1,49,1,11
3,2,18,1,1,0,1,49,124,11
3,2,16,1,2,0,1,49,90,11
5,2,15,1,1,0,2,49,90,11
5,2,21,0,3,0,2,49,101,11
5,2,16,1,1,0,2,49,90,11
6,3,12,1,2,0,2,49,101,11
6,3,17,1,4,0,2,49,109,11
6,3,13,1,2,0,2,49,38,11
7,3,13,1,0,0,3,49,84,11
7,3,20,1,6,1,3,49,20,11
8,3,20,1,3,0,3,49,20,11
8,3,1,0,4,0,3,49,116,11
8,3,11,1,2,0,3,49,89,9
10,4,18,1,5,1,4,49,57,9
11,4,18,1,2,0,4,49,109,11
12,1,17,1,6,1,4,49,101,11
1,1,5,0,0,0,1,49,104,9
1,1,20,1,6,1,1,49,90,11
2,1,2,0,5,1,1,49,57,9
2,1,21,0,5,1,1,49,75,11
2,1,11,1,2,0,1,49,124,11
2,1,14,1,6,1,1,49,90,11
3,2,16,1,3,0,1,49,90,11
3,2,12,1,4,0,1,49,75,11
3,2,12,1,0,0,1,49,75,11
3,2,13,1,4,0,1,49,75,11
3,2,16,1,3,0,1,49,124,11
3,2,15,1,5,1,1,49,75,11
3,2,10,1,2,0,1,49,63,11
4,2,15,1,6,1,2,49,90,11
4,2,13,1,0,0,2,49,90,9
4,2,10,1,6,1,2,49,90,11
4,2,21,0,2,0,2,49,38,11
4,2,13,1,5,1,2,49,101,11
4,2,13,1,6,1,2,49,101,11
5,2,2,0,5,1,2,49,55,11
5,2,19,1,5,1,2,49,90,11
5,2,20,1,0,0,2,49,101,11
5,2,15,1,3,0,2,49,90,11
6,3,2,0,6,1,2,49,124,11
6,3,22,0,3,0,2,49,90,11
6,3,20,1,4,0,2,49,25,11
6,3,15,1,5,1,2,49,101,11
7,3,18,1,6,1,3,49,101,11
7,3,23,0,6,1,3,49,101,11
7,3,11,1,3,0,3,49,90,11
7,3,23,0,5,1,3,49,38,11
7,3,9,1,5,1,3,49,90,11
7,3,16,1,5,1,3,49,78,11
7,3,18,1,5,1,3,49,20,11
7,3,17,1,6,1,3,49,101,9
7,3,7,1,3,0,3,49,20,11
7,3,22,0,6,1,3,49,20,11
8,3,11,1,0,0,3,49,90,11
8,3,12,1,0,0,3,49,90,11
8,3,12,1,3,0,3,49,64,11
8,3,20,1,3,0,3,49,38,11
8,3,1,0,6,1,3,49,20,11
8,3,10,1,3,0,3,49,64,11
9,4,12,1,2,0,3,49,20,9
10,4,11,1,4,0,4,49,101,11
10,4,10,1,6,1,4,49,101,11
10,4,13,1,3,0,4,49,90,11
10,4,18,1,3,0,4,49,38,11
11,4,15,1,6,1,4,49,20,11
11,4,19,1,5,1,4,49,90,11
11,4,14,1,6,1,4,49,38,9
11,4,18,1,6,1,4,49,101,11
12,1,18,1,0,0,4,49,101,11
12,1,2,0,6,1,4,49,90,11
12,1,12,1,1,0,4,49,101,11
1,1,12,1,1,0,1,49,109,11
1,1,9,1,2,0,1,49,66,11
1,1,11,1,0,0,1,49,64,11
2,1,19,1,3,0,1,49,109,11
2,1,5,0,6,1,1,49,75,11
3,2,16,1,4,0,1,49,38,11
3,2,16,1,4,0,1,49,101,11
3,2,12,1,5,1,1,49,108,9
4,2,11,1,5,1,2,49,101,11
4,2,10,1,6,1,2,49,14,11
5,2,10,1,6,1,2,49,90,11
5,2,22,0,2,0,2,49,109,11
7,3,6,0,6,1,3,49,109,11
7,3,2,0,0,0,3,49,101,11
8,3,16,1,3,0,3,49,90,11
8,3,3,0,5,1,3,49,90,11
9,4,11,1,4,0,3,49,38,11
9,4,9,1,6,1,3,49,84,11
10,4,23,0,1,0,4,49,38,11
12,1,17,1,6,1,4,49,64,11
1,1,17,1,5,1,1,49,75,11
2,1,7,1,1,0,1,49,124,11
3,2,14,1,1,0,1,49,101,11
4,2,15,1,5,1,2,49,101,11
4,2,17,1,2,0,2,49,101,11
5,2,18,1,3,0,2,49,109,11
5,2,12,1,1,0,2,49,109,11
7,3,12,1,6,1,3,49,20,11
8,3,12,1,3,0,3,49,90,11
8,3,6,0,4,0,3,49,1,11
8,3,14,1,2,0,3,49,90,11
9,4,14,1,5,1,3,49,75,8
10,4,15,1,6,1,4,49,75,11
11,4,16,1,0,0,4,49,101,11
1,1,12,1,5,1,1,26,101,11
1,1,16,1,2,0,1,26,64,8
1,1,11,1,3,0,1,26,75,11
1,1,19,1,3,0,1,26,101,11
1,1,22,0,2,0,1,26,64,11
1,1,12,1,6,1,1,26,75,11
1,1,18,1,0,0,1,26,96,11
1,1,17,1,6,1,1,26,14,11
2,1,12,1,2,0,1,26,64,11
2,1,13,1,3,0,1,26,75,9
2,1,23,0,5,1,1,26,96,11
2,1,8,1,1,0,1,26,75,11
2,1,15,1,0,0,1,26,45,11
2,1,11,1,1,0,1,26,96,11
2,1,14,1,1,0,1,26,101,11
2,1,15,1,3,0,1,26,101,11
2,1,6,0,4,0,1,26,75,8
3,2,2,0,2,0,1,26,20,8
3,2,16,1,3,0,1,26,96,11
3,2,14,1,1,0,1,26,90,11
3,2,20,1,4,0,1,26,64,11
3,2,15,1,2,0,1,26,90,11
4,2,16,1,6,1,2,26,96,11
4,2,12,1,1,0,2,26,14,11
4,2,14,1,2,0,2,26,101,11
4,2,12,1,5,1,2,26,14,11
4,2,10,1,5,1,2,26,90,11
5,2,9,1,1,0,2,26,75,9
5,2,23,0,4,0,2,26,101,11
5,2,13,1,0,0,2,26,64,11
5,2,17,1,6,1,2,26,93,8
6,3,15,1,3,0,2,26,101,11
6,3,16,1,5,1,2,26,90,11
6,3,12,1,6,1,2,26,90,11
6,3,18,1,0,0,2,26,101,11
6,3,16,1,4,0,2,26,109,11
6,3,16,1,5,1,2,26,90,11
6,3,3,0,6,1,2,26,88,11
6,3,7,1,4,0,2,26,90,11
6,3,10,1,6,1,2,26,90,11
6,3,15,1,2,0,2,26,90,11
6,3,12,1,1,0,2,26,13,9
6,3,22,0,2,0,2,26,101,11
7,3,13,1,4,0,3,26,25,8
7,3,20,1,6,1,3,26,109,11
7,3,13,1,1,0,3,26,101,11
8,3,17,1,0,0,3,26,64,11
8,3,8,1,6,1,3,26,64,11
8,3,12,1,5,1,3,26,88,11
8,3,16,1,6,1,3,26,96,11
9,4,1,0,6,1,3,26,75,11
9,4,10,1,3,0,3,26,90,8
10,4,20,1,5,1,4,26,21,11
10,4,5,0,6,1,4,26,64,11
10,4,3,0,0,0,4,26,72,11
10,4,22,0,4,0,4,26,4,11
10,4,0,0,1,0,4,26,38,11
10,4,16,1,1,0,4,26,4,11
10,4,12,1,4,0,4,26,64,11
10,4,8,1,5,1,4,26,90,11
10,4,14,1,5,1,4,26,90,11
10,4,12,1,1,0,4,26,90,11
10,4,8,1,0,0,4,26,101,11
11,4,12,1,2,0,4,26,90,11
11,4,12,1,3,0,4,26,101,11
11,4,10,1,5,1,4,26,20,11
11,4,15,1,3,0,4,26,72,11
11,4,2,0,4,0,4,26,75,8
11,4,15,1,6,1,4,26,64,11
11,4,15,1,4,0,4,26,14,11
12,1,15,1,5,1,4,26,75,11
12,1,1,0,6,1,4,26,14,11
12,1,18,1,3,0,4,26,75,11
1,1,15,1,6,1,1,26,14,11
4,2,10,1,5,1,2,26,75,11
4,2,3,0,1,0,2,26,96,11
6,3,7,1,5,1,2,26,101,11
7,3,18,1,4,0,3,26,109,11
7,3,16,1,6,1,3,26,84,9
7,3,18,1,6,1,3,26,81,11
7,3,19,1,3,0,3,26,90,11
7,3,14,1,5,1,3,26,75,11
12,1,11,1,5,1,4,26,90,11
1,1,18,1,5,1,1,26,124,11
1,1,5,0,6,1,1,26,45,11
3,2,11,1,4,0,1,26,75,11
3,2,15,1,2,0,1,26,101,11
4,2,20,1,4,0,2,26,45,11
5,2,16,1,5,1,2,26,90,11
6,3,16,1,1,0,2,26,21,11
6,3,11,1,6,1,2,26,14,11
6,3,15,1,6,1,2,26,101,11
7,3,4,0,6,1,3,26,115,11
7,3,17,1,3,0,3,26,101,11
8,3,20,1,1,0,3,26,101,11
8,3,17,1,0,0,3,26,101,11
9,4,18,1,5,1,3,26,75,11
10,4,12,1,0,0,4,26,101,11
12,1,18,1,6,1,4,26,124,11
1,1,19,1,0,0,1,26,66,11
1,1,13,1,5,1,1,26,90,11
1,1,0,0,6,1,1,26,9,11
2,1,13,1,4,0,1,26,90,11
3,2,20,1,3,0,1,26,90,11
4,2,17,1,2,0,2,26,96,11
8,3,20,1,0,0,3,26,90,11
10,4,12,1,5,1,4,26,90,11
10,4,2,0,6,1,4,26,25,11
11,4,19,1,0,0,4,26,25,11
12,1,21,0,6,1,4,26,109,11
1,1,14,1,3,0,1,38,124,11
1,1,18,1,4,0,1,38,13,11
1,1,14,1,5,1,1,38,75,11
1,1,8,1,3,0,1,38,38,11
1,1,16,1,3,0,1,38,38,11
1,1,15,1,4,0,1,38,101,11
1,1,17,1,4,0,1,38,101,11
1,1,19,1,4,0,1,38,101,11
1,1,1,0,5,1,1,38,64,11
1,1,11,1,5,1,1,38,96,11
1,1,18,1,0,0,1,38,64,11
1,1,19,1,0,0,1,38,96,11
1,1,9,1,1,0,1,38,124,11
1,1,18,1,2,0,1,38,38,11
1,1,9,1,6,1,1,38,88,11
1,1,15,1,0,0,1,38,88,11
2,1,13,1,1,0,1,38,38,11
2,1,9,1,3,0,1,38,13,11
2,1,12,1,5,1,1,38,90,9
2,1,19,1,5,1,1,38,101,11
2,1,9,1,1,0,1,38,38,11
2,1,16,1,1,0,1,38,124,9
2,1,21,0,1,0,1,38,75,11
2,1,10,1,5,1,1,38,64,11
2,1,16,1,6,1,1,38,64,11
2,1,16,1,6,1,1,38,101,11
2,1,16,1,3,0,1,38,38,11
2,1,22,0,3,0,1,38,88,11
3,2,13,1,5,1,1,38,124,11
3,2,11,1,6,1,1,38,75,11
3,2,9,1,2,0,1,38,64,11
3,2,10,1,4,0,1,38,101,11
3,2,8,1,5,1,1,38,88,11
3,2,9,1,5,1,1,38,4,11
3,2,8,1,2,0,1,38,124,11
4,2,4,0,6,1,2,38,14,11
4,2,11,1,0,0,2,38,101,11
4,2,12,1,1,0,2,38,124,11
4,2,12,1,3,0,2,38,124,11
4,2,17,1,5,1,2,38,23,11
4,2,13,1,2,0,2,38,101,11
4,2,19,1,2,0,2,38,101,11
5,2,15,1,2,0,2,38,55,11
5,2,13,1,0,0,2,38,101,11
5,2,10,1,3,0,2,38,90,11
5,2,15,1,5,1,2,38,90,11
5,2,15,1,6,1,2,38,4,11
5,2,19,1,4,0,2,38,90,11
5,2,6,0,6,1,2,38,20,11
5,2,14,1,1,0,2,38,101,11
5,2,12,1,6,1,2,38,64,11
6,3,7,1,2,0,2,38,109,11
6,3,12,1,4,0,2,38,101,11
6,3,2,0,5,1,2,38,101,11
6,3,8,1,1,0,2,38,75,11
6,3,8,1,4,0,2,38,101,11
6,3,8,1,4,0,2,38,55,11
7,3,8,1,4,0,3,38,20,11
7,3,20,1,5,1,3,38,101,11
7,3,9,1,5,1,3,38,90,11
7,3,12,1,4,0,3,38,64,11
7,3,0,0,0,0,3,38,108,9
7,3,7,1,4,0,3,38,40,11
8,3,19,1,2,0,3,38,90,11
8,3,16,1,5,1,3,38,64,11
8,3,23,0,1,0,3,38,101,11
8,3,17,1,2,0,3,38,64,11
8,3,14,1,3,0,3,38,124,11
8,3,13,1,6,1,3,38,20,11
8,3,16,1,6,1,3,38,109,11
8,3,21,0,6,1,3,38,101,11
8,3,18,1,2,0,3,38,101,11
9,4,13,1,6,1,3,38,101,11
9,4,11,1,5,1,3,38,101,11
9,4,20,1,3,0,3,38,38,11
10,4,14,1,0,0,4,38,64,11
10,4,13,1,2,0,4,38,90,11
10,4,11,1,6,1,4,38,101,11
10,4,14,1,6,1,4,38,101,11
10,4,20,1,6,1,4,38,101,11
10,4,8,1,1,0,4,38,63,11
10,4,19,1,1,0,4,38,101,11
10,4,15,1,4,0,4,38,101,11
11,4,8,1,6,1,4,38,112,8
11,4,16,1,2,0,4,38,124,11
12,1,23,0,1,0,4,38,90,9
12,1,23,0,1,0,4,38,84,11
1,1,16,1,5,1,1,38,96,11
1,1,21,0,4,0,1,38,96,11
1,1,14,1,3,0,1,38,75,11
1,1,9,1,6,1,1,38,101,11
1,1,16,1,6,1,1,19,20,11
1,1,23,0,6,1,1,38,90,11
1,1,7,1,1,0,1,38,38,8
1,1,22,0,2,0,1,38,96,11
1,1,17,1,4,0,1,38,101,11
1,1,11,1,6,1,1,38,38,11
2,1,20,1,4,0,1,38,75,11
2,1,12,1,6,1,1,38,101,11
2,1,10,1,1,0,1,19,101,11
2,1,15,1,3,0,1,38,75,11
2,1,13,1,5,1,1,38,101,11
2,1,23,0,5,1,1,38,96,11
2,1,15,1,5,1,1,38,101,11
2,1,16,1,2,0,1,38,101,11
2,1,18,1,4,0,1,38,101,11
2,1,10,1,0,0,1,38,75,11
3,2,19,1,5,1,1,38,96,11
3,2,19,1,0,0,1,38,38,11
3,2,20,1,5,1,1,38,96,11
3,2,12,1,3,0,1,38,90,11
3,2,19,1,2,0,1,38,101,11
3,2,6,0,6,1,1,38,75,11
3,2,19,1,1,0,1,38,90,11
3,2,13,1,2,0,1,38,38,11
4,2,14,1,0,0,2,38,101,11
4,2,14,1,3,0,2,38,75,11
4,2,21,0,0,0,2,38,101,11
4,2,20,1,1,0,2,38,112,8
4,2,14,1,2,0,2,38,101,11
4,2,1,0,1,0,2,38,101,11
4,2,6,0,2,0,2,38,38,11
4,2,0,0,3,0,2,38,88,11
4,2,10,1,4,0,2,38,101,11
4,2,18,1,4,0,2,38,101,11
4,2,23,0,5,1,2,38,101,11
5,2,15,1,2,0,2,38,14,11
5,2,14,1,1,0,2,38,101,11
5,2,13,1,4,0,2,38,101,11
5,2,16,1,4,0,2,38,20,11
5,2,9,1,5,1,2,38,101,11
5,2,2,0,6,1,2,38,101,11
5,2,15,1,6,1,2,38,75,11
5,2,13,1,0,0,2,38,101,11
5,2,16,1,0,0,2,38,101,11
5,2,12,1,4,0,2,38,101,11
5,2,16,1,4,0,2,19,101,11
5,2,9,1,6,1,2,38,90,11
5,2,17,1,6,1,2,38,101,11
5,2,20,1,2,0,2,38,101,11
5,2,0,0,3,0,2,38,101,11
5,2,12,1,3,0,2,38,90,11
5,2,13,1,3,0,2,19,101,11
5,2,12,1,0,0,2,19,101,11
6,3,2,0,5,1,2,38,96,11
6,3,17,1,6,1,2,38,101,11
6,3,16,1,2,0,2,38,4,11
6,3,13,1,4,0,2,38,101,11
6,3,6,0,6,1,2,38,96,11
7,3,13,1,6,1,3,38,101,11
7,3,1,0,4,0,3,38,90,11
7,3,15,1,6,1,3,38,90,11
7,3,11,1,1,0,3,38,90,11
7,3,12,1,1,0,3,38,101,11
7,3,17,1,5,1,3,38,23,11
7,3,7,1,3,0,3,38,4,11
7,3,14,1,3,0,3,38,20,11
7,3,22,0,5,1,3,38,101,11
7,3,8,1,6,1,3,38,124,11
7,3,21,0,6,1,3,38,101,11
8,3,14,1,1,0,3,38,101,11
8,3,0,0,3,0,3,38,109,11
8,3,21,0,4,0,3,38,101,11
8,3,19,1,1,0,3,19,62,8
8,3,13,1,2,0,3,19,101,11
8,3,3,0,6,1,3,38,21,11
8,3,13,1,2,0,3,38,75,11
8,3,0,0,3,0,3,38,101,11
8,3,22,0,4,0,3,38,101,11
8,3,9,1,6,1,3,38,101,11
8,3,14,1,0,0,3,38,101,11
8,3,12,1,1,0,3,19,101,11
9,4,11,1,2,0,3,38,121,11
9,4,19,1,4,0,3,38,101,11
9,4,12,1,0,0,3,38,25,11
9,4,19,1,2,0,3,38,4,11
9,4,11,1,4,0,3,38,101,11
9,4,14,1,4,0,3,38,90,11
10,4,10,1,6,1,4,38,64,11
10,4,11,1,6,1,4,38,109,11
10,4,16,1,1,0,4,38,101,11
10,4,17,1,2,0,4,38,75,9
10,4,14,1,4,0,4,38,72,11
10,4,16,1,5,1,4,38,96,11
10,4,18,1,5,1,4,38,101,11
10,4,9,1,0,0,4,19,75,8
10,4,17,1,2,0,4,38,101,11
10,4,15,1,4,0,4,38,109,11
10,4,0,0,0,0,4,38,96,11
10,4,0,0,3,0,4,19,75,9
10,4,12,1,0,0,4,38,101,11
10,4,17,1,1,0,4,19,25,11
10,4,19,1,5,1,4,38,75,11
10,4,7,1,0,0,4,38,4,11
11,4,19,1,5,1,4,38,4,11
11,4,22,0,6,1,4,19,101,11
11,4,12,1,2,0,4,38,72,11
11,4,21,0,4,0,4,19,101,11
11,4,9,1,3,0,4,38,64,11
11,4,18,1,1,0,4,38,20,11
12,1,1,0,6,1,4,38,88,11
12,1,18,1,2,0,4,19,88,11
12,1,20,1,2,0,4,38,88,11
12,1,22,0,6,1,4,38,96,11
12,1,1,0,5,1,4,19,96,11
12,1,8,1,5,1,4,38,90,11
12,1,14,1,5,1,4,38,90,11
12,1,5,0,2,0,4,19,88,11
2,1,18,1,5,1,1,38,101,11
4,2,12,1,6,1,2,19,101,11
6,3,16,1,2,0,2,19,101,11
8,3,14,1,2,0,3,19,101,11
8,3,10,1,2,0,3,19,4,11
12,1,23,0,4,0,4,19,96,11
1,1,19,1,1,0,1,38,90,11
1,1,19,1,4,0,1,38,75,11
1,1,20,1,6,1,1,38,88,11
1,1,14,1,2,0,1,38,88,11
1,1,12,1,4,0,1,38,88,11
2,1,10,1,1,0,1,38,38,9
2,1,10,1,1,0,1,38,66,11
2,1,21,0,1,0,1,38,75,11
2,1,19,1,0,0,1,38,38,11
2,1,0,0,5,1,1,38,75,11
2,1,21,0,4,0,1,38,88,11
3,2,11,1,1,0,1,38,38,9
3,2,14,1,0,0,1,38,75,11
4,2,16,1,2,0,2,38,107,11
4,2,2,0,6,1,2,38,88,11
4,2,20,1,3,0,2,38,75,11
4,2,0,0,6,1,2,38,88,11
4,2,4,0,6,1,2,38,75,11
6,3,18,1,0,0,2,38,14,11
6,3,6,0,1,0,2,38,90,11
7,3,14,1,1,0,3,38,54,11
7,3,11,1,2,0,3,38,54,11
7,3,12,1,6,1,3,38,101,11
7,3,23,0,6,1,3,38,88,11
7,3,13,1,6,1,3,38,101,11
7,3,16,1,6,1,3,38,54,11
8,3,16,1,2,0,3,38,88,11
8,3,12,1,1,0,3,38,101,11
8,3,20,1,1,0,3,38,88,11
8,3,17,1,4,0,3,38,54,11
8,3,12,1,0,0,3,38,54,11
9,4,2,0,3,0,3,38,55,11
9,4,12,1,4,0,3,38,88,11
9,4,13,1,4,0,3,38,88,11
9,4,15,1,1,0,3,38,54,11
9,4,17,1,4,0,3,38,88,11
9,4,0,0,3,0,3,38,64,11
10,4,15,1,0,0,4,38,88,11
10,4,14,1,3,0,4,38,38,8
10,4,19,1,3,0,4,38,88,11
10,4,18,1,5,1,4,38,90,11
10,4,4,0,6,1,4,38,88,11
10,4,16,1,1,0,4,38,101,11
10,4,19,1,2,0,4,38,101,11
10,4,19,1,3,0,4,38,88,11
10,4,16,1,5,1,4,38,4,11
11,4,14,1,2,0,4,38,101,11
11,4,16,1,4,0,4,38,90,11
11,4,17,1,6,1,4,38,109,11
11,4,8,1,4,0,4,38,21,11
11,4,17,1,4,0,4,38,88,11
11,4,3,0,5,1,4,38,88,11
11,4,19,1,5,1,4,38,88,11
11,4,20,1,6,1,4,38,88,11
12,1,8,1,6,1,4,38,88,11
12,1,23,0,6,1,4,38,101,11
1,1,14,1,2,0,1,16,26,11
1,1,6,0,3,0,1,16,64,11
1,1,15,1,1,0,1,16,38,11
1,1,22,0,1,0,1,16,64,11
1,1,18,1,4,0,1,16,64,11
1,1,10,1,6,1,1,16,72,11
1,1,13,1,2,0,1,16,90,11
1,1,17,1,2,0,1,16,72,11
1,1,17,1,3,0,1,16,64,11
1,1,9,1,5,1,1,16,88,11
1,1,13,1,5,1,1,16,38,11
1,1,18,1,6,1,1,16,68,11
2,1,19,1,1,0,1,16,13,11
2,1,20,1,2,0,1,16,64,11
2,1,14,1,5,1,1,16,72,11
2,1,20,1,5,1,1,16,64,11
2,1,9,1,3,0,1,16,38,11
2,1,11,1,4,0,1,16,88,11
2,1,13,1,4,0,1,16,4,11
2,1,17,1,5,1,1,16,101,11
2,1,16,1,6,1,1,16,101,11
2,1,15,1,4,0,1,16,101,11
3,2,14,1,1,0,1,16,64,11
3,2,12,1,2,0,1,16,75,8
3,2,21,0,2,0,1,16,64,11
3,2,12,1,5,1,1,16,64,11
3,2,15,1,5,1,1,16,13,11
3,2,14,1,1,0,1,16,75,9
3,2,18,1,2,0,1,16,23,9
3,2,15,1,5,1,1,16,20,11
3,2,17,1,4,0,1,16,101,11
3,2,9,1,5,1,1,16,20,11
3,2,21,0,0,0,1,16,101,11
4,2,23,0,5,1,2,16,64,11
4,2,23,0,3,0,2,16,88,11
4,2,12,1,1,0,2,16,101,11
5,2,12,1,0,0,2,16,88,11
5,2,20,1,5,1,2,16,75,11
5,2,20,1,1,0,2,16,55,11
5,2,2,0,3,0,2,16,38,11
5,2,14,1,4,0,2,16,26,11
5,2,15,1,0,0,2,16,20,11
5,2,14,1,1,0,2,16,38,11
6,3,16,1,5,1,2,16,101,11
6,3,16,1,6,1,2,16,4,11
6,3,17,1,0,0,2,16,90,11
6,3,19,1,6,1,2,16,47,11
6,3,17,1,4,0,2,16,101,11
6,3,10,1,5,1,2,16,38,9
6,3,17,1,6,1,2,16,101,11
6,3,19,1,3,0,2,16,90,11
7,3,14,1,6,1,3,16,1,11
7,3,18,1,3,0,3,16,101,11
7,3,18,1,5,1,3,16,101,11
7,3,13,1,1,0,3,16,20,11
7,3,21,0,1,0,3,16,108,11
7,3,18,1,2,0,3,16,101,11
7,3,13,1,5,1,3,16,20,11
8,3,17,1,0,0,3,16,102,9
8,3,3,0,5,1,3,16,75,8
8,3,11,1,5,1,3,16,20,11
8,3,14,1,6,1,3,16,101,11
8,3,16,1,6,1,3,16,55,11
9,4,17,1,4,0,3,16,109,11
9,4,18,1,2,0,3,16,14,11
9,4,18,1,2,0,3,16,101,11
10,4,17,1,2,0,4,16,101,11
10,4,2,0,3,0,4,16,101,11
10,4,17,1,3,0,4,16,1,11
10,4,16,1,4,0,4,16,64,11
10,4,0,0,5,1,4,16,66,11
10,4,14,1,3,0,4,16,101,11
10,4,16,1,3,0,4,16,23,11
10,4,17,1,4,0,4,16,101,11
10,4,4,0,6,1,4,16,75,11
10,4,10,1,3,0,4,16,75,9
10,4,9,1,5,1,4,16,72,11
10,4,18,1,5,1,4,16,90,11
10,4,23,0,6,1,4,16,101,11
12,1,18,1,1,0,4,16,88,11
12,1,20,1,2,0,4,16,88,11
12,1,21,0,3,0,4,16,88,11
12,1,18,1,3,0,4,16,109,11
12,1,1,0,5,1,4,16,88,11
12,1,23,0,0,0,4,16,88,11
12,1,0,0,2,0,4,16,101,11
1,1,15,1,5,1,1,16,85,9
1,1,12,1,6,1,1,16,4,11
1,1,17,1,0,0,1,16,75,11
1,1,20,1,2,0,1,16,64,11
1,1,18,1,3,0,1,16,96,11
1,1,3,0,6,1,1,16,75,8
2,1,16,1,1,0,1,16,90,11
2,1,2,0,2,0,1,16,14,11
2,1,11,1,0,0,1,16,64,9
2,1,21,0,6,1,1,16,75,11
3,2,8,1,6,1,1,16,75,11
3,2,17,1,6,1,1,16,23,11
3,2,21,0,4,0,1,16,13,11
3,2,13,1,5,1,1,16,27,11
4,2,21,0,4,0,2,16,87,11
4,2,16,1,5,1,2,16,75,9
4,2,19,1,5,1,2,16,101,11
4,2,22,0,5,1,2,16,109,11
4,2,3,0,4,0,2,16,96,11
4,2,20,1,0,0,2,16,75,8
4,2,2,0,3,0,2,16,99,11
6,3,13,1,3,0,2,16,64,11
6,3,7,1,4,0,2,16,75,11
6,3,7,1,1,0,2,16,45,9
6,3,11,1,5,1,2,16,95,11
7,3,13,1,2,0,3,16,20,11
8,3,23,0,2,0,3,16,101,11
9,4,14,1,1,0,3,16,20,11
10,4,9,1,4,0,4,16,75,11
10,4,21,0,4,0,4,16,101,11
11,4,2,0,4,0,4,16,38,9
11,4,13,1,6,1,4,16,75,9
11,4,9,1,0,0,4,16,38,11
1,1,1,0,4,0,1,16,20,11
1,1,1,0,4,0,1,16,108,11
1,1,19,1,5,1,1,16,20,11
1,1,20,1,0,0,1,16,108,11
1,1,19,1,1,0,1,16,88,11
2,1,9,1,0,0,1,16,14,11
2,1,19,1,4,0,1,16,90,11
3,2,8,1,2,0,1,16,64,11
3,2,21,0,5,1,1,16,75,11
3,2,19,1,1,0,1,16,90,11
3,2,22,0,0,0,1,16,64,11
4,2,19,1,1,0,2,16,90,11
4,2,10,1,6,1,2,16,72,11
4,2,12,1,6,1,2,19,75,11
4,2,18,1,0,0,2,16,25,11
4,2,12,1,2,0,2,16,90,11
4,2,20,1,3,0,2,16,90,11
5,2,12,1,6,1,2,16,108,11
5,2,21,0,6,1,2,16,124,11
5,2,20,1,0,0,2,16,75,11
5,2,11,1,2,0,2,16,75,11
5,2,7,1,4,0,2,16,72,11
5,2,22,0,1,0,2,16,109,11
7,3,12,1,3,0,3,16,90,11
7,3,4,0,1,0,3,16,20,11
7,3,9,1,3,0,3,16,75,9
7,3,12,1,4,0,3,16,75,11
8,3,18,1,5,1,3,16,90,11
8,3,22,0,1,0,3,16,75,11
8,3,15,1,2,0,3,16,124,11
8,3,17,1,2,0,3,16,90,11
9,4,11,1,3,0,3,16,72,11
9,4,15,1,6,1,3,16,25,11
9,4,13,1,0,0,3,16,20,11
9,4,7,1,2,0,3,16,25,11
9,4,19,1,3,0,3,16,20,11
9,4,12,1,2,0,3,16,25,11
9,4,11,1,4,0,3,16,25,11
10,4,16,1,5,1,4,16,56,11
10,4,17,1,0,0,4,16,90,11
10,4,16,1,2,0,4,16,25,11
10,4,14,1,3,0,4,16,25,11
10,4,16,1,3,0,4,16,38,11
10,4,19,1,6,1,4,16,75,11
10,4,23,0,0,0,4,16,75,11
10,4,15,1,3,0,4,16,25,11
10,4,10,1,6,1,4,16,4,11
10,4,12,1,4,0,4,16,20,11
10,4,2,0,5,1,4,16,75,9
11,4,15,1,5,1,4,16,90,11
11,4,14,1,2,0,4,16,89,11
11,4,19,1,4,0,4,16,20,11
11,4,15,1,6,1,4,16,20,11
12,1,9,1,5,1,4,16,75,11
12,1,21,0,6,1,4,16,20,11
1,1,0,0,5,1,1,39,96,11
1,1,19,1,1,0,1,39,90,11
1,1,22,0,1,0,1,39,38,11
1,1,20,1,4,0,1,39,64,11
1,1,4,0,5,1,1,39,88,11
1,1,18,1,5,1,1,39,64,11
1,1,2,0,0,0,1,39,101,11
1,1,12,1,2,0,1,39,75,11
1,1,6,0,4,0,1,39,38,11
1,1,11,1,4,0,1,39,38,11
1,1,23,0,1,0,1,39,38,11
1,1,23,0,5,1,1,39,124,11
1,1,9,1,6,1,1,39,38,11
1,1,22,0,6,1,1,39,14,8
1,1,16,1,0,0,1,39,101,11
1,1,14,1,1,0,1,39,75,11
1,1,17,1,2,0,1,39,38,9
1,1,14,1,3,0,1,39,101,11
1,1,16,1,6,1,1,39,64,11
1,1,8,1,0,0,1,39,124,11
2,1,17,1,3,0,1,39,66,11
2,1,17,1,3,0,1,39,51,11
2,1,15,1,6,1,1,39,101,11
2,1,15,1,1,0,1,39,38,9
2,1,10,1,2,0,1,39,101,11
2,1,12,1,2,0,1,39,38,11
2,1,15,1,2,0,1,39,90,11
2,1,17,1,4,0,1,39,64,11
2,1,13,1,5,1,1,39,101,11
2,1,4,0,6,1,1,39,64,9
2,1,2,0,6,1,1,39,20,11
2,1,20,1,6,1,1,39,20,9
2,1,18,1,0,0,1,39,101,11
2,1,18,1,5,1,1,39,90,11
3,2,19,1,4,0,1,39,75,11
3,2,9,1,2,0,1,39,75,11
3,2,15,1,3,0,1,39,20,11
3,2,7,1,5,1,1,39,64,8
3,2,16,1,6,1,1,39,101,11
3,2,20,1,0,0,1,39,38,11
3,2,13,1,1,0,1,39,101,11
3,2,15,1,5,1,1,39,38,11
3,2,16,1,5,1,1,39,101,11
3,2,22,0,5,1,1,39,64,11
3,2,11,1,6,1,1,39,75,11
3,2,17,1,6,1,1,39,64,11
3,2,15,1,1,0,1,39,108,11
3,2,13,1,2,0,1,39,101,11
3,2,15,1,3,0,1,39,38,11
3,2,17,1,3,0,1,39,23,11
3,2,10,1,4,0,1,39,90,11
3,2,18,1,4,0,1,39,64,11
3,2,12,1,5,1,1,39,1,11
3,2,19,1,5,1,1,39,20,11
3,2,16,1,6,1,1,39,101,11
3,2,18,1,6,1,1,39,101,11
3,2,11,1,0,0,1,39,101,11
3,2,20,1,0,0,1,39,64,11
3,2,19,1,1,0,1,39,90,11
3,2,18,1,3,0,1,39,101,11
4,2,20,1,4,0,2,39,101,11
4,2,0,0,0,0,2,39,101,11
4,2,20,1,0,0,2,39,64,11
4,2,20,1,5,1,2,39,101,11
4,2,21,0,1,0,2,39,101,11
4,2,11,1,2,0,2,39,63,11
4,2,21,0,2,0,2,39,55,11
4,2,14,1,4,0,2,39,90,11
4,2,20,1,4,0,2,39,124,11
4,2,15,1,5,1,2,39,90,11
4,2,20,1,0,0,2,39,64,11
4,2,9,1,2,0,2,39,84,8
4,2,17,1,3,0,2,39,101,11
4,2,17,1,4,0,2,39,63,11
4,2,13,1,5,1,2,39,20,11
4,2,19,1,6,1,2,39,101,11
4,2,13,1,2,0,2,39,101,11
4,2,19,1,3,0,2,39,109,11
4,2,19,1,4,0,2,39,103,11
4,2,12,1,5,1,2,39,103,11
5,2,18,1,3,0,2,39,75,11
5,2,9,1,4,0,2,39,47,11
5,2,10,1,0,0,2,39,23,11
5,2,10,1,2,0,2,39,101,11
5,2,12,1,2,0,2,39,72,11
5,2,13,1,4,0,2,39,90,11
5,2,18,1,4,0,2,39,90,11
5,2,16,1,5,1,2,39,101,11
5,2,17,1,6,1,2,39,101,11
5,2,12,1,3,0,2,39,101,11
5,2,22,0,0,0,2,39,101,11
6,3,18,1,5,1,2,39,90,11
6,3,12,1,6,1,2,39,38,11
6,3,18,1,6,1,2,39,90,11
6,3,18,1,0,0,2,39,101,9
6,3,21,0,0,0,2,39,105,11
6,3,19,1,2,0,2,39,14,11
6,3,9,1,1,0,2,39,90,11
6,3,12,1,1,0,2,39,90,11
6,3,13,1,1,0,2,39,90,11
6,3,16,1,1,0,2,39,74,11
6,3,23,0,4,0,2,39,47,11
6,3,11,1,1,0,2,39,124,11
6,3,12,1,2,0,2,39,90,11
6,3,15,1,3,0,2,39,90,11
6,3,19,1,3,0,2,39,56,11
6,3,9,1,4,0,2,39,20,11
6,3,12,1,6,1,2,39,81,11
6,3,11,1,1,0,2,39,101,11
6,3,21,0,3,0,2,39,101,11
7,3,19,1,4,0,3,39,90,9
7,3,16,1,5,1,3,39,101,11
7,3,21,0,6,1,3,39,81,11
7,3,17,1,0,0,3,39,88,11
7,3,22,0,0,0,3,39,88,11
7,3,16,1,1,0,3,39,75,11
7,3,17,1,1,0,3,39,84,11
7,3,8,1,2,0,3,39,14,11
7,3,16,1,2,0,3,39,90,9
7,3,9,1,3,0,3,39,90,11
7,3,17,1,3,0,3,39,90,11
7,3,15,1,3,0,3,39,75,11
7,3,21,0,5,1,3,39,84,9
7,3,21,0,6,1,3,39,38,11
7,3,12,1,0,0,3,39,90,11
7,3,19,1,3,0,3,39,108,8
7,3,8,1,5,1,3,39,90,11
7,3,8,1,5,1,3,39,90,11
7,3,19,1,5,1,3,39,90,11
7,3,12,1,0,0,3,39,90,11
7,3,16,1,3,0,3,39,90,9
8,3,21,0,1,0,3,39,85,11
8,3,11,1,4,0,3,39,20,11
8,3,19,1,5,1,3,39,96,11
8,3,20,1,5,1,3,39,75,11
8,3,15,1,0,0,3,39,101,11
8,3,2,0,3,0,3,39,101,11
8,3,20,1,6,1,3,39,20,9
8,3,14,1,1,0,3,39,101,11
8,3,19,1,3,0,3,39,90,11
8,3,18,1,0,0,3,39,101,11
8,3,13,1,1,0,3,39,101,11
8,3,12,1,2,0,3,39,25,11
9,4,19,1,3,0,3,39,101,11
9,4,9,1,4,0,3,39,101,11
9,4,22,0,4,0,3,39,109,11
9,4,20,1,1,0,3,39,75,11
9,4,9,1,3,0,3,39,20,11
9,4,23,0,6,1,3,39,78,11
9,4,11,1,3,0,3,39,101,11
9,4,10,1,0,0,3,39,90,11
9,4,16,1,4,0,3,39,101,11
10,4,23,0,3,0,4,39,101,11
10,4,22,0,6,1,4,39,101,11
10,4,10,1,0,0,4,39,14,9
10,4,19,1,2,0,4,39,4,11
10,4,17,1,1,0,4,39,101,11
10,4,20,1,2,0,4,39,75,11
10,4,14,1,5,1,4,39,101,11
10,4,16,1,0,0,4,39,101,11
10,4,18,1,0,0,4,39,90,11
11,4,17,1,1,0,4,39,90,11
11,4,12,1,2,0,4,39,81,11
11,4,18,1,2,0,4,39,101,11
11,4,12,1,3,0,4,39,90,11
11,4,12,1,4,0,4,39,75,11
11,4,16,1,0,0,4,39,64,11
11,4,19,1,5,1,4,39,57,9
11,4,10,1,6,1,4,39,64,11
11,4,8,1,1,0,4,39,89,11
11,4,18,1,3,0,4,39,90,11
11,4,19,1,3,0,4,39,90,11
11,4,10,1,5,1,4,39,20,11
11,4,19,1,5,1,4,39,101,11
11,4,0,0,6,1,4,39,75,11
11,4,7,1,0,0,4,39,96,11
11,4,23,0,0,0,4,39,13,11
11,4,15,1,2,0,4,39,64,11
12,1,12,1,4,0,4,39,38,11
12,1,21,0,4,0,4,39,20,11
12,1,8,1,0,0,4,39,64,11
12,1,20,1,3,0,4,39,75,11
12,1,14,1,4,0,4,39,64,11
12,1,4,0,5,1,4,39,85,11
12,1,22,0,6,1,4,39,99,11
12,1,7,1,6,1,4,39,13,9
1,1,22,0,6,1,1,39,66,11
2,1,13,1,2,0,1,39,75,11
3,2,16,1,2,0,1,39,14,11
3,2,20,1,4,0,1,39,38,11
4,2,0,0,5,1,2,39,95,11
6,3,11,1,3,0,2,39,72,8
7,3,14,1,0,0,3,39,101,11
7,3,10,1,2,0,3,39,75,11
8,3,23,0,2,0,3,39,101,11
10,4,19,1,5,1,4,39,38,11
10,4,13,1,6,1,4,39,75,11
10,4,17,1,2,0,4,39,4,11
11,4,15,1,4,0,4,39,101,11
12,1,13,1,5,1,4,39,75,11
12,1,21,0,5,1,4,39,109,11
1,1,2,0,1,0,1,39,75,11
1,1,7,1,1,0,1,39,64,11
1,1,13,1,5,1,1,39,75,11
1,1,18,1,2,0,1,39,124,11
1,1,21,0,2,0,1,39,75,11
1,1,20,1,2,0,1,39,101,11
1,1,16,1,3,0,1,39,101,11
1,1,10,1,4,0,1,39,101,11
1,1,18,1,0,0,1,39,54,11
2,1,21,0,3,0,1,39,75,11
2,1,11,1,4,0,1,39,101,11
2,1,16,1,6,1,1,39,90,11
2,1,9,1,5,1,1,39,75,11
2,1,20,1,0,0,1,39,90,11
2,1,11,1,4,0,1,39,64,11
3,2,12,1,3,0,1,39,90,11
4,2,21,0,5,1,2,39,64,11
4,2,7,1,2,0,2,39,124,11
5,2,0,0,4,0,2,39,75,11
5,2,10,1,5,1,2,39,124,11
5,2,11,1,1,0,2,39,101,11
5,2,13,1,4,0,2,39,13,11
5,2,21,0,4,0,2,39,101,11
5,2,11,1,6,1,2,39,54,11
5,2,10,1,0,0,2,39,90,11
5,2,13,1,0,0,2,39,49,11
5,2,15,1,0,0,2,39,75,9
5,2,14,1,5,1,2,39,101,11
6,3,10,1,1,0,2,39,20,11
6,3,19,1,1,0,2,39,101,11
6,3,18,1,2,0,2,39,64,11
7,3,11,1,2,0,3,39,90,11
7,3,21,0,2,0,3,39,101,11
8,3,14,1,4,0,3,39,64,11
8,3,10,1,3,0,3,39,90,11
9,4,19,1,2,0,3,39,101,11
9,4,19,1,0,0,3,39,109,11
10,4,13,1,5,1,4,39,20,11
10,4,17,1,6,1,4,39,101,11
11,4,8,1,1,0,4,39,101,11
11,4,12,1,1,0,4,39,101,11
11,4,15,1,5,1,4,39,90,11
11,4,18,1,2,0,4,39,101,11
11,4,10,1,5,1,4,39,124,11
11,4,14,1,5,1,4,39,27,11
11,4,19,1,1,0,4,39,90,11
12,1,19,1,2,0,4,39,75,11
12,1,6,0,6,1,4,39,20,11
12,1,17,1,6,1,4,39,124,9
12,1,20,1,6,1,4,39,10,11
12,1,0,0,2,0,4,39,90,11
12,1,13,1,2,0,4,39,124,11
12,1,14,1,5,1,4,39,75,11
12,1,17,1,5,1,4,39,88,11
12,1,18,1,5,1,4,39,75,11
1,1,16,1,1,0,1,39,76,11
1,1,17,1,6,1,1,39,101,11
2,1,14,1,3,0,1,39,101,11
2,1,11,1,0,0,1,39,72,11
3,2,5,0,0,0,1,39,20,11
4,2,12,1,6,1,2,39,101,11
8,3,17,1,2,0,3,39,20,11
8,3,20,1,2,0,3,39,101,11
8,3,21,0,6,1,3,39,20,11
8,3,12,1,0,0,3,39,101,11
9,4,13,1,5,1,3,39,101,11
10,4,11,1,0,0,4,39,75,11
10,4,15,1,4,0,4,39,72,11
10,4,15,1,1,0,4,39,27,11
1,1,2,0,4,0,1,27,99,11
1,1,5,0,5,1,1,27,38,11
1,1,17,1,5,1,1,27,13,11
1,1,20,1,4,0,1,27,96,11
2,1,12,1,6,1,1,27,64,11
2,1,23,0,0,0,1,27,14,9
2,1,18,1,3,0,1,27,13,11
2,1,18,1,4,0,1,27,90,11
3,2,4,0,4,0,1,27,75,8
3,2,11,1,1,0,1,27,64,11
3,2,11,1,2,0,1,27,38,11
4,2,17,1,5,1,2,27,109,11
4,2,9,1,5,1,2,27,90,11
4,2,16,1,5,1,2,27,38,11
4,2,12,1,5,1,2,27,88,11
5,2,11,1,2,0,2,27,121,11
5,2,13,1,3,0,2,27,64,11
5,2,21,0,6,1,2,27,38,11
5,2,21,0,0,0,2,27,23,11
5,2,12,1,3,0,2,27,20,11
5,2,8,1,5,1,2,27,88,11
5,2,13,1,1,0,2,27,75,11
6,3,3,0,1,0,2,27,88,11
6,3,13,1,2,0,2,27,90,11
6,3,23,0,2,0,2,27,90,11
7,3,20,1,6,1,3,27,4,11
7,3,11,1,1,0,3,27,90,11
7,3,21,0,1,0,3,27,45,11
7,3,19,1,4,0,3,27,84,11
8,3,20,1,6,1,3,27,99,11
9,4,12,1,4,0,3,27,64,11
9,4,17,1,6,1,3,27,101,11
9,4,19,1,5,1,3,27,101,11
10,4,19,1,5,1,4,27,4,11
10,4,19,1,4,0,4,27,75,11
10,4,17,1,5,1,4,27,64,11
10,4,19,1,5,1,4,27,90,11
10,4,14,1,0,0,4,27,101,11
10,4,18,1,0,0,4,27,101,11
10,4,20,1,1,0,4,27,101,11
10,4,15,1,2,0,4,27,20,11
10,4,21,0,3,0,4,27,90,11
11,4,17,1,3,0,4,27,90,11
11,4,20,1,4,0,4,27,99,11
11,4,13,1,6,1,4,27,75,11
11,4,16,1,2,0,4,27,90,11
11,4,19,1,2,0,4,27,75,11
12,1,20,1,4,0,4,27,38,11
12,1,16,1,0,0,4,27,64,11
12,1,16,1,0,0,4,27,38,11
12,1,12,1,1,0,4,27,14,11
2,1,16,1,3,0,1,27,14,11
3,2,10,1,3,0,1,27,90,11
4,2,19,1,4,0,2,27,90,11
4,2,22,0,1,0,2,27,75,11
5,2,21,0,1,0,2,27,75,11
6,3,1,0,2,0,2,27,96,11
7,3,12,1,4,0,3,27,20,11
7,3,22,0,3,0,3,27,88,11
7,3,22,0,3,0,3,27,101,11
8,3,0,0,3,0,3,27,4,11
12,1,14,1,3,0,4,27,38,11
12,1,19,1,5,1,4,27,64,8
12,1,20,1,3,0,4,27,38,11
3,2,8,1,1,0,1,27,63,11
3,2,6,0,2,0,1,27,63,11
4,2,13,1,0,0,2,27,38,9
8,3,14,1,6,1,3,27,14,11
9,4,13,1,6,1,3,27,20,11
10,4,1,0,6,1,4,27,32,8
10,4,1,0,4,0,4,27,75,11
12,1,11,1,6,1,4,27,88,11
1,1,3,0,1,0,1,27,38,11
1,1,15,1,2,0,1,27,101,11
2,1,23,0,1,0,1,27,20,11
2,1,9,1,4,0,1,27,90,11
2,1,14,1,4,0,1,27,101,11
2,1,10,1,5,1,1,27,13,11
3,2,15,1,1,0,1,27,101,11
3,2,11,1,0,0,1,27,101,11
3,2,2,0,2,0,1,27,75,11
3,2,19,1,3,0,1,27,101,11
3,2,12,1,5,1,1,27,101,11
3,2,9,1,6,1,1,27,75,11
3,2,14,1,6,1,1,27,101,11
3,2,19,1,6,1,1,27,14,11
4,2,19,1,1,0,2,27,20,11
4,2,11,1,2,0,2,27,20,11
4,2,12,1,3,0,2,27,101,11
4,2,13,1,5,1,2,27,101,11
4,2,21,0,4,0,2,27,101,11
5,2,21,0,1,0,2,27,124,11
6,3,19,1,0,0,2,27,101,11
6,3,16,1,2,0,2,27,121,11
6,3,14,1,4,0,2,27,14,8
6,3,21,0,0,0,2,27,14,11
6,3,9,1,1,0,2,27,75,11
7,3,20,1,5,1,3,27,13,11
7,3,22,0,5,1,3,27,124,11
8,3,13,1,5,1,3,27,75,11
8,3,4,0,5,1,3,27,83,11
8,3,11,1,6,1,3,27,21,11
9,4,10,1,6,1,3,27,20,11
9,4,13,1,3,0,3,27,101,11
10,4,18,1,3,0,4,27,20,11
11,4,16,1,4,0,4,27,75,11
11,4,10,1,4,0,4,27,107,8
12,1,16,1,3,0,4,27,75,11
12,1,20,1,0,0,4,27,75,8
12,1,16,1,2,0,4,27,107,11
1,1,15,1,0,0,1,47,88,11
1,1,4,0,1,0,1,47,88,11
1,1,17,1,2,0,1,47,88,11
1,1,17,1,0,0,1,47,75,8
1,1,1,0,2,0,1,47,88,11
1,1,17,1,2,0,1,47,88,11
1,1,18,1,2,0,1,47,88,11
1,1,21,0,2,0,1,47,14,11
1,1,10,1,5,1,1,47,88,11
1,1,13,1,5,1,1,47,88,11
1,1,18,1,0,0,1,47,88,11
1,1,19,1,1,0,1,47,88,11
1,1,5,0,2,0,1,47,75,11
1,1,19,1,0,0,1,47,88,11
2,1,11,1,1,0,1,47,88,11
2,1,8,1,2,0,1,47,75,11
2,1,9,1,4,0,1,47,88,11
2,1,2,0,4,0,1,47,88,11
2,1,9,1,4,0,1,47,88,11
2,1,15,1,6,1,1,47,90,11
2,1,18,1,6,1,1,47,88,11
2,1,18,1,0,0,1,47,75,11
2,1,22,0,0,0,1,47,88,11
2,1,20,1,1,0,1,47,75,11
2,1,10,1,3,0,1,47,64,11
2,1,17,1,5,1,1,47,75,11
3,2,9,1,2,0,1,47,75,11
3,2,8,1,3,0,1,47,75,11
3,2,12,1,5,1,1,47,88,11
3,2,22,0,6,1,1,47,48,11
3,2,8,1,2,0,1,47,75,11
3,2,10,1,6,1,1,47,64,11
3,2,16,1,6,1,1,47,88,11
3,2,12,1,2,0,1,47,88,11
3,2,14,1,5,1,1,47,88,11
3,2,15,1,1,0,1,47,90,11
4,2,13,1,6,1,2,47,88,11
4,2,13,1,0,0,2,47,88,11
4,2,8,1,1,0,2,47,13,11
4,2,10,1,4,0,2,47,88,11
4,2,18,1,5,1,2,47,75,11
5,2,13,1,4,0,2,47,88,11
6,3,13,1,1,0,2,47,90,11
6,3,21,0,4,0,2,47,109,11
6,3,14,1,6,1,2,47,75,11
6,3,9,1,1,0,2,47,90,11
7,3,13,1,4,0,3,47,64,11
7,3,14,1,2,0,3,47,25,11
7,3,20,1,4,0,3,47,88,11
8,3,21,0,5,1,3,47,96,11
9,4,15,1,2,0,3,47,96,11
10,4,16,1,4,0,4,47,90,11
10,4,1,0,6,1,4,47,63,11
10,4,19,1,5,1,4,47,75,11
10,4,20,1,1,0,4,47,64,11
11,4,18,1,5,1,4,47,96,11
11,4,20,1,0,0,4,47,88,11
11,4,22,0,2,0,4,47,14,11
12,1,15,1,4,0,4,47,88,11
12,1,17,1,5,1,4,47,88,11
12,1,12,1,4,0,4,47,75,11
12,1,18,1,4,0,4,47,64,11
12,1,19,1,4,0,4,47,88,11
12,1,4,0,0,0,4,47,13,9
12,1,20,1,1,0,4,47,88,11
12,1,20,1,1,0,4,47,88,11
12,1,17,1,5,1,4,47,90,11
1,1,18,1,6,1,1,23,124,11
1,1,18,1,0,0,1,23,124,11
1,1,17,1,3,0,1,23,101,11
1,1,13,1,4,0,1,23,38,11
1,1,15,1,6,1,1,23,38,11
1,1,21,0,0,0,1,23,121,11
1,1,9,1,1,0,1,23,55,11
1,1,13,1,2,0,1,23,101,11
1,1,13,1,4,0,1,23,101,11
1,1,16,1,4,0,1,23,101,11
1,1,18,1,4,0,1,23,101,11
1,1,12,1,5,1,1,23,38,11
2,1,9,1,3,0,1,23,30,11
2,1,17,1,0,0,1,23,124,11
2,1,15,1,0,0,1,23,124,11
2,1,13,1,4,0,1,23,101,11
2,1,17,1,4,0,1,23,108,9
2,1,16,1,6,1,1,23,101,11
2,1,17,1,0,0,1,23,75,11
2,1,16,1,3,0,1,23,101,11
2,1,20,1,5,1,1,23,64,11
2,1,15,1,0,0,1,23,38,11
3,2,12,1,2,0,1,23,75,9
3,2,10,1,6,1,1,23,38,11
3,2,19,1,1,0,1,23,124,11
3,2,7,1,5,1,1,23,124,11
3,2,20,1,1,0,1,23,101,11
3,2,10,1,5,1,1,23,101,11
3,2,11,1,5,1,1,23,90,11
3,2,11,1,5,1,1,23,101,11
3,2,19,1,6,1,1,23,13,11
3,2,20,1,0,0,1,23,101,11
3,2,10,1,3,0,1,23,101,11
4,2,20,1,2,0,2,23,101,11
4,2,12,1,2,0,2,23,124,11
4,2,15,1,2,0,2,23,101,11
5,2,22,0,3,0,2,23,101,11
5,2,14,1,2,0,2,23,101,11
5,2,21,0,4,0,2,23,63,11
5,2,11,1,5,1,2,23,101,11
7,3,16,1,0,0,3,23,25,9
8,3,19,1,0,0,3,23,101,11
9,4,18,1,2,0,3,23,101,11
10,4,23,0,4,0,4,23,109,11
10,4,14,1,5,1,4,23,85,11
10,4,13,1,5,1,4,23,124,11
10,4,19,1,3,0,4,23,75,11
10,4,15,1,1,0,4,23,75,11
11,4,16,1,2,0,4,23,27,11
11,4,7,1,6,1,4,23,124,11
11,4,15,1,3,0,4,23,124,11
11,4,11,1,6,1,4,23,124,11
11,4,20,1,0,0,4,23,124,11
12,1,20,1,3,0,4,23,124,11
12,1,15,1,1,0,4,23,124,11
12,1,21,0,3,0,4,23,101,11
1,1,0,0,5,1,1,23,62,8
2,1,18,1,5,1,1,23,101,11
4,2,14,1,3,0,2,23,101,11
10,4,17,1,3,0,4,23,101,11
12,1,18,1,4,0,4,23,75,11
1,1,21,0,1,0,1,23,124,11
1,1,13,1,4,0,1,23,124,11
1,1,16,1,4,0,1,23,124,11
2,1,20,1,5,1,1,23,124,11
2,1,21,0,0,0,1,23,124,11
2,1,9,1,3,0,1,23,75,11
2,1,17,1,1,0,1,23,101,11
2,1,8,1,2,0,1,23,101,11
2,1,13,1,6,1,1,23,101,11
2,1,19,1,0,0,1,23,101,11
2,1,18,1,5,1,1,23,90,11
2,1,20,1,0,0,1,23,90,11
3,2,15,1,3,0,1,23,27,11
3,2,6,0,4,0,1,23,124,11
3,2,17,1,6,1,1,23,124,11
3,2,11,1,1,0,1,23,101,11
3,2,19,1,5,1,1,23,101,11
4,2,16,1,4,0,2,23,101,11
4,2,11,1,2,0,2,23,38,11
4,2,13,1,5,1,2,23,101,11
5,2,23,0,0,0,2,23,101,11
5,2,16,1,1,0,2,23,103,11
6,3,21,0,2,0,2,23,101,11
7,3,18,1,4,0,3,23,90,11
8,3,16,1,4,0,3,23,101,11
9,4,12,1,2,0,3,23,101,11
10,4,19,1,0,0,4,23,101,11
10,4,19,1,2,0,4,23,38,11
10,4,22,0,0,0,4,23,124,11
11,4,17,1,5,1,4,23,101,11
11,4,17,1,4,0,4,23,101,11
1,1,8,1,5,1,1,8,96,11
1,1,15,1,5,1,1,8,64,11
1,1,12,1,6,1,1,8,96,11
1,1,17,1,2,0,1,8,88,11
1,1,15,1,3,0,1,8,96,11
1,1,19,1,4,0,1,8,96,11
1,1,14,1,2,0,1,8,75,11
1,1,14,1,2,0,1,8,75,11
1,1,0,0,3,0,1,8,96,11
1,1,10,1,3,0,1,8,96,11
1,1,11,1,3,0,1,8,75,11
1,1,14,1,0,0,1,8,96,11
1,1,11,1,2,0,1,8,64,11
1,1,13,1,2,0,1,8,64,11
1,1,1,0,4,0,1,8,75,11
2,1,16,1,2,0,1,8,64,11
2,1,6,0,5,1,1,8,14,11
2,1,12,1,6,1,1,8,96,11
2,1,20,1,0,0,1,8,64,11
2,1,11,1,5,1,1,8,72,11
2,1,18,1,5,1,1,8,101,11
2,1,18,1,4,0,1,8,101,11
3,2,11,1,5,1,1,8,96,11
3,2,19,1,0,0,1,8,108,9
3,2,11,1,1,0,1,8,96,11
3,2,22,0,1,0,1,8,96,11
3,2,8,1,0,0,1,8,45,11
3,2,9,1,1,0,1,8,109,11
3,2,16,1,1,0,1,8,101,11
3,2,20,1,1,0,1,8,101,11
3,2,12,1,5,1,1,8,90,11
3,2,12,1,5,1,1,8,90,11
3,2,20,1,1,0,1,8,88,11
4,2,19,1,1,0,2,8,101,11
4,2,8,1,1,0,2,8,97,11
4,2,0,0,2,0,2,8,90,11
4,2,12,1,5,1,2,8,101,11
4,2,18,1,4,0,2,8,101,11
4,2,21,0,4,0,2,8,64,11
4,2,19,1,1,0,2,8,90,11
5,2,14,1,2,0,2,8,23,9
5,2,20,1,5,1,2,8,75,11
5,2,18,1,6,1,2,8,101,11
5,2,0,0,6,1,2,8,64,11
5,2,12,1,0,0,2,8,23,9
6,3,3,0,3,0,2,8,88,11
7,3,19,1,2,0,3,8,109,11
7,3,4,0,1,0,3,8,23,8
7,3,21,0,6,1,3,8,90,11
7,3,16,1,4,0,3,8,88,11
8,3,15,1,4,0,3,8,101,11
8,3,2,0,0,0,3,8,109,11
9,4,19,1,4,0,3,8,25,11
9,4,12,1,0,0,3,8,101,11
9,4,21,0,2,0,3,8,101,11
9,4,10,1,3,0,3,8,101,11
9,4,15,1,6,1,3,8,90,11
9,4,4,0,1,0,3,8,88,11
10,4,8,1,1,0,4,8,75,11
10,4,13,1,6,1,4,8,101,11
10,4,20,1,0,0,4,8,101,11
10,4,18,1,2,0,4,8,14,11
10,4,14,1,6,1,4,8,101,11
10,4,17,1,0,0,4,8,101,11
11,4,17,1,1,0,4,8,101,11
11,4,12,1,3,0,4,8,101,11
11,4,15,1,3,0,4,8,101,11
11,4,14,1,4,0,4,8,101,11
11,4,14,1,5,1,4,8,101,11
11,4,19,1,5,1,4,8,109,11
11,4,17,1,1,0,4,8,75,11
11,4,15,1,4,0,4,8,38,11
11,4,15,1,6,1,4,8,64,11
11,4,16,1,0,0,4,8,75,11
11,4,6,0,1,0,4,8,96,11
11,4,18,1,4,0,4,8,101,11
11,4,17,1,6,1,4,8,109,11
11,4,12,1,0,0,4,8,14,11
11,4,17,1,0,0,4,8,64,11
11,4,21,0,0,0,4,8,88,11
11,4,22,0,0,0,4,8,88,11
11,4,15,1,1,0,4,8,64,11
12,1,17,1,3,0,4,8,96,11
12,1,9,1,4,0,4,8,64,11
12,1,18,1,0,0,4,8,64,11
12,1,10,1,4,0,4,8,96,11
12,1,19,1,5,1,4,8,64,11
12,1,15,1,1,0,4,8,96,11
1,1,11,1,6,1,1,8,38,11
2,1,12,1,1,0,1,8,75,11
3,2,19,1,1,0,1,8,88,11
4,2,13,1,2,0,2,8,101,11
4,2,15,1,2,0,2,8,101,11
5,2,9,1,6,1,2,8,75,11
6,3,18,1,6,1,2,8,88,11
8,3,17,1,6,1,3,8,101,11
8,3,11,1,4,0,3,8,101,11
10,4,0,0,0,0,4,8,96,11
12,1,15,1,4,0,4,8,96,11
9,4,18,1,4,0,3,8,101,11
1,1,18,1,5,1,1,20,64,11
1,1,21,0,5,1,1,20,124,11
1,1,20,1,2,0,1,20,23,8
1,1,16,1,3,0,1,20,124,11
1,1,19,1,5,1,1,20,124,11
1,1,15,1,1,0,1,20,124,11
1,1,18,1,2,0,1,20,124,11
1,1,19,1,2,0,1,20,124,11
1,1,23,0,2,0,1,20,90,11
1,1,14,1,3,0,1,20,124,11
1,1,16,1,3,0,1,20,64,11
1,1,18,1,3,0,1,20,64,11
1,1,20,1,5,1,1,20,124,11
1,1,22,0,5,1,1,20,23,11
1,1,19,1,6,1,1,20,124,11
1,1,20,1,6,1,1,20,124,11
1,1,16,1,0,0,1,20,38,11
1,1,14,1,1,0,1,20,124,11
1,1,20,1,1,0,1,20,124,11
1,1,5,0,2,0,1,20,124,11
1,1,20,1,2,0,1,20,124,11
1,1,18,1,3,0,1,20,75,11
1,1,12,1,4,0,1,20,38,11
1,1,15,1,4,0,1,20,124,11
1,1,17,1,4,0,1,20,38,11
1,1,20,1,6,1,1,20,38,11
1,1,21,0,6,1,1,20,124,11
1,1,8,1,0,0,1,20,124,11
1,1,13,1,0,0,1,20,75,11
1,1,18,1,0,0,1,20,38,11
1,1,14,1,1,0,1,20,124,11
1,1,0,0,2,0,1,20,38,11
1,1,16,1,3,0,1,20,124,11
1,1,17,1,4,0,1,20,124,11
1,1,20,1,4,0,1,20,90,11
1,1,11,1,5,1,1,20,38,11
1,1,15,1,5,1,1,20,101,11
1,1,21,0,5,1,1,20,90,11
1,1,21,0,6,1,1,20,124,11
1,1,22,0,6,1,1,20,124,11
1,1,14,1,0,0,1,20,101,11
1,1,21,0,0,0,1,20,38,11
2,1,2,0,2,0,1,20,64,8
2,1,16,1,2,0,1,20,124,11
2,1,22,0,2,0,1,20,124,11
2,1,18,1,3,0,1,20,38,11
2,1,20,1,3,0,1,20,124,11
2,1,17,1,4,0,1,20,23,8
2,1,19,1,5,1,1,20,124,11
2,1,17,1,6,1,1,20,124,11
2,1,13,1,0,0,1,20,64,11
2,1,16,1,1,0,1,20,64,11
2,1,23,0,1,0,1,20,75,11
2,1,14,1,2,0,1,20,124,11
2,1,5,0,3,0,1,20,124,11
2,1,9,1,3,0,1,20,124,11
2,1,13,1,3,0,1,20,38,11
2,1,18,1,0,0,1,20,38,11
2,1,19,1,0,0,1,20,38,11
2,1,1,0,1,0,1,20,124,11
2,1,9,1,3,0,1,20,38,11
2,1,17,1,3,0,1,20,124,11
2,1,19,1,4,0,1,20,38,11
2,1,15,1,5,1,1,20,124,11
2,1,17,1,5,1,1,20,75,11
2,1,23,0,6,1,1,20,124,11
2,1,8,1,1,0,1,20,64,11
2,1,13,1,2,0,1,20,124,11
2,1,18,1,2,0,1,20,124,11
2,1,10,1,3,0,1,20,90,11
2,1,12,1,4,0,1,20,101,11
2,1,17,1,4,0,1,20,124,11
2,1,20,1,4,0,1,20,64,11
2,1,23,0,4,0,1,20,124,11
2,1,18,1,5,1,1,20,124,11
2,1,19,1,5,1,1,20,124,11
2,1,12,1,6,1,1,20,124,11
2,1,14,1,6,1,1,20,75,11
2,1,6,0,0,0,1,20,124,11
2,1,10,1,0,0,1,20,124,11
3,2,14,1,3,0,1,20,38,11
3,2,20,1,4,0,1,20,38,11
3,2,13,1,6,1,1,20,64,11
3,2,21,0,6,1,1,20,124,11
3,2,12,1,0,0,1,20,124,11
3,2,16,1,0,0,1,20,38,11
3,2,16,1,1,0,1,20,38,11
3,2,20,1,2,0,1,20,38,11
3,2,8,1,3,0,1,20,75,8
3,2,22,0,4,0,1,20,75,11
3,2,12,1,5,1,1,20,124,11
3,2,18,1,5,1,1,20,124,11
3,2,13,1,0,0,1,20,124,11
3,2,23,0,0,0,1,20,124,11
3,2,17,1,1,0,1,20,38,11
3,2,7,1,2,0,1,20,14,8
3,2,16,1,3,0,1,20,75,11
3,2,11,1,4,0,1,20,90,11
3,2,16,1,4,0,1,20,101,11
3,2,20,1,4,0,1,20,101,11
3,2,10,1,5,1,1,20,124,11
3,2,18,1,5,1,1,20,64,11
3,2,23,0,5,1,1,20,64,9
3,2,11,1,6,1,1,20,101,11
3,2,20,1,6,1,1,20,64,11
3,2,13,1,0,0,1,20,101,11
3,2,15,1,0,0,1,20,124,11
3,2,19,1,0,0,1,20,101,11
3,2,11,1,1,0,1,20,75,11
3,2,13,1,1,0,1,20,101,11
3,2,20,1,1,0,1,20,101,11
3,2,21,0,1,0,1,20,124,11
3,2,23,0,1,0,1,20,90,11
3,2,7,1,2,0,1,20,124,11
3,2,3,0,3,0,1,20,75,8
3,2,16,1,3,0,1,20,101,11
3,2,17,1,3,0,1,20,101,11
3,2,11,1,4,0,1,20,90,11
3,2,16,1,4,0,1,20,90,11
3,2,17,1,4,0,1,20,75,11
3,2,19,1,4,0,1,20,101,11
3,2,12,1,2,0,1,20,90,11
3,2,16,1,3,0,1,20,124,11
4,2,3,0,5,1,2,20,124,11
4,2,21,0,5,1,2,20,124,11
4,2,19,1,0,0,2,20,124,11
4,2,19,1,6,1,2,20,90,11
4,2,21,0,6,1,2,20,124,11
4,2,22,0,2,0,2,20,124,11
4,2,11,1,6,1,2,20,124,11
4,2,12,1,0,0,2,20,101,11
4,2,22,0,5,1,2,20,124,11
4,2,19,1,2,0,2,20,90,11
4,2,20,1,2,0,2,20,124,11
4,2,22,0,5,1,2,20,124,11
5,2,19,1,6,1,2,20,124,11
5,2,19,1,5,1,2,20,101,11
5,2,12,1,0,0,2,20,20,11
5,2,23,0,4,0,2,20,124,11
5,2,12,1,0,0,2,20,101,11
5,2,10,1,2,0,2,20,124,11
5,2,18,1,6,1,2,20,88,11
6,3,0,0,6,1,2,20,90,8
6,3,10,1,6,1,2,20,101,11
6,3,13,1,1,0,2,20,101,11
6,3,19,1,1,0,2,20,88,11
6,3,1,0,2,0,2,20,64,11
6,3,4,0,4,0,2,20,124,11
6,3,20,1,4,0,2,20,2,11
6,3,18,1,1,0,2,20,124,11
7,3,23,0,0,0,3,20,18,11
7,3,22,0,2,0,3,20,63,11
7,3,18,1,1,0,3,20,90,11
7,3,0,0,2,0,3,20,90,11
7,3,12,1,2,0,3,20,101,11
7,3,17,1,2,0,3,20,90,11
7,3,12,1,3,0,3,20,63,11
7,3,23,0,3,0,3,20,101,11
7,3,12,1,4,0,3,20,88,11
7,3,13,1,4,0,3,20,101,11
7,3,17,1,4,0,3,20,124,11
7,3,19,1,4,0,3,20,101,11
7,3,10,1,6,1,3,20,101,11
8,3,15,1,0,0,3,20,90,11
8,3,9,1,3,0,3,20,124,11
8,3,15,1,6,1,3,20,109,11
8,3,18,1,1,0,3,20,14,11
8,3,16,1,2,0,3,20,101,11
8,3,20,1,5,1,3,20,75,8
8,3,19,1,6,1,3,20,101,11
8,3,21,0,1,0,3,20,109,11
8,3,12,1,1,0,3,20,101,11
9,4,9,1,1,0,3,20,20,11
9,4,19,1,3,0,3,20,101,11
9,4,13,1,4,0,3,20,90,11
9,4,13,1,6,1,3,20,101,11
9,4,18,1,6,1,3,20,76,11
9,4,21,0,4,0,3,20,101,11
10,4,13,1,6,1,4,20,84,11
10,4,19,1,5,1,4,20,101,11
10,4,13,1,6,1,4,20,124,11
10,4,17,1,0,0,4,20,90,11
10,4,20,1,2,0,4,20,90,11
10,4,13,1,3,0,4,20,101,11
10,4,13,1,4,0,4,20,101,11
10,4,16,1,4,0,4,20,101,11
10,4,8,1,2,0,4,20,90,11
11,4,14,1,2,0,4,20,64,11
11,4,12,1,5,1,4,20,124,11
11,4,8,1,2,0,4,20,124,11
11,4,15,1,0,0,4,20,109,11
11,4,20,1,0,0,4,20,64,11
11,4,15,1,1,0,4,20,90,11
11,4,20,1,5,1,4,20,101,11
11,4,16,1,0,0,4,20,64,11
11,4,20,1,2,0,4,20,64,11
11,4,15,1,5,1,4,20,75,11
11,4,10,1,6,1,4,20,64,11
11,4,18,1,6,1,4,20,38,11
11,4,16,1,2,0,4,20,124,11
12,1,4,0,3,0,4,20,124,11
12,1,19,1,3,0,4,20,64,11
12,1,17,1,4,0,4,20,64,11
12,1,17,1,0,0,4,20,124,11
12,1,18,1,5,1,4,20,38,11
12,1,9,1,6,1,4,20,124,11
12,1,21,0,2,0,4,20,124,11
12,1,14,1,5,1,4,20,101,11
12,1,14,1,5,1,4,20,64,11
12,1,16,1,5,1,4,20,101,11
12,1,17,1,6,1,4,20,124,11
12,1,4,0,3,0,4,20,55,11
12,1,12,1,3,0,4,20,78,11
12,1,13,1,3,0,4,20,124,11
12,1,4,0,4,0,4,20,64,8
12,1,13,1,4,0,4,20,38,11
12,1,15,1,6,1,4,20,124,11
12,1,19,1,6,1,4,20,75,11
12,1,0,0,2,0,4,20,124,11
12,1,10,1,2,0,4,20,124,11
12,1,7,1,5,1,4,20,75,11
12,1,12,1,5,1,4,20,124,11
12,1,21,0,5,1,4,20,124,11
1,1,14,1,3,0,1,20,38,11
1,1,20,1,1,0,1,20,84,11
3,2,22,0,5,1,1,20,38,11
3,2,18,1,3,0,1,20,14,8
6,3,15,1,0,0,2,20,101,11
7,3,20,1,6,1,3,20,101,11
8,3,13,1,6,1,3,20,101,11
9,4,8,1,0,0,3,20,101,11
10,4,19,1,5,1,4,20,101,11
12,1,10,1,2,0,4,20,56,11
12,1,11,1,1,0,4,20,38,11
3,2,12,1,4,0,1,20,101,11
9,4,11,1,0,0,3,20,101,11
4,2,13,1,3,0,2,20,88,11
10,4,17,1,5,1,4,20,101,11
1,1,19,1,5,1,1,20,75,11
1,1,17,1,6,1,1,20,96,11
1,1,20,1,3,0,1,20,64,11
1,1,13,1,4,0,1,20,96,11
1,1,17,1,4,0,1,20,64,11
1,1,12,1,6,1,1,20,96,11
1,1,12,1,0,0,1,20,96,11
1,1,20,1,1,0,1,20,38,11
1,1,16,1,2,0,1,20,64,11
1,1,18,1,2,0,1,20,96,11
1,1,11,1,6,1,1,20,96,11
1,1,21,0,6,1,1,20,96,11
1,1,17,1,0,0,1,20,38,11
1,1,15,1,2,0,1,20,101,11
1,1,16,1,2,0,1,20,64,11
1,1,11,1,3,0,1,20,96,11
1,1,12,1,3,0,1,20,96,11
1,1,18,1,3,0,1,20,96,11
1,1,9,1,6,1,1,20,75,11
1,1,12,1,6,1,1,20,90,11
1,1,17,1,6,1,1,20,96,11
1,1,18,1,6,1,1,20,96,11
1,1,14,1,0,0,1,20,96,11
1,1,9,1,1,0,1,20,75,11
1,1,10,1,1,0,1,20,96,11
1,1,20,1,1,0,1,20,96,11
1,1,17,1,3,0,1,20,96,11
1,1,18,1,3,0,1,20,75,11
1,1,19,1,4,0,1,20,96,11
1,1,11,1,5,1,1,20,96,11
1,1,0,0,6,1,1,20,64,11
1,1,10,1,6,1,1,20,96,11
1,1,21,0,6,1,1,20,38,11
1,1,16,1,0,0,1,20,64,11
2,1,21,0,3,0,1,20,96,11
2,1,18,1,4,0,1,20,96,11
2,1,15,1,6,1,1,20,96,11
2,1,20,1,0,0,1,20,38,11
2,1,17,1,3,0,1,20,101,11
2,1,20,1,3,0,1,20,124,11
2,1,19,1,2,0,1,20,96,11
2,1,22,0,2,0,1,20,96,11
2,1,19,1,3,0,1,20,101,11
2,1,21,0,3,0,1,20,101,11
2,1,1,0,5,1,1,20,96,11
2,1,13,1,0,0,1,20,96,11
3,2,20,1,1,0,1,20,64,11
3,2,10,1,3,0,1,20,96,11
3,2,22,0,3,0,1,20,64,11
3,2,18,1,5,1,1,20,64,11
3,2,19,1,6,1,1,20,75,11
3,2,14,1,2,0,1,20,96,11
3,2,19,1,2,0,1,20,96,11
3,2,15,1,4,0,1,20,64,11
3,2,17,1,5,1,1,20,38,11
3,2,20,1,5,1,1,20,101,11
3,2,11,1,6,1,1,20,64,11
3,2,23,0,6,1,1,20,1,11
3,2,20,1,0,0,1,20,96,11
3,2,22,0,0,0,1,20,96,11
3,2,23,0,1,0,1,20,38,11
3,2,23,0,4,0,1,20,90,11
3,2,13,1,6,1,1,20,101,11
3,2,16,1,6,1,1,20,64,11
3,2,9,1,1,0,1,20,90,11
3,2,16,1,1,0,1,20,64,11
3,2,20,1,1,0,1,20,75,11
3,2,21,0,4,0,1,20,96,11
3,2,1,0,6,1,1,20,13,11
3,2,11,1,6,1,1,20,101,11
3,2,20,1,6,1,1,20,101,11
3,2,21,0,0,0,1,20,124,11
3,2,22,0,0,0,1,20,64,11
3,2,20,1,3,0,1,20,64,11
4,2,21,0,4,0,2,20,109,11
4,2,0,0,5,1,2,20,109,11
4,2,15,1,6,1,2,20,64,11
4,2,12,1,1,0,2,20,38,11
4,2,21,0,2,0,2,20,96,11
4,2,1,0,3,0,2,20,90,11
4,2,17,1,3,0,2,20,99,11
4,2,12,1,6,1,2,20,75,11
4,2,13,1,1,0,2,20,75,11
4,2,16,1,2,0,2,20,88,11
5,2,15,1,5,1,2,20,88,11
5,2,20,1,1,0,2,20,9,11
5,2,2,0,2,0,2,20,87,9
6,3,16,1,6,1,2,20,1,11
6,3,22,0,0,0,2,20,101,11
6,3,23,0,0,0,2,20,89,11
6,3,23,0,0,0,2,20,101,11
6,3,11,1,4,0,2,20,64,11
6,3,18,1,0,0,2,20,38,11
7,3,12,1,1,0,3,20,90,11
7,3,19,1,5,1,3,20,101,11
7,3,21,0,6,1,3,20,109,11
7,3,21,0,5,1,3,20,101,11
7,3,9,1,2,0,3,20,64,11
8,3,12,1,5,1,3,20,90,11
8,3,18,1,1,0,3,20,96,11
8,3,23,0,1,0,3,20,96,11
8,3,17,1,2,0,3,20,101,11
8,3,18,1,5,1,3,20,1,11
8,3,2,0,0,0,3,20,20,9
9,4,21,0,3,0,3,20,96,11
9,4,18,1,4,0,3,20,14,11
9,4,4,0,6,1,3,20,20,9
10,4,12,1,3,0,4,20,101,11
10,4,22,0,6,1,4,20,96,11
11,4,21,0,2,0,4,20,72,9
11,4,14,1,0,0,4,20,96,11
11,4,17,1,5,1,4,20,64,11
11,4,13,1,6,1,4,20,96,11
11,4,20,1,6,1,4,20,64,11
11,4,19,1,0,0,4,20,20,8
11,4,1,0,2,0,4,20,96,11
11,4,16,1,4,0,4,20,38,11
12,1,16,1,4,0,4,20,101,11
12,1,20,1,5,1,4,20,64,11
12,1,11,1,6,1,4,20,96,11
12,1,0,0,1,0,4,20,47,11
12,1,19,1,4,0,4,20,96,11
12,1,13,1,1,0,4,20,64,11
12,1,1,0,2,0,4,20,64,11
12,1,18,1,2,0,4,20,96,11
12,1,11,1,4,0,4,20,96,11
12,1,19,1,5,1,4,20,96,11
12,1,20,1,5,1,4,20,75,11
12,1,3,0,0,0,4,20,96,11
12,1,13,1,0,0,4,20,90,11
12,1,14,1,0,0,4,20,96,11
12,1,14,1,0,0,4,20,96,11
12,1,7,1,1,0,4,20,96,11
12,1,14,1,1,0,4,20,96,11
12,1,18,1,1,0,4,20,96,11
12,1,23,0,1,0,4,20,96,11
12,1,19,1,4,0,4,20,96,11
1,1,14,1,3,0,1,20,90,11
2,1,8,1,5,1,1,20,38,11
2,1,1,0,4,0,1,20,75,11
2,1,4,0,1,0,1,20,14,9
3,2,19,1,0,0,1,20,101,11
3,2,8,1,1,0,1,20,75,11
3,2,10,1,1,0,1,20,101,11
3,2,13,1,5,1,1,20,90,11
4,2,19,1,1,0,2,20,75,11
4,2,13,1,4,0,2,20,101,11
4,2,15,1,1,0,2,20,20,11
6,3,0,0,4,0,2,20,20,9
7,3,18,1,0,0,3,20,101,11
7,3,11,1,6,1,3,20,101,11
8,3,13,1,0,0,3,20,101,11
9,4,17,1,6,1,3,20,101,11
10,4,22,0,3,0,4,20,101,11
10,4,10,1,6,1,4,20,101,11
10,4,0,0,0,0,4,20,75,9
12,1,14,1,5,1,4,20,101,11
1,1,12,1,2,0,1,20,101,11
1,1,15,1,4,0,1,20,101,11
2,1,3,0,2,0,1,20,14,11
3,2,15,1,1,0,1,20,101,11
3,2,18,1,1,0,1,20,101,11
3,2,23,0,1,0,1,20,101,11
3,2,16,1,5,1,1,20,101,11
4,2,5,0,4,0,2,20,75,8
4,2,20,1,1,0,2,20,4,11
7,3,5,0,0,0,3,20,75,9
7,3,18,1,1,0,3,20,101,11
7,3,18,1,2,0,3,20,101,11
9,4,15,1,2,0,3,20,90,11
12,1,1,0,4,0,4,20,20,9
1,1,12,1,5,1,1,20,65,11
2,1,6,0,5,1,1,20,45,11
3,2,22,0,1,0,1,20,45,11
3,2,17,1,2,0,1,20,101,11
4,2,2,0,5,1,2,20,124,11
4,2,19,1,4,0,2,20,101,11
6,3,19,1,0,0,2,20,90,11
6,3,13,1,4,0,2,20,101,11
6,3,14,1,6,1,2,20,56,11
6,3,21,0,4,0,2,20,13,11
6,3,18,1,6,1,2,20,90,11
7,3,18,1,0,0,3,20,90,11
7,3,15,1,3,0,3,20,101,11
7,3,16,1,3,0,3,20,109,11
9,4,23,0,2,0,3,20,75,11
9,4,0,0,4,0,3,20,72,11
12,1,17,1,5,1,4,20,90,11
4,2,14,1,3,0,2,20,14,11
6,3,21,0,2,0,2,20,109,11
9,4,13,1,6,1,3,20,75,11
11,4,9,1,4,0,4,20,38,9
12,1,19,1,4,0,4,20,72,11
1,1,23,0,2,0,1,18,89,11
1,1,17,1,5,1,1,18,101,11
1,1,20,1,4,0,1,18,101,11
1,1,13,1,2,0,1,18,101,11
1,1,13,1,6,1,1,18,101,11
1,1,17,1,6,1,1,18,34,11
2,1,16,1,5,1,1,18,88,11
2,1,19,1,2,0,1,18,64,11
2,1,11,1,3,0,1,18,101,11
2,1,21,0,3,0,1,18,88,11
2,1,22,0,3,0,1,18,64,11
2,1,22,0,3,0,1,18,88,11
2,1,0,0,4,0,1,18,88,11
3,2,12,1,3,0,1,18,88,11
3,2,18,1,5,1,1,18,64,11
3,2,15,1,6,1,1,18,64,11
3,2,13,1,0,0,1,18,101,11
3,2,13,1,4,0,1,18,88,11
3,2,13,1,4,0,1,18,101,11
3,2,18,1,5,1,1,18,101,11
3,2,11,1,6,1,1,18,90,11
3,2,13,1,6,1,1,18,88,11
3,2,19,1,6,1,1,18,38,11
3,2,19,1,6,1,1,18,88,11
3,2,19,1,6,1,1,18,101,11
3,2,11,1,2,0,1,18,101,11
3,2,23,0,2,0,1,18,88,11
3,2,19,1,4,0,1,18,108,11
3,2,11,1,6,1,1,18,90,11
3,2,21,0,6,1,1,18,75,11
3,2,2,0,3,0,1,18,101,11
4,2,21,0,4,0,2,18,75,11
4,2,7,1,1,0,2,18,101,11
4,2,20,1,2,0,2,18,101,11
4,2,22,0,2,0,2,18,38,11
4,2,11,1,0,0,2,18,101,11
4,2,16,1,6,1,2,18,124,9
4,2,20,1,1,0,2,18,101,11
4,2,19,1,3,0,2,18,101,11
4,2,11,1,4,0,2,18,101,11
4,2,11,1,5,1,2,18,109,11
4,2,17,1,5,1,2,18,78,11
4,2,3,0,2,0,2,18,101,11
4,2,12,1,4,0,2,18,90,11
4,2,17,1,5,1,2,18,101,11
5,2,12,1,4,0,2,18,122,11
5,2,13,1,4,0,2,18,101,11
5,2,15,1,2,0,2,18,101,11
5,2,17,1,2,0,2,18,63,11
5,2,14,1,3,0,2,18,78,11
6,3,20,1,3,0,2,18,101,11
6,3,11,1,2,0,2,18,101,11
6,3,9,1,4,0,2,18,47,11
6,3,10,1,3,0,2,18,64,11
6,3,13,1,4,0,2,18,101,11
6,3,8,1,6,1,2,18,64,11
6,3,18,1,0,0,2,18,101,11
7,3,23,0,6,1,3,18,72,8
7,3,13,1,0,0,3,18,101,11
7,3,15,1,4,0,3,18,64,11
7,3,11,1,0,0,3,18,20,9
8,3,6,0,1,0,3,18,101,11
8,3,16,1,4,0,3,18,64,11
8,3,8,1,4,0,3,18,101,11
8,3,19,1,1,0,3,18,101,11
9,4,12,1,4,0,3,18,101,11
9,4,5,0,5,1,3,18,13,9
9,4,14,1,0,0,3,18,101,11
9,4,18,1,2,0,3,18,101,9
9,4,11,1,5,1,3,18,101,11
9,4,14,1,0,0,3,18,90,9
10,4,16,1,6,1,4,18,101,11
10,4,22,0,0,0,4,18,109,11
10,4,18,1,4,0,4,18,101,11
10,4,15,1,1,0,4,18,101,11
10,4,8,1,2,0,4,18,101,11
10,4,17,1,3,0,4,18,101,11
10,4,18,1,3,0,4,18,101,11
10,4,19,1,0,0,4,18,88,11
11,4,20,1,1,0,4,18,90,11
11,4,17,1,3,0,4,18,101,11
11,4,12,1,1,0,4,18,124,11
12,1,10,1,6,1,4,18,124,11
12,1,13,1,3,0,4,18,124,11
12,1,17,1,3,0,4,18,124,11
12,1,17,1,3,0,4,18,124,11
12,1,11,1,5,1,4,18,88,11
12,1,17,1,1,0,4,18,101,11
1,1,17,1,4,0,1,18,75,11
1,1,9,1,1,0,1,18,75,11
2,1,18,1,6,1,1,18,64,11
2,1,7,1,2,0,1,18,72,9
2,1,15,1,5,1,1,18,101,11
2,1,16,1,6,1,1,18,101,11
3,2,12,1,0,0,1,18,90,11
3,2,17,1,5,1,1,18,13,9
3,2,13,1,0,0,1,18,101,11
4,2,17,1,1,0,2,18,101,11
4,2,2,0,2,0,2,18,101,11
4,2,18,1,0,0,2,18,101,11
7,3,23,0,5,1,3,18,20,11
7,3,14,1,6,1,3,18,101,11
8,3,2,0,2,0,3,18,1,11
10,4,17,1,1,0,4,18,101,11
10,4,16,1,2,0,4,18,101,11
10,4,12,1,5,1,4,18,101,11
1,1,16,1,0,0,1,18,101,11
1,1,13,1,2,0,1,18,101,11
1,1,18,1,4,0,1,18,121,11
2,1,17,1,0,0,1,18,124,11
3,2,19,1,2,0,1,18,101,11
3,2,21,0,2,0,1,18,101,11
3,2,14,1,6,1,1,18,101,11
3,2,21,0,6,1,1,18,101,11
4,2,20,1,4,0,2,18,101,11
4,2,17,1,4,0,2,18,101,11
5,2,20,1,5,1,2,18,101,11
5,2,9,1,1,0,2,18,101,11
6,3,15,1,3,0,2,18,27,11
7,3,14,1,6,1,3,18,101,11
7,3,21,0,2,0,3,18,101,11
7,3,12,1,4,0,3,18,62,8
7,3,12,1,5,1,3,18,101,11
7,3,10,1,3,0,3,18,101,11
7,3,9,1,6,1,3,18,62,11
7,3,16,1,6,1,3,18,101,11
8,3,2,0,3,0,3,18,66,11
8,3,17,1,2,0,3,18,101,9
8,3,18,1,4,0,3,18,101,11
8,3,18,1,2,0,3,18,34,9
8,3,20,1,2,0,3,18,34,11
9,4,23,0,2,0,3,18,88,11
9,4,14,1,0,0,3,18,88,11
9,4,18,1,2,0,3,18,88,11
9,4,16,1,2,0,3,18,121,8
9,4,18,1,2,0,3,18,101,11
10,4,15,1,6,1,4,18,108,11
10,4,11,1,0,0,4,18,101,11
11,4,11,1,3,0,4,18,88,11
11,4,12,1,1,0,4,18,13,8
1,1,14,1,5,1,1,4,75,11
1,1,23,0,0,0,1,4,87,9
1,1,9,1,5,1,1,4,75,11
1,1,18,1,1,0,1,4,75,11
1,1,18,1,1,0,1,4,64,11
1,1,21,0,1,0,1,4,96,11
1,1,17,1,5,1,1,4,96,11
1,1,22,0,5,1,1,4,75,11
1,1,8,1,5,1,1,4,96,11
1,1,11,1,5,1,1,4,75,11
1,1,22,0,5,1,1,4,96,11
1,1,18,1,0,0,1,4,64,11
1,1,21,0,1,0,1,4,96,11
1,1,23,0,3,0,1,4,64,11
1,1,15,1,4,0,1,4,101,11
1,1,15,1,4,0,1,4,101,11
1,1,20,1,4,0,1,4,101,11
2,1,20,1,3,0,1,4,64,11
2,1,3,0,5,1,1,4,75,11
2,1,19,1,6,1,1,4,101,11
2,1,14,1,2,0,1,4,90,11
2,1,10,1,5,1,1,4,101,11
2,1,15,1,5,1,1,4,101,11
2,1,12,1,0,0,1,4,96,11
2,1,2,0,1,0,1,4,101,11
2,1,16,1,1,0,1,4,64,11
2,1,13,1,2,0,1,4,101,11
2,1,15,1,3,0,1,4,96,11
2,1,13,1,4,0,1,4,64,11
2,1,20,1,2,0,1,4,101,11
2,1,12,1,3,0,1,4,101,11
2,1,15,1,3,0,1,4,101,11
2,1,13,1,4,0,1,4,101,11
2,1,14,1,4,0,1,4,101,11
2,1,19,1,4,0,1,4,96,11
2,1,14,1,5,1,1,4,38,11
2,1,15,1,5,1,1,4,101,11
2,1,18,1,6,1,1,4,64,11
3,2,20,1,1,0,1,4,96,11
3,2,12,1,3,0,1,4,101,11
3,2,15,1,0,0,1,4,96,11
3,2,19,1,1,0,1,4,96,11
3,2,16,1,4,0,1,4,101,11
3,2,20,1,4,0,1,4,64,11
3,2,21,0,5,1,1,4,101,11
3,2,1,0,6,1,1,4,101,11
3,2,17,1,6,1,1,4,101,9
3,2,18,1,6,1,1,4,90,11
3,2,12,1,0,0,1,4,71,11
3,2,21,0,4,0,1,4,101,11
3,2,14,1,0,0,1,4,101,11
3,2,15,1,0,0,1,4,96,11
3,2,12,1,3,0,1,4,101,11
3,2,17,1,3,0,1,4,101,11
3,2,14,1,4,0,1,4,90,11
3,2,14,1,5,1,1,4,101,11
3,2,19,1,5,1,1,4,101,11
3,2,9,1,6,1,1,4,101,11
3,2,11,1,6,1,1,4,101,11
3,2,18,1,6,1,1,4,63,11
3,2,13,1,1,0,1,4,101,11
3,2,15,1,1,0,1,4,101,11
3,2,14,1,2,0,1,4,101,11
3,2,16,1,2,0,1,4,101,11
3,2,0,0,3,0,1,4,14,9
4,2,19,1,5,1,2,4,101,11
4,2,22,0,0,0,2,4,38,11
4,2,19,1,1,0,2,4,101,11
4,2,13,1,0,0,2,4,101,11
4,2,17,1,0,0,2,4,101,11
4,2,18,1,0,0,2,4,101,11
4,2,12,1,3,0,2,4,101,11
4,2,16,1,3,0,2,4,90,9
4,2,16,1,3,0,2,4,101,11
4,2,11,1,4,0,2,4,101,11
4,2,19,1,4,0,2,4,101,11
4,2,13,1,5,1,2,4,101,11
4,2,16,1,5,1,2,4,96,11
4,2,13,1,6,1,2,4,101,11
4,2,22,0,6,1,2,4,101,11
4,2,9,1,0,0,2,4,109,11
4,2,0,0,1,0,2,4,96,11
4,2,11,1,1,0,2,4,101,11
4,2,12,1,2,0,2,4,72,9
4,2,18,1,3,0,2,4,101,11
4,2,22,0,3,0,2,4,96,11
4,2,16,1,5,1,2,4,72,11
5,2,15,1,5,1,2,4,101,11
5,2,17,1,5,1,2,4,90,11
5,2,21,0,6,1,2,4,90,11
5,2,15,1,4,0,2,4,101,11
5,2,17,1,1,0,2,4,101,11
5,2,10,1,3,0,2,4,101,11
5,2,13,1,1,0,2,4,75,11
5,2,16,1,3,0,2,4,101,11
5,2,22,0,4,0,2,4,101,11
5,2,13,1,6,1,2,4,63,11
5,2,14,1,1,0,2,4,90,11
6,3,18,1,3,0,2,4,101,11
6,3,19,1,3,0,2,4,90,11
6,3,9,1,4,0,2,4,90,11
6,3,17,1,1,0,2,4,101,11
6,3,16,1,2,0,2,4,90,11
6,3,20,1,2,0,2,4,72,11
6,3,15,1,3,0,2,4,101,11
6,3,16,1,3,0,2,4,101,11
6,3,7,1,1,0,2,4,109,11
6,3,18,1,2,0,2,4,101,11
6,3,20,1,5,1,2,4,101,11
6,3,21,0,0,0,2,4,101,11
6,3,23,0,1,0,2,4,101,11
6,3,20,1,2,0,2,4,101,11
7,3,13,1,4,0,3,4,90,11
7,3,17,1,4,0,3,4,4,11
7,3,20,1,4,0,3,4,109,11
7,3,20,1,4,0,3,4,72,11
7,3,8,1,0,0,3,4,101,11
7,3,1,0,0,0,3,4,64,11
7,3,19,1,0,0,3,4,101,11
7,3,17,1,5,1,3,4,101,11
7,3,4,0,6,1,3,4,75,11
7,3,23,0,0,0,3,4,101,11
8,3,20,1,0,0,3,4,101,11
8,3,11,1,2,0,3,4,101,11
8,3,12,1,2,0,3,4,101,11
8,3,16,1,6,1,3,4,90,11
8,3,18,1,2,0,3,4,90,11
8,3,18,1,4,0,3,4,14,8
8,3,21,0,5,1,3,4,88,11
8,3,23,0,4,0,3,4,99,11
8,3,13,1,0,0,3,4,101,9
8,3,23,0,2,0,3,4,101,11
8,3,10,1,6,1,3,4,101,11
8,3,2,0,0,0,3,4,90,11
9,4,9,1,5,1,3,4,38,11
9,4,17,1,6,1,3,4,101,11
9,4,9,1,2,0,3,4,72,11
9,4,15,1,2,0,3,4,64,11
9,4,10,1,5,1,3,4,77,11
9,4,16,1,2,0,3,4,101,11
9,4,17,1,2,0,3,4,101,11
9,4,19,1,4,0,3,4,101,11
9,4,17,1,5,1,3,4,72,11
10,4,13,1,5,1,4,4,101,11
10,4,14,1,2,0,4,4,101,11
10,4,22,0,2,0,4,4,105,11
10,4,22,0,2,0,4,4,101,11
10,4,15,1,1,0,4,4,101,11
10,4,9,1,2,0,4,4,101,11
10,4,8,1,3,0,4,4,27,11
10,4,20,1,3,0,4,4,101,11
10,4,16,1,4,0,4,4,101,11
10,4,6,0,0,0,4,4,63,11
10,4,12,1,4,0,4,4,101,11
10,4,14,1,5,1,4,4,101,11
11,4,15,1,3,0,4,4,101,11
11,4,5,0,4,0,4,4,101,11
11,4,13,1,0,0,4,4,101,11
11,4,16,1,3,0,4,4,90,11
11,4,23,0,6,1,4,4,75,11
11,4,1,0,2,0,4,4,101,11
11,4,19,1,2,0,4,4,55,11
11,4,19,1,3,0,4,4,101,11
11,4,16,1,5,1,4,4,55,11
11,4,13,1,6,1,4,4,64,11
11,4,9,1,0,0,4,4,90,11
11,4,23,0,4,0,4,4,55,11
12,1,0,0,3,0,4,4,64,11
12,1,0,0,1,0,4,4,101,11
12,1,3,0,6,1,4,4,96,11
12,1,19,1,0,0,4,4,96,11
12,1,13,1,2,0,4,4,14,11
12,1,4,0,5,1,4,4,72,11
12,1,16,1,0,0,4,4,96,11
6,3,13,1,1,0,2,4,101,11
7,3,14,1,1,0,3,4,13,11
8,3,21,0,6,1,3,4,4,11
10,4,9,1,0,0,4,4,101,11
3,2,15,1,2,0,1,4,75,11
4,2,14,1,0,0,2,4,56,11
8,3,18,1,0,0,3,4,75,9
11,4,6,0,1,0,4,4,15,11
1,1,8,1,4,0,1,40,75,11
1,1,15,1,4,0,1,40,88,11
1,1,10,1,2,0,1,40,14,8
1,1,10,1,3,0,1,40,88,11
1,1,0,0,4,0,1,40,109,11
1,1,20,1,5,1,1,40,88,11
1,1,19,1,5,1,1,40,88,11
1,1,15,1,6,1,1,40,38,9
1,1,15,1,0,0,1,40,88,11
2,1,20,1,6,1,1,40,88,11
2,1,20,1,1,0,1,40,64,11
2,1,1,0,2,0,1,40,88,11
2,1,11,1,6,1,1,40,88,11
2,1,19,1,6,1,1,40,101,11
2,1,19,1,5,1,1,40,64,11
2,1,21,0,6,1,1,40,101,11
2,1,8,1,1,0,1,40,101,11
2,1,23,0,3,0,1,40,88,11
2,1,16,1,4,0,1,40,101,11
2,1,18,1,4,0,1,40,101,11
2,1,21,0,6,1,1,40,88,11
2,1,14,1,0,0,1,40,101,11
3,2,20,1,1,0,1,40,109,11
3,2,15,1,5,1,1,40,101,11
3,2,19,1,1,0,1,40,1,11
3,2,16,1,5,1,1,40,88,11
3,2,14,1,0,0,1,40,1,8
3,2,12,1,4,0,1,40,64,11
3,2,12,1,5,1,1,40,4,9
3,2,10,1,6,1,1,40,101,11
3,2,18,1,0,0,1,40,101,11
3,2,15,1,1,0,1,40,101,11
3,2,12,1,2,0,1,40,101,9
3,2,11,1,3,0,1,40,101,11
3,2,13,1,5,1,1,40,101,11
3,2,14,1,0,0,1,40,101,11
3,2,18,1,1,0,1,40,101,11
3,2,9,1,2,0,1,40,90,11
4,2,2,0,4,0,2,40,101,11
4,2,12,1,5,1,2,40,101,11
4,2,21,0,5,1,2,40,101,11
4,2,13,1,2,0,2,40,101,11
4,2,15,1,2,0,2,40,1,11
4,2,0,0,3,0,2,40,101,11
4,2,18,1,4,0,2,40,90,11
4,2,18,1,6,1,2,40,1,11
4,2,9,1,3,0,2,40,90,11
4,2,22,0,4,0,2,40,101,11
5,2,2,0,0,0,2,40,109,11
5,2,12,1,2,0,2,40,101,11
5,2,0,0,1,0,2,40,64,9
5,2,5,0,3,0,2,40,109,11
5,2,13,1,3,0,2,40,4,9
5,2,13,1,3,0,2,40,101,11
5,2,18,1,1,0,2,40,101,11
5,2,16,1,2,0,2,40,90,9
5,2,17,1,4,0,2,40,101,11
5,2,7,1,0,0,2,40,1,11
6,3,16,1,2,0,2,40,101,11
6,3,11,1,1,0,2,40,121,11
6,3,19,1,2,0,2,40,101,11
6,3,12,1,5,1,2,40,13,9
6,3,2,0,0,0,2,40,109,11
6,3,21,0,1,0,2,40,101,11
7,3,3,0,6,1,3,40,104,9
7,3,15,1,6,1,3,40,101,11
7,3,20,1,6,1,3,40,101,11
7,3,0,0,4,0,3,40,23,9
7,3,8,1,4,0,3,40,101,11
7,3,10,1,5,1,3,40,101,11
7,3,22,0,2,0,3,40,90,11
7,3,20,1,3,0,3,40,88,11
7,3,16,1,5,1,3,40,88,11
8,3,18,1,3,0,3,40,20,11
8,3,16,1,4,0,3,40,90,11
8,3,21,0,0,0,3,40,101,11
8,3,20,1,4,0,3,40,88,11
8,3,21,0,4,0,3,40,88,11
8,3,15,1,6,1,3,40,90,11
8,3,14,1,0,0,3,40,20,11
8,3,17,1,1,0,3,40,101,11
9,4,11,1,4,0,3,40,101,11
9,4,15,1,4,0,3,40,88,11
9,4,1,0,2,0,3,40,20,9
9,4,19,1,4,0,3,40,101,11
9,4,5,0,0,0,3,40,88,11
9,4,8,1,3,0,3,40,18,11
9,4,12,1,3,0,3,40,13,8
10,4,12,1,5,1,4,40,90,11
10,4,13,1,6,1,4,40,79,11
10,4,8,1,0,0,4,40,79,11
10,4,10,1,0,0,4,40,88,9
10,4,14,1,0,0,4,40,101,11
10,4,15,1,0,0,4,40,27,11
10,4,18,1,4,0,4,40,51,11
10,4,19,1,5,1,4,40,101,11
10,4,13,1,6,1,4,40,101,9
11,4,8,1,1,0,4,40,101,11
11,4,15,1,2,0,4,40,101,11
11,4,17,1,5,1,4,40,88,11
11,4,16,1,0,0,4,40,4,11
1,1,14,1,3,0,1,40,101,11
1,1,16,1,5,1,1,40,101,11
1,1,15,1,6,1,1,40,101,11
2,1,6,0,1,0,1,40,109,11
2,1,13,1,6,1,1,40,101,11
2,1,18,1,1,0,1,40,101,11
2,1,16,1,6,1,1,40,101,11
2,1,19,1,6,1,1,40,101,11
2,1,19,1,6,1,1,40,101,11
2,1,17,1,0,0,1,40,88,11
2,1,13,1,1,0,1,40,101,11
2,1,14,1,5,1,1,40,101,11
2,1,15,1,5,1,1,40,101,11
2,1,11,1,6,1,1,40,101,11
2,1,14,1,2,0,1,40,122,8
2,1,14,1,3,0,1,40,101,11
3,2,13,1,3,0,1,40,101,11
3,2,18,1,4,0,1,40,101,11
3,2,13,1,2,0,1,40,13,11
3,2,15,1,2,0,1,40,101,11
3,2,17,1,2,0,1,40,101,11
3,2,18,1,4,0,1,40,101,11
3,2,19,1,6,1,1,40,101,11
3,2,20,1,6,1,1,40,101,11
3,2,16,1,2,0,1,40,101,11
3,2,10,1,5,1,1,40,101,11
3,2,19,1,6,1,1,40,101,11
3,2,20,1,0,0,1,40,101,11
4,2,18,1,6,1,2,40,101,11
4,2,15,1,2,0,2,40,101,11
4,2,20,1,1,0,2,40,101,11
4,2,12,1,3,0,2,40,38,9
4,2,14,1,2,0,2,40,101,11
4,2,16,1,5,1,2,40,101,11
4,2,19,1,5,1,2,40,4,11
5,2,13,1,5,1,2,40,101,11
5,2,10,1,6,1,2,40,4,11
5,2,6,0,3,0,2,40,101,11
5,2,21,0,5,1,2,40,101,11
5,2,0,0,6,1,2,40,124,11
5,2,10,1,0,0,2,40,101,11
6,3,8,1,3,0,2,40,101,11
6,3,22,0,3,0,2,40,101,11
6,3,8,1,2,0,2,40,101,11
6,3,16,1,1,0,2,40,4,11
6,3,12,1,2,0,2,40,101,11
6,3,20,1,6,1,2,40,13,8
6,3,19,1,3,0,2,40,101,11
7,3,10,1,4,0,3,40,101,11
7,3,20,1,0,0,3,40,101,11
7,3,16,1,1,0,3,40,101,11
7,3,13,1,1,0,3,40,101,11
7,3,20,1,3,0,3,40,90,11
7,3,16,1,4,0,3,40,4,11
8,3,10,1,6,1,3,40,101,11
8,3,21,0,0,0,3,40,101,11
9,4,18,1,0,0,3,40,13,9
9,4,14,1,0,0,3,40,101,11
9,4,16,1,6,1,3,40,101,11
9,4,16,1,4,0,3,40,101,11
9,4,15,1,6,1,3,40,101,11
9,4,17,1,4,0,3,40,101,11
10,4,9,1,2,0,4,40,101,11
10,4,18,1,0,0,4,40,101,11
10,4,15,1,4,0,4,40,101,11
10,4,23,0,1,0,4,40,124,11
10,4,17,1,4,0,4,40,101,11
10,4,12,1,5,1,4,40,101,11
10,4,16,1,0,0,4,40,101,11
11,4,14,1,3,0,4,40,90,11
11,4,17,1,0,0,4,40,38,11
11,4,8,1,2,0,4,40,13,11
12,1,9,1,1,0,4,40,20,11
1,1,18,1,5,1,1,40,101,11
1,1,1,0,5,1,1,40,101,11
3,2,12,1,0,0,1,40,101,11
3,2,12,1,0,0,1,40,101,11
3,2,11,1,1,0,1,40,101,11
3,2,17,1,0,0,1,40,101,11
4,2,18,1,0,0,2,40,101,11
4,2,19,1,0,0,2,40,101,11
5,2,16,1,6,1,2,40,101,11
5,2,10,1,0,0,2,40,13,9
6,3,21,0,3,0,2,40,101,11
7,3,14,1,6,1,3,40,101,11
7,3,16,1,6,1,3,40,101,11
8,3,12,1,5,1,3,40,101,11
8,3,20,1,5,1,3,40,101,11
9,4,1,0,0,0,3,40,101,11
9,4,20,1,1,0,3,40,38,8
10,4,16,1,1,0,4,40,101,11
11,4,12,1,2,0,4,40,101,11
11,4,13,1,5,1,4,40,101,11
1,1,18,1,3,0,1,40,101,11
1,1,15,1,4,0,1,40,101,11
1,1,13,1,5,1,1,40,101,11
1,1,16,1,0,0,1,40,101,11
1,1,14,1,0,0,1,40,101,11
2,1,12,1,5,1,1,40,101,11
2,1,14,1,5,1,1,40,101,11
3,2,13,1,5,1,1,40,101,11
3,2,16,1,0,0,1,40,101,11
3,2,20,1,1,0,1,40,101,11
3,2,13,1,4,0,1,40,101,11
3,2,13,1,6,1,1,40,101,11
3,2,12,1,2,0,1,40,88,9
3,2,20,1,2,0,1,40,101,11
3,2,19,1,3,0,1,40,101,11
4,2,11,1,1,0,2,40,101,11
4,2,18,1,4,0,2,40,101,11
4,2,22,0,1,0,2,40,101,11
4,2,16,1,4,0,2,40,101,11
4,2,15,1,5,1,2,40,108,11
5,2,8,1,3,0,2,40,101,11
5,2,12,1,5,1,2,40,101,9
5,2,18,1,4,0,2,40,101,11
5,2,16,1,5,1,2,40,101,11
6,3,0,0,5,1,2,40,75,9
6,3,13,1,3,0,2,40,101,11
6,3,13,1,3,0,2,40,101,11
6,3,19,1,3,0,2,40,101,11
6,3,22,0,3,0,2,40,101,11
6,3,16,1,0,0,2,40,101,9
7,3,10,1,4,0,3,40,101,11
7,3,20,1,4,0,3,40,101,11
7,3,23,0,6,1,3,40,101,11
7,3,23,0,0,0,3,40,101,11
8,3,0,0,0,0,3,40,101,11
8,3,15,1,4,0,3,40,101,11
8,3,1,0,2,0,3,40,101,11
8,3,11,1,6,1,3,40,79,11
8,3,18,1,2,0,3,40,101,11
9,4,2,0,2,0,3,40,88,11
10,4,13,1,2,0,4,40,101,11
10,4,17,1,1,0,4,40,101,11
10,4,19,1,3,0,4,40,101,11
12,1,18,1,4,0,4,40,101,11
12,1,11,1,3,0,4,40,64,11
1,1,18,1,4,0,1,31,75,11
2,1,15,1,4,0,1,31,75,11
6,3,21,0,2,0,2,31,47,11
6,3,11,1,6,1,2,31,72,11
7,3,16,1,3,0,3,31,101,11
8,3,10,1,0,0,3,31,107,11
9,4,22,0,0,0,3,31,13,11
10,4,5,0,5,1,4,31,75,11
11,4,18,1,2,0,4,31,13,11
1,1,18,1,6,1,1,31,88,11
1,1,10,1,1,0,1,31,88,11
1,1,5,0,4,0,1,31,75,11
1,1,13,1,0,0,1,31,101,11
1,1,11,1,3,0,1,31,88,11
2,1,16,1,3,0,1,31,124,11
2,1,12,1,5,1,1,31,4,9
3,2,13,1,1,0,1,31,88,11
3,2,18,1,6,1,1,31,4,11
4,2,21,0,2,0,2,31,88,11
4,2,8,1,5,1,2,31,101,11
4,2,21,0,4,0,2,31,88,11
5,2,6,0,6,1,2,31,88,11
5,2,12,1,0,0,2,31,90,9
5,2,21,0,2,0,2,31,103,11
5,2,20,1,2,0,2,31,88,11
5,2,19,1,3,0,2,31,88,11
5,2,21,0,3,0,2,31,88,11
5,2,13,1,0,0,2,31,101,11
5,2,13,1,0,0,2,31,88,11
5,2,14,1,2,0,2,31,90,9
5,2,19,1,4,0,2,31,88,11
5,2,21,0,4,0,2,31,88,11
5,2,23,0,5,1,2,31,90,11
6,3,14,1,5,1,2,31,108,11
6,3,17,1,5,1,2,31,90,11
6,3,13,1,6,1,2,31,90,11
6,3,21,0,1,0,2,31,124,11
6,3,14,1,1,0,2,31,88,11
6,3,14,1,4,0,2,31,90,11
6,3,16,1,2,0,2,31,21,11
6,3,15,1,4,0,2,31,101,11
6,3,15,1,1,0,2,31,75,11
6,3,18,1,3,0,2,31,88,11
7,3,13,1,4,0,3,31,88,11
7,3,23,0,5,1,3,31,88,11
7,3,15,1,6,1,3,31,88,11
7,3,17,1,0,0,3,31,90,11
7,3,20,1,0,0,3,31,90,11
7,3,23,0,0,0,3,31,4,11
7,3,0,0,2,0,3,31,88,11
7,3,15,1,2,0,3,31,88,11
7,3,9,1,1,0,3,31,75,9
7,3,16,1,1,0,3,31,88,11
7,3,16,1,6,1,3,31,90,11
7,3,7,1,1,0,3,31,90,11
7,3,22,0,1,0,3,31,88,11
7,3,14,1,4,0,3,31,124,11
7,3,12,1,6,1,3,31,90,11
7,3,19,1,0,0,3,31,101,11
7,3,23,0,0,0,3,31,101,11
7,3,9,1,5,1,3,31,101,11
7,3,18,1,5,1,3,31,90,11
8,3,13,1,0,0,3,31,90,11
8,3,22,0,4,0,3,31,9,11
8,3,12,1,5,1,3,31,101,11
8,3,0,0,1,0,3,31,88,11
8,3,8,1,1,0,3,31,88,11
8,3,8,1,1,0,3,31,88,11
8,3,15,1,4,0,3,31,101,11
8,3,21,0,5,1,3,31,101,11
8,3,19,1,6,1,3,31,90,11
8,3,22,0,0,0,3,31,101,11
8,3,3,0,0,0,3,31,88,11
9,4,0,0,6,1,3,31,101,11
9,4,1,0,0,0,3,31,88,11
9,4,12,1,0,0,3,31,101,11
9,4,22,0,3,0,3,31,124,11
9,4,20,1,6,1,3,31,88,11
9,4,20,1,6,1,3,31,88,11
9,4,12,1,1,0,3,31,4,9
9,4,13,1,1,0,3,31,4,11
9,4,13,1,3,0,3,31,101,11
9,4,17,1,4,0,3,31,4,11
10,4,18,1,5,1,4,31,88,9
10,4,3,0,6,1,4,31,13,8
10,4,13,1,6,1,4,31,90,11
10,4,21,0,6,1,4,31,88,11
10,4,11,1,4,0,4,31,4,11
10,4,23,0,4,0,4,31,101,11
10,4,16,1,6,1,4,31,4,11
10,4,22,0,0,0,4,31,101,11
10,4,21,0,2,0,4,31,101,11
10,4,18,1,3,0,4,31,25,11
10,4,16,1,3,0,4,31,101,11
10,4,0,0,4,0,4,31,90,11
10,4,9,1,5,1,4,31,88,11
10,4,11,1,6,1,4,31,75,11
10,4,14,1,6,1,4,31,88,11
10,4,12,1,0,0,4,31,88,11
10,4,21,0,3,0,4,31,124,11
10,4,16,1,4,0,4,31,88,11
10,4,15,1,6,1,4,31,90,11
10,4,16,1,6,1,4,31,4,11
10,4,12,1,0,0,4,31,45,11
11,4,10,1,3,0,4,31,124,11
11,4,16,1,4,0,4,31,88,11
11,4,3,0,2,0,4,31,90,11
11,4,20,1,3,0,4,31,88,11
11,4,18,1,4,0,4,31,90,11
11,4,15,1,5,1,4,31,90,11
11,4,2,0,0,0,4,31,88,11
11,4,11,1,0,0,4,31,75,11
11,4,19,1,6,1,4,31,124,11
12,1,19,1,5,1,4,31,88,11
12,1,22,0,0,0,4,31,88,9
12,1,15,1,4,0,4,31,88,11
12,1,14,1,1,0,4,31,89,11
12,1,20,1,1,0,4,31,89,11
12,1,13,1,1,0,4,31,88,11
4,2,4,0,4,0,2,31,101,11
1,1,20,1,0,0,1,31,96,11
1,1,20,1,0,0,1,31,75,11
1,1,20,1,0,0,1,31,88,11
1,1,1,0,1,0,1,31,88,11
1,1,9,1,1,0,1,31,88,11
1,1,19,1,1,0,1,31,75,11
1,1,21,0,2,0,1,31,88,11
1,1,13,1,3,0,1,31,72,9
1,1,20,1,3,0,1,31,38,9
1,1,0,0,4,0,1,31,88,11
1,1,1,0,5,1,1,31,88,11
1,1,20,1,5,1,1,31,96,11
1,1,7,1,1,0,1,31,88,11
1,1,22,0,2,0,1,31,4,11
1,1,14,1,3,0,1,31,88,11
1,1,15,1,3,0,1,31,64,11
1,1,15,1,4,0,1,31,64,11
1,1,16,1,5,1,1,31,38,11
1,1,23,0,5,1,1,31,88,11
1,1,16,1,6,1,1,31,1,11
1,1,6,0,0,0,1,31,14,9
1,1,14,1,0,0,1,31,124,11
1,1,17,1,0,0,1,31,64,11
1,1,11,1,3,0,1,31,64,11
1,1,21,0,3,0,1,31,64,11
1,1,22,0,5,1,1,31,88,11
1,1,13,1,6,1,1,31,79,11
1,1,18,1,6,1,1,31,57,11
1,1,20,1,6,1,1,31,88,11
1,1,14,1,1,0,1,31,64,11
1,1,11,1,2,0,1,31,20,9
1,1,18,1,3,0,1,31,38,11
1,1,18,1,4,0,1,31,64,11
1,1,1,0,5,1,1,31,75,11
1,1,11,1,5,1,1,31,4,11
1,1,17,1,6,1,1,31,88,11
1,1,22,0,6,1,1,31,88,11
2,1,11,1,1,0,1,31,64,11
2,1,14,1,1,0,1,31,96,11
2,1,16,1,1,0,1,31,75,11
2,1,16,1,4,0,1,31,90,11
2,1,23,0,4,0,1,31,88,11
2,1,0,0,5,1,1,31,96,11
2,1,0,0,5,1,1,31,75,9
2,1,12,1,5,1,1,31,124,11
2,1,7,1,1,0,1,31,88,11
2,1,0,0,2,0,1,31,21,11
2,1,18,1,3,0,1,31,102,11
2,1,22,0,3,0,1,31,63,11
2,1,1,0,4,0,1,31,64,11
2,1,3,0,4,0,1,31,13,9
2,1,8,1,6,1,1,31,23,11
2,1,10,1,0,0,1,31,88,11
2,1,8,1,1,0,1,31,64,11
2,1,17,1,2,0,1,31,20,11
2,1,21,0,2,0,1,31,64,11
2,1,17,1,4,0,1,31,121,11
2,1,11,1,5,1,1,31,27,11
2,1,19,1,5,1,1,31,20,11
2,1,23,0,6,1,1,31,88,11
2,1,16,1,1,0,1,31,90,11
2,1,8,1,2,0,1,31,88,11
2,1,14,1,2,0,1,31,38,8
2,1,21,0,3,0,1,31,64,11
2,1,15,1,4,0,1,31,101,11
2,1,17,1,4,0,1,31,75,11
3,2,22,0,1,0,1,31,38,11
3,2,20,1,2,0,1,31,64,11
3,2,4,0,3,0,1,31,75,11
3,2,15,1,3,0,1,31,64,11
3,2,23,0,3,0,1,31,124,11
3,2,17,1,5,1,1,31,64,11
3,2,8,1,6,1,1,31,96,11
3,2,22,0,6,1,1,31,99,11
3,2,11,1,1,0,1,31,106,11
3,2,19,1,3,0,1,31,88,11
3,2,16,1,4,0,1,31,88,11
3,2,21,0,4,0,1,31,64,11
3,2,14,1,5,1,1,31,90,11
3,2,18,1,5,1,1,31,90,11
3,2,14,1,6,1,1,31,124,11
3,2,18,1,6,1,1,31,64,11
3,2,14,1,0,0,1,31,75,11
3,2,19,1,0,0,1,31,88,11
3,2,20,1,1,0,1,31,124,11
3,2,20,1,2,0,1,31,75,11
3,2,1,0,3,0,1,31,101,11
3,2,0,0,4,0,1,31,55,11
3,2,23,0,4,0,1,31,90,11
3,2,16,1,5,1,1,31,124,11
3,2,22,0,5,1,1,31,64,11
3,2,20,1,0,0,1,31,88,11
3,2,15,1,1,0,1,31,90,11
3,2,22,0,2,0,1,31,75,11
3,2,15,1,3,0,1,31,54,11
3,2,19,1,3,0,1,31,101,11
3,2,21,0,5,1,1,31,88,11
4,2,0,0,5,1,2,31,101,11
4,2,13,1,5,1,2,31,13,9
4,2,21,0,5,1,2,31,88,11
4,2,22,0,6,1,2,31,75,11
4,2,0,0,4,0,2,31,124,11
4,2,14,1,4,0,2,31,101,11
4,2,21,0,4,0,2,31,20,11
4,2,12,1,6,1,2,31,88,11
4,2,21,0,1,0,2,31,75,11
4,2,22,0,3,0,2,31,64,11
4,2,6,0,4,0,2,31,90,11
4,2,13,1,4,0,2,31,101,11
4,2,20,1,5,1,2,31,27,11
4,2,0,0,6,1,2,31,38,11
4,2,9,1,6,1,2,31,75,11
4,2,15,1,1,0,2,31,4,11
4,2,15,1,1,0,2,31,65,11
4,2,16,1,3,0,2,31,89,11
4,2,4,0,4,0,2,31,88,11
4,2,21,0,4,0,2,31,75,11
4,2,12,1,5,1,2,31,88,11
5,2,9,1,6,1,2,31,124,11
5,2,14,1,6,1,2,31,14,11
5,2,22,0,2,0,2,31,88,11
5,2,22,0,2,0,2,31,64,11
5,2,17,1,6,1,2,31,101,11
5,2,18,1,0,0,2,31,38,11
5,2,10,1,3,0,2,31,90,11
5,2,7,1,4,0,2,31,90,11
5,2,17,1,5,1,2,31,90,11
5,2,15,1,2,0,2,31,90,11
5,2,20,1,2,0,2,31,4,11
5,2,23,0,2,0,2,31,23,9
5,2,15,1,3,0,2,31,4,11
5,2,20,1,3,0,2,31,4,11
5,2,13,1,4,0,2,31,88,11
5,2,14,1,4,0,2,31,90,11
5,2,20,1,5,1,2,31,101,11
5,2,20,1,6,1,2,31,38,11
5,2,10,1,0,0,2,31,111,11
5,2,19,1,1,0,2,31,124,11
5,2,22,0,2,0,2,31,55,11
5,2,21,0,3,0,2,31,90,11
5,2,22,0,3,0,2,31,14,11
5,2,13,1,4,0,2,31,90,11
5,2,0,0,5,1,2,31,21,11
5,2,3,0,6,1,2,31,104,11
5,2,5,0,0,0,2,31,90,11
5,2,12,1,0,0,2,31,88,11
5,2,13,1,0,0,2,31,124,8
5,2,23,0,1,0,2,31,101,11
6,3,11,1,2,0,2,31,64,11
6,3,20,1,2,0,2,31,101,11
6,3,13,1,3,0,2,31,4,11
6,3,19,1,3,0,2,31,76,11
6,3,14,1,5,1,2,31,90,9
6,3,17,1,0,0,2,31,4,11
6,3,19,1,0,0,2,31,109,11
6,3,20,1,0,0,2,31,109,11
6,3,20,1,1,0,2,31,108,11
6,3,16,1,2,0,2,31,90,11
6,3,0,0,4,0,2,31,88,11
6,3,11,1,4,0,2,31,88,11
6,3,21,0,5,1,2,31,4,11
6,3,12,1,2,0,2,31,4,9
6,3,1,0,3,0,2,31,90,11
6,3,20,1,4,0,2,31,90,11
6,3,23,0,4,0,2,31,90,11
6,3,23,0,6,1,2,31,4,11
6,3,1,0,0,0,2,31,88,11
6,3,6,0,1,0,2,31,101,11
6,3,7,1,1,0,2,31,90,11
6,3,14,1,1,0,2,31,88,11
6,3,22,0,1,0,2,31,88,11
6,3,23,0,3,0,2,31,88,11
6,3,2,0,4,0,2,31,101,11
6,3,14,1,5,1,2,31,90,9
6,3,12,1,1,0,2,31,75,9
6,3,15,1,1,0,2,31,72,11
6,3,13,1,2,0,2,31,64,11
6,3,21,0,2,0,2,31,20,11
6,3,3,0,3,0,2,31,121,11
6,3,14,1,3,0,2,31,108,9
7,3,3,0,4,0,3,31,90,11
7,3,15,1,5,1,3,31,20,11
7,3,14,1,6,1,3,31,90,11
7,3,15,1,1,0,3,31,101,11
7,3,18,1,2,0,3,31,90,9
7,3,18,1,3,0,3,31,90,9
7,3,19,1,3,0,3,31,4,9
7,3,14,1,4,0,3,31,90,11
7,3,16,1,4,0,3,31,75,8
7,3,0,0,5,1,3,31,109,11
7,3,6,0,0,0,3,31,88,9
7,3,17,1,0,0,3,31,38,11
7,3,15,1,1,0,3,31,75,11
7,3,2,0,2,0,3,31,90,11
7,3,20,1,2,0,3,31,25,11
7,3,18,1,3,0,3,31,38,11
7,3,3,0,4,0,3,31,72,11
7,3,19,1,4,0,3,31,4,11
7,3,7,1,6,1,3,31,90,11
7,3,9,1,0,0,3,31,101,11
7,3,12,1,0,0,3,31,121,11
7,3,18,1,0,0,3,31,112,9
7,3,20,1,0,0,3,31,101,11
7,3,14,1,1,0,3,31,101,11
7,3,16,1,1,0,3,31,27,11
7,3,20,1,1,0,3,31,4,11
7,3,6,0,2,0,3,31,101,11
7,3,20,1,2,0,3,31,90,11
7,3,16,1,3,0,3,31,88,11
7,3,8,1,4,0,3,31,101,11
7,3,14,1,4,0,3,31,101,11
7,3,21,0,4,0,3,31,90,11
7,3,9,1,5,1,3,31,75,11
7,3,21,0,5,1,3,31,63,11
7,3,1,0,6,1,3,31,107,8
7,3,17,1,6,1,3,31,1,11
7,3,21,0,6,1,3,31,88,11
7,3,22,0,6,1,3,31,88,11
7,3,14,1,0,0,3,31,72,9
7,3,21,0,0,0,3,31,90,11
7,3,13,1,1,0,3,31,64,11
7,3,14,1,2,0,3,31,90,11
7,3,23,0,2,0,3,31,63,11
7,3,12,1,3,0,3,31,88,11
7,3,19,1,3,0,3,31,124,11
7,3,20,1,3,0,3,31,90,11
7,3,18,1,4,0,3,31,90,11
7,3,10,1,5,1,3,31,101,11
7,3,17,1,5,1,3,31,4,11
7,3,19,1,5,1,3,31,27,11
7,3,11,1,6,1,3,31,13,11
8,3,15,1,2,0,3,31,124,11
8,3,14,1,4,0,3,31,90,11
8,3,17,1,4,0,3,31,27,11
8,3,14,1,6,1,3,31,101,11
8,3,14,1,0,0,3,31,121,11
8,3,20,1,0,0,3,31,54,11
8,3,22,0,1,0,3,31,90,11
8,3,12,1,2,0,3,31,108,11
8,3,11,1,5,1,3,31,121,11
8,3,1,0,6,1,3,31,88,11
8,3,1,0,6,1,3,31,90,11
8,3,10,1,0,0,3,31,90,11
8,3,14,1,3,0,3,31,90,9
8,3,16,1,4,0,3,31,90,11
8,3,20,1,5,1,3,31,4,11
8,3,11,1,6,1,3,31,90,9
8,3,20,1,6,1,3,31,64,11
8,3,14,1,0,0,3,31,64,11
8,3,0,0,3,0,3,31,88,11
8,3,12,1,5,1,3,31,64,11
8,3,23,0,5,1,3,31,45,11
8,3,12,1,6,1,3,31,96,11
8,3,21,0,1,0,3,31,75,9
9,4,11,1,3,0,3,31,90,11
9,4,17,1,5,1,3,31,25,11
9,4,17,1,5,1,3,31,88,11
9,4,9,1,6,1,3,31,20,11
9,4,18,1,0,0,3,31,90,11
9,4,15,1,4,0,3,31,101,11
9,4,18,1,4,0,3,31,126,11
9,4,17,1,6,1,3,31,27,11
9,4,20,1,0,0,3,31,101,11
9,4,20,1,1,0,3,31,90,11
9,4,10,1,5,1,3,31,101,11
9,4,16,1,5,1,3,31,124,11
9,4,12,1,6,1,3,31,90,11
9,4,12,1,0,0,3,31,27,11
9,4,20,1,5,1,3,31,90,11
9,4,18,1,6,1,3,31,20,11
9,4,20,1,6,1,3,31,27,11
9,4,21,0,6,1,3,31,27,11
9,4,22,0,6,1,3,31,54,11
9,4,14,1,2,0,3,31,101,11
9,4,17,1,3,0,3,31,90,11
9,4,15,1,4,0,3,31,75,11
9,4,19,1,4,0,3,31,101,11
9,4,21,0,4,0,3,31,101,11
10,4,15,1,5,1,4,31,101,11
10,4,8,1,6,1,4,31,101,11
10,4,14,1,6,1,4,31,101,11
10,4,10,1,1,0,4,31,27,11
10,4,17,1,1,0,4,31,4,11
10,4,2,0,2,0,4,31,13,9
10,4,11,1,2,0,4,31,21,11
10,4,16,1,2,0,4,31,90,11
10,4,17,1,3,0,4,31,4,11
10,4,17,1,4,0,4,31,27,11
10,4,0,0,5,1,4,31,88,11
10,4,15,1,5,1,4,31,90,11
10,4,16,1,5,1,4,31,101,11
10,4,17,1,5,1,4,31,4,9
10,4,8,1,6,1,4,31,62,11
10,4,15,1,6,1,4,31,90,11
10,4,15,1,6,1,4,31,25,9
10,4,16,1,1,0,4,31,90,11
10,4,19,1,1,0,4,31,90,11
10,4,20,1,3,0,4,31,90,11
10,4,8,1,6,1,4,31,75,11
10,4,16,1,6,1,4,31,41,11
10,4,23,0,6,1,4,31,88,11
10,4,18,1,0,0,4,31,64,11
10,4,18,1,0,0,4,31,101,11
10,4,15,1,1,0,4,31,75,11
10,4,1,0,2,0,4,31,21,11
10,4,2,0,4,0,4,31,124,11
10,4,19,1,5,1,4,31,88,11
10,4,16,1,6,1,4,31,101,11
10,4,23,0,6,1,4,31,101,11
10,4,18,1,1,0,4,31,27,11
10,4,18,1,3,0,4,31,90,11
10,4,12,1,4,0,4,31,54,11
10,4,18,1,5,1,4,31,64,11
10,4,12,1,6,1,4,31,90,11
10,4,17,1,6,1,4,31,9,11
10,4,22,0,6,1,4,31,90,11
10,4,14,1,0,0,4,31,54,11
10,4,20,1,0,0,4,31,121,9
11,4,14,1,1,0,4,31,121,9
11,4,17,1,2,0,4,31,25,11
11,4,14,1,3,0,4,31,27,11
11,4,12,1,4,0,4,31,54,11
11,4,14,1,4,0,4,31,96,11
11,4,15,1,5,1,4,31,121,11
11,4,16,1,5,1,4,31,101,11
11,4,16,1,0,0,4,31,124,11
11,4,22,0,1,0,4,31,64,11
11,4,14,1,4,0,4,31,64,8
11,4,18,1,4,0,4,31,90,11
11,4,22,0,4,0,4,31,124,11
11,4,17,1,5,1,4,31,90,11
11,4,17,1,5,1,4,31,47,9
11,4,14,1,6,1,4,31,64,11
11,4,19,1,6,1,4,31,38,11
11,4,20,1,2,0,4,31,96,11
11,4,10,1,4,0,4,31,14,11
11,4,12,1,4,0,4,31,64,11
11,4,18,1,5,1,4,31,88,11
11,4,19,1,5,1,4,31,101,11
11,4,19,1,0,0,4,31,20,11
11,4,1,0,5,1,4,31,124,11
11,4,23,0,5,1,4,31,124,9
11,4,15,1,6,1,4,31,88,11
11,4,23,0,6,1,4,31,38,11
11,4,22,0,0,0,4,31,64,11
11,4,17,1,1,0,4,31,14,11
11,4,7,1,2,0,4,31,64,11
11,4,8,1,2,0,4,31,88,11
11,4,12,1,2,0,4,31,88,11
12,1,6,0,3,0,4,31,102,11
12,1,12,1,3,0,4,31,30,11
12,1,13,1,4,0,4,31,64,8
12,1,0,0,6,1,4,31,63,11
12,1,1,0,6,1,4,31,51,11
12,1,20,1,6,1,4,31,64,11
12,1,12,1,0,0,4,31,20,11
12,1,16,1,1,0,4,31,20,9
12,1,0,0,2,0,4,31,88,11
12,1,1,0,4,0,4,31,88,11
12,1,17,1,5,1,4,31,75,11
12,1,18,1,5,1,4,31,64,11
12,1,20,1,6,1,4,31,64,11
12,1,22,0,6,1,4,31,75,11
12,1,17,1,2,0,4,31,88,11
12,1,7,1,3,0,4,31,88,11
12,1,12,1,6,1,4,31,124,11
12,1,14,1,0,0,4,31,88,11
12,1,14,1,0,0,4,31,88,11
12,1,15,1,0,0,4,31,64,11
12,1,1,0,1,0,4,31,20,11
12,1,14,1,1,0,4,31,64,11
12,1,21,0,5,1,4,31,64,11
12,1,22,0,5,1,4,31,64,11
12,1,4,0,6,1,4,31,88,11
12,1,11,1,1,0,4,31,64,11
12,1,15,1,1,0,4,31,124,11
12,1,18,1,1,0,4,31,75,11
12,1,0,0,2,0,4,31,88,11
12,1,22,0,2,0,4,31,75,11
12,1,23,0,4,0,4,31,63,11
12,1,17,1,5,1,4,31,96,11
1,1,17,1,6,1,1,31,27,11
2,1,2,0,1,0,1,31,75,8
3,2,2,0,0,0,1,31,101,11
3,2,16,1,6,1,1,31,101,11
4,2,15,1,2,0,2,31,20,11
4,2,14,1,6,1,2,31,4,11
4,2,15,1,6,1,2,31,13,11
4,2,14,1,4,0,2,31,14,11
5,2,7,1,5,1,2,31,109,11
5,2,17,1,2,0,2,31,124,11
5,2,14,1,3,0,2,31,62,11
6,3,22,0,2,0,2,31,109,11
6,3,17,1,2,0,2,31,90,11
6,3,23,0,5,1,2,31,88,11
7,3,16,1,2,0,3,31,62,8
7,3,19,1,4,0,3,31,55,8
8,3,17,1,2,0,3,31,27,11
9,4,21,0,4,0,3,31,20,11
9,4,15,1,3,0,3,31,121,9
9,4,22,0,3,0,3,31,121,11
9,4,1,0,5,1,3,31,4,9
9,4,21,0,5,1,3,31,4,11
9,4,9,1,0,0,3,31,4,11
9,4,9,1,2,0,3,31,34,11
10,4,15,1,0,0,4,31,75,9
10,4,5,0,6,1,4,31,20,9
10,4,2,0,0,0,4,31,27,11
11,4,0,0,0,0,4,31,116,11
11,4,14,1,2,0,4,31,101,11
12,1,10,1,4,0,4,31,75,11
12,1,16,1,4,0,4,31,101,11
1,1,17,1,5,1,1,31,75,11
1,1,12,1,3,0,1,31,75,11
1,1,12,1,5,1,1,31,75,11
1,1,8,1,1,0,1,31,88,11
1,1,13,1,2,0,1,31,75,11
1,1,16,1,5,1,1,31,38,11
1,1,2,0,0,0,1,31,64,11
2,1,20,1,2,0,1,31,38,11
2,1,16,1,6,1,1,31,15,11
2,1,17,1,1,0,1,31,14,11
2,1,12,1,2,0,1,31,25,11
2,1,19,1,5,1,1,31,75,11
2,1,13,1,4,0,1,31,20,11
2,1,15,1,4,0,1,31,75,11
2,1,17,1,4,0,1,31,75,11
2,1,15,1,5,1,1,31,75,11
3,2,1,0,1,0,1,31,20,11
3,2,0,0,1,0,1,31,109,11
3,2,12,1,1,0,1,31,56,11
3,2,16,1,5,1,1,31,108,11
3,2,19,1,5,1,1,31,75,11
3,2,19,1,0,0,1,31,38,11
3,2,21,0,1,0,1,31,90,11
3,2,18,1,2,0,1,31,101,11
3,2,18,1,4,0,1,31,90,11
3,2,21,0,0,0,1,31,75,11
4,2,9,1,5,1,2,31,75,11
4,2,1,0,4,0,2,31,90,11
4,2,20,1,2,0,2,31,75,11
4,2,11,1,1,0,2,31,75,11
4,2,14,1,6,1,2,31,75,11
5,2,19,1,5,1,2,31,75,11
6,3,8,1,3,0,2,31,1,11
6,3,15,1,5,1,2,31,90,11
7,3,0,0,0,0,3,31,56,11
7,3,20,1,5,1,3,31,90,11
7,3,12,1,2,0,3,31,90,11
8,3,16,1,1,0,3,31,20,11
8,3,18,1,1,0,3,31,109,11
9,4,17,1,5,1,3,31,90,11
9,4,19,1,4,0,3,31,90,11
9,4,12,1,1,0,3,31,108,8
9,4,6,0,4,0,3,31,72,11
10,4,9,1,4,0,4,31,124,11
10,4,17,1,3,0,4,31,108,11
10,4,9,1,4,0,4,31,109,11
10,4,11,1,4,0,4,31,47,11
10,4,13,1,5,1,4,31,101,11
12,1,17,1,6,1,4,31,75,11
12,1,3,0,0,0,4,31,124,11
12,1,20,1,1,0,4,31,101,11
12,1,10,1,5,1,4,31,90,11
12,1,19,1,3,0,4,31,66,11
12,1,17,1,2,0,4,31,88,11
1,1,20,1,5,1,1,35,96,11
1,1,2,0,6,1,1,35,96,11
1,1,12,1,1,0,1,35,64,11
1,1,17,1,1,0,1,35,96,11
1,1,0,0,2,0,1,35,64,11
1,1,21,0,2,0,1,35,123,11
1,1,16,1,3,0,1,35,101,11
1,1,18,1,3,0,1,35,96,11
1,1,18,1,5,1,1,35,96,11
1,1,3,0,4,0,1,35,96,11
1,1,11,1,5,1,1,35,96,11
1,1,14,1,0,0,1,35,96,11
1,1,22,0,0,0,1,35,38,11
1,1,11,1,1,0,1,35,96,11
1,1,4,0,2,0,1,35,96,11
1,1,18,1,2,0,1,35,90,11
1,1,18,1,3,0,1,35,96,11
1,1,19,1,4,0,1,35,96,11
1,1,11,1,5,1,1,35,96,11
1,1,23,0,5,1,1,35,75,11
1,1,13,1,6,1,1,35,96,11
1,1,8,1,0,0,1,35,38,11
1,1,16,1,3,0,1,35,75,11
1,1,16,1,4,0,1,35,96,11
1,1,16,1,6,1,1,35,96,11
1,1,21,0,6,1,1,35,101,11
2,1,17,1,1,0,1,35,20,11
2,1,18,1,4,0,1,35,101,11
2,1,20,1,4,0,1,35,75,11
2,1,22,0,5,1,1,35,75,11
2,1,20,1,6,1,1,35,96,11
2,1,17,1,1,0,1,35,89,11
2,1,13,1,2,0,1,35,108,11
2,1,15,1,2,0,1,35,96,11
2,1,20,1,2,0,1,35,90,11
2,1,20,1,3,0,1,35,90,11
2,1,9,1,6,1,1,35,90,11
2,1,18,1,6,1,1,35,75,11
2,1,16,1,3,0,1,35,56,11
2,1,17,1,3,0,1,35,90,11
2,1,19,1,3,0,1,35,75,11
2,1,22,0,4,0,1,35,96,11
2,1,20,1,5,1,1,35,96,11
3,2,7,1,1,0,1,35,64,11
3,2,19,1,2,0,1,35,101,11
3,2,16,1,3,0,1,35,72,11
3,2,17,1,4,0,1,35,90,11
3,2,19,1,4,0,1,35,96,11
3,2,19,1,4,0,1,35,90,11
3,2,16,1,3,0,1,35,9,11
3,2,20,1,3,0,1,35,38,11
3,2,2,0,4,0,1,35,38,11
3,2,5,0,1,0,1,35,106,9
3,2,16,1,1,0,1,35,101,11
3,2,15,1,2,0,1,35,101,11
3,2,12,1,5,1,1,35,101,11
3,2,13,1,0,0,1,35,75,11
3,2,14,1,0,0,1,35,114,11
3,2,6,0,2,0,1,35,20,11
3,2,11,1,3,0,1,35,96,11
3,2,19,1,3,0,1,35,101,11
3,2,20,1,3,0,1,35,96,11
3,2,0,0,5,1,1,35,96,11
3,2,2,0,2,0,1,35,20,11
4,2,14,1,4,0,2,35,96,11
4,2,21,0,4,0,2,35,1,11
4,2,16,1,5,1,2,35,62,11
4,2,22,0,2,0,2,35,101,11
4,2,11,1,4,0,2,35,101,11
4,2,13,1,6,1,2,35,101,11
4,2,10,1,1,0,2,35,72,11
4,2,10,1,3,0,2,35,90,11
4,2,18,1,3,0,2,35,101,11
4,2,19,1,3,0,2,35,90,11
4,2,4,0,4,0,2,35,101,11
4,2,5,0,3,0,2,35,96,11
4,2,18,1,4,0,2,35,96,11
4,2,19,1,4,0,2,35,20,11
4,2,0,0,6,1,2,35,99,11
4,2,1,0,6,1,2,35,63,11
4,2,9,1,0,0,2,35,96,11
4,2,17,1,0,0,2,35,101,11
4,2,11,1,1,0,2,35,90,11
4,2,11,1,3,0,2,35,96,11
4,2,16,1,3,0,2,35,20,11
4,2,0,0,4,0,2,35,96,11
4,2,12,1,5,1,2,35,64,11
4,2,17,1,5,1,2,35,90,11
4,2,21,0,5,1,2,35,20,11
5,2,21,0,6,1,2,35,101,11
5,2,9,1,5,1,2,35,96,11
5,2,1,0,1,0,2,35,64,11
5,2,11,1,4,0,2,35,64,11
5,2,16,1,4,0,2,35,90,11
5,2,20,1,6,1,2,35,101,11
5,2,21,0,0,0,2,35,101,11
5,2,18,1,1,0,2,35,17,11
5,2,15,1,4,0,2,35,51,11
5,2,3,0,5,1,2,35,101,11
5,2,20,1,5,1,2,35,90,11
5,2,17,1,0,0,2,35,90,11
5,2,20,1,3,0,2,35,90,11
5,2,12,1,4,0,2,35,90,11
5,2,12,1,4,0,2,35,20,11
5,2,12,1,0,0,2,35,90,11
5,2,17,1,0,0,2,35,90,11
6,3,13,1,3,0,2,35,90,11
6,3,0,0,6,1,2,35,75,11
6,3,2,0,6,1,2,35,76,11
6,3,6,0,0,0,2,35,99,11
6,3,16,1,1,0,2,35,85,11
6,3,23,0,1,0,2,35,101,11
6,3,14,1,2,0,2,35,90,11
6,3,21,0,2,0,2,35,104,11
6,3,18,1,5,1,2,35,96,11
6,3,12,1,0,0,2,35,90,11
6,3,2,0,1,0,2,35,96,11
6,3,13,1,1,0,2,35,20,11
6,3,16,1,2,0,2,35,90,11
6,3,21,0,2,0,2,35,14,11
6,3,16,1,3,0,2,35,88,11
6,3,13,1,6,1,2,35,90,11
6,3,21,0,1,0,2,35,90,11
6,3,14,1,4,0,2,35,90,11
6,3,5,0,5,1,2,35,101,11
6,3,7,1,6,1,2,35,38,11
6,3,18,1,2,0,2,35,90,11
7,3,10,1,4,0,3,35,64,11
7,3,18,1,4,0,3,35,90,11
7,3,17,1,5,1,3,35,90,11
7,3,1,0,6,1,3,35,90,11
7,3,22,0,6,1,3,35,101,11
7,3,21,0,0,0,3,35,90,11
7,3,9,1,4,0,3,35,101,11
7,3,17,1,4,0,3,35,101,11
7,3,6,0,5,1,3,35,87,11
7,3,22,0,6,1,3,35,101,11
7,3,6,0,5,1,3,35,96,11
7,3,15,1,5,1,3,35,90,11
7,3,10,1,6,1,3,35,56,11
7,3,10,1,6,1,3,35,72,11
7,3,12,1,6,1,3,35,76,11
7,3,13,1,3,0,3,35,65,11
7,3,21,0,3,0,3,35,96,11
7,3,5,0,6,1,3,35,101,11
7,3,17,1,6,1,3,35,90,11
7,3,23,0,6,1,3,35,101,11
7,3,10,1,1,0,3,35,20,11
8,3,23,0,2,0,3,35,90,11
8,3,1,0,3,0,3,35,90,11
8,3,2,0,6,1,3,35,90,11
8,3,20,1,0,0,3,35,96,11
8,3,2,0,2,0,3,35,90,11
8,3,13,1,2,0,3,35,90,11
8,3,9,1,5,1,3,35,90,11
8,3,17,1,5,1,3,35,90,11
8,3,0,0,6,1,3,35,101,11
8,3,19,1,6,1,3,35,20,11
8,3,1,0,1,0,3,35,96,11
8,3,10,1,2,0,3,35,90,11
8,3,15,1,3,0,3,35,101,11
8,3,11,1,5,1,3,35,96,11
8,3,18,1,0,0,3,35,96,11
8,3,2,0,4,0,3,35,20,11
8,3,12,1,5,1,3,35,72,11
8,3,8,1,2,0,3,35,72,11
8,3,15,1,2,0,3,35,64,11
9,4,6,0,4,0,3,35,96,11
9,4,11,1,4,0,3,35,64,11
9,4,22,0,6,1,3,35,96,11
9,4,9,1,0,0,3,35,47,11
9,4,13,1,5,1,3,35,90,11
9,4,2,0,2,0,3,35,64,11
9,4,23,0,3,0,3,35,124,11
9,4,20,1,5,1,3,35,101,11
9,4,23,0,5,1,3,35,101,11
9,4,14,1,6,1,3,35,90,11
9,4,21,0,3,0,3,35,122,11
9,4,8,1,5,1,3,35,90,11
9,4,21,0,0,0,3,35,101,11
9,4,20,1,1,0,3,35,4,11
9,4,12,1,2,0,3,35,96,11
9,4,17,1,2,0,3,35,90,11
9,4,0,0,4,0,3,35,90,11
9,4,11,1,4,0,3,35,101,11
10,4,16,1,5,1,4,35,64,11
10,4,13,1,6,1,4,35,101,11
10,4,10,1,0,0,4,35,64,11
10,4,10,1,0,0,4,35,96,11
10,4,11,1,0,0,4,35,4,11
10,4,21,0,0,0,4,35,101,11
10,4,21,0,0,0,4,35,90,11
10,4,19,1,2,0,4,35,90,11
10,4,10,1,3,0,4,35,75,11
10,4,9,1,4,0,4,35,75,11
10,4,12,1,4,0,4,35,90,11
10,4,14,1,4,0,4,35,96,11
10,4,4,0,6,1,4,35,101,11
10,4,14,1,0,0,4,35,90,11
10,4,11,1,1,0,4,35,90,11
10,4,14,1,2,0,4,35,64,11
10,4,12,1,3,0,4,35,90,11
10,4,14,1,4,0,4,35,11,11
10,4,15,1,5,1,4,35,38,11
10,4,20,1,5,1,4,35,64,11
10,4,0,0,6,1,4,35,96,11
10,4,14,1,2,0,4,35,90,8
10,4,21,0,2,0,4,35,88,11
10,4,16,1,4,0,4,35,90,11
10,4,21,0,4,0,4,35,63,11
10,4,0,0,6,1,4,35,124,11
10,4,2,0,6,1,4,35,124,11
10,4,3,0,6,1,4,35,88,11
10,4,21,0,6,1,4,35,96,11
10,4,12,1,6,1,4,35,20,11
10,4,17,1,0,0,4,35,101,11
11,4,3,0,3,0,4,35,101,11
11,4,13,1,3,0,4,35,96,11
11,4,16,1,3,0,4,35,101,11
11,4,22,0,4,0,4,35,101,11
11,4,1,0,5,1,4,35,88,11
11,4,12,1,5,1,4,35,101,11
11,4,19,1,5,1,4,35,64,11
11,4,20,1,0,0,4,35,90,11
11,4,19,1,2,0,4,35,101,11
11,4,11,1,3,0,4,35,75,11
11,4,16,1,3,0,4,35,64,11
11,4,9,1,4,0,4,35,75,11
11,4,7,1,5,1,4,35,101,11
11,4,15,1,6,1,4,35,90,11
11,4,11,1,0,0,4,35,75,11
11,4,12,1,1,0,4,35,38,11
11,4,16,1,2,0,4,35,90,11
11,4,20,1,2,0,4,35,99,11
11,4,5,0,4,0,4,35,64,11
11,4,17,1,4,0,4,35,96,11
11,4,21,0,4,0,4,35,75,11
11,4,16,1,5,1,4,35,38,11
11,4,17,1,5,1,4,35,101,11
11,4,17,1,5,1,4,35,75,11
11,4,21,0,5,1,4,35,64,11
11,4,7,1,6,1,4,35,51,11
11,4,9,1,6,1,4,35,75,11
11,4,14,1,0,0,4,35,75,11
11,4,20,1,0,0,4,35,75,11
12,1,12,1,5,1,4,35,20,11
12,1,22,0,0,0,4,35,124,11
12,1,23,0,0,0,4,35,124,11
12,1,21,0,1,0,4,35,101,11
12,1,17,1,2,0,4,35,38,11
12,1,5,0,4,0,4,35,96,11
12,1,18,1,4,0,4,35,96,11
12,1,18,1,4,0,4,35,101,11
12,1,19,1,6,1,4,35,96,11
12,1,11,1,0,0,4,35,72,11
12,1,20,1,1,0,4,35,101,11
12,1,22,0,3,0,4,35,90,11
12,1,22,0,3,0,4,35,96,11
12,1,18,1,4,0,4,35,96,11
12,1,2,0,5,1,4,35,88,11
12,1,16,1,5,1,4,35,88,11
12,1,21,0,5,1,4,35,96,11
12,1,20,1,0,0,4,35,88,11
12,1,5,0,1,0,4,35,88,11
12,1,13,1,2,0,4,35,64,11
12,1,7,1,3,0,4,35,75,11
12,1,12,1,3,0,4,35,124,11
12,1,13,1,3,0,4,35,101,11
12,1,19,1,3,0,4,35,96,11
12,1,18,1,4,0,4,35,96,11
12,1,21,0,4,0,4,35,96,11
12,1,2,0,6,1,4,35,64,11
12,1,3,0,6,1,4,35,96,11
12,1,3,0,6,1,4,35,96,11
12,1,16,1,0,0,4,35,101,11
12,1,19,1,1,0,4,35,64,8
12,1,6,0,5,1,4,35,14,11
12,1,6,0,5,1,4,35,96,11
12,1,11,1,5,1,4,35,38,11
12,1,13,1,5,1,4,35,96,11
1,1,15,1,6,1,1,35,96,11
1,1,19,1,6,1,1,35,96,11
2,1,12,1,3,0,1,35,96,11
2,1,13,1,6,1,1,35,62,11
2,1,14,1,2,0,1,35,96,11
2,1,5,0,6,1,1,35,45,11
2,1,2,0,5,1,1,35,46,11
2,1,6,0,6,1,1,35,88,11
3,2,11,1,0,0,1,35,62,9
3,2,21,0,1,0,1,35,101,11
4,2,10,1,0,0,2,35,38,11
4,2,12,1,0,0,2,35,101,11
4,2,12,1,0,0,2,35,101,11
4,2,11,1,5,1,2,35,101,11
4,2,20,1,2,0,2,35,90,11
4,2,20,1,3,0,2,35,101,11
4,2,22,0,1,0,2,35,101,11
4,2,20,1,5,1,2,35,20,11
5,2,19,1,2,0,2,35,124,11
5,2,20,1,2,0,2,35,4,11
5,2,17,1,2,0,2,35,96,11
5,2,22,0,4,0,2,35,90,11
5,2,14,1,6,1,2,35,101,11
6,3,15,1,3,0,2,35,101,11
6,3,15,1,3,0,2,35,37,11
6,3,16,1,1,0,2,35,90,11
7,3,14,1,4,0,3,35,9,11
7,3,11,1,6,1,3,35,90,11
8,3,5,0,5,1,3,35,101,11
8,3,10,1,5,1,3,35,20,11
9,4,18,1,5,1,3,35,25,11
9,4,10,1,1,0,3,35,64,11
9,4,20,1,3,0,3,35,4,11
10,4,12,1,3,0,4,35,90,11
10,4,15,1,6,1,4,35,124,11
11,4,11,1,2,0,4,35,101,11
11,4,14,1,0,0,4,35,20,11
11,4,14,1,4,0,4,35,88,11
12,1,21,0,4,0,4,35,88,11
12,1,10,1,1,0,4,35,124,11
12,1,18,1,6,1,4,35,38,11
12,1,11,1,3,0,4,35,75,11
12,1,22,0,4,0,4,35,75,11
12,1,15,1,5,1,4,35,38,11
1,1,17,1,1,0,1,35,90,11
2,1,19,1,5,1,1,35,90,11
3,2,0,0,1,0,1,35,90,11
4,2,18,1,0,0,2,35,54,11
5,2,17,1,4,0,2,35,101,11
6,3,1,0,0,0,2,35,47,11
6,3,21,0,5,1,2,35,75,11
7,3,12,1,4,0,3,35,20,11
4,2,19,1,2,0,2,35,90,11
4,2,20,1,6,1,2,35,90,11
6,3,13,1,1,0,2,35,101,11
11,4,9,1,0,0,4,35,14,11
12,1,7,1,1,0,4,35,80,11
3,2,23,0,2,0,1,35,101,11
4,2,15,1,5,1,2,35,101,11
9,4,5,0,0,0,3,35,109,11
12,1,19,1,0,0,4,35,90,11
12,1,11,1,5,1,4,35,96,11
2,1,13,1,6,1,1,35,121,11
4,2,11,1,6,1,2,35,4,11
4,2,7,1,0,0,2,35,109,11
4,2,21,0,3,0,2,35,1,11
5,2,20,1,6,1,2,35,27,11
10,4,8,1,5,1,4,35,109,11
10,4,2,0,6,1,4,35,101,11
11,4,10,1,1,0,4,35,90,11
11,4,20,1,1,0,4,35,90,11
1,1,14,1,6,1,1,35,4,11
1,1,16,1,2,0,1,35,75,11
3,2,7,1,3,0,1,35,75,11
3,2,23,0,5,1,1,35,101,11
4,2,16,1,4,0,2,35,20,11
4,2,15,1,6,1,2,35,101,11
4,2,10,1,4,0,2,35,109,11
4,2,17,1,5,1,2,35,101,11
4,2,14,1,3,0,2,35,4,11
4,2,16,1,4,0,2,35,101,11
4,2,20,1,4,0,2,35,65,11
5,2,14,1,6,1,2,35,90,11
5,2,21,0,6,1,2,35,101,11
5,2,21,0,2,0,2,35,109,11
5,2,16,1,6,1,2,35,37,11
5,2,17,1,2,0,2,35,101,11
6,3,12,1,3,0,2,35,20,9
6,3,17,1,3,0,2,35,101,11
6,3,19,1,5,1,2,35,101,11
7,3,10,1,6,1,3,35,101,11
7,3,18,1,5,1,3,35,90,11
7,3,2,0,4,0,3,35,90,11
7,3,18,1,4,0,3,35,4,11
8,3,15,1,0,0,3,35,90,11
8,3,15,1,5,1,3,35,101,11
8,3,16,1,5,1,3,35,101,9
9,4,9,1,3,0,3,35,101,11
9,4,18,1,5,1,3,35,14,8
10,4,19,1,6,1,4,35,101,11
10,4,1,0,2,0,4,35,101,11
10,4,13,1,1,0,4,35,75,11
10,4,17,1,2,0,4,35,101,11
10,4,13,1,3,0,4,35,101,11
10,4,18,1,3,0,4,35,101,11
10,4,11,1,4,0,4,35,101,11
10,4,16,1,6,1,4,35,57,11
10,4,20,1,0,0,4,35,14,11
11,4,18,1,2,0,4,35,90,11
11,4,19,1,2,0,4,35,101,11
11,4,10,1,6,1,4,35,101,11
11,4,14,1,0,0,4,35,42,11
11,4,14,1,3,0,4,35,124,11
11,4,9,1,5,1,4,35,75,9
12,1,21,0,3,0,4,35,75,11
1,1,14,1,5,1,1,45,105,11
1,1,16,1,0,0,1,45,38,11
1,1,17,1,1,0,1,45,88,11
1,1,17,1,1,0,1,45,38,11
1,1,11,1,4,0,1,45,75,11
1,1,20,1,0,0,1,45,88,11
1,1,11,1,2,0,1,45,14,11
1,1,15,1,3,0,1,45,38,11
1,1,16,1,5,1,1,45,72,11
1,1,21,0,0,0,1,45,64,11
1,1,8,1,1,0,1,45,88,11
1,1,15,1,1,0,1,45,88,11
1,1,15,1,1,0,1,45,88,11
1,1,22,0,1,0,1,45,64,11
1,1,1,0,4,0,1,45,75,9
1,1,7,1,4,0,1,45,75,11
1,1,14,1,4,0,1,45,96,11
1,1,11,1,6,1,1,45,87,9
1,1,20,1,6,1,1,45,104,11
1,1,22,0,0,0,1,45,96,11
2,1,23,0,2,0,1,45,88,11
2,1,11,1,6,1,1,45,75,11
2,1,3,0,1,0,1,45,20,11
2,1,13,1,4,0,1,45,88,11
2,1,17,1,4,0,1,45,4,11
2,1,18,1,3,0,1,45,38,11
3,2,6,0,1,0,1,45,75,11
3,2,16,1,3,0,1,45,75,11
3,2,10,1,4,0,1,45,75,11
3,2,18,1,4,0,1,45,64,11
3,2,21,0,4,0,1,45,75,11
3,2,11,1,6,1,1,45,88,11
3,2,11,1,6,1,1,45,64,11
3,2,14,1,6,1,1,45,75,11
3,2,13,1,5,1,1,45,88,11
3,2,16,1,6,1,1,45,75,11
3,2,13,1,5,1,1,45,75,11
3,2,21,0,6,1,1,45,90,11
3,2,4,0,4,0,1,45,88,11
3,2,17,1,4,0,1,45,88,11
3,2,21,0,5,1,1,45,64,11
4,2,20,1,5,1,2,45,38,11
4,2,9,1,0,0,2,45,64,11
4,2,11,1,2,0,2,45,64,11
4,2,13,1,0,0,2,45,75,11
4,2,23,0,2,0,2,45,23,11
4,2,5,0,1,0,2,45,108,9
4,2,15,1,3,0,2,45,88,11
5,2,10,1,5,1,2,45,14,11
5,2,0,0,0,0,2,45,13,11
5,2,10,1,5,1,2,45,14,11
5,2,13,1,4,0,2,45,38,11
5,2,19,1,4,0,2,45,20,11
6,3,21,0,5,1,2,45,20,8
6,3,4,0,3,0,2,45,88,11
6,3,14,1,6,1,2,45,64,11
6,3,21,0,1,0,2,45,25,11
7,3,18,1,4,0,3,45,14,11
7,3,15,1,1,0,3,45,88,11
7,3,18,1,6,1,3,45,90,8
7,3,8,1,0,0,3,45,75,11
7,3,12,1,3,0,3,45,88,11
7,3,19,1,3,0,3,45,64,9
8,3,13,1,3,0,3,45,20,11
8,3,0,0,3,0,3,45,38,11
9,4,0,0,6,1,3,45,38,11
9,4,11,1,1,0,3,45,38,11
10,4,11,1,5,1,4,45,23,11
10,4,21,0,3,0,4,45,20,11
10,4,20,1,4,0,4,45,64,11
10,4,3,0,1,0,4,45,88,11
10,4,15,1,3,0,4,45,125,11
11,4,13,1,2,0,4,45,90,11
11,4,13,1,5,1,4,45,64,11
11,4,23,0,1,0,4,45,75,11
11,4,0,0,2,0,4,45,64,11
12,1,6,0,4,0,4,45,88,11
12,1,14,1,5,1,4,45,64,11
12,1,11,1,2,0,4,45,64,11
12,1,16,1,3,0,4,45,75,11
12,1,17,1,5,1,4,45,64,11
12,1,15,1,6,1,4,45,90,11
12,1,10,1,4,0,4,45,72,11
12,1,20,1,4,0,4,45,75,11
12,1,19,1,5,1,4,45,88,11
1,1,7,1,3,0,1,45,75,11
1,1,17,1,4,0,1,45,75,11
4,2,20,1,6,1,2,45,88,11
5,2,19,1,1,0,2,45,75,8
9,4,17,1,4,0,3,45,90,9
10,4,17,1,4,0,4,45,75,8
1,1,7,1,4,0,1,45,75,11
1,1,16,1,0,0,1,45,75,11
5,2,7,1,2,0,2,45,75,11
9,4,18,1,3,0,3,45,4,11
10,4,16,1,0,0,4,45,90,11
1,1,14,1,0,0,1,45,25,11
1,1,0,0,2,0,1,45,109,11
1,1,16,1,6,1,1,45,101,11
1,1,13,1,0,0,1,45,64,11
1,1,15,1,0,0,1,45,75,11
1,1,16,1,0,0,1,45,38,11
1,1,12,1,2,0,1,45,75,11
1,1,1,0,3,0,1,45,75,8
1,1,17,1,3,0,1,45,64,11
1,1,21,0,5,1,1,45,101,11
1,1,16,1,6,1,1,45,101,11
2,1,14,1,4,0,1,45,101,11
2,1,17,1,4,0,1,45,38,11
2,1,14,1,3,0,1,45,124,11
2,1,23,0,4,0,1,45,101,11
2,1,17,1,5,1,1,45,101,11
2,1,21,0,6,1,1,45,101,11
2,1,18,1,4,0,1,45,101,11
3,2,10,1,3,0,1,45,75,9
3,2,3,0,5,1,1,45,124,11
3,2,19,1,5,1,1,45,75,11
3,2,6,0,3,0,1,45,38,11
3,2,16,1,1,0,1,45,64,11
3,2,13,1,3,0,1,45,101,11
3,2,19,1,4,0,1,45,108,11
3,2,10,1,6,1,1,45,101,11
3,2,12,1,6,1,1,45,13,11
3,2,19,1,2,0,1,45,20,11
4,2,22,0,4,0,2,45,38,11
4,2,14,1,4,0,2,45,101,11
4,2,12,1,6,1,2,45,101,11
4,2,19,1,6,1,2,45,101,11
4,2,14,1,2,0,2,45,101,11
4,2,22,0,0,0,2,45,101,11
4,2,14,1,4,0,2,45,75,11
5,2,15,1,1,0,2,45,101,11
5,2,17,1,5,1,2,45,101,11
6,3,15,1,2,0,2,45,101,11
6,3,12,1,3,0,2,45,64,8
6,3,17,1,6,1,2,45,102,11
6,3,18,1,2,0,2,45,101,11
6,3,17,1,6,1,2,45,101,11
6,3,0,0,6,1,2,45,101,11
7,3,14,1,0,0,3,45,101,11
8,3,12,1,3,0,3,45,20,11
8,3,7,1,3,0,3,45,90,11
9,4,19,1,3,0,3,45,101,11
9,4,15,1,4,0,3,45,87,11
9,4,15,1,5,1,3,45,64,11
9,4,19,1,1,0,3,45,101,11
9,4,12,1,4,0,3,45,90,11
9,4,12,1,3,0,3,45,101,11
10,4,22,0,0,0,4,45,101,11
10,4,12,1,2,0,4,45,72,8
10,4,12,1,2,0,4,45,4,11
10,4,12,1,0,0,4,45,101,11
10,4,21,0,4,0,4,45,64,11
10,4,19,1,6,1,4,45,101,11
10,4,20,1,1,0,4,45,101,11
10,4,9,1,5,1,4,45,13,11
10,4,20,1,0,0,4,45,96,11
11,4,18,1,1,0,4,45,101,11
11,4,20,1,3,0,4,45,101,11
11,4,20,1,3,0,4,45,101,11
11,4,9,1,5,1,4,45,75,11
11,4,19,1,4,0,4,45,101,11
12,1,13,1,5,1,4,45,124,11
12,1,1,0,2,0,4,45,88,11
12,1,12,1,1,0,4,45,64,11
12,1,20,1,4,0,4,45,124,11
12,1,13,1,3,0,4,45,23,11
12,1,10,1,5,1,4,45,75,11
1,1,0,0,5,1,1,22,88,11
1,1,5,0,1,0,1,22,88,11
1,1,5,0,6,1,1,22,75,11
1,1,8,1,2,0,1,22,55,11
2,1,16,1,2,0,1,22,88,11
2,1,0,0,3,0,1,22,14,11
2,1,17,1,5,1,1,22,88,11
3,2,11,1,5,1,1,22,75,9
3,2,15,1,6,1,1,22,13,9
3,2,12,1,3,0,1,22,88,11
3,2,10,1,5,1,1,22,88,11
3,2,16,1,5,1,1,22,88,11
3,2,19,1,5,1,1,22,101,11
3,2,6,0,6,1,1,22,14,11
3,2,22,0,0,0,1,22,75,11
4,2,21,0,4,0,2,22,64,11
4,2,14,1,5,1,2,22,109,11
4,2,0,0,5,1,2,22,15,9
4,2,1,0,6,1,2,22,88,11
4,2,4,0,6,1,2,22,90,11
4,2,15,1,5,1,2,22,20,11
5,2,10,1,6,1,2,22,75,11
5,2,9,1,1,0,2,22,90,11
5,2,22,0,2,0,2,22,101,11
5,2,20,1,1,0,2,22,13,11
5,2,11,1,3,0,2,22,14,8
6,3,16,1,2,0,2,22,96,11
6,3,11,1,3,0,2,22,101,11
6,3,15,1,4,0,2,22,90,11
6,3,8,1,5,1,2,22,75,11
6,3,2,0,1,0,2,22,75,11
6,3,8,1,3,0,2,22,20,11
6,3,14,1,0,0,2,22,90,8
6,3,7,1,3,0,2,22,88,11
6,3,7,1,3,0,2,22,88,11
7,3,20,1,2,0,3,22,109,11
7,3,21,0,2,0,3,22,64,11
7,3,22,0,2,0,3,22,64,11
7,3,19,1,3,0,3,22,25,11
7,3,20,1,6,1,3,22,108,9
7,3,23,0,1,0,3,22,99,11
7,3,13,1,6,1,3,22,14,11
7,3,13,1,0,0,3,22,107,11
7,3,11,1,5,1,3,22,64,11
8,3,18,1,6,1,3,22,75,8
8,3,20,1,6,1,3,22,101,11
8,3,20,1,2,0,3,22,76,11
8,3,19,1,3,0,3,22,75,9
8,3,18,1,6,1,3,22,11,11
9,4,20,1,5,1,3,22,75,11
9,4,15,1,0,0,3,22,14,9
9,4,11,1,4,0,3,22,27,11
9,4,0,0,5,1,3,22,64,11
9,4,9,1,4,0,3,22,63,11
10,4,16,1,6,1,4,22,101,11
10,4,3,0,0,0,4,22,63,11
10,4,12,1,1,0,4,22,90,11
10,4,11,1,3,0,4,22,101,11
10,4,11,1,3,0,4,22,90,11
10,4,13,1,3,0,4,22,4,11
10,4,14,1,3,0,4,22,90,11
10,4,20,1,3,0,4,22,101,11
10,4,12,1,6,1,4,22,101,11
10,4,13,1,0,0,4,22,90,11
10,4,19,1,1,0,4,22,101,11
10,4,20,1,4,0,4,22,64,11
10,4,18,1,1,0,4,22,101,11
10,4,17,1,6,1,4,22,90,11
10,4,21,0,0,0,4,22,101,11
10,4,22,0,0,0,4,22,101,11
10,4,17,1,2,0,4,22,64,11
10,4,14,1,5,1,4,22,101,11
10,4,17,1,6,1,4,22,90,11
10,4,1,0,0,0,4,22,90,11
10,4,19,1,0,0,4,22,101,11
11,4,16,1,1,0,4,22,101,11
11,4,3,0,2,0,4,22,90,11
11,4,16,1,2,0,4,22,38,11
11,4,16,1,3,0,4,22,25,11
11,4,12,1,4,0,4,22,101,11
11,4,17,1,4,0,4,22,101,11
11,4,18,1,6,1,4,22,38,11
11,4,13,1,2,0,4,22,38,11
11,4,16,1,5,1,4,22,101,11
11,4,0,0,5,1,4,22,64,11
11,4,20,1,5,1,4,22,101,11
11,4,17,1,6,1,4,22,101,11
11,4,16,1,1,0,4,22,75,11
11,4,13,1,4,0,4,22,101,11
11,4,22,0,5,1,4,22,88,11
11,4,16,1,1,0,4,22,101,11
11,4,17,1,2,0,4,22,101,11
12,1,19,1,5,1,4,22,88,11
12,1,19,1,6,1,4,22,64,11
12,1,21,0,6,1,4,22,64,11
12,1,6,0,1,0,4,22,38,11
12,1,22,0,2,0,4,22,25,11
12,1,21,0,6,1,4,22,88,11
12,1,20,1,1,0,4,22,101,11
12,1,21,0,1,0,4,22,88,11
12,1,15,1,3,0,4,22,64,11
12,1,21,0,5,1,4,22,101,11
12,1,22,0,6,1,4,22,101,11
12,1,20,1,2,0,4,22,88,11
12,1,2,0,4,0,4,22,72,11
12,1,10,1,5,1,4,22,64,11
12,1,18,1,5,1,4,22,88,11
12,1,0,0,3,0,4,22,75,11
12,1,22,0,4,0,4,22,101,11
1,1,1,0,2,0,1,22,101,11
2,1,12,1,3,0,1,22,75,11
2,1,19,1,4,0,1,22,63,11
3,2,11,1,3,0,1,22,88,11
3,2,21,0,4,0,1,22,38,11
3,2,19,1,4,0,1,22,101,11
4,2,18,1,2,0,2,22,72,9
4,2,10,1,2,0,2,22,25,11
6,3,7,1,2,0,2,22,75,9
6,3,19,1,5,1,2,22,101,11
6,3,19,1,3,0,2,22,101,11
7,3,15,1,4,0,3,22,25,9
7,3,20,1,1,0,3,22,90,11
7,3,23,0,6,1,3,22,101,11
7,3,17,1,0,0,3,22,75,9
7,3,0,0,0,0,3,22,101,11
7,3,19,1,2,0,3,22,90,11
7,3,12,1,6,1,3,22,90,11
7,3,16,1,4,0,3,22,90,11
8,3,10,1,0,0,3,22,121,11
8,3,19,1,2,0,3,22,101,11
8,3,19,1,1,0,3,22,101,11
8,3,23,0,5,1,3,22,101,11
8,3,21,0,0,0,3,22,101,11
8,3,8,1,2,0,3,22,101,11
8,3,11,1,6,1,3,22,101,11
8,3,18,1,0,0,3,22,109,11
8,3,14,1,3,0,3,22,75,11
8,3,12,1,0,0,3,22,90,9
9,4,10,1,5,1,3,22,101,11
9,4,16,1,5,1,3,22,101,11
9,4,9,1,4,0,3,22,90,11
9,4,12,1,4,0,3,22,90,11
9,4,21,0,4,0,3,22,4,11
9,4,20,1,0,0,3,22,72,11
9,4,19,1,3,0,3,22,45,11
10,4,18,1,6,1,4,22,4,11
10,4,19,1,2,0,4,22,101,11
10,4,19,1,5,1,4,22,101,11
10,4,17,1,0,0,4,22,4,11
10,4,10,1,2,0,4,22,90,11
10,4,23,0,2,0,4,22,90,11
10,4,19,1,2,0,4,22,101,11
10,4,19,1,2,0,4,22,101,11
10,4,19,1,2,0,4,22,101,11
10,4,12,1,4,0,4,22,72,11
10,4,14,1,5,1,4,22,76,11
10,4,16,1,0,0,4,22,90,11
10,4,13,1,3,0,4,22,90,11
10,4,13,1,5,1,4,22,101,11
11,4,12,1,2,0,4,22,101,11
11,4,13,1,5,1,4,22,101,11
11,4,14,1,5,1,4,22,90,11
11,4,16,1,5,1,4,22,101,11
11,4,17,1,5,1,4,22,101,11
11,4,20,1,5,1,4,22,101,11
11,4,22,0,0,0,4,22,124,11
11,4,15,1,5,1,4,22,101,11
11,4,12,1,3,0,4,22,75,11
12,1,3,0,1,0,4,22,101,11
12,1,9,1,1,0,4,22,101,11
1,1,8,1,0,0,1,22,88,11
3,2,22,0,6,1,1,22,75,11
3,2,13,1,0,0,1,22,75,11
4,2,14,1,6,1,2,22,116,11
4,2,21,0,5,1,2,22,109,11
6,3,2,0,0,0,2,22,101,11
6,3,23,0,3,0,2,22,90,11
7,3,22,0,6,1,3,22,20,11
7,3,15,1,1,0,3,22,101,11
8,3,1,0,3,0,3,22,101,11
9,4,16,1,4,0,3,22,101,11
9,4,3,0,0,0,3,22,27,11
9,4,17,1,2,0,3,22,90,11
10,4,17,1,3,0,4,22,121,11
10,4,0,0,6,1,4,22,90,11
11,4,12,1,5,1,4,22,90,11
11,4,1,0,2,0,4,22,90,11
11,4,11,1,0,0,4,22,72,11
11,4,15,1,2,0,4,22,108,9
11,4,3,0,6,1,4,22,88,11
12,1,6,0,4,0,4,22,56,8
12,1,20,1,5,1,4,22,88,11
12,1,22,0,2,0,4,22,38,11
12,1,15,1,3,0,4,22,38,11
1,1,16,1,1,0,1,22,88,11
2,1,22,0,2,0,1,22,75,11
2,1,13,1,0,0,1,22,88,11
1,1,10,1,3,0,1,6,20,11
1,1,15,1,2,0,1,6,88,11
1,1,6,0,3,0,1,6,72,9
1,1,12,1,3,0,1,6,101,11
1,1,14,1,3,0,1,6,88,11
2,1,11,1,2,0,1,6,109,11
3,2,18,1,1,0,1,6,96,11
3,2,13,1,6,1,1,6,75,11
3,2,13,1,6,1,1,6,75,11
3,2,20,1,0,0,1,6,101,11
3,2,20,1,3,0,1,6,101,11
4,2,14,1,4,0,2,6,101,11
4,2,21,0,4,0,2,6,101,11
5,2,10,1,3,0,2,6,101,11
6,3,2,0,4,0,2,6,13,9
7,3,13,1,6,1,3,6,90,11
7,3,17,1,1,0,3,6,72,11
7,3,20,1,2,0,3,6,90,11
8,3,21,0,2,0,3,6,109,11
9,4,8,1,1,0,3,6,101,11
9,4,11,1,3,0,3,6,90,11
9,4,17,1,5,1,3,6,101,11
9,4,20,1,3,0,3,6,101,11
10,4,23,0,2,0,4,6,101,11
10,4,18,1,4,0,4,6,101,11
10,4,14,1,5,1,4,6,101,11
10,4,13,1,6,1,4,6,4,11
11,4,10,1,2,0,4,6,27,11
11,4,15,1,0,0,4,6,88,11
11,4,17,1,6,1,4,6,101,11
11,4,5,0,0,0,4,6,95,11
12,1,17,1,4,0,4,6,4,11
12,1,16,1,5,1,4,6,90,11
2,1,14,1,0,0,1,6,72,11
2,1,14,1,0,0,1,6,72,11
4,2,5,0,2,0,2,6,72,11
5,2,7,1,5,1,2,6,72,9
6,3,15,1,4,0,2,6,72,11
9,4,10,1,0,0,3,6,72,9
10,4,13,1,4,0,4,6,72,11
12,1,0,0,1,0,4,6,88,11
1,1,9,1,5,1,1,6,88,11
1,1,0,0,6,1,1,6,38,11
1,1,14,1,6,1,1,6,96,11
1,1,19,1,6,1,1,6,38,11
1,1,0,0,0,0,1,6,88,11
1,1,14,1,0,0,1,6,88,11
1,1,14,1,0,0,1,6,88,11
1,1,21,0,1,0,1,6,63,11
1,1,13,1,3,0,1,6,90,11
1,1,20,1,3,0,1,6,88,11
1,1,18,1,4,0,1,6,38,11
1,1,12,1,6,1,1,6,96,11
1,1,16,1,6,1,1,6,88,11
1,1,18,1,6,1,1,6,96,11
1,1,20,1,0,0,1,6,88,11
1,1,17,1,1,0,1,6,96,11
1,1,10,1,2,0,1,6,88,11
1,1,13,1,2,0,1,6,20,11
1,1,12,1,4,0,1,6,96,11
1,1,0,0,5,1,1,6,88,11
1,1,16,1,5,1,1,6,88,11
1,1,6,0,6,1,1,6,64,11
1,1,15,1,6,1,1,6,88,11
1,1,19,1,6,1,1,6,99,11
1,1,12,1,0,0,1,6,88,11
1,1,13,1,0,0,1,6,88,11
1,1,13,1,0,0,1,6,88,11
1,1,14,1,0,0,1,6,88,11
1,1,16,1,0,0,1,6,96,11
1,1,18,1,0,0,1,6,88,11
1,1,8,1,1,0,1,6,96,11
1,1,15,1,1,0,1,6,35,11
1,1,12,1,2,0,1,6,88,11
1,1,20,1,2,0,1,6,63,11
1,1,19,1,3,0,1,6,88,11
1,1,20,1,3,0,1,6,96,11
1,1,22,0,3,0,1,6,88,11
1,1,23,0,3,0,1,6,96,11
1,1,0,0,5,1,1,6,96,11
1,1,8,1,5,1,1,6,38,11
1,1,11,1,6,1,1,6,96,11
1,1,21,0,6,1,1,6,96,11
1,1,7,1,0,0,1,6,88,11
1,1,14,1,0,0,1,6,88,11
1,1,15,1,0,0,1,6,88,11
1,1,15,1,0,0,1,6,88,11
1,1,18,1,0,0,1,6,88,11
1,1,22,0,0,0,1,6,55,11
1,1,3,0,1,0,1,6,56,8
1,1,12,1,1,0,1,6,88,11
1,1,17,1,1,0,1,6,88,11
1,1,0,0,2,0,1,6,88,11
1,1,17,1,2,0,1,6,101,11
1,1,11,1,3,0,1,6,90,11
1,1,13,1,3,0,1,6,88,11
1,1,20,1,3,0,1,6,64,11
1,1,23,0,3,0,1,6,88,11
1,1,4,0,4,0,1,6,88,11
1,1,15,1,4,0,1,6,96,11
1,1,20,1,4,0,1,6,88,11
1,1,15,1,5,1,1,6,38,11
1,1,2,0,6,1,1,6,96,11
1,1,8,1,6,1,1,6,64,11
1,1,9,1,6,1,1,6,88,11
1,1,17,1,6,1,1,6,64,11
1,1,6,0,0,0,1,6,96,11
1,1,19,1,0,0,1,6,64,11
2,1,10,1,2,0,1,6,64,11
2,1,19,1,2,0,1,6,96,11
2,1,21,0,2,0,1,6,96,11
2,1,21,0,2,0,1,6,88,11
2,1,22,0,3,0,1,6,64,11
2,1,11,1,4,0,1,6,96,11
2,1,0,0,5,1,1,6,75,9
2,1,1,0,5,1,1,6,69,11
2,1,5,0,5,1,1,6,38,11
2,1,12,1,5,1,1,6,88,11
2,1,12,1,5,1,1,6,96,11
2,1,13,1,6,1,1,6,88,11
2,1,15,1,6,1,1,6,20,11
2,1,3,0,1,0,1,6,38,11
2,1,4,0,1,0,1,6,96,11
2,1,16,1,1,0,1,6,96,11
2,1,1,0,2,0,1,6,88,11
2,1,16,1,2,0,1,6,49,11
2,1,21,0,2,0,1,6,96,11
2,1,16,1,3,0,1,6,96,11
2,1,17,1,3,0,1,6,90,11
2,1,23,0,3,0,1,6,96,11
2,1,12,1,4,0,1,6,96,11
2,1,18,1,5,1,1,6,101,11
2,1,2,0,6,1,1,6,88,11
2,1,2,0,6,1,1,6,88,11
2,1,2,0,6,1,1,6,88,11
2,1,2,0,6,1,1,6,88,11
2,1,3,0,6,1,1,6,88,11
2,1,3,0,6,1,1,6,88,11
2,1,3,0,6,1,1,6,88,11
2,1,13,1,6,1,1,6,96,11
2,1,14,1,6,1,1,6,96,11
2,1,19,1,0,0,1,6,96,11
2,1,7,1,1,0,1,6,96,11
2,1,19,1,2,0,1,6,96,11
2,1,19,1,3,0,1,6,90,11
2,1,12,1,4,0,1,6,90,11
2,1,18,1,4,0,1,6,90,11
2,1,22,0,4,0,1,6,88,11
2,1,14,1,6,1,1,6,64,11
2,1,0,0,0,0,1,6,88,11
2,1,11,1,0,0,1,6,88,11
2,1,17,1,0,0,1,6,90,11
2,1,17,1,3,0,1,6,101,11
2,1,20,1,3,0,1,6,116,11
2,1,10,1,5,1,1,6,38,11
2,1,16,1,5,1,1,6,27,11
2,1,10,1,6,1,1,6,75,9
2,1,20,1,0,0,1,6,64,11
2,1,21,0,0,0,1,6,88,11
3,2,13,1,2,0,1,6,88,11
3,2,23,0,2,0,1,6,88,11
3,2,2,0,4,0,1,6,88,11
3,2,8,1,4,0,1,6,79,11
3,2,10,1,4,0,1,6,64,11
3,2,10,1,4,0,1,6,88,11
3,2,2,0,2,0,1,6,88,11
3,2,14,1,2,0,1,6,64,11
3,2,11,1,3,0,1,6,88,11
3,2,15,1,3,0,1,6,90,9
3,2,19,1,3,0,1,6,88,11
3,2,13,1,4,0,1,6,38,11
3,2,13,1,5,1,1,6,88,11
3,2,20,1,5,1,1,6,101,11
3,2,19,1,6,1,1,6,88,11
3,2,13,1,0,0,1,6,88,11
3,2,22,0,0,0,1,6,64,11
3,2,14,1,2,0,1,6,101,11
3,2,10,1,6,1,1,6,88,11
3,2,10,1,6,1,1,6,88,11
3,2,11,1,6,1,1,6,88,11
3,2,14,1,6,1,1,6,88,11
3,2,14,1,6,1,1,6,88,11
3,2,16,1,6,1,1,6,90,9
3,2,22,0,6,1,1,6,88,11
3,2,23,0,6,1,1,6,88,11
3,2,19,1,0,0,1,6,96,11
3,2,12,1,1,0,1,6,88,11
3,2,16,1,1,0,1,6,90,11
3,2,22,0,1,0,1,6,88,11
3,2,0,0,3,0,1,6,96,11
3,2,1,0,3,0,1,6,72,11
3,2,14,1,3,0,1,6,83,11
3,2,20,1,3,0,1,6,96,11
3,2,21,0,5,1,1,6,14,11
3,2,18,1,6,1,1,6,88,11
3,2,2,0,2,0,1,6,88,11
3,2,16,1,2,0,1,6,101,11
3,2,18,1,2,0,1,6,90,11
3,2,22,0,3,0,1,6,90,11
4,2,10,1,0,0,2,6,90,11
4,2,15,1,0,0,2,6,90,11
4,2,2,0,3,0,2,6,101,11
4,2,21,0,4,0,2,6,96,11
4,2,0,0,5,1,2,6,64,11
4,2,7,1,5,1,2,6,96,11
4,2,13,1,5,1,2,6,38,11
4,2,15,1,5,1,2,6,64,11
4,2,3,0,1,0,2,6,72,9
4,2,23,0,1,0,2,6,88,11
4,2,12,1,3,0,2,6,64,11
4,2,15,1,3,0,2,6,101,11
4,2,14,1,4,0,2,6,106,11
4,2,19,1,4,0,2,6,88,11
4,2,14,1,5,1,2,6,90,11
4,2,18,1,6,1,2,6,88,11
4,2,20,1,0,0,2,6,38,11
4,2,22,0,0,0,2,6,99,11
4,2,21,0,2,0,2,6,63,11
4,2,3,0,3,0,2,6,101,11
4,2,16,1,3,0,2,6,64,11
4,2,0,0,4,0,2,6,88,11
4,2,18,1,5,1,2,6,96,11
4,2,22,0,5,1,2,6,88,11
4,2,0,0,6,1,2,6,38,11
4,2,2,0,6,1,2,6,64,11
4,2,12,1,6,1,2,6,122,11
4,2,16,1,6,1,2,6,75,11
4,2,13,1,3,0,2,6,88,11
4,2,13,1,3,0,2,6,38,11
4,2,19,1,3,0,2,6,90,11
4,2,13,1,5,1,2,6,101,11
4,2,14,1,5,1,2,6,90,11
4,2,21,0,5,1,2,6,20,11
5,2,1,0,0,0,2,6,9,11
5,2,19,1,1,0,2,6,101,11
5,2,15,1,2,0,2,6,64,11
5,2,17,1,2,0,2,6,90,11
5,2,12,1,3,0,2,6,38,11
5,2,11,1,0,0,2,6,88,11
5,2,14,1,0,0,2,6,79,11
5,2,21,0,0,0,2,6,38,11
5,2,8,1,1,0,2,6,101,11
5,2,19,1,1,0,2,6,90,11
5,2,21,0,1,0,2,6,88,11
5,2,23,0,2,0,2,6,9,11
5,2,19,1,3,0,2,6,90,11
5,2,21,0,3,0,2,6,101,9
5,2,13,1,4,0,2,6,124,11
5,2,10,1,6,1,2,6,90,11
5,2,9,1,0,0,2,6,38,11
5,2,18,1,2,0,2,6,101,11
5,2,12,1,5,1,2,6,88,11
5,2,17,1,6,1,2,6,88,11
5,2,21,0,6,1,2,6,90,8
5,2,21,0,2,0,2,6,90,9
5,2,16,1,3,0,2,6,96,11
5,2,18,1,3,0,2,6,90,11
5,2,14,1,4,0,2,6,90,11
5,2,4,0,5,1,2,6,99,11
5,2,11,1,5,1,2,6,90,11
6,3,13,1,2,0,2,6,101,11
6,3,23,0,3,0,2,6,88,11
6,3,0,0,4,0,2,6,88,11
6,3,13,1,4,0,2,6,90,9
6,3,0,0,5,1,2,6,88,11
6,3,5,0,5,1,2,6,101,11
6,3,2,0,0,0,2,6,20,11
6,3,0,0,1,0,2,6,101,11
6,3,0,0,3,0,2,6,96,11
6,3,0,0,3,0,2,6,101,11
6,3,1,0,4,0,2,6,101,11
6,3,15,1,5,1,2,6,88,11
6,3,1,0,1,0,2,6,96,11
6,3,1,0,1,0,2,6,96,11
6,3,9,1,1,0,2,6,90,11
6,3,18,1,1,0,2,6,1,11
6,3,19,1,2,0,2,6,90,11
6,3,23,0,2,0,2,6,88,11
6,3,22,0,3,0,2,6,38,11
6,3,12,1,5,1,2,6,101,11
6,3,14,1,6,1,2,6,101,11
6,3,21,0,6,1,2,6,90,11
6,3,5,0,0,0,2,6,88,11
6,3,21,0,0,0,2,6,81,11
6,3,22,0,0,0,2,6,88,11
6,3,2,0,2,0,2,6,72,11
6,3,19,1,2,0,2,6,96,11
6,3,2,0,6,1,2,6,106,11
6,3,23,0,6,1,2,6,101,11
6,3,21,0,0,0,2,6,99,11
6,3,17,1,3,0,2,6,90,11
7,3,12,1,4,0,3,6,90,11
7,3,5,0,5,1,3,6,88,11
7,3,14,1,5,1,3,6,90,11
7,3,16,1,5,1,3,6,88,11
7,3,19,1,5,1,3,6,90,11
7,3,20,1,5,1,3,6,90,11
7,3,14,1,0,0,3,6,55,11
7,3,22,0,1,0,3,6,90,11
7,3,20,1,3,0,3,6,20,11
7,3,8,1,4,0,3,6,64,11
7,3,14,1,4,0,3,6,101,11
7,3,16,1,4,0,3,6,88,11
7,3,9,1,5,1,3,6,90,11
7,3,16,1,5,1,3,6,88,11
7,3,0,0,6,1,3,6,101,11
7,3,1,0,6,1,3,6,90,11
7,3,23,0,0,0,3,6,88,11
7,3,12,1,3,0,3,6,88,11
7,3,8,1,4,0,3,6,90,11
7,3,16,1,5,1,3,6,64,11
7,3,21,0,5,1,3,6,90,11
7,3,8,1,6,1,3,6,101,11
7,3,14,1,0,0,3,6,64,11
7,3,23,0,0,0,3,6,90,11
7,3,14,1,1,0,3,6,75,11
7,3,2,0,2,0,3,6,101,11
7,3,10,1,2,0,3,6,90,11
7,3,16,1,3,0,3,6,90,11
7,3,6,0,4,0,3,6,90,11
7,3,16,1,4,0,3,6,64,11
7,3,22,0,4,0,3,6,38,11
7,3,3,0,5,1,3,6,4,11
7,3,2,0,6,1,3,6,115,11
7,3,5,0,6,1,3,6,88,11
7,3,10,1,6,1,3,6,90,11
7,3,20,1,6,1,3,6,90,11
7,3,14,1,1,0,3,6,101,11
7,3,21,0,1,0,3,6,81,11
7,3,2,0,3,0,3,6,101,11
7,3,16,1,4,0,3,6,90,11
7,3,21,0,4,0,3,6,38,11
7,3,4,0,5,1,3,6,88,11
7,3,6,0,5,1,3,6,90,11
7,3,13,1,5,1,3,6,64,11
8,3,4,0,0,0,3,6,72,11
8,3,13,1,0,0,3,6,64,11
8,3,21,0,4,0,3,6,101,11
8,3,12,1,5,1,3,6,90,11
8,3,12,1,6,1,3,6,90,11
8,3,21,0,6,1,3,6,90,11
8,3,13,1,0,0,3,6,90,11
8,3,15,1,0,0,3,6,90,11
8,3,18,1,0,0,3,6,101,11
8,3,17,1,1,0,3,6,96,11
8,3,11,1,2,0,3,6,90,11
8,3,15,1,2,0,3,6,56,11
8,3,21,0,3,0,3,6,90,11
8,3,20,1,4,0,3,6,76,11
8,3,20,1,4,0,3,6,90,11
8,3,19,1,0,0,3,6,90,11
8,3,19,1,1,0,3,6,90,11
8,3,15,1,3,0,3,6,90,11
8,3,17,1,3,0,3,6,90,11
8,3,18,1,4,0,3,6,109,11
8,3,21,0,4,0,3,6,36,11
8,3,15,1,0,0,3,6,90,11
8,3,11,1,2,0,3,6,101,11
8,3,0,0,3,0,3,6,63,11
8,3,19,1,3,0,3,6,96,11
8,3,4,0,4,0,3,6,88,11
8,3,4,0,5,1,3,6,88,11
8,3,20,1,5,1,3,6,101,11
8,3,23,0,5,1,3,6,88,11
8,3,11,1,6,1,3,6,75,11
8,3,21,0,0,0,3,6,101,11
9,4,2,0,3,0,3,6,88,11
9,4,3,0,3,0,3,6,88,11
9,4,4,0,4,0,3,6,88,11
9,4,18,1,4,0,3,6,101,11
9,4,14,1,5,1,3,6,96,11
9,4,21,0,5,1,3,6,106,11
9,4,12,1,6,1,3,6,90,11
9,4,12,1,6,1,3,6,96,11
9,4,19,1,6,1,3,6,72,11
9,4,5,0,1,0,3,6,96,11
9,4,6,0,1,0,3,6,90,11
9,4,2,0,3,0,3,6,88,11
9,4,16,1,3,0,3,6,90,11
9,4,0,0,4,0,3,6,96,11
9,4,1,0,4,0,3,6,96,11
9,4,19,1,4,0,3,6,101,11
9,4,1,0,6,1,3,6,72,11
9,4,5,0,6,1,3,6,88,11
9,4,20,1,6,1,3,6,101,11
9,4,13,1,1,0,3,6,88,11
9,4,15,1,1,0,3,6,90,11
9,4,2,0,6,1,3,6,88,11
9,4,17,1,6,1,3,6,90,11
9,4,20,1,6,1,3,6,90,11
9,4,14,1,2,0,3,6,90,11
9,4,16,1,2,0,3,6,90,11
9,4,22,0,3,0,3,6,88,11
9,4,18,1,5,1,3,6,90,11
9,4,12,1,6,1,3,6,101,11
9,4,16,1,6,1,3,6,90,11
9,4,23,0,6,1,3,6,9,9
9,4,10,1,0,0,3,6,90,11
9,4,20,1,0,0,3,6,87,11
9,4,6,0,2,0,3,6,99,11
9,4,17,1,3,0,3,6,101,11
9,4,21,0,4,0,3,6,63,11
10,4,3,0,6,1,4,6,88,11
10,4,22,0,6,1,4,6,96,11
10,4,23,0,1,0,4,6,88,11
10,4,17,1,2,0,4,6,96,11
10,4,9,1,3,0,4,6,64,11
10,4,11,1,3,0,4,6,90,11
10,4,18,1,3,0,4,6,90,11
10,4,21,0,4,0,4,6,72,11
10,4,13,1,5,1,4,6,96,11
10,4,13,1,5,1,4,6,90,11
10,4,21,0,5,1,4,6,96,11
10,4,1,0,6,1,4,6,99,11
10,4,12,1,6,1,4,6,106,11
10,4,14,1,6,1,4,6,90,11
10,4,13,1,0,0,4,6,88,11
10,4,16,1,0,0,4,6,90,11
10,4,20,1,0,0,4,6,49,11
10,4,9,1,3,0,4,6,101,11
10,4,11,1,3,0,4,6,101,11
10,4,11,1,6,1,4,6,101,11
10,4,19,1,0,0,4,6,90,11
10,4,16,1,1,0,4,6,90,11
10,4,19,1,1,0,4,6,38,11
10,4,1,0,2,0,4,6,88,11
10,4,13,1,2,0,4,6,101,11
10,4,15,1,4,0,4,6,90,11
10,4,16,1,5,1,4,6,101,11
10,4,11,1,6,1,4,6,96,11
10,4,12,1,0,0,4,6,90,11
10,4,23,0,0,0,4,6,55,11
10,4,11,1,1,0,4,6,88,11
10,4,23,0,1,0,4,6,88,11
10,4,3,0,4,0,4,6,88,11
10,4,19,1,4,0,4,6,64,11
10,4,21,0,4,0,4,6,72,11
10,4,1,0,5,1,4,6,88,11
10,4,11,1,5,1,4,6,9,11
10,4,16,1,6,1,4,6,90,11
10,4,22,0,6,1,4,6,90,11
10,4,14,1,0,0,4,6,124,11
11,4,20,1,1,0,4,6,90,11
11,4,6,0,2,0,4,6,4,11
11,4,8,1,2,0,4,6,90,11
11,4,14,1,2,0,4,6,4,11
11,4,14,1,2,0,4,6,90,11
11,4,14,1,2,0,4,6,4,11
11,4,14,1,2,0,4,6,90,11
11,4,19,1,2,0,4,6,4,11
11,4,20,1,2,0,4,6,63,11
11,4,7,1,3,0,4,6,54,11
11,4,11,1,3,0,4,6,4,11
11,4,17,1,3,0,4,6,90,11
11,4,20,1,3,0,4,6,63,11
11,4,2,0,4,0,4,6,90,11
11,4,10,1,4,0,4,6,90,11
11,4,20,1,4,0,4,6,90,11
11,4,22,0,4,0,4,6,101,11
11,4,7,1,5,1,4,6,90,11
11,4,16,1,5,1,4,6,90,11
11,4,16,1,5,1,4,6,90,11
11,4,16,1,5,1,4,6,47,11
11,4,13,1,6,1,4,6,20,11
11,4,11,1,0,0,4,6,38,11
11,4,13,1,1,0,4,6,64,9
11,4,14,1,2,0,4,6,75,11
11,4,20,1,2,0,4,6,20,11
11,4,14,1,3,0,4,6,90,11
11,4,15,1,3,0,4,6,96,11
11,4,20,1,3,0,4,6,64,11
11,4,13,1,5,1,4,6,75,11
11,4,5,0,0,0,4,6,96,11
11,4,11,1,1,0,4,6,4,11
11,4,13,1,3,0,4,6,4,9
11,4,20,1,3,0,4,6,4,11
11,4,18,1,6,1,4,6,90,11
11,4,3,0,0,0,4,6,38,11
11,4,11,1,0,0,4,6,38,11
11,4,11,1,0,0,4,6,94,11
11,4,18,1,0,0,4,6,88,11
11,4,21,0,0,0,4,6,38,11
11,4,12,1,1,0,4,6,38,11
11,4,11,1,2,0,4,6,4,11
11,4,14,1,2,0,4,6,4,11
11,4,13,1,5,1,4,6,90,11
11,4,17,1,5,1,4,6,64,11
11,4,8,1,6,1,4,6,81,11
11,4,8,1,6,1,4,6,64,11
11,4,15,1,6,1,4,6,88,11
11,4,15,1,6,1,4,6,88,11
11,4,19,1,6,1,4,6,38,11
11,4,20,1,6,1,4,6,38,11
11,4,21,0,6,1,4,6,99,11
11,4,0,0,0,0,4,6,88,11
11,4,7,1,0,0,4,6,4,11
11,4,12,1,0,0,4,6,64,11
11,4,19,1,0,0,4,6,38,11
11,4,20,1,0,0,4,6,88,11
11,4,17,1,1,0,4,6,64,11
11,4,17,1,1,0,4,6,64,11
11,4,20,1,1,0,4,6,64,11
11,4,21,0,1,0,4,6,88,11
11,4,10,1,2,0,4,6,88,11
11,4,16,1,2,0,4,6,96,11
12,1,15,1,4,0,4,6,38,11
12,1,16,1,4,0,4,6,88,11
12,1,20,1,4,0,4,6,38,11
12,1,20,1,4,0,4,6,96,11
12,1,21,0,5,1,4,6,96,11
12,1,4,0,6,1,4,6,88,11
12,1,18,1,6,1,4,6,96,11
12,1,22,0,6,1,4,6,96,11
12,1,8,1,0,0,4,6,64,11
12,1,13,1,0,0,4,6,90,11
12,1,17,1,0,0,4,6,90,11
12,1,15,1,1,0,4,6,75,8
12,1,17,1,1,0,4,6,75,11
12,1,19,1,1,0,4,6,88,11
12,1,22,0,1,0,4,6,88,11
12,1,22,0,1,0,4,6,88,11
12,1,22,0,2,0,4,6,96,11
12,1,10,1,3,0,4,6,96,11
12,1,10,1,3,0,4,6,1,11
12,1,19,1,3,0,4,6,38,11
12,1,19,1,3,0,4,6,124,11
12,1,20,1,3,0,4,6,88,11
12,1,18,1,4,0,4,6,88,11
12,1,19,1,4,0,4,6,88,11
12,1,19,1,4,0,4,6,88,11
12,1,21,0,4,0,4,6,88,11
12,1,15,1,5,1,4,6,96,11
12,1,19,1,5,1,4,6,96,11
12,1,20,1,5,1,4,6,96,11
12,1,0,0,6,1,4,6,109,11
12,1,15,1,6,1,4,6,96,11
12,1,3,0,0,0,4,6,96,11
12,1,21,0,1,0,4,6,88,11
12,1,19,1,3,0,4,6,88,11
12,1,18,1,6,1,4,6,72,11
12,1,21,0,6,1,4,6,88,11
12,1,16,1,0,0,4,6,90,11
12,1,21,0,0,0,4,6,66,11
12,1,16,1,1,0,4,6,75,11
12,1,20,1,1,0,4,6,88,11
12,1,17,1,2,0,4,6,88,11
12,1,17,1,4,0,4,6,88,11
12,1,18,1,4,0,4,6,88,11
12,1,17,1,5,1,4,6,38,11
12,1,10,1,6,1,4,6,99,11
12,1,11,1,6,1,4,6,96,11
12,1,13,1,6,1,4,6,64,11
12,1,14,1,6,1,4,6,38,11
12,1,20,1,6,1,4,6,90,11
12,1,2,0,0,0,4,6,75,11
12,1,12,1,0,0,4,6,99,11
12,1,12,1,0,0,4,6,99,11
12,1,16,1,0,0,4,6,99,11
12,1,19,1,1,0,4,6,96,11
12,1,21,0,2,0,4,6,64,11
12,1,7,1,3,0,4,6,90,11
12,1,9,1,3,0,4,6,90,11
12,1,18,1,3,0,4,6,90,11
12,1,22,0,3,0,4,6,99,11
12,1,14,1,4,0,4,6,99,11
12,1,15,1,4,0,4,6,99,11
1,1,13,1,1,0,1,6,38,11
1,1,13,1,3,0,1,6,88,11
1,1,10,1,2,0,1,6,88,11
1,1,13,1,2,0,1,6,88,11
1,1,15,1,2,0,1,6,72,11
1,1,18,1,5,1,1,6,75,11
1,1,18,1,6,1,1,6,38,11
1,1,18,1,3,0,1,6,38,11
1,1,19,1,1,0,1,6,23,8
1,1,12,1,2,0,1,6,90,11
1,1,21,0,2,0,1,6,75,11
2,1,6,0,4,0,1,6,75,8
2,1,12,1,2,0,1,6,20,9
2,1,14,1,4,0,1,6,88,11
2,1,18,1,4,0,1,6,101,11
2,1,20,1,6,1,1,6,90,11
3,2,21,0,1,0,1,6,90,11
3,2,16,1,5,1,1,6,75,11
3,2,15,1,4,0,1,6,4,11
3,2,18,1,4,0,1,6,38,11
3,2,20,1,6,1,1,6,45,11
3,2,6,0,0,0,1,6,20,11
3,2,10,1,0,0,1,6,75,11
3,2,20,1,0,0,1,6,90,11
3,2,12,1,5,1,1,6,90,11
4,2,19,1,4,0,2,6,38,11
4,2,17,1,1,0,2,6,88,11
4,2,10,1,2,0,2,6,88,11
4,2,11,1,5,1,2,6,38,11
5,2,17,1,6,1,2,6,54,11
5,2,20,1,0,0,2,6,101,11
5,2,19,1,5,1,2,6,75,11
5,2,18,1,6,1,2,6,101,11
5,2,15,1,3,0,2,6,38,11
5,2,20,1,6,1,2,6,47,11
6,3,20,1,5,1,2,6,101,11
6,3,13,1,0,0,2,6,45,11
6,3,11,1,1,0,2,6,45,11
6,3,13,1,3,0,2,6,101,11
6,3,17,1,3,0,2,6,101,11
6,3,17,1,0,0,2,6,20,9
6,3,14,1,1,0,2,6,90,11
6,3,10,1,1,0,2,6,88,11
6,3,17,1,3,0,2,6,90,11
6,3,19,1,3,0,2,6,13,11
7,3,21,0,4,0,3,6,101,11
7,3,21,0,3,0,3,6,56,11
7,3,18,1,6,1,3,6,90,11
7,3,21,0,6,1,3,6,90,11
7,3,14,1,3,0,3,6,90,11
7,3,21,0,5,1,3,6,13,11
7,3,16,1,6,1,3,6,101,11
7,3,20,1,1,0,3,6,90,11
7,3,16,1,6,1,3,6,45,11
8,3,23,0,2,0,3,6,90,11
8,3,4,0,4,0,3,6,38,8
8,3,20,1,6,1,3,6,75,11
8,3,2,0,0,0,3,6,88,11
8,3,8,1,2,0,3,6,20,11
8,3,15,1,2,0,3,6,90,11
8,3,18,1,2,0,3,6,124,11
8,3,19,1,2,0,3,6,88,11
9,4,17,1,3,0,3,6,90,11
9,4,23,0,5,1,3,6,90,11
9,4,19,1,6,1,3,6,88,11
9,4,11,1,1,0,3,6,90,11
9,4,22,0,6,1,3,6,101,11
9,4,15,1,0,0,3,6,90,11
9,4,14,1,3,0,3,6,23,11
9,4,11,1,4,0,3,6,90,11
10,4,19,1,1,0,4,6,101,11
10,4,19,1,1,0,4,6,101,11
10,4,19,1,6,1,4,6,88,11
10,4,18,1,0,0,4,6,90,11
10,4,15,1,1,0,4,6,124,11
10,4,19,1,5,1,4,6,101,11
10,4,19,1,4,0,4,6,101,11
10,4,13,1,5,1,4,6,90,11
10,4,18,1,5,1,4,6,90,11
10,4,19,1,5,1,4,6,101,11
10,4,15,1,6,1,4,6,101,11
11,4,18,1,0,0,4,6,124,11
11,4,13,1,5,1,4,6,88,11
11,4,15,1,5,1,4,6,88,11
12,1,17,1,5,1,4,6,47,11
12,1,18,1,0,0,4,6,38,11
12,1,22,0,1,0,4,6,75,11
12,1,4,0,2,0,4,6,38,11
12,1,14,1,4,0,4,6,88,11
12,1,15,1,3,0,4,6,27,11
1,1,11,1,5,1,1,6,88,11
1,1,12,1,2,0,1,6,64,11
1,1,22,0,6,1,1,6,124,11
1,1,18,1,0,0,1,6,88,11
1,1,13,1,2,0,1,6,64,11
1,1,21,0,2,0,1,6,88,11
1,1,1,0,0,0,1,6,88,11
1,1,17,1,1,0,1,6,20,11
1,1,16,1,3,0,1,6,88,11
1,1,9,1,4,0,1,6,38,8
1,1,15,1,6,1,1,6,88,11
1,1,18,1,0,0,1,6,90,11
1,1,13,1,1,0,1,6,88,11
1,1,20,1,1,0,1,6,75,11
1,1,17,1,4,0,1,6,38,11
1,1,18,1,4,0,1,6,38,11
1,1,21,0,4,0,1,6,38,11
2,1,11,1,4,0,1,6,88,11
2,1,0,0,6,1,1,6,88,11
2,1,9,1,0,0,1,6,75,11
2,1,19,1,4,0,1,6,90,11
2,1,21,0,4,0,1,6,4,11
2,1,18,1,1,0,1,6,90,11
3,2,13,1,0,0,1,6,124,11
3,2,13,1,1,0,1,6,90,11
3,2,13,1,1,0,1,6,90,11
3,2,11,1,6,1,1,6,101,11
3,2,17,1,6,1,1,6,124,11
3,2,19,1,6,1,1,6,90,11
3,2,10,1,0,0,1,6,101,11
3,2,21,0,1,0,1,6,88,11
3,2,16,1,1,0,1,6,88,11
3,2,13,1,2,0,1,6,75,11
3,2,10,1,3,0,1,6,88,11
3,2,18,1,5,1,1,6,75,11
3,2,10,1,0,0,1,6,75,11
3,2,8,1,3,0,1,6,72,11
4,2,13,1,4,0,2,6,101,11
4,2,11,1,2,0,2,6,20,11
4,2,0,0,3,0,2,6,88,11
4,2,22,0,3,0,2,6,88,11
4,2,20,1,6,1,2,6,90,11
4,2,14,1,0,0,2,6,90,11
4,2,16,1,0,0,2,6,88,11
4,2,20,1,1,0,2,6,88,11
4,2,15,1,2,0,2,6,101,11
4,2,20,1,2,0,2,6,101,11
4,2,12,1,3,0,2,6,20,11
4,2,14,1,4,0,2,6,101,11
4,2,14,1,4,0,2,6,88,11
4,2,19,1,4,0,2,6,101,11
4,2,20,1,5,1,2,6,90,11
4,2,16,1,6,1,2,6,109,11
4,2,18,1,0,0,2,6,90,11
4,2,20,1,1,0,2,6,88,11
4,2,11,1,6,1,2,6,64,11
4,2,17,1,1,0,2,6,90,11
4,2,21,0,1,0,2,6,88,11
4,2,16,1,2,0,2,6,101,11
4,2,19,1,2,0,2,6,90,11
4,2,20,1,2,0,2,6,90,11
4,2,15,1,4,0,2,6,14,9
4,2,6,0,5,1,2,6,101,11
5,2,8,1,6,1,2,6,101,11
5,2,8,1,4,0,2,6,101,11
5,2,17,1,5,1,2,6,101,11
5,2,17,1,4,0,2,6,101,11
5,2,19,1,2,0,2,6,90,11
5,2,19,1,3,0,2,6,101,11
5,2,10,1,2,0,2,6,101,11
5,2,20,1,3,0,2,6,90,11
5,2,11,1,5,1,2,6,38,11
6,3,15,1,4,0,2,6,88,11
6,3,15,1,3,0,2,6,101,11
6,3,2,0,0,0,2,6,101,11
7,3,16,1,3,0,3,6,90,9
7,3,16,1,2,0,3,6,101,11
7,3,23,0,3,0,3,6,88,11
7,3,5,0,5,1,3,6,101,11
8,3,13,1,4,0,3,6,90,11
8,3,17,1,6,1,3,6,101,11
8,3,5,0,6,1,3,6,90,11
8,3,14,1,6,1,3,6,90,11
8,3,20,1,6,1,3,6,90,11
8,3,0,0,2,0,3,6,101,11
8,3,20,1,2,0,3,6,101,11
8,3,0,0,3,0,3,6,88,11
8,3,20,1,1,0,3,6,101,11
8,3,19,1,3,0,3,6,90,11
8,3,12,1,4,0,3,6,101,11
8,3,17,1,1,0,3,6,75,11
9,4,21,0,1,0,3,6,90,11
9,4,4,0,2,0,3,6,101,11
9,4,21,0,2,0,3,6,101,11
9,4,7,1,4,0,3,6,90,11
9,4,22,0,0,0,3,6,124,11
9,4,20,1,2,0,3,6,90,11
9,4,15,1,4,0,3,6,90,11
9,4,22,0,4,0,3,6,101,11
9,4,0,0,5,1,3,6,101,11
9,4,14,1,5,1,3,6,101,11
9,4,21,0,6,1,3,6,54,11
9,4,9,1,1,0,3,6,109,11
9,4,13,1,1,0,3,6,101,11
10,4,19,1,0,0,4,6,90,11
10,4,15,1,1,0,4,6,90,11
10,4,18,1,2,0,4,6,88,11
10,4,9,1,0,0,4,6,90,11
10,4,18,1,0,0,4,6,90,11
10,4,19,1,0,0,4,6,90,11
10,4,14,1,1,0,4,6,90,11
10,4,19,1,5,1,4,6,90,11
10,4,11,1,6,1,4,6,88,11
10,4,23,0,6,1,4,6,90,11
10,4,7,1,1,0,4,6,72,11
10,4,19,1,2,0,4,6,90,11
10,4,15,1,3,0,4,6,90,11
10,4,16,1,0,0,4,6,101,11
10,4,16,1,0,0,4,6,101,11
11,4,19,1,1,0,4,6,90,11
11,4,15,1,2,0,4,6,101,11
11,4,16,1,5,1,4,6,101,11
11,4,16,1,1,0,4,6,90,11
11,4,13,1,4,0,4,6,88,11
11,4,16,1,4,0,4,6,90,11
11,4,14,1,0,0,4,6,124,11
11,4,14,1,1,0,4,6,124,9
11,4,16,1,3,0,4,6,101,11
11,4,18,1,5,1,4,6,101,11
12,1,15,1,4,0,4,6,101,11
12,1,23,0,4,0,4,6,101,11
12,1,18,1,5,1,4,6,54,11
12,1,21,0,0,0,4,6,88,11
12,1,16,1,1,0,4,6,88,11
1,1,11,1,0,0,1,6,101,11
3,2,13,1,6,1,1,6,64,11
3,2,20,1,2,0,1,6,72,9
4,2,1,0,3,0,2,6,75,11
5,2,21,0,5,1,2,6,72,11
7,3,16,1,6,1,3,6,90,11
7,3,1,0,6,1,3,6,75,11
12,1,9,1,6,1,4,6,88,11
12,1,18,1,5,1,4,6,101,11
1,1,20,1,0,0,1,6,9,8
1,1,15,1,2,0,1,6,88,11
1,1,17,1,6,1,1,6,88,11
1,1,18,1,6,1,1,6,88,11
2,1,3,0,0,0,1,6,90,11
2,1,23,0,2,0,1,6,109,11
2,1,12,1,6,1,1,6,88,11
3,2,0,0,2,0,1,6,88,11
3,2,21,0,0,0,1,6,75,11
5,2,13,1,2,0,2,6,88,11
5,2,17,1,5,1,2,6,109,11
7,3,18,1,2,0,3,6,75,8
8,3,19,1,1,0,3,6,109,11
10,4,18,1,1,0,4,6,90,11
10,4,17,1,2,0,4,6,47,8
10,4,14,1,3,0,4,6,88,11
10,4,11,1,2,0,4,6,90,11
10,4,17,1,3,0,4,6,88,11
11,4,19,1,6,1,4,6,88,11
1,1,16,1,4,0,1,1,54,11
1,1,8,1,3,0,1,1,124,11
2,1,12,1,4,0,1,1,124,11
2,1,18,1,3,0,1,1,101,11
3,2,12,1,1,0,1,1,124,11
3,2,9,1,1,0,1,1,63,11
3,2,9,1,6,1,1,1,124,11
3,2,13,1,1,0,1,1,124,11
3,2,18,1,6,1,1,1,14,9
3,2,20,1,1,0,1,1,101,11
3,2,17,1,3,0,1,1,90,11
3,2,14,1,5,1,1,1,124,11
3,2,21,0,5,1,1,1,101,11
3,2,21,0,0,0,1,1,75,11
3,2,9,1,1,0,1,1,4,11
3,2,22,0,3,0,1,1,101,11
4,2,20,1,5,1,2,1,101,11
4,2,12,1,4,0,2,1,64,11
4,2,20,1,0,0,2,1,64,11
4,2,21,0,5,1,2,1,101,11
4,2,15,1,1,0,2,1,9,11
4,2,0,0,6,1,2,1,124,11
4,2,21,0,6,1,2,1,88,11
4,2,14,1,3,0,2,1,13,8
4,2,12,1,4,0,2,1,90,11
4,2,20,1,4,0,2,1,90,11
4,2,20,1,5,1,2,1,55,11
5,2,14,1,3,0,2,1,72,11
5,2,16,1,4,0,2,1,124,11
5,2,14,1,5,1,2,1,90,11
5,2,16,1,5,1,2,1,90,11
5,2,15,1,5,1,2,1,101,11
5,2,19,1,6,1,2,1,90,11
5,2,14,1,0,0,2,1,90,11
5,2,23,0,1,0,2,1,11,11
5,2,16,1,2,0,2,1,90,11
5,2,19,1,2,0,2,1,90,11
5,2,13,1,3,0,2,1,90,11
5,2,17,1,3,0,2,1,20,11
5,2,18,1,3,0,2,1,90,11
5,2,12,1,4,0,2,1,90,11
5,2,15,1,4,0,2,1,90,11
5,2,18,1,4,0,2,1,54,11
5,2,1,0,5,1,2,1,90,11
5,2,14,1,5,1,2,1,90,11
5,2,20,1,5,1,2,1,101,11
5,2,13,1,0,0,2,1,101,11
5,2,16,1,1,0,2,1,101,11
6,3,16,1,2,0,2,1,90,11
6,3,23,0,6,1,2,1,90,11
6,3,16,1,1,0,2,1,101,11
6,3,20,1,2,0,2,1,54,11
6,3,23,0,5,1,2,1,90,11
6,3,16,1,6,1,2,1,90,11
6,3,19,1,6,1,2,1,124,11
6,3,17,1,1,0,2,1,124,11
6,3,1,0,2,0,2,1,124,11
6,3,16,1,3,0,2,1,90,11
6,3,12,1,4,0,2,1,90,11
6,3,14,1,4,0,2,1,90,11
6,3,19,1,4,0,2,1,124,11
6,3,14,1,5,1,2,1,90,11
6,3,1,0,6,1,2,1,90,11
6,3,1,0,6,1,2,1,90,11
6,3,7,1,6,1,2,1,20,11
6,3,19,1,6,1,2,1,90,11
6,3,23,0,6,1,2,1,124,11
6,3,22,0,0,0,2,1,124,11
6,3,0,0,1,0,2,1,90,11
6,3,11,1,1,0,2,1,101,11
6,3,23,0,2,0,2,1,124,11
6,3,2,0,4,0,2,1,90,11
6,3,23,0,4,0,2,1,90,11
6,3,16,1,1,0,2,1,124,11
6,3,16,1,1,0,2,1,122,11
6,3,22,0,1,0,2,1,124,11
6,3,22,0,1,0,2,1,73,11
6,3,1,0,2,0,2,1,124,11
6,3,17,1,2,0,2,1,124,11
6,3,17,1,2,0,2,1,101,11
6,3,0,0,3,0,2,1,90,11
7,3,5,0,6,1,3,1,124,11
7,3,15,1,6,1,3,1,90,11
7,3,21,0,0,0,3,1,101,11
7,3,20,1,1,0,3,1,20,9
7,3,1,0,2,0,3,1,124,11
7,3,1,0,2,0,3,1,101,11
7,3,14,1,2,0,3,1,54,11
7,3,16,1,2,0,3,1,90,9
7,3,0,0,3,0,3,1,90,11
7,3,22,0,3,0,3,1,101,11
7,3,21,0,4,0,3,1,90,11
7,3,2,0,5,1,3,1,109,11
7,3,21,0,2,0,3,1,90,11
7,3,21,0,2,0,3,1,38,11
7,3,12,1,5,1,3,1,90,11
7,3,19,1,6,1,3,1,101,11
7,3,2,0,0,0,3,1,124,11
7,3,22,0,0,0,3,1,54,11
7,3,16,1,1,0,3,1,101,11
7,3,19,1,1,0,3,1,90,11
7,3,13,1,3,0,3,1,90,11
7,3,21,0,3,0,3,1,101,11
7,3,13,1,4,0,3,1,72,9
7,3,15,1,4,0,3,1,90,9
7,3,22,0,4,0,3,1,90,11
7,3,19,1,0,0,3,1,101,11
7,3,13,1,1,0,3,1,29,11
7,3,12,1,2,0,3,1,101,11
7,3,1,0,3,0,3,1,124,11
7,3,17,1,3,0,3,1,90,11
7,3,15,1,4,0,3,1,101,11
7,3,23,0,4,0,3,1,101,11
8,3,15,1,0,0,3,1,101,11
8,3,21,0,0,0,3,1,54,11
8,3,22,0,3,0,3,1,101,11
8,3,0,0,4,0,3,1,124,11
8,3,21,0,4,0,3,1,101,11
8,3,19,1,6,1,3,1,109,11
8,3,19,1,6,1,3,1,109,11
8,3,16,1,2,0,3,1,20,11
8,3,20,1,3,0,3,1,101,11
8,3,21,0,4,0,3,1,109,11
8,3,21,0,6,1,3,1,90,11
8,3,21,0,5,1,3,1,101,11
8,3,15,1,6,1,3,1,27,11
8,3,20,1,6,1,3,1,101,11
8,3,3,0,1,0,3,1,124,11
8,3,7,1,2,0,3,1,124,11
8,3,12,1,0,0,3,1,20,11
9,4,18,1,4,0,3,1,124,11
9,4,21,0,4,0,3,1,99,11
9,4,19,1,0,0,3,1,101,11
9,4,23,0,4,0,3,1,109,11
9,4,13,1,6,1,3,1,90,11
9,4,16,1,1,0,3,1,124,11
9,4,14,1,4,0,3,1,90,11
9,4,7,1,2,0,3,1,109,11
9,4,21,0,4,0,3,1,101,11
10,4,18,1,1,0,4,1,90,11
10,4,18,1,3,0,4,1,101,11
10,4,22,0,3,0,4,1,101,11
10,4,19,1,5,1,4,1,90,11
10,4,23,0,0,0,4,1,90,11
10,4,0,0,3,0,4,1,124,11
10,4,22,0,3,0,4,1,90,11
10,4,17,1,2,0,4,1,14,11
10,4,9,1,6,1,4,1,4,11
10,4,16,1,6,1,4,1,90,11
10,4,19,1,4,0,4,1,90,11
10,4,14,1,0,0,4,1,90,11
11,4,10,1,2,0,4,1,75,11
11,4,12,1,2,0,4,1,101,11
11,4,18,1,3,0,4,1,90,11
11,4,14,1,4,0,4,1,101,11
11,4,20,1,5,1,4,1,109,11
11,4,4,0,1,0,4,1,20,9
11,4,19,1,4,0,4,1,64,11
11,4,18,1,5,1,4,1,38,11
11,4,0,0,3,0,4,1,109,11
11,4,19,1,4,0,4,1,124,11
11,4,20,1,6,1,4,1,90,11
11,4,16,1,1,0,4,1,75,9
11,4,19,1,1,0,4,1,124,11
12,1,21,0,6,1,4,1,124,11
12,1,20,1,0,0,4,1,101,11
12,1,18,1,1,0,4,1,124,11
12,1,18,1,2,0,4,1,63,11
12,1,23,0,2,0,4,1,63,11
12,1,18,1,1,0,4,1,124,11
12,1,21,0,1,0,4,1,124,11
12,1,23,0,1,0,4,1,124,11
12,1,0,0,2,0,4,1,124,11
12,1,19,1,2,0,4,1,124,11
12,1,18,1,3,0,4,1,124,11
12,1,7,1,0,0,4,1,124,11
12,1,14,1,1,0,4,1,72,9
12,1,21,0,1,0,4,1,51,11
12,1,15,1,3,0,4,1,124,11
12,1,9,1,5,1,4,1,101,11
1,1,3,0,5,1,1,1,88,11
1,1,3,0,5,1,1,1,88,11
1,1,5,0,5,1,1,1,88,11
1,1,23,0,5,1,1,1,88,11
1,1,0,0,6,1,1,1,101,11
1,1,12,1,6,1,1,1,101,11
1,1,21,0,6,1,1,1,64,11
1,1,13,1,1,0,1,1,88,11
1,1,12,1,3,0,1,1,75,11
1,1,1,0,4,0,1,1,75,11
1,1,23,0,4,0,1,1,101,11
1,1,2,0,5,1,1,1,88,11
1,1,3,0,5,1,1,1,14,11
1,1,9,1,5,1,1,1,101,11
1,1,11,1,5,1,1,1,101,11
1,1,3,0,6,1,1,1,88,11
1,1,11,1,6,1,1,1,88,11
1,1,15,1,6,1,1,1,101,11
1,1,20,1,0,0,1,1,88,11
1,1,1,0,1,0,1,1,88,11
1,1,11,1,1,0,1,1,88,11
1,1,12,1,1,0,1,1,88,11
1,1,20,1,1,0,1,1,88,11
1,1,1,0,2,0,1,1,78,11
1,1,16,1,2,0,1,1,101,11
1,1,3,0,3,0,1,1,64,11
1,1,10,1,3,0,1,1,101,11
1,1,11,1,3,0,1,1,88,11
1,1,13,1,3,0,1,1,88,11
1,1,15,1,3,0,1,1,88,11
1,1,17,1,3,0,1,1,90,11
1,1,21,0,3,0,1,1,88,11
1,1,18,1,4,0,1,1,101,11
1,1,3,0,5,1,1,1,88,11
1,1,13,1,5,1,1,1,88,11
1,1,3,0,6,1,1,1,20,11
1,1,11,1,6,1,1,1,88,11
1,1,15,1,6,1,1,1,101,11
1,1,16,1,6,1,1,1,101,11
1,1,17,1,6,1,1,1,64,11
1,1,19,1,6,1,1,1,75,11
1,1,21,0,6,1,1,1,88,11
1,1,23,0,6,1,1,1,64,11
1,1,17,1,0,0,1,1,75,11
1,1,8,1,1,0,1,1,75,11
1,1,12,1,1,0,1,1,64,11
1,1,9,1,2,0,1,1,90,11
1,1,17,1,2,0,1,1,88,11
1,1,19,1,2,0,1,1,88,11
1,1,8,1,3,0,1,1,88,11
1,1,14,1,3,0,1,1,88,11
1,1,20,1,3,0,1,1,88,11
1,1,16,1,5,1,1,1,64,11
1,1,23,0,5,1,1,1,88,11
1,1,13,1,6,1,1,1,101,11
1,1,15,1,6,1,1,1,88,11
1,1,22,0,6,1,1,1,64,11
1,1,1,0,0,0,1,1,88,11
1,1,9,1,0,0,1,1,88,11
1,1,16,1,0,0,1,1,88,11
1,1,19,1,0,0,1,1,88,11
1,1,21,0,0,0,1,1,88,11
1,1,23,0,0,0,1,1,101,11
1,1,13,1,1,0,1,1,64,11
1,1,15,1,1,0,1,1,88,11
1,1,15,1,1,0,1,1,64,11
1,1,15,1,1,0,1,1,88,11
1,1,17,1,1,0,1,1,88,11
1,1,18,1,1,0,1,1,20,11
1,1,19,1,1,0,1,1,88,11
1,1,20,1,1,0,1,1,64,11
1,1,12,1,2,0,1,1,90,11
1,1,14,1,2,0,1,1,88,11
1,1,16,1,2,0,1,1,101,11
1,1,19,1,2,0,1,1,75,11
1,1,22,0,2,0,1,1,88,11
1,1,15,1,3,0,1,1,88,11
1,1,18,1,3,0,1,1,64,11
1,1,23,0,3,0,1,1,101,11
1,1,23,0,3,0,1,1,88,11
1,1,1,0,4,0,1,1,88,11
1,1,11,1,4,0,1,1,88,11
1,1,16,1,4,0,1,1,64,11
1,1,10,1,5,1,1,1,64,11
1,1,11,1,5,1,1,1,64,11
1,1,12,1,5,1,1,1,88,11
1,1,12,1,5,1,1,1,101,11
1,1,17,1,6,1,1,1,101,11
1,1,12,1,0,0,1,1,64,11
1,1,18,1,0,0,1,1,88,11
1,1,18,1,0,0,1,1,101,11
2,1,13,1,1,0,1,1,75,11
2,1,21,0,2,0,1,1,64,11
2,1,9,1,3,0,1,1,88,11
2,1,12,1,5,1,1,1,88,11
2,1,13,1,5,1,1,1,101,11
2,1,15,1,5,1,1,1,88,11
2,1,10,1,6,1,1,1,88,11
2,1,14,1,6,1,1,1,101,11
2,1,16,1,6,1,1,1,90,11
2,1,19,1,6,1,1,1,38,11
2,1,21,0,6,1,1,1,88,11
2,1,23,0,6,1,1,1,88,11
2,1,12,1,0,0,1,1,20,11
2,1,16,1,0,0,1,1,101,11
2,1,19,1,1,0,1,1,64,11
2,1,20,1,1,0,1,1,64,11
2,1,14,1,2,0,1,1,101,11
2,1,19,1,2,0,1,1,101,11
2,1,8,1,3,0,1,1,88,11
2,1,11,1,3,0,1,1,63,11
2,1,12,1,3,0,1,1,101,11
2,1,13,1,3,0,1,1,101,11
2,1,13,1,3,0,1,1,88,11
2,1,18,1,3,0,1,1,90,11
2,1,14,1,4,0,1,1,101,11
2,1,18,1,4,0,1,1,64,11
2,1,18,1,4,0,1,1,101,11
2,1,13,1,5,1,1,1,90,11
2,1,18,1,5,1,1,1,88,11
2,1,18,1,5,1,1,1,101,11
2,1,14,1,6,1,1,1,75,11
2,1,19,1,6,1,1,1,101,11
2,1,18,1,0,0,1,1,88,11
2,1,0,0,1,0,1,1,88,11
2,1,1,0,1,0,1,1,64,11
2,1,11,1,1,0,1,1,88,11
2,1,21,0,1,0,1,1,88,11
2,1,17,1,2,0,1,1,101,11
2,1,19,1,3,0,1,1,55,11
2,1,22,0,3,0,1,1,101,11
2,1,12,1,4,0,1,1,101,11
2,1,0,0,5,1,1,1,20,9
2,1,0,0,5,1,1,1,88,11
2,1,8,1,5,1,1,1,64,11
2,1,10,1,5,1,1,1,88,11
2,1,10,1,5,1,1,1,101,11
2,1,11,1,5,1,1,1,101,11
2,1,16,1,5,1,1,1,88,11
2,1,21,0,5,1,1,1,75,11
2,1,15,1,3,0,1,1,64,11
2,1,19,1,3,0,1,1,88,11
2,1,20,1,3,0,1,1,64,11
2,1,23,0,3,0,1,1,88,11
2,1,1,0,4,0,1,1,88,11
2,1,13,1,4,0,1,1,101,11
2,1,17,1,4,0,1,1,101,11
2,1,22,0,4,0,1,1,88,11
2,1,23,0,4,0,1,1,88,11
2,1,23,0,4,0,1,1,88,11
2,1,23,0,4,0,1,1,88,11
2,1,23,0,4,0,1,1,88,11
2,1,19,1,5,1,1,1,64,11
2,1,10,1,6,1,1,1,75,11
2,1,14,1,6,1,1,1,109,11
2,1,15,1,6,1,1,1,64,11
2,1,22,0,6,1,1,1,88,11
2,1,0,0,0,0,1,1,88,11
3,2,22,0,1,0,1,1,88,11
3,2,23,0,2,0,1,1,88,11
3,2,23,0,2,0,1,1,64,11
3,2,20,1,3,0,1,1,88,11
3,2,10,1,4,0,1,1,101,11
3,2,17,1,5,1,1,1,64,11
3,2,13,1,6,1,1,1,88,11
3,2,17,1,6,1,1,1,88,11
3,2,1,0,0,0,1,1,75,11
3,2,0,0,2,0,1,1,88,11
3,2,19,1,2,0,1,1,88,11
3,2,10,1,3,0,1,1,88,11
3,2,16,1,3,0,1,1,75,11
3,2,16,1,3,0,1,1,90,11
3,2,18,1,3,0,1,1,64,11
3,2,19,1,3,0,1,1,75,11
3,2,16,1,4,0,1,1,101,11
3,2,21,0,4,0,1,1,101,11
3,2,17,1,5,1,1,1,101,11
3,2,20,1,5,1,1,1,38,11
3,2,12,1,6,1,1,1,75,11
3,2,13,1,6,1,1,1,64,11
3,2,14,1,6,1,1,1,101,11
3,2,15,1,6,1,1,1,88,11
3,2,18,1,6,1,1,1,64,11
3,2,2,0,0,0,1,1,88,11
3,2,12,1,0,0,1,1,101,11
3,2,15,1,0,0,1,1,101,11
3,2,16,1,0,0,1,1,88,11
3,2,18,1,0,0,1,1,88,11
3,2,18,1,0,0,1,1,90,11
3,2,5,0,1,0,1,1,75,11
3,2,13,1,1,0,1,1,101,11
3,2,16,1,1,0,1,1,101,11
3,2,19,1,1,0,1,1,101,11
3,2,22,0,1,0,1,1,101,11
3,2,10,1,3,0,1,1,64,11
3,2,12,1,3,0,1,1,101,11
3,2,19,1,3,0,1,1,101,11
3,2,19,1,3,0,1,1,101,11
3,2,20,1,3,0,1,1,108,11
3,2,10,1,4,0,1,1,64,11
3,2,19,1,4,0,1,1,38,11
3,2,21,0,4,0,1,1,64,11
3,2,21,0,4,0,1,1,88,11
3,2,0,0,5,1,1,1,101,11
3,2,4,0,5,1,1,1,88,11
3,2,10,1,5,1,1,1,88,11
3,2,12,1,5,1,1,1,64,11
3,2,19,1,5,1,1,1,64,11
3,2,3,0,6,1,1,1,88,11
3,2,4,0,6,1,1,1,88,11
3,2,11,1,6,1,1,1,38,11
3,2,15,1,6,1,1,1,64,11
3,2,16,1,6,1,1,1,101,11
3,2,18,1,6,1,1,1,101,11
3,2,19,1,6,1,1,1,101,11
3,2,23,0,6,1,1,1,88,11
3,2,23,0,6,1,1,1,88,11
3,2,8,1,0,0,1,1,55,11
3,2,11,1,0,0,1,1,75,11
3,2,16,1,0,0,1,1,101,11
3,2,20,1,0,0,1,1,75,11
3,2,22,0,0,0,1,1,101,11
3,2,19,1,2,0,1,1,101,11
3,2,20,1,2,0,1,1,88,11
3,2,20,1,2,0,1,1,64,11
3,2,23,0,2,0,1,1,88,11
3,2,23,0,2,0,1,1,88,11
3,2,14,1,3,0,1,1,101,11
3,2,23,0,3,0,1,1,88,11
3,2,14,1,4,0,1,1,64,11
3,2,18,1,4,0,1,1,14,11
3,2,20,1,4,0,1,1,101,11
3,2,12,1,6,1,1,1,27,11
3,2,22,0,6,1,1,1,64,11
3,2,22,0,6,1,1,1,88,11
3,2,23,0,6,1,1,1,88,11
3,2,0,0,0,0,1,1,88,11
3,2,21,0,0,0,1,1,88,11
3,2,21,0,0,0,1,1,88,11
3,2,13,1,1,0,1,1,101,11
3,2,18,1,1,0,1,1,101,11
3,2,20,1,1,0,1,1,101,11
3,2,20,1,1,0,1,1,101,11
3,2,22,0,1,0,1,1,88,11
3,2,10,1,2,0,1,1,109,11
3,2,16,1,2,0,1,1,64,11
3,2,18,1,2,0,1,1,90,11
3,2,18,1,2,0,1,1,101,11
3,2,20,1,2,0,1,1,101,11
3,2,20,1,2,0,1,1,38,11
3,2,21,0,2,0,1,1,101,11
3,2,20,1,3,0,1,1,101,11
4,2,10,1,4,0,2,1,101,11
4,2,21,0,4,0,2,1,88,11
4,2,0,0,5,1,2,1,9,11
4,2,18,1,5,1,2,1,101,11
4,2,20,1,0,0,2,1,64,11
4,2,20,1,0,0,2,1,90,11
4,2,22,0,0,0,2,1,88,9
4,2,9,1,1,0,2,1,88,11
4,2,3,0,2,0,2,1,88,11
4,2,15,1,3,0,2,1,64,11
4,2,22,0,3,0,2,1,101,11
4,2,22,0,3,0,2,1,64,11
4,2,0,0,6,1,2,1,88,11
4,2,11,1,6,1,2,1,90,11
4,2,14,1,6,1,2,1,64,11
4,2,22,0,6,1,2,1,101,11
4,2,7,1,0,0,2,1,101,11
4,2,16,1,0,0,2,1,64,11
4,2,22,0,0,0,2,1,88,11
4,2,16,1,1,0,2,1,101,11
4,2,22,0,1,0,2,1,88,11
4,2,1,0,2,0,2,1,88,11
4,2,1,0,2,0,2,1,88,11
4,2,19,1,3,0,2,1,54,11
4,2,19,1,3,0,2,1,54,11
4,2,21,0,3,0,2,1,88,11
4,2,6,0,4,0,2,1,88,11
4,2,10,1,4,0,2,1,88,11
4,2,22,0,4,0,2,1,88,11
4,2,12,1,5,1,2,1,75,11
4,2,19,1,5,1,2,1,88,11
4,2,19,1,5,1,2,1,101,11
4,2,19,1,5,1,2,1,101,11
4,2,15,1,6,1,2,1,90,11
4,2,17,1,6,1,2,1,64,11
4,2,20,1,6,1,2,1,101,11
4,2,20,1,6,1,2,1,88,11
4,2,21,0,6,1,2,1,90,11
4,2,23,0,6,1,2,1,88,11
4,2,21,0,0,0,2,1,64,11
4,2,23,0,1,0,2,1,88,11
4,2,9,1,2,0,2,1,75,11
4,2,16,1,5,1,2,1,90,11
4,2,3,0,6,1,2,1,88,11
4,2,4,0,6,1,2,1,88,11
4,2,12,1,6,1,2,1,38,11
4,2,20,1,6,1,2,1,101,11
4,2,23,0,6,1,2,1,63,11
4,2,2,0,0,0,2,1,88,11
4,2,2,0,1,0,2,1,88,11
4,2,2,0,1,0,2,1,88,11
4,2,23,0,1,0,2,1,88,11
4,2,12,1,2,0,2,1,88,11
4,2,12,1,2,0,2,1,101,11
4,2,0,0,3,0,2,1,88,11
4,2,13,1,3,0,2,1,101,11
4,2,17,1,4,0,2,1,75,11
4,2,21,0,4,0,2,1,101,11
4,2,21,0,5,1,2,1,90,11
5,2,1,0,6,1,2,1,88,11
5,2,1,0,6,1,2,1,88,11
5,2,1,0,6,1,2,1,88,11
5,2,10,1,0,0,2,1,109,11
5,2,14,1,2,0,2,1,101,11
5,2,4,0,5,1,2,1,88,11
5,2,11,1,5,1,2,1,88,11
5,2,10,1,6,1,2,1,90,11
5,2,20,1,6,1,2,1,101,11
5,2,12,1,0,0,2,1,101,11
5,2,21,0,0,0,2,1,109,11
5,2,0,0,1,0,2,1,88,11
5,2,8,1,1,0,2,1,75,11
5,2,11,1,1,0,2,1,101,11
5,2,12,1,1,0,2,1,101,11
5,2,21,0,1,0,2,1,20,11
5,2,18,1,3,0,2,1,101,11
5,2,3,0,4,0,2,1,88,11
5,2,18,1,5,1,2,1,101,11
5,2,11,1,0,0,2,1,101,11
5,2,22,0,0,0,2,1,88,11
5,2,11,1,3,0,2,1,101,11
5,2,17,1,3,0,2,1,90,11
5,2,0,0,4,0,2,1,101,11
5,2,20,1,4,0,2,1,101,11
5,2,0,0,5,1,2,1,101,11
5,2,11,1,5,1,2,1,75,11
5,2,22,0,6,1,2,1,101,11
5,2,20,1,0,0,2,1,101,11
5,2,22,0,0,0,2,1,88,11
5,2,2,0,1,0,2,1,64,11
5,2,12,1,2,0,2,1,47,11
5,2,20,1,2,0,2,1,101,11
5,2,5,0,3,0,2,1,88,11
5,2,5,0,3,0,2,1,88,11
5,2,12,1,3,0,2,1,101,11
5,2,14,1,3,0,2,1,101,11
5,2,15,1,3,0,2,1,64,11
5,2,18,1,3,0,2,1,101,11
5,2,21,0,3,0,2,1,101,11
5,2,23,0,3,0,2,1,101,11
5,2,23,0,4,0,2,1,99,11
5,2,0,0,5,1,2,1,90,11
5,2,3,0,5,1,2,1,63,11
5,2,16,1,5,1,2,1,102,11
5,2,19,1,5,1,2,1,101,11
5,2,21,0,5,1,2,1,101,11
5,2,22,0,5,1,2,1,101,11
5,2,23,0,5,1,2,1,90,11
5,2,1,0,6,1,2,1,101,11
5,2,22,0,6,1,2,1,101,11
5,2,19,1,0,0,2,1,101,11
5,2,18,1,1,0,2,1,101,11
6,3,15,1,2,0,2,1,101,11
6,3,6,0,3,0,2,1,20,11
6,3,12,1,3,0,2,1,90,11
6,3,20,1,3,0,2,1,101,11
6,3,2,0,4,0,2,1,88,11
6,3,9,1,4,0,2,1,101,11
6,3,21,0,4,0,2,1,101,11
6,3,22,0,4,0,2,1,90,11
6,3,1,0,5,1,2,1,88,11
6,3,10,1,5,1,2,1,101,11
6,3,15,1,5,1,2,1,90,11
6,3,20,1,5,1,2,1,90,11
6,3,20,1,5,1,2,1,101,11
6,3,21,0,5,1,2,1,101,11
6,3,22,0,5,1,2,1,101,11
6,3,17,1,6,1,2,1,101,11
6,3,21,0,6,1,2,1,90,11
6,3,2,0,0,0,2,1,88,11
6,3,2,0,0,0,2,1,101,11
6,3,16,1,0,0,2,1,90,11
6,3,16,1,0,0,2,1,20,11
6,3,20,1,0,0,2,1,101,11
6,3,11,1,1,0,2,1,101,11
6,3,13,1,1,0,2,1,90,11
6,3,3,0,2,0,2,1,88,11
6,3,14,1,1,0,2,1,101,11
6,3,16,1,2,0,2,1,101,11
6,3,21,0,4,0,2,1,88,11
6,3,21,0,4,0,2,1,12,11
6,3,3,0,6,1,2,1,88,11
6,3,21,0,2,0,2,1,101,11
6,3,3,0,4,0,2,1,88,11
6,3,21,0,4,0,2,1,101,11
6,3,1,0,6,1,2,1,88,11
6,3,18,1,0,0,2,1,90,11
6,3,22,0,0,0,2,1,101,11
6,3,18,1,1,0,2,1,88,11
6,3,21,0,1,0,2,1,101,11
7,3,1,0,5,1,3,1,88,11
7,3,21,0,0,0,3,1,90,11
7,3,22,0,0,0,3,1,101,11
7,3,22,0,3,0,3,1,101,11
7,3,16,1,5,1,3,1,101,11
7,3,16,1,5,1,3,1,101,11
7,3,13,1,6,1,3,1,101,11
7,3,6,0,0,0,3,1,101,11
7,3,12,1,4,0,3,1,101,11
7,3,15,1,4,0,3,1,104,11
7,3,14,1,0,0,3,1,101,11
7,3,21,0,0,0,3,1,101,11
7,3,23,0,0,0,3,1,101,11
7,3,22,0,1,0,3,1,72,11
7,3,0,0,2,0,3,1,38,11
7,3,20,1,2,0,3,1,101,11
7,3,11,1,3,0,3,1,101,11
7,3,16,1,3,0,3,1,101,11
7,3,13,1,5,1,3,1,101,11
7,3,16,1,6,1,3,1,101,11
7,3,23,0,6,1,3,1,88,11
7,3,4,0,0,0,3,1,17,11
7,3,0,0,1,0,3,1,101,11
7,3,21,0,1,0,3,1,90,11
7,3,22,0,1,0,3,1,101,11
7,3,16,1,2,0,3,1,101,11
7,3,16,1,2,0,3,1,101,11
7,3,16,1,2,0,3,1,101,11
7,3,16,1,4,0,3,1,64,11
7,3,11,1,5,1,3,1,101,11
7,3,15,1,5,1,3,1,101,11
8,3,0,0,0,0,3,1,90,11
8,3,14,1,0,0,3,1,88,11
8,3,15,1,1,0,3,1,101,11
8,3,16,1,1,0,3,1,101,11
8,3,4,0,2,0,3,1,88,11
8,3,5,0,2,0,3,1,38,11
8,3,6,0,2,0,3,1,88,11
8,3,9,1,2,0,3,1,20,11
8,3,19,1,2,0,3,1,101,11
8,3,16,1,5,1,3,1,101,11
8,3,21,0,5,1,3,1,101,11
8,3,9,1,5,1,3,1,109,11
8,3,18,1,6,1,3,1,90,11
8,3,19,1,6,1,3,1,20,11
8,3,19,1,6,1,3,1,101,11
8,3,22,0,6,1,3,1,75,11
8,3,19,1,1,0,3,1,101,11
8,3,16,1,2,0,3,1,92,11
8,3,13,1,3,0,3,1,101,11
8,3,10,1,6,1,3,1,101,11
8,3,11,1,0,0,3,1,75,11
8,3,15,1,0,0,3,1,101,11
8,3,20,1,0,0,3,1,101,11
8,3,13,1,2,0,3,1,90,11
8,3,17,1,5,1,3,1,64,11
8,3,13,1,6,1,3,1,20,11
9,4,17,1,3,0,3,1,101,11
9,4,6,0,5,1,3,1,101,11
9,4,13,1,0,0,3,1,101,11
9,4,13,1,2,0,3,1,101,11
9,4,19,1,2,0,3,1,101,11
9,4,19,1,2,0,3,1,101,11
9,4,20,1,2,0,3,1,101,11
9,4,19,1,3,0,3,1,101,11
9,4,21,0,3,0,3,1,101,11
9,4,23,0,2,0,3,1,88,11
9,4,15,1,4,0,3,1,101,11
9,4,18,1,6,1,3,1,64,11
9,4,0,0,2,0,3,1,101,11
9,4,10,1,3,0,3,1,63,11
9,4,11,1,3,0,3,1,64,11
9,4,20,1,4,0,3,1,101,11
9,4,10,1,5,1,3,1,101,11
9,4,19,1,0,0,3,1,90,11
9,4,3,0,2,0,3,1,90,11
10,4,1,0,5,1,4,1,88,11
10,4,12,1,5,1,4,1,88,11
10,4,22,0,5,1,4,1,88,11
10,4,13,1,1,0,4,1,101,11
10,4,15,1,1,0,4,1,101,11
10,4,20,1,1,0,4,1,101,11
10,4,15,1,4,0,4,1,101,11
10,4,15,1,6,1,4,1,88,11
10,4,19,1,6,1,4,1,101,11
10,4,13,1,0,0,4,1,13,11
10,4,16,1,6,1,4,1,90,11
10,4,16,1,1,0,4,1,101,11
10,4,18,1,2,0,4,1,20,11
10,4,13,1,3,0,4,1,101,11
10,4,16,1,3,0,4,1,101,11
10,4,12,1,5,1,4,1,101,11
10,4,17,1,5,1,4,1,101,11
10,4,21,0,5,1,4,1,75,11
10,4,23,0,5,1,4,1,88,11
10,4,0,0,2,0,4,1,88,11
10,4,13,1,2,0,4,1,20,11
10,4,23,0,2,0,4,1,101,11
10,4,17,1,3,0,4,1,101,11
10,4,14,1,4,0,4,1,90,11
10,4,15,1,4,0,4,1,101,11
10,4,10,1,5,1,4,1,101,11
10,4,23,0,5,1,4,1,88,11
10,4,9,1,6,1,4,1,104,11
10,4,1,0,0,0,4,1,64,11
11,4,22,0,2,0,4,1,101,11
11,4,0,0,3,0,4,1,101,11
11,4,9,1,3,0,4,1,101,11
11,4,12,1,4,0,4,1,101,11
11,4,8,1,5,1,4,1,101,11
11,4,12,1,5,1,4,1,101,11
11,4,18,1,5,1,4,1,64,11
11,4,17,1,6,1,4,1,64,11
11,4,19,1,6,1,4,1,64,11
11,4,12,1,0,0,4,1,75,11
11,4,10,1,2,0,4,1,90,11
11,4,13,1,2,0,4,1,101,11
11,4,5,0,3,0,4,1,88,11
11,4,16,1,3,0,4,1,88,11
11,4,17,1,5,1,4,1,90,11
11,4,13,1,1,0,4,1,88,11
11,4,0,0,5,1,4,1,88,11
11,4,8,1,5,1,4,1,109,11
11,4,12,1,5,1,4,1,88,11
11,4,23,0,5,1,4,1,101,11
11,4,0,0,0,0,4,1,88,11
11,4,13,1,0,0,4,1,64,11
11,4,0,0,3,0,4,1,75,11
11,4,10,1,3,0,4,1,88,11
11,4,12,1,4,0,4,1,88,11
11,4,17,1,4,0,4,1,88,11
11,4,15,1,5,1,4,1,88,11
11,4,17,1,5,1,4,1,88,11
11,4,19,1,5,1,4,1,88,11
11,4,19,1,5,1,4,1,88,11
11,4,22,0,5,1,4,1,88,11
11,4,12,1,6,1,4,1,64,11
11,4,21,0,6,1,4,1,64,11
11,4,1,0,0,0,4,1,88,11
11,4,17,1,1,0,4,1,101,11
11,4,23,0,1,0,4,1,14,8
11,4,16,1,2,0,4,1,64,11
12,1,10,1,3,0,4,1,101,11
12,1,18,1,4,0,4,1,64,11
12,1,15,1,5,1,4,1,88,11
12,1,10,1,6,1,4,1,88,11
12,1,13,1,6,1,4,1,88,11
12,1,19,1,0,0,4,1,88,11
12,1,21,0,0,0,4,1,88,11
12,1,22,0,0,0,4,1,88,11
12,1,22,0,0,0,4,1,88,11
12,1,0,0,1,0,4,1,88,11
12,1,0,0,1,0,4,1,88,11
12,1,19,1,2,0,4,1,88,11
12,1,17,1,5,1,4,1,88,11
12,1,22,0,6,1,4,1,88,11
12,1,23,0,6,1,4,1,88,11
12,1,1,0,0,0,4,1,88,11
12,1,21,0,0,0,4,1,88,11
12,1,23,0,2,0,4,1,66,11
12,1,9,1,6,1,4,1,88,11
12,1,14,1,1,0,4,1,88,11
12,1,22,0,1,0,4,1,64,11
12,1,0,0,2,0,4,1,88,11
12,1,0,0,2,0,4,1,88,11
12,1,19,1,2,0,4,1,13,11
12,1,20,1,3,0,4,1,88,11
12,1,21,0,3,0,4,1,88,11
12,1,22,0,3,0,4,1,88,11
12,1,18,1,4,0,4,1,88,11
12,1,14,1,5,1,4,1,88,11
12,1,18,1,5,1,4,1,75,11
12,1,1,0,0,0,4,1,88,11
12,1,16,1,0,0,4,1,88,11
12,1,19,1,0,0,4,1,38,11
12,1,0,0,2,0,4,1,88,11
12,1,15,1,3,0,4,1,101,11
12,1,19,1,3,0,4,1,99,11
12,1,19,1,3,0,4,1,38,11
12,1,0,0,4,0,4,1,88,11
12,1,19,1,5,1,4,1,88,11
12,1,20,1,5,1,4,1,88,11
12,1,20,1,5,1,4,1,75,11
12,1,22,0,5,1,4,1,64,11
1,1,16,1,2,0,1,1,101,11
1,1,10,1,0,0,1,1,101,11
2,1,21,0,4,0,1,1,75,11
3,2,21,0,5,1,1,1,75,11
3,2,17,1,0,0,1,1,101,11
4,2,16,1,3,0,2,1,27,11
4,2,7,1,2,0,2,1,99,11
4,2,18,1,2,0,2,1,101,11
6,3,17,1,5,1,2,1,101,11
7,3,13,1,5,1,3,1,101,11
8,3,11,1,3,0,3,1,101,11
8,3,12,1,2,0,3,1,88,11
8,3,9,1,4,0,3,1,101,11
9,4,12,1,2,0,3,1,101,11
9,4,18,1,3,0,3,1,20,11
10,4,14,1,6,1,4,1,101,11
10,4,9,1,0,0,4,1,101,11
1,1,23,0,5,1,1,1,88,11
1,1,8,1,6,1,1,1,75,11
1,1,14,1,4,0,1,1,88,11
2,1,18,1,4,0,1,1,75,11
3,2,19,1,4,0,1,1,20,11
3,2,20,1,1,0,1,1,88,11
4,2,11,1,6,1,2,1,75,11
8,3,22,0,1,0,3,1,109,11
11,4,17,1,6,1,4,1,75,11
12,1,12,1,0,0,4,1,75,11
12,1,15,1,6,1,4,1,75,11
3,2,11,1,4,0,1,1,38,11
3,2,16,1,1,0,1,1,13,11
3,2,20,1,1,0,1,1,75,11
4,2,13,1,4,0,2,1,38,9
4,2,15,1,4,0,2,1,13,11
7,3,21,0,4,0,3,1,38,11
8,3,14,1,6,1,3,1,101,11
11,4,21,0,4,0,4,1,101,11
12,1,17,1,3,0,4,1,75,11
12,1,23,0,6,1,4,1,20,11
1,1,18,1,4,0,1,1,13,11
1,1,11,1,6,1,1,1,101,11
1,1,11,1,1,0,1,1,124,11
2,1,12,1,2,0,1,1,124,11
2,1,11,1,0,0,1,1,90,11
2,1,13,1,2,0,1,1,72,11
3,2,5,0,0,0,1,1,90,11
3,2,13,1,0,0,1,1,90,11
3,2,21,0,5,1,1,1,90,9
3,2,21,0,0,0,1,1,109,11
3,2,10,1,2,0,1,1,72,11
3,2,22,0,2,0,1,1,75,11
4,2,0,0,0,0,2,1,14,11
4,2,20,1,5,1,2,1,88,11
4,2,7,1,0,0,2,1,109,11
4,2,16,1,6,1,2,1,90,11
5,2,19,1,6,1,2,1,90,11
5,2,16,1,5,1,2,1,101,11
5,2,11,1,2,0,2,1,101,11
5,2,18,1,0,0,2,1,101,11
6,3,14,1,3,0,2,1,101,11
7,3,20,1,6,1,3,1,90,11
7,3,17,1,2,0,3,1,109,11
7,3,11,1,0,0,3,1,124,11
7,3,14,1,1,0,3,1,90,11
7,3,18,1,1,0,3,1,101,11
7,3,20,1,2,0,3,1,101,11
7,3,6,0,2,0,3,1,67,11
8,3,21,0,5,1,3,1,101,11
8,3,13,1,2,0,3,1,90,11
8,3,0,0,5,1,3,1,38,9
8,3,17,1,5,1,3,1,101,11
8,3,19,1,1,0,3,1,90,11
8,3,5,0,3,0,3,1,101,11
8,3,3,0,4,0,3,1,101,11
8,3,4,0,5,1,3,1,124,11
8,3,21,0,1,0,3,1,38,11
9,4,12,1,1,0,3,1,101,11
9,4,16,1,3,0,3,1,101,11
9,4,4,0,6,1,3,1,88,11
9,4,19,1,0,0,3,1,101,11
9,4,10,1,4,0,3,1,101,11
9,4,12,1,2,0,3,1,64,11
9,4,11,1,1,0,3,1,75,11
10,4,1,0,5,1,4,1,90,11
10,4,14,1,6,1,4,1,101,11
10,4,17,1,6,1,4,1,90,11
10,4,8,1,0,0,4,1,90,11
10,4,15,1,0,0,4,1,101,11
10,4,19,1,1,0,4,1,101,11
10,4,19,1,1,0,4,1,54,11
10,4,19,1,3,0,4,1,101,11
10,4,13,1,2,0,4,1,101,11
10,4,17,1,4,0,4,1,101,11
10,4,12,1,5,1,4,1,101,11
10,4,13,1,5,1,4,1,101,11
10,4,13,1,6,1,4,1,101,11
10,4,15,1,6,1,4,1,101,11
11,4,14,1,1,0,4,1,101,11
11,4,18,1,2,0,4,1,101,11
11,4,18,1,3,0,4,1,101,11
11,4,12,1,4,0,4,1,101,11
11,4,18,1,4,0,4,1,101,11
11,4,17,1,1,0,4,1,101,11
11,4,13,1,4,0,4,1,101,11
11,4,13,1,6,1,4,1,124,11
11,4,15,1,0,0,4,1,124,11
12,1,1,0,5,1,4,1,124,11
12,1,8,1,6,1,4,1,124,11
1,1,11,1,6,1,1,1,75,11
1,1,12,1,4,0,1,1,101,11
1,1,19,1,4,0,1,1,88,11
1,1,13,1,5,1,1,1,101,11
1,1,19,1,5,1,1,1,75,11
1,1,20,1,1,0,1,1,101,11
1,1,22,0,1,0,1,1,9,11
1,1,20,1,3,0,1,1,64,11
2,1,5,0,6,1,1,1,88,11
2,1,12,1,6,1,1,1,64,11
2,1,8,1,3,0,1,1,38,11
3,2,17,1,5,1,1,1,14,11
3,2,21,0,3,0,1,1,38,11
3,2,15,1,4,0,1,1,20,11
3,2,17,1,6,1,1,1,101,11
3,2,14,1,4,0,1,1,75,11
4,2,11,1,4,0,2,1,20,11
4,2,18,1,3,0,2,1,101,11
4,2,20,1,4,0,2,1,101,11
4,2,17,1,1,0,2,1,101,11
4,2,13,1,3,0,2,1,101,11
5,2,12,1,4,0,2,1,90,11
5,2,11,1,5,1,2,1,13,11
5,2,22,0,5,1,2,1,101,11
6,3,12,1,6,1,2,1,72,11
6,3,13,1,6,1,2,1,90,11
6,3,13,1,4,0,2,1,90,11
7,3,23,0,3,0,3,1,101,11
8,3,19,1,6,1,3,1,109,11
8,3,19,1,1,0,3,1,13,11
8,3,16,1,0,0,3,1,103,11
8,3,23,0,4,0,3,1,101,11
8,3,22,0,6,1,3,1,101,11
8,3,23,0,6,1,3,1,101,11
9,4,11,1,3,0,3,1,90,11
9,4,11,1,4,0,3,1,109,11
9,4,23,0,6,1,3,1,101,11
9,4,23,0,2,0,3,1,101,11
9,4,23,0,3,0,3,1,101,11
9,4,23,0,4,0,3,1,101,11
9,4,23,0,0,0,3,1,101,11
10,4,23,0,6,1,4,1,101,11
10,4,9,1,4,0,4,1,101,11
10,4,23,0,5,1,4,1,101,11
10,4,23,0,4,0,4,1,101,11
10,4,11,1,6,1,4,1,101,11
10,4,14,1,6,1,4,1,101,11
10,4,23,0,0,0,4,1,101,11
10,4,23,0,3,0,4,1,101,11
10,4,11,1,0,0,4,1,101,11
10,4,15,1,5,1,4,1,101,11
10,4,16,1,5,1,4,1,101,11
11,4,17,1,2,0,4,1,101,11
11,4,15,1,3,0,4,1,101,11
11,4,7,1,6,1,4,1,13,11
11,4,21,0,4,0,4,1,109,11
12,1,23,0,0,0,4,1,101,11
12,1,23,0,2,0,4,1,124,11
12,1,17,1,5,1,4,1,75,11
1,1,11,1,1,0,1,15,109,11
1,1,17,1,4,0,1,15,20,11
1,1,15,1,5,1,1,15,75,11
1,1,18,1,5,1,1,15,101,11
1,1,18,1,6,1,1,15,64,11
1,1,21,0,6,1,1,15,64,11
1,1,12,1,0,0,1,15,38,11
1,1,21,0,3,0,1,15,38,11
1,1,17,1,0,0,1,15,38,8
1,1,18,1,0,0,1,15,38,11
1,1,19,1,0,0,1,15,38,11
1,1,15,1,3,0,1,15,124,11
1,1,9,1,5,1,1,15,96,11
2,1,13,1,0,0,1,15,99,11
2,1,18,1,5,1,1,15,90,11
2,1,14,1,6,1,1,15,90,11
2,1,16,1,6,1,1,15,124,11
2,1,11,1,1,0,1,15,75,8
2,1,18,1,4,0,1,15,1,11
2,1,14,1,5,1,1,15,64,11
2,1,12,1,5,1,1,15,124,11
2,1,18,1,6,1,1,15,124,11
3,2,8,1,6,1,1,15,109,11
3,2,14,1,3,0,1,15,96,11
3,2,21,0,3,0,1,15,38,11
3,2,17,1,4,0,1,15,14,11
3,2,21,0,2,0,1,15,96,11
3,2,20,1,3,0,1,15,75,11
3,2,0,0,4,0,1,15,38,9
3,2,20,1,4,0,1,15,38,11
3,2,11,1,6,1,1,15,75,11
3,2,19,1,0,0,1,15,75,11
3,2,15,1,1,0,1,15,101,11
3,2,6,0,2,0,1,15,96,11
3,2,20,1,4,0,1,15,96,11
3,2,1,0,6,1,1,15,96,11
3,2,18,1,1,0,1,15,96,11
3,2,21,0,3,0,1,15,96,11
3,2,22,0,3,0,1,15,96,11
4,2,19,1,0,0,2,15,75,11
4,2,19,1,2,0,2,15,124,11
4,2,19,1,4,0,2,15,75,11
4,2,16,1,4,0,2,15,90,11
4,2,1,0,5,1,2,15,75,9
4,2,20,1,6,1,2,15,124,11
4,2,14,1,3,0,2,15,38,11
5,2,21,0,6,1,2,15,63,11
5,2,13,1,3,0,2,15,124,11
5,2,11,1,4,0,2,15,101,11
5,2,15,1,4,0,2,15,54,11
5,2,9,1,6,1,2,15,101,11
5,2,19,1,5,1,2,15,124,11
6,3,12,1,5,1,2,15,90,11
6,3,0,0,5,1,2,15,14,11
6,3,19,1,1,0,2,15,66,11
6,3,16,1,5,1,2,15,90,11
6,3,7,1,6,1,2,15,101,11
7,3,16,1,2,0,3,15,90,11
7,3,17,1,2,0,3,15,90,11
7,3,14,1,3,0,3,15,64,11
7,3,13,1,4,0,3,15,90,11
7,3,22,0,3,0,3,15,20,11
7,3,15,1,4,0,3,15,13,11
8,3,16,1,2,0,3,15,90,9
8,3,23,0,1,0,3,15,48,11
8,3,18,1,3,0,3,15,20,11
8,3,18,1,4,0,3,15,90,11
9,4,11,1,3,0,3,15,90,8
9,4,10,1,0,0,3,15,20,11
9,4,14,1,4,0,3,15,124,11
10,4,18,1,6,1,4,15,20,11
10,4,19,1,4,0,4,15,101,11
10,4,16,1,5,1,4,15,13,11
10,4,10,1,4,0,4,15,109,11
10,4,19,1,4,0,4,15,103,8
10,4,21,0,4,0,4,15,13,8
10,4,14,1,1,0,4,15,13,9
10,4,22,0,2,0,4,15,75,9
10,4,20,1,6,1,4,15,14,8
10,4,21,0,6,1,4,15,124,11
11,4,14,1,5,1,4,15,75,11
11,4,17,1,1,0,4,15,76,11
11,4,14,1,6,1,4,15,124,11
12,1,17,1,0,0,4,15,75,11
12,1,19,1,2,0,4,15,88,11
12,1,18,1,4,0,4,15,101,11
12,1,20,1,5,1,4,15,101,11
12,1,10,1,0,0,4,15,101,11
1,1,20,1,2,0,1,15,75,11
1,1,18,1,0,0,1,15,20,11
1,1,19,1,0,0,1,15,75,11
3,2,14,1,1,0,1,15,84,11
3,2,14,1,6,1,1,15,109,11
4,2,18,1,1,0,2,15,124,11
5,2,22,0,6,1,2,15,96,11
6,3,23,0,5,1,2,15,13,8
7,3,15,1,6,1,3,15,72,11
8,3,13,1,0,0,3,15,20,11
8,3,18,1,1,0,3,15,4,11
10,4,12,1,3,0,4,15,13,8
12,1,20,1,6,1,4,15,75,11
1,1,11,1,2,0,1,15,109,11
1,1,18,1,6,1,1,15,124,11
2,1,5,0,5,1,1,15,75,11
5,2,11,1,6,1,2,15,38,11
5,2,10,1,6,1,2,15,75,11
5,2,7,1,3,0,2,15,75,11
5,2,20,1,5,1,2,15,90,11
9,4,16,1,1,0,3,15,124,11
10,4,4,0,4,0,4,15,75,8
10,4,12,1,4,0,4,15,109,11
11,4,6,0,2,0,4,15,13,11
11,4,9,1,3,0,4,15,75,11
11,4,13,1,3,0,4,15,90,11
12,1,11,1,5,1,4,15,55,11
1,1,17,1,4,0,1,15,124,11
1,1,15,1,6,1,1,15,75,11
1,1,13,1,0,0,1,15,75,11
1,1,14,1,6,1,1,15,75,11
2,1,11,1,1,0,1,15,75,11
2,1,3,0,3,0,1,15,124,11
2,1,22,0,1,0,1,15,124,11
2,1,16,1,4,0,1,15,20,11
2,1,4,0,0,0,1,15,124,11
3,2,21,0,2,0,1,15,75,11
3,2,19,1,5,1,1,15,47,11
3,2,18,1,6,1,1,15,75,11
3,2,21,0,5,1,1,15,9,11
3,2,13,1,4,0,1,15,109,11
4,2,10,1,3,0,2,15,38,8
4,2,14,1,3,0,2,15,124,11
4,2,23,0,0,0,2,15,124,11
4,2,18,1,3,0,2,15,90,11
5,2,13,1,2,0,2,15,38,11
5,2,19,1,2,0,2,15,124,11
5,2,0,0,4,0,2,15,124,11
5,2,4,0,3,0,2,15,90,11
6,3,0,0,3,0,2,15,90,11
6,3,23,0,0,0,2,15,124,11
6,3,22,0,3,0,2,15,124,11
6,3,16,1,0,0,2,15,90,11
6,3,11,1,4,0,2,15,90,11
6,3,16,1,4,0,2,15,75,11
6,3,17,1,4,0,2,15,90,11
6,3,19,1,0,0,2,15,108,11
6,3,19,1,3,0,2,15,101,11
6,3,5,0,5,1,2,15,20,11
7,3,9,1,2,0,3,15,75,11
7,3,15,1,5,1,3,15,90,11
7,3,19,1,5,1,3,15,90,11
7,3,23,0,5,1,3,15,116,11
7,3,11,1,4,0,3,15,88,11
7,3,13,1,5,1,3,15,88,11
7,3,20,1,6,1,3,15,90,11
8,3,14,1,1,0,3,15,90,11
8,3,0,0,5,1,3,15,124,11
8,3,23,0,0,0,3,15,90,11
8,3,1,0,2,0,3,15,13,8
8,3,10,1,2,0,3,15,38,11
8,3,15,1,6,1,3,15,90,9
8,3,2,0,0,0,3,15,20,8
9,4,11,1,3,0,3,15,90,11
9,4,17,1,0,0,3,15,38,11
9,4,19,1,2,0,3,15,21,11
9,4,19,1,6,1,3,15,90,11
9,4,11,1,2,0,3,15,90,11
9,4,17,1,3,0,3,15,72,11
9,4,7,1,0,0,3,15,90,11
10,4,2,0,1,0,4,15,72,11
10,4,18,1,1,0,4,15,90,11
10,4,13,1,6,1,4,15,90,11
10,4,12,1,4,0,4,15,20,11
10,4,3,0,6,1,4,15,56,8
11,4,11,1,2,0,4,15,75,11
11,4,2,0,0,0,4,15,20,11
11,4,17,1,4,0,4,15,75,11
11,4,22,0,4,0,4,15,20,11
11,4,2,0,0,0,4,15,75,8
12,1,11,1,1,0,4,15,124,11
12,1,15,1,6,1,4,15,20,11
12,1,2,0,6,1,4,15,103,11
12,1,10,1,2,0,4,15,75,9
12,1,23,0,2,0,4,15,124,11
12,1,0,0,3,0,4,15,124,11
12,1,12,1,4,0,4,15,124,11
12,1,19,1,5,1,4,15,75,11
1,1,19,1,1,0,1,15,109,11
1,1,19,1,3,0,1,15,124,9
1,1,19,1,5,1,1,15,38,9
2,1,21,0,3,0,1,15,38,11
3,2,17,1,6,1,1,15,72,11
3,2,13,1,4,0,1,15,124,11
3,2,8,1,6,1,1,15,90,11
3,2,11,1,1,0,1,15,90,11
3,2,21,0,2,0,1,15,13,11
4,2,19,1,5,1,2,15,90,11
4,2,22,0,0,0,2,15,124,11
5,2,12,1,2,0,2,15,90,11
5,2,10,1,0,0,2,15,75,11
5,2,16,1,5,1,2,15,51,11
6,3,16,1,5,1,2,6,93,11
6,3,14,1,3,0,2,15,62,8
6,3,11,1,4,0,2,15,109,11
6,3,2,0,1,0,2,15,75,11
6,3,21,0,6,1,2,15,90,11
6,3,12,1,6,1,2,15,90,11
7,3,17,1,3,0,3,15,109,11
7,3,14,1,2,0,3,15,90,11
9,4,13,1,4,0,3,15,72,11
9,4,17,1,0,0,3,15,72,11
9,4,9,1,1,0,3,15,109,11
9,4,10,1,1,0,3,15,109,11
10,4,9,1,0,0,4,15,66,11
11,4,15,1,5,1,4,15,14,11
12,1,12,1,2,0,4,15,124,11
12,1,1,0,1,0,4,15,14,11
12,1,9,1,1,0,4,15,109,11
1,1,5,0,0,0,1,3,101,11
1,1,20,1,4,0,1,3,90,11
1,1,13,1,5,1,1,3,75,11
1,1,13,1,0,0,1,3,64,11
1,1,20,1,4,0,1,3,101,11
1,1,21,0,5,1,1,3,64,11
1,1,19,1,6,1,1,3,101,11
1,1,15,1,0,0,1,3,101,11
1,1,17,1,1,0,1,3,101,11
1,1,9,1,6,1,1,3,101,11
1,1,19,1,0,0,1,3,64,11
2,1,21,0,3,0,1,3,75,11
2,1,17,1,6,1,1,3,101,11
2,1,13,1,2,0,1,3,64,11
2,1,15,1,2,0,1,3,75,11
2,1,22,0,2,0,1,3,90,11
2,1,0,0,5,1,1,3,101,11
2,1,13,1,5,1,1,3,90,11
2,1,14,1,5,1,1,3,101,11
2,1,19,1,1,0,1,3,101,11
2,1,19,1,2,0,1,3,101,11
2,1,15,1,3,0,1,3,101,11
2,1,14,1,6,1,1,3,64,11
2,1,19,1,2,0,1,3,75,11
2,1,1,0,4,0,1,3,75,11
2,1,12,1,5,1,1,3,90,11
3,2,1,0,2,0,1,3,75,11
3,2,15,1,5,1,1,3,64,11
3,2,16,1,5,1,1,3,90,11
3,2,22,0,2,0,1,3,75,11
3,2,22,0,5,1,1,3,64,11
3,2,13,1,6,1,1,3,101,11
3,2,13,1,0,0,1,3,101,11
3,2,20,1,0,0,1,3,101,11
3,2,17,1,1,0,1,3,47,11
3,2,19,1,2,0,1,3,101,11
3,2,12,1,3,0,1,3,101,11
3,2,21,0,5,1,1,3,64,11
3,2,14,1,1,0,1,3,64,11
3,2,13,1,3,0,1,3,14,11
4,2,13,1,0,0,2,3,101,11
4,2,20,1,4,0,2,3,64,11
4,2,19,1,5,1,2,3,75,11
4,2,8,1,1,0,2,3,101,11
4,2,16,1,1,0,2,3,101,11
4,2,6,0,6,1,2,3,101,11
4,2,22,0,3,0,2,3,101,11
4,2,22,0,4,0,2,3,20,11
5,2,14,1,5,1,2,3,20,11
5,2,15,1,6,1,2,3,23,11
5,2,19,1,3,0,2,3,13,11
5,2,0,0,5,1,2,3,101,11
5,2,19,1,5,1,2,3,75,11
5,2,17,1,3,0,2,3,101,11
5,2,13,1,4,0,2,3,64,11
5,2,17,1,6,1,2,3,101,11
5,2,16,1,0,0,2,3,101,11
6,3,11,1,0,0,2,3,72,11
6,3,12,1,5,1,2,3,101,11
6,3,22,0,2,0,2,3,101,11
6,3,15,1,4,0,2,3,90,11
6,3,17,1,5,1,2,3,99,11
7,3,1,0,1,0,3,3,90,11
7,3,16,1,1,0,3,3,101,11
7,3,21,0,2,0,3,3,101,11
7,3,13,1,4,0,3,3,23,11
7,3,9,1,5,1,3,3,90,11
7,3,16,1,5,1,3,3,90,11
7,3,14,1,0,0,3,3,101,11
7,3,9,1,4,0,3,3,20,11
7,3,3,0,5,1,3,3,20,11
7,3,13,1,5,1,3,3,101,11
7,3,2,0,6,1,3,3,90,11
7,3,20,1,6,1,3,3,13,11
8,3,13,1,0,0,3,3,101,11
8,3,18,1,3,0,3,3,90,11
8,3,21,0,4,0,3,3,101,11
8,3,20,1,1,0,3,3,88,11
8,3,10,1,0,0,3,3,101,11
8,3,22,0,2,0,3,3,13,11
8,3,20,1,1,0,3,3,101,11
8,3,18,1,6,1,3,3,75,11
9,4,18,1,4,0,3,3,64,11
9,4,0,0,6,1,3,3,101,11
9,4,16,1,5,1,3,3,101,11
9,4,3,0,5,1,3,3,90,11
9,4,0,0,6,1,3,3,101,11
9,4,20,1,1,0,3,3,101,11
10,4,20,1,0,0,4,3,108,8
10,4,14,1,1,0,4,3,90,11
10,4,22,0,1,0,4,3,99,11
10,4,12,1,4,0,4,3,90,11
10,4,4,0,5,1,4,3,101,11
10,4,14,1,3,0,4,3,55,11
10,4,19,1,5,1,4,3,62,11
10,4,18,1,6,1,4,3,38,11
11,4,18,1,1,0,4,3,75,11
11,4,0,0,4,0,4,3,88,11
11,4,20,1,4,0,4,3,13,9
11,4,14,1,2,0,4,3,101,11
11,4,0,0,5,1,4,3,101,11
11,4,0,0,2,0,4,3,62,11
12,1,14,1,3,0,4,3,75,11
12,1,14,1,1,0,4,3,101,11
12,1,20,1,4,0,4,3,101,11
12,1,21,0,4,0,4,3,101,11
12,1,22,0,4,0,4,3,38,11
12,1,5,0,5,1,4,3,101,11
12,1,19,1,1,0,4,3,64,11
12,1,18,1,2,0,4,3,64,11
12,1,3,0,6,1,4,3,101,11
12,1,3,0,0,0,4,3,101,11
12,1,15,1,0,0,4,3,101,11
12,1,17,1,0,0,4,3,101,11
12,1,20,1,1,0,4,3,101,11
12,1,16,1,4,0,4,3,101,11
2,1,19,1,0,0,1,3,64,11
3,2,9,1,3,0,1,3,90,11
3,2,12,1,5,1,1,3,90,11
3,2,8,1,3,0,1,3,101,11
4,2,21,0,5,1,2,3,75,11
4,2,0,0,5,1,2,3,14,9
5,2,12,1,1,0,2,3,101,11
5,2,0,0,0,0,2,3,38,11
6,3,11,1,4,0,2,3,90,11
7,3,15,1,2,0,3,3,124,8
9,4,14,1,6,1,3,3,27,8
10,4,18,1,4,0,4,3,20,11
10,4,12,1,0,0,4,3,90,11
1,1,19,1,3,0,1,3,75,11
1,1,18,1,3,0,1,3,101,11
2,1,14,1,1,0,1,3,75,9
2,1,18,1,1,0,1,3,75,11
2,1,17,1,6,1,1,3,101,11
2,1,9,1,4,0,1,3,120,11
8,3,5,0,6,1,3,3,101,11
8,3,12,1,6,1,3,3,101,11
11,4,15,1,5,1,4,3,38,11
2,1,9,1,4,0,1,3,20,11
2,1,19,1,0,0,1,3,75,11
3,2,19,1,5,1,1,3,109,11
3,2,16,1,0,0,1,3,14,11
3,2,13,1,2,0,1,3,20,11
3,2,12,1,5,1,1,3,101,11
3,2,7,1,0,0,1,3,109,11
4,2,19,1,4,0,2,3,47,11
6,3,13,1,3,0,2,3,75,11
12,1,9,1,1,0,4,3,101,11
1,1,6,0,0,0,1,3,124,11
2,1,20,1,6,1,1,3,75,11
2,1,13,1,4,0,1,3,90,11
2,1,13,1,5,1,1,3,75,11
3,2,16,1,5,1,1,3,101,11
3,2,16,1,5,1,1,3,88,11
4,2,18,1,1,0,2,3,75,11
4,2,21,0,1,0,2,3,101,11
4,2,13,1,5,1,2,3,75,11
5,2,14,1,3,0,2,3,25,11
5,2,13,1,0,0,2,3,101,11
6,3,21,0,1,0,2,3,18,11
6,3,0,0,3,0,2,3,88,11
7,3,17,1,6,1,3,3,90,11
7,3,16,1,4,0,3,3,124,11
7,3,8,1,0,0,3,3,90,11
7,3,12,1,3,0,3,3,88,11
8,3,20,1,3,0,3,3,124,11
8,3,0,0,6,1,3,3,20,11
9,4,15,1,0,0,3,3,90,11
12,1,4,0,6,1,4,3,75,11
12,1,20,1,3,0,4,3,101,11
12,1,23,0,4,0,4,3,75,11
6,3,16,1,3,0,2,3,14,11
7,3,17,1,0,0,3,3,90,9
7,3,15,1,2,0,3,3,20,11
8,3,20,1,2,0,3,3,90,11
8,3,22,0,5,1,3,3,88,11
8,3,18,1,0,0,3,3,88,11
9,4,18,1,3,0,3,3,90,11
9,4,8,1,0,0,3,3,54,11
10,4,15,1,5,1,4,3,90,11
10,4,7,1,5,1,4,3,88,11
10,4,9,1,5,1,4,3,88,11
1,1,14,1,2,0,1,36,47,11
1,1,13,1,2,0,1,36,75,11
1,1,0,0,3,0,1,36,64,11
1,1,20,1,3,0,1,36,38,11
1,1,21,0,3,0,1,36,75,11
1,1,18,1,6,1,1,36,38,11
1,1,16,1,6,1,1,36,90,11
1,1,16,1,0,0,1,36,75,9
1,1,1,0,1,0,1,36,75,11
1,1,18,1,2,0,1,36,96,11
1,1,21,0,2,0,1,36,64,11
1,1,7,1,3,0,1,36,72,11
1,1,10,1,3,0,1,36,101,11
1,1,10,1,4,0,1,36,75,11
1,1,12,1,4,0,1,36,96,11
1,1,14,1,4,0,1,36,64,11
1,1,15,1,4,0,1,36,90,11
1,1,10,1,6,1,1,36,101,11
1,1,22,0,0,0,1,36,72,11
2,1,20,1,2,0,1,36,96,11
2,1,0,0,5,1,1,36,38,11
2,1,4,0,2,0,1,36,56,11
2,1,10,1,2,0,1,36,72,11
2,1,15,1,2,0,1,36,101,11
2,1,9,1,3,0,1,36,101,11
2,1,13,1,3,0,1,36,90,11
2,1,13,1,3,0,1,36,75,11
2,1,6,0,5,1,1,36,13,11
2,1,19,1,6,1,1,36,101,11
2,1,0,0,0,0,1,36,64,11
2,1,12,1,0,0,1,36,101,11
2,1,7,1,1,0,1,36,23,11
2,1,15,1,2,0,1,36,75,9
2,1,22,0,5,1,1,36,64,11
2,1,0,0,1,0,1,36,101,11
2,1,22,0,1,0,1,36,64,11
2,1,23,0,2,0,1,36,101,11
2,1,20,1,3,0,1,36,64,11
2,1,13,1,4,0,1,36,64,11
3,2,9,1,1,0,1,36,96,11
3,2,20,1,1,0,1,36,96,11
3,2,7,1,2,0,1,36,64,11
3,2,14,1,2,0,1,36,96,11
3,2,23,0,4,0,1,36,96,11
3,2,22,0,6,1,1,36,96,11
3,2,10,1,1,0,1,36,38,11
3,2,9,1,2,0,1,36,96,11
3,2,8,1,3,0,1,36,38,11
3,2,13,1,3,0,1,36,38,11
3,2,14,1,5,1,1,36,101,11
3,2,14,1,6,1,1,36,101,11
3,2,11,1,2,0,1,36,75,11
3,2,18,1,5,1,1,36,101,11
3,2,0,0,6,1,1,36,101,11
3,2,22,0,3,0,1,36,124,11
3,2,20,1,6,1,1,36,90,11
3,2,21,0,2,0,1,36,101,11
3,2,21,0,2,0,1,36,96,11
4,2,14,1,5,1,2,36,75,8
4,2,2,0,6,1,2,36,101,11
4,2,8,1,1,0,2,36,90,11
4,2,14,1,3,0,2,36,101,11
4,2,12,1,4,0,2,36,96,11
4,2,13,1,4,0,2,36,64,11
4,2,3,0,5,1,2,36,72,9
4,2,12,1,6,1,2,36,38,11
4,2,12,1,6,1,2,36,1,11
4,2,14,1,3,0,2,36,96,11
4,2,17,1,3,0,2,36,101,11
4,2,4,0,0,0,2,36,71,8
4,2,18,1,0,0,2,36,101,11
4,2,6,0,1,0,2,36,96,11
4,2,21,0,3,0,2,36,72,11
4,2,22,0,3,0,2,36,101,11
4,2,21,0,4,0,2,36,101,11
4,2,10,1,5,1,2,36,64,11
4,2,4,0,1,0,2,36,72,11
4,2,15,1,1,0,2,36,96,11
4,2,17,1,4,0,2,36,101,11
4,2,14,1,5,1,2,36,101,11
5,2,7,1,0,0,2,36,90,11
5,2,18,1,2,0,2,36,96,11
5,2,12,1,4,0,2,36,64,11
5,2,14,1,4,0,2,36,75,8
5,2,21,0,1,0,2,36,63,11
5,2,19,1,2,0,2,36,96,11
5,2,21,0,3,0,2,36,72,11
5,2,2,0,1,0,2,36,72,11
5,2,8,1,2,0,2,36,10,11
5,2,11,1,3,0,2,36,90,11
5,2,18,1,3,0,2,36,90,11
5,2,23,0,5,1,2,36,88,11
5,2,9,1,6,1,2,36,1,11
5,2,17,1,0,0,2,36,96,11
6,3,10,1,3,0,2,36,63,11
6,3,19,1,5,1,2,36,90,11
6,3,23,0,5,1,2,36,90,11
6,3,12,1,0,0,2,36,64,11
6,3,19,1,3,0,2,36,101,11
6,3,5,0,4,0,2,36,101,11
6,3,11,1,6,1,2,36,57,11
6,3,19,1,0,0,2,36,64,11
6,3,20,1,3,0,2,36,64,11
6,3,22,0,3,0,2,36,90,11
6,3,6,0,3,0,2,36,38,11
7,3,20,1,4,0,3,36,57,11
7,3,13,1,4,0,3,36,43,11
7,3,6,0,5,1,3,36,72,11
7,3,17,1,1,0,3,36,96,11
7,3,10,1,2,0,3,36,90,11
7,3,21,0,5,1,3,36,72,11
7,3,12,1,4,0,3,36,38,11
7,3,12,1,5,1,3,36,64,11
7,3,16,1,5,1,3,36,96,11
7,3,9,1,6,1,3,36,38,11
7,3,16,1,3,0,3,36,96,11
8,3,20,1,2,0,3,36,90,11
8,3,11,1,3,0,3,36,101,11
8,3,13,1,3,0,3,36,101,11
8,3,9,1,0,0,3,36,96,11
8,3,22,0,0,0,3,36,63,11
8,3,21,0,6,1,3,36,96,11
8,3,6,0,2,0,3,36,90,11
9,4,0,0,4,0,3,36,90,11
9,4,16,1,4,0,3,36,23,11
9,4,19,1,5,1,3,36,75,11
9,4,22,0,5,1,3,36,96,11
9,4,19,1,0,0,3,36,101,11
9,4,22,0,0,0,3,36,64,11
9,4,12,1,4,0,3,36,25,11
9,4,20,1,4,0,3,36,72,11
9,4,4,0,5,1,3,36,103,11
9,4,10,1,1,0,3,36,38,11
9,4,11,1,4,0,3,36,14,8
9,4,14,1,5,1,3,36,96,11
9,4,19,1,0,0,3,36,101,11
9,4,17,1,2,0,3,36,90,11
10,4,13,1,4,0,4,36,75,8
10,4,17,1,6,1,4,36,13,11
10,4,18,1,4,0,4,36,101,11
10,4,19,1,4,0,4,36,75,11
10,4,10,1,1,0,4,36,14,11
10,4,14,1,2,0,4,36,20,11
10,4,11,1,3,0,4,36,108,11
10,4,18,1,6,1,4,36,64,11
10,4,10,1,0,0,4,36,101,11
10,4,17,1,5,1,4,36,101,11
10,4,18,1,6,1,4,36,72,11
10,4,21,0,6,1,4,36,75,11
11,4,12,1,1,0,4,36,90,11
11,4,13,1,1,0,4,36,90,11
11,4,16,1,2,0,4,36,38,11
11,4,18,1,2,0,4,36,101,11
11,4,17,1,4,0,4,36,90,11
11,4,19,1,4,0,4,36,90,11
11,4,19,1,5,1,4,36,72,11
11,4,2,0,0,0,4,36,75,11
11,4,9,1,0,0,4,36,101,11
11,4,19,1,2,0,4,36,64,11
11,4,23,0,2,0,4,36,90,11
11,4,9,1,1,0,4,36,101,11
11,4,22,0,1,0,4,36,101,11
11,4,1,0,5,1,4,36,101,11
11,4,19,1,5,1,4,36,75,11
11,4,10,1,6,1,4,36,75,11
11,4,15,1,1,0,4,36,101,11
12,1,0,0,5,1,4,36,72,11
12,1,19,1,1,0,4,36,75,9
12,1,20,1,2,0,4,36,88,11
12,1,23,0,4,0,4,36,101,11
12,1,13,1,4,0,4,36,72,11
12,1,14,1,4,0,4,36,90,11
12,1,9,1,5,1,4,36,72,11
12,1,15,1,2,0,4,36,103,11
12,1,1,0,4,0,4,36,101,11
12,1,9,1,6,1,4,36,101,11
12,1,16,1,6,1,4,36,101,11
12,1,17,1,6,1,4,36,38,11
1,1,13,1,6,1,1,36,75,11
1,1,8,1,4,0,1,36,75,11
3,2,9,1,5,1,1,36,75,11
3,2,16,1,1,0,1,36,1,11
3,2,10,1,6,1,1,36,1,11
3,2,17,1,2,0,1,36,47,11
6,3,23,0,6,1,2,36,75,11
8,3,2,0,0,0,3,36,38,11
8,3,14,1,4,0,3,36,13,11
8,3,13,1,5,1,3,36,99,11
10,4,13,1,0,0,4,36,90,11
10,4,20,1,1,0,4,36,90,11
11,4,18,1,1,0,4,36,38,11
12,1,7,1,2,0,4,36,75,8
1,1,21,0,2,0,1,36,90,11
1,1,20,1,4,0,1,36,75,11
1,1,23,0,4,0,1,36,75,8
1,1,7,1,5,1,1,36,38,11
1,1,18,1,0,0,1,36,38,11
2,1,10,1,3,0,1,36,38,11
3,2,11,1,5,1,1,36,75,9
3,2,7,1,6,1,1,36,13,8
4,2,18,1,4,0,2,36,124,9
4,2,22,0,2,0,2,36,109,11
4,2,1,0,6,1,2,36,38,11
5,2,14,1,0,0,2,36,4,11
5,2,8,1,2,0,2,36,38,8
5,2,18,1,0,0,2,36,88,11
6,3,20,1,5,1,2,36,75,11
7,3,3,0,5,1,3,36,90,11
7,3,10,1,5,1,3,36,75,11
7,3,8,1,4,0,3,36,124,11
8,3,8,1,1,0,3,36,101,11
8,3,17,1,1,0,3,36,90,11
8,3,20,1,6,1,3,36,109,11
8,3,4,0,1,0,3,36,90,11
8,3,12,1,0,0,3,36,90,11
8,3,11,1,2,0,3,36,90,11
9,4,20,1,2,0,3,36,101,11
10,4,17,1,5,1,4,36,38,11
10,4,14,1,5,1,4,36,4,11
10,4,12,1,0,0,4,36,47,11
10,4,12,1,4,0,4,36,38,11
10,4,7,1,3,0,4,36,88,11
11,4,8,1,4,0,4,36,109,11
11,4,18,1,5,1,4,36,88,11
11,4,12,1,2,0,4,36,88,11
11,4,9,1,1,0,4,36,75,8
11,4,20,1,2,0,4,36,88,11
12,1,3,0,4,0,4,36,20,11
12,1,19,1,3,0,4,36,88,11
12,1,16,1,4,0,4,36,13,11
1,1,12,1,3,0,1,36,124,11
2,1,20,1,2,0,1,36,88,11
2,1,3,0,6,1,1,36,96,11
2,1,13,1,3,0,1,36,20,11
2,1,9,1,4,0,1,36,124,11
3,2,17,1,2,0,1,36,75,11
3,2,18,1,6,1,1,36,121,11
3,2,14,1,2,0,1,36,88,11
4,2,22,0,6,1,2,36,88,11
7,3,9,1,5,1,3,36,38,11
8,3,10,1,4,0,3,36,75,11
8,3,16,1,3,0,3,36,88,11
12,1,9,1,4,0,4,36,38,11
12,1,8,1,5,1,4,36,75,11
1,1,10,1,5,1,1,36,88,11
1,1,20,1,4,0,1,36,38,11
1,1,4,0,1,0,1,36,38,11
3,2,19,1,5,1,1,36,75,11
4,2,22,0,0,0,2,36,109,11
6,3,23,0,1,0,2,36,109,11
7,3,14,1,6,1,3,36,109,11
8,3,5,0,5,1,3,36,109,11
8,3,18,1,1,0,3,36,38,11
9,4,17,1,0,0,3,36,88,11
10,4,21,0,3,0,4,36,90,11
11,4,18,1,1,0,4,36,109,11
1,1,22,0,1,0,1,30,75,11
1,1,3,0,2,0,1,30,124,11
1,1,1,0,1,0,1,30,88,11
1,1,0,0,3,0,1,30,14,8
1,1,0,0,4,0,1,30,75,9
2,1,3,0,2,0,1,30,20,11
2,1,18,1,3,0,1,30,64,11
2,1,14,1,4,0,1,30,90,11
2,1,12,1,1,0,1,30,38,11
3,2,5,0,4,0,1,30,88,11
3,2,15,1,2,0,1,30,75,11
3,2,18,1,4,0,1,30,64,11
3,2,20,1,5,1,1,30,75,11
3,2,13,1,0,0,1,30,38,11
3,2,4,0,1,0,1,30,88,11
3,2,18,1,6,1,1,30,75,11
3,2,23,0,6,1,1,30,88,11
3,2,19,1,2,0,1,30,75,11
3,2,20,1,3,0,1,30,90,11
3,2,10,1,5,1,1,30,20,11
4,2,4,0,6,1,2,30,14,11
4,2,21,0,3,0,2,30,88,11
4,2,12,1,2,0,2,30,64,11
4,2,21,0,0,0,2,30,75,11
4,2,19,1,4,0,2,30,99,11
5,2,20,1,0,0,2,30,88,11
5,2,14,1,3,0,2,30,75,11
6,3,23,0,3,0,2,30,90,11
6,3,16,1,1,0,2,30,109,11
6,3,3,0,0,0,2,30,88,11
6,3,3,0,0,0,2,30,88,11
6,3,11,1,1,0,2,30,101,11
7,3,10,1,4,0,3,30,90,11
7,3,18,1,1,0,3,30,90,11
8,3,16,1,5,1,3,30,64,11
8,3,4,0,5,1,3,30,88,11
8,3,12,1,3,0,3,30,13,11
10,4,15,1,5,1,4,30,88,11
10,4,14,1,4,0,4,30,64,11
11,4,13,1,2,0,4,30,64,11
11,4,14,1,1,0,4,30,101,11
12,1,12,1,2,0,4,30,55,11
12,1,20,1,1,0,4,30,88,11
12,1,9,1,1,0,4,30,88,11
12,1,12,1,1,0,4,30,13,8
12,1,7,1,4,0,4,30,8,9
1,1,9,1,4,0,1,30,124,11
1,1,18,1,4,0,1,30,75,11
3,2,17,1,1,0,1,30,27,11
3,2,10,1,3,0,1,30,9,11
3,2,3,0,0,0,1,30,75,11
4,2,12,1,1,0,2,30,124,11
6,3,14,1,6,1,2,30,40,11
8,3,12,1,5,1,3,30,20,9
9,4,11,1,0,0,3,30,27,11
10,4,21,0,2,0,4,30,14,11
11,4,6,0,3,0,4,30,9,11
1,1,19,1,1,0,1,5,90,11
7,3,16,1,4,0,3,5,90,11
7,3,11,1,6,1,3,5,75,11
7,3,10,1,6,1,3,5,75,11
8,3,13,1,0,0,3,5,75,11
8,3,22,0,3,0,3,5,20,11
8,3,5,0,2,0,3,5,42,11
12,1,18,1,0,0,4,5,90,11
1,1,20,1,4,0,1,30,1,11
1,1,15,1,2,0,1,30,20,11
1,1,17,1,6,1,1,30,75,11
3,2,15,1,5,1,1,30,4,11
3,2,16,1,4,0,1,30,124,11
3,2,10,1,0,0,1,30,124,11
4,2,20,1,1,0,2,30,4,11
6,3,7,1,3,0,2,30,14,11
6,3,20,1,0,0,2,30,20,11
8,3,20,1,1,0,3,30,20,11
9,4,20,1,2,0,3,30,109,11
4,2,13,1,5,1,2,30,25,11
5,2,11,1,6,1,2,30,45,11
1,1,18,1,5,1,1,30,75,11
2,1,18,1,1,0,1,30,64,11
3,2,14,1,3,0,1,30,1,11
3,2,15,1,4,0,1,30,64,11
3,2,22,0,1,0,1,30,1,11
3,2,18,1,0,0,1,30,38,11
4,2,16,1,4,0,2,30,79,11
4,2,8,1,1,0,2,30,20,11
5,2,16,1,6,1,2,30,101,11
7,3,21,0,2,0,3,30,109,11
7,3,23,0,2,0,3,30,116,11
8,3,7,1,5,1,3,30,38,11
8,3,21,0,1,0,3,30,88,11
10,4,19,1,2,0,4,30,64,11
11,4,18,1,4,0,4,30,96,11
2,1,21,0,6,1,1,30,1,11
2,1,19,1,1,0,1,30,64,11
8,3,4,0,2,0,3,30,109,11
8,3,7,1,4,0,3,30,64,11
9,4,7,1,2,0,3,30,109,11
10,4,14,1,2,0,4,30,101,11
3,2,7,1,3,0,1,30,109,11
3,2,17,1,5,1,1,30,75,11
3,2,17,1,3,0,1,30,75,11
4,2,8,1,6,1,2,30,75,11
4,2,14,1,1,0,2,30,90,11
4,2,23,0,0,0,2,30,88,11
6,3,11,1,2,0,2,30,20,11
8,3,9,1,0,0,3,30,90,11
8,3,21,0,1,0,3,30,109,11
9,4,21,0,5,1,3,30,124,11
1,1,10,1,6,1,1,2,124,11
1,1,0,0,6,1,1,2,30,9
1,1,13,1,3,0,1,2,89,11
1,1,2,0,0,0,1,2,124,11
2,1,4,0,3,0,1,2,124,11
2,1,13,1,4,0,1,2,75,11
3,2,18,1,0,0,1,2,124,11
3,2,15,1,1,0,1,2,101,11
4,2,16,1,4,0,2,2,124,11
4,2,3,0,6,1,2,2,64,11
4,2,18,1,2,0,2,2,124,11
5,2,10,1,6,1,2,2,124,11
5,2,13,1,2,0,2,2,90,11
5,2,14,1,5,1,2,2,75,11
6,3,12,1,6,1,2,2,20,11
6,3,13,1,0,0,2,2,101,11
6,3,22,0,0,0,2,2,90,11
6,3,21,0,4,0,2,2,114,11
6,3,12,1,1,0,2,2,90,11
7,3,14,1,4,0,3,2,101,11
7,3,20,1,5,1,3,2,67,11
7,3,21,0,0,0,3,2,75,11
7,3,13,1,4,0,3,2,101,11
7,3,14,1,5,1,3,2,20,11
8,3,17,1,4,0,3,2,101,11
8,3,3,0,0,0,3,2,104,11
9,4,10,1,3,0,3,2,90,11
9,4,14,1,0,0,3,2,101,11
10,4,11,1,1,0,4,2,101,11
10,4,4,0,5,1,4,2,108,9
10,4,11,1,0,0,4,2,101,11
10,4,18,1,3,0,4,2,101,11
10,4,21,0,4,0,4,2,38,11
11,4,17,1,6,1,4,2,1,11
11,4,10,1,5,1,4,2,101,11
1,1,17,1,5,1,1,2,38,8
1,1,4,0,6,1,1,2,124,11
1,1,18,1,6,1,1,2,72,11
2,1,15,1,6,1,1,2,75,11
3,2,16,1,4,0,1,2,101,11
3,2,15,1,3,0,1,2,75,8
3,2,12,1,6,1,1,2,124,11
3,2,19,1,0,0,1,2,20,8
4,2,16,1,4,0,2,2,101,11
4,2,19,1,1,0,2,2,101,11
6,3,5,0,5,1,2,2,20,11
6,3,11,1,0,0,2,2,101,11
7,3,16,1,0,0,3,2,90,11
7,3,19,1,4,0,3,2,20,11
7,3,10,1,5,1,3,2,75,9
7,3,19,1,4,0,3,2,101,11
8,3,14,1,2,0,3,2,75,9
8,3,8,1,3,0,3,2,124,11
8,3,14,1,4,0,3,2,75,11
9,4,10,1,3,0,3,2,101,11
9,4,1,0,2,0,3,2,101,11
9,4,14,1,2,0,3,2,15,8
10,4,13,1,6,1,4,2,90,11
10,4,3,0,0,0,4,2,20,11
11,4,17,1,1,0,4,2,64,11
12,1,15,1,4,0,4,2,64,11
1,1,13,1,3,0,1,5,75,11
2,1,17,1,4,0,1,5,54,11
3,2,18,1,5,1,1,5,51,11
4,2,17,1,0,0,2,5,124,11
4,2,12,1,6,1,2,5,109,11
4,2,13,1,6,1,2,5,109,11
5,2,16,1,0,0,2,5,109,11
7,3,12,1,3,0,3,5,101,11
9,4,5,0,3,0,3,5,109,11
11,4,13,1,3,0,4,5,75,9
11,4,1,0,3,0,4,5,67,9
12,1,17,1,6,1,4,5,101,11
10,4,8,1,0,0,4,5,38,11
7,3,11,1,5,1,3,5,90,11
7,3,8,1,6,1,3,5,124,11
5,2,15,1,6,1,2,5,72,11
7,3,2,0,4,0,3,5,101,11
10,4,16,1,2,0,4,5,47,9
1,1,22,0,1,0,1,2,75,11
1,1,10,1,5,1,1,2,101,11
1,1,13,1,0,0,1,2,90,11
1,1,10,1,0,0,1,2,124,11
1,1,6,0,4,0,1,2,75,11
1,1,21,0,6,1,1,2,88,11
2,1,13,1,1,0,1,2,124,11
2,1,23,0,6,1,1,2,75,11
2,1,18,1,1,0,1,2,88,11
2,1,19,1,1,0,1,2,124,11
2,1,21,0,4,0,1,2,124,11
2,1,1,0,5,1,1,2,124,11
2,1,12,1,5,1,1,2,88,11
2,1,18,1,5,1,1,2,88,11
2,1,11,1,1,0,1,2,75,11
2,1,12,1,1,0,1,2,88,11
2,1,16,1,3,0,1,2,88,11
2,1,9,1,4,0,1,2,52,11
3,2,12,1,4,0,1,2,90,11
3,2,13,1,0,0,1,2,124,11
3,2,18,1,2,0,1,2,124,11
3,2,15,1,0,0,1,2,64,11
3,2,16,1,0,0,1,2,75,11
3,2,22,0,0,0,1,2,124,11
3,2,14,1,1,0,1,2,124,11
3,2,16,1,1,0,1,2,21,11
3,2,19,1,3,0,1,2,124,11
3,2,8,1,4,0,1,2,120,11
3,2,12,1,5,1,1,2,88,11
4,2,16,1,6,1,2,2,88,11
4,2,4,0,0,0,2,2,88,11
4,2,18,1,3,0,2,2,88,11
4,2,13,1,4,0,2,2,88,11
4,2,21,0,6,1,2,2,20,11
4,2,12,1,5,1,2,2,88,11
5,2,9,1,0,0,2,2,88,11
5,2,17,1,2,0,2,2,90,11
5,2,9,1,5,1,2,2,20,11
5,2,13,1,3,0,2,2,38,11
6,3,9,1,5,1,2,2,90,11
6,3,21,0,5,1,2,2,109,11
6,3,21,0,6,1,2,2,88,11
6,3,17,1,6,1,2,2,18,11
6,3,14,1,6,1,2,2,88,11
6,3,21,0,1,0,2,2,90,11
6,3,16,1,2,0,2,2,90,11
6,3,23,0,6,1,2,2,88,11
6,3,22,0,0,0,2,2,14,11
6,3,6,0,2,0,2,2,109,11
7,3,18,1,4,0,3,2,88,11
7,3,23,0,4,0,3,2,90,11
7,3,9,1,5,1,3,2,88,11
7,3,21,0,5,1,3,2,88,11
7,3,21,0,0,0,3,2,52,11
7,3,19,1,4,0,3,2,101,11
7,3,12,1,0,0,3,2,20,11
7,3,17,1,0,0,3,2,90,11
7,3,6,0,4,0,3,2,90,11
7,3,13,1,5,1,3,2,90,11
7,3,22,0,6,1,3,2,90,11
7,3,10,1,3,0,3,2,64,11
7,3,13,1,5,1,3,2,15,11
8,3,20,1,0,0,3,2,74,11
8,3,7,1,2,0,3,2,90,11
8,3,12,1,3,0,3,2,20,11
8,3,17,1,4,0,3,2,20,11
8,3,18,1,5,1,3,2,90,11
8,3,19,1,0,0,3,2,90,11
8,3,16,1,3,0,3,2,101,11
8,3,13,1,4,0,3,2,90,11
8,3,12,1,5,1,3,2,64,11
8,3,15,1,3,0,3,2,101,11
9,4,2,0,2,0,3,2,45,11
9,4,12,1,2,0,3,2,101,11
9,4,11,1,4,0,3,2,90,11
10,4,9,1,2,0,4,2,90,11
10,4,11,1,3,0,4,2,90,11
10,4,17,1,6,1,4,2,20,11
11,4,14,1,1,0,4,2,20,11
11,4,16,1,3,0,4,2,90,11
11,4,20,1,6,1,4,2,101,11
11,4,21,0,2,0,4,2,38,11
11,4,7,1,5,1,4,2,124,11
12,1,15,1,3,0,4,2,124,11
12,1,10,1,4,0,4,2,124,11
12,1,18,1,6,1,4,2,75,11
12,1,14,1,3,0,4,2,90,11
1,1,10,1,3,0,1,28,104,11
1,1,18,1,2,0,1,28,124,11
1,1,20,1,3,0,1,28,124,11
1,1,22,0,4,0,1,28,124,11
1,1,16,1,1,0,1,28,124,11
1,1,14,1,2,0,1,28,101,11
1,1,12,1,0,0,1,28,75,11
2,1,12,1,4,0,1,28,75,9
2,1,22,0,5,1,1,28,20,11
2,1,11,1,6,1,1,28,20,11
2,1,16,1,2,0,1,28,124,11
2,1,20,1,2,0,1,28,124,11
2,1,16,1,0,0,1,28,101,11
2,1,17,1,3,0,1,28,124,11
2,1,13,1,4,0,1,28,90,11
2,1,23,0,5,1,1,28,124,11
2,1,8,1,6,1,1,28,109,11
3,2,16,1,0,0,1,28,79,11
3,2,17,1,0,0,1,28,124,11
3,2,20,1,5,1,1,28,14,11
3,2,5,0,0,0,1,28,54,11
3,2,0,0,1,0,1,28,57,8
4,2,16,1,6,1,2,28,124,11
4,2,22,0,0,0,2,28,101,11
4,2,10,1,1,0,2,28,45,11
4,2,2,0,2,0,2,28,124,11
4,2,15,1,2,0,2,28,124,11
4,2,12,1,3,0,2,28,101,11
4,2,13,1,3,0,2,28,90,11
4,2,16,1,4,0,2,28,101,11
4,2,11,1,6,1,2,28,38,11
4,2,12,1,1,0,2,28,90,11
4,2,14,1,2,0,2,28,124,11
4,2,13,1,5,1,2,28,101,11
4,2,14,1,1,0,2,28,20,11
4,2,5,0,6,1,2,28,64,8
4,2,21,0,1,0,2,28,101,11
4,2,18,1,2,0,2,28,90,11
4,2,1,0,5,1,2,28,106,11
4,2,13,1,5,1,2,28,78,11
5,2,9,1,0,0,2,28,101,11
5,2,12,1,2,0,2,28,101,11
5,2,20,1,5,1,2,28,90,11
5,2,20,1,3,0,2,28,109,11
5,2,17,1,4,0,2,28,101,11
5,2,4,0,6,1,2,28,101,11
5,2,18,1,6,1,2,28,20,11
5,2,17,1,1,0,2,28,75,9
5,2,12,1,3,0,2,28,101,11
5,2,15,1,2,0,2,28,45,11
5,2,22,0,2,0,2,28,90,11
5,2,14,1,3,0,2,28,90,11
5,2,15,1,3,0,2,28,23,11
5,2,14,1,1,0,2,28,90,11
6,3,14,1,4,0,2,28,90,11
6,3,10,1,1,0,2,28,90,11
6,3,14,1,2,0,2,28,90,11
6,3,12,1,4,0,2,28,90,11
6,3,13,1,4,0,2,28,90,11
6,3,16,1,4,0,2,28,101,11
6,3,23,0,6,1,2,28,96,11
6,3,12,1,2,0,2,28,90,11
6,3,12,1,3,0,2,28,90,9
6,3,11,1,4,0,2,28,38,9
6,3,6,0,6,1,2,28,101,11
6,3,16,1,6,1,2,28,90,11
6,3,18,1,1,0,2,28,101,11
6,3,18,1,2,0,2,28,90,11
7,3,13,1,2,0,3,28,90,11
7,3,18,1,2,0,3,28,64,11
7,3,16,1,5,1,3,28,14,9
7,3,9,1,6,1,3,28,20,11
7,3,16,1,1,0,3,28,90,11
7,3,16,1,3,0,3,28,75,11
7,3,1,0,6,1,3,28,13,11
7,3,21,0,6,1,3,28,101,11
7,3,3,0,4,0,3,28,72,9
7,3,12,1,6,1,3,28,90,11
7,3,4,0,3,0,3,28,75,11
8,3,14,1,2,0,3,28,90,11
8,3,21,0,2,0,3,28,90,11
8,3,15,1,3,0,3,28,90,11
8,3,15,1,5,1,3,28,101,11
8,3,4,0,6,1,3,28,64,11
8,3,14,1,0,0,3,28,115,11
8,3,5,0,1,0,3,28,20,11
8,3,8,1,3,0,3,28,90,11
8,3,16,1,5,1,3,28,101,11
8,3,13,1,1,0,3,28,45,11
8,3,14,1,2,0,3,28,124,11
8,3,16,1,2,0,3,28,124,11
8,3,16,1,4,0,3,28,79,11
8,3,23,0,5,1,3,28,124,11
8,3,15,1,6,1,3,28,101,11
8,3,15,1,5,1,3,28,90,11
9,4,21,0,0,0,3,28,124,11
9,4,6,0,1,0,3,28,20,11
9,4,13,1,1,0,3,28,76,9
9,4,0,0,3,0,3,28,124,11
9,4,14,1,3,0,3,28,75,11
9,4,18,1,4,0,3,28,101,11
9,4,18,1,6,1,3,28,20,11
9,4,5,0,3,0,3,28,124,8
10,4,19,1,0,0,4,28,90,11
10,4,16,1,2,0,4,28,64,11
10,4,10,1,4,0,4,28,72,11
10,4,6,0,6,1,4,28,90,11
10,4,14,1,6,1,4,28,14,11
10,4,13,1,3,0,4,28,90,11
10,4,14,1,4,0,4,28,90,11
10,4,16,1,4,0,4,28,75,11
10,4,18,1,6,1,4,28,45,11
10,4,11,1,0,0,4,28,20,11
11,4,12,1,5,1,4,28,90,11
11,4,19,1,1,0,4,28,75,11
12,1,1,0,5,1,4,28,72,11
12,1,2,0,0,0,4,28,72,11
12,1,17,1,0,0,4,28,101,11
12,1,11,1,3,0,4,28,90,11
1,1,9,1,5,1,1,28,121,11
1,1,14,1,3,0,1,28,124,11
2,1,12,1,5,1,1,28,124,11
2,1,1,0,5,1,1,28,75,11
4,2,14,1,4,0,2,28,64,11
4,2,12,1,6,1,2,28,79,11
4,2,18,1,3,0,2,28,90,11
4,2,2,0,1,0,2,28,124,11
5,2,14,1,5,1,2,28,64,11
5,2,18,1,3,0,2,28,75,11
6,3,17,1,0,0,2,28,13,11
7,3,16,1,4,0,3,28,34,11
7,3,2,0,4,0,3,28,90,11
7,3,13,1,4,0,3,28,90,11
8,3,11,1,2,0,3,28,64,9
8,3,10,1,3,0,3,28,90,11
9,4,10,1,0,0,3,28,124,9
9,4,23,0,6,1,3,28,90,11
9,4,0,0,3,0,3,28,109,11
9,4,4,0,3,0,3,28,109,11
9,4,14,1,4,0,3,28,27,9
10,4,6,0,1,0,4,28,124,9
10,4,12,1,2,0,4,28,27,9
10,4,3,0,5,1,4,28,125,11
10,4,6,0,0,0,4,28,64,11
10,4,16,1,5,1,4,28,90,11
11,4,18,1,5,1,4,28,64,11
11,4,10,1,6,1,4,28,90,11
11,4,18,1,2,0,4,28,95,9
12,1,5,0,0,0,4,28,124,11
12,1,15,1,2,0,4,28,124,11
1,1,17,1,1,0,1,28,90,11
1,1,20,1,5,1,1,28,72,11
1,1,1,0,2,0,1,28,96,11
1,1,15,1,3,0,1,28,101,11
1,1,12,1,1,0,1,28,96,11
1,1,18,1,4,0,1,28,75,11
2,1,9,1,2,0,1,28,13,11
2,1,23,0,3,0,1,28,75,11
2,1,14,1,4,0,1,28,90,11
2,1,21,0,1,0,1,28,96,11
3,2,12,1,5,1,1,28,20,11
3,2,18,1,0,0,1,28,75,8
4,2,12,1,4,0,2,28,20,11
4,2,16,1,4,0,2,28,90,11
4,2,22,0,2,0,2,28,75,11
4,2,0,0,1,0,2,28,9,11
5,2,20,1,6,1,2,28,75,11
5,2,5,0,4,0,2,28,9,11
5,2,7,1,1,0,2,28,72,11
6,3,11,1,2,0,2,28,75,11
6,3,16,1,3,0,2,28,90,11
6,3,21,0,4,0,2,28,90,11
6,3,10,1,1,0,2,28,90,11
6,3,22,0,0,0,2,28,90,11
6,3,12,1,1,0,2,28,90,11
6,3,13,1,3,0,2,28,101,11
6,3,9,1,4,0,2,28,90,11
6,3,21,0,5,1,2,28,101,11
6,3,11,1,6,1,2,28,90,11
6,3,22,0,6,1,2,28,90,11
6,3,10,1,0,0,2,28,96,11
6,3,20,1,1,0,2,28,75,11
6,3,23,0,3,0,2,28,101,11
7,3,22,0,2,0,3,28,90,11
7,3,8,1,6,1,3,28,90,11
7,3,22,0,6,1,3,28,90,11
7,3,22,0,3,0,3,28,101,11
7,3,8,1,4,0,3,28,27,11
8,3,20,1,0,0,3,28,35,11
8,3,10,1,6,1,3,28,108,11
8,3,20,1,4,0,3,28,101,11
8,3,7,1,1,0,3,28,20,11
8,3,11,1,4,0,3,28,101,11
9,4,12,1,3,0,3,28,101,11
9,4,19,1,5,1,3,28,101,11
9,4,10,1,0,0,3,28,20,11
9,4,19,1,1,0,3,28,90,11
10,4,6,0,6,1,4,28,20,11
10,4,21,0,2,0,4,28,20,11
11,4,22,0,4,0,4,28,96,11
11,4,15,1,6,1,4,28,75,11
11,4,13,1,6,1,4,28,101,11
11,4,16,1,6,1,4,28,96,11
11,4,12,1,1,0,4,28,64,11
12,1,2,0,1,0,4,28,88,11
12,1,12,1,1,0,4,28,75,8
12,1,20,1,4,0,4,28,88,11
12,1,5,0,0,0,4,28,14,11
5,2,23,0,6,1,2,28,109,11
5,2,18,1,1,0,2,28,75,11
6,3,10,1,1,0,2,28,101,11
6,3,18,1,2,0,2,28,14,11
9,4,11,1,2,0,3,28,20,11
11,4,14,1,1,0,4,28,90,11
12,1,21,0,2,0,4,28,96,11
1,1,16,1,6,1,1,46,103,9
1,1,7,1,0,0,1,46,55,9
1,1,17,1,6,1,1,46,20,11
1,1,18,1,1,0,1,46,124,8
1,1,11,1,2,0,1,46,75,11
1,1,13,1,2,0,1,46,75,11
1,1,11,1,0,0,1,46,101,9
2,1,17,1,3,0,1,46,109,11
2,1,12,1,5,1,1,46,13,8
2,1,12,1,1,0,1,46,9,11
2,1,14,1,2,0,1,46,101,11
2,1,19,1,5,1,1,46,38,9
2,1,6,0,6,1,1,46,75,9
2,1,14,1,6,1,1,46,64,11
2,1,22,0,2,0,1,46,64,11
2,1,21,0,6,1,1,46,88,11
3,2,3,0,6,1,1,46,64,11
3,2,21,0,6,1,1,46,124,9
3,2,15,1,0,0,1,46,75,11
3,2,9,1,1,0,1,46,124,11
3,2,20,1,2,0,1,46,75,11
3,2,22,0,4,0,1,46,64,11
3,2,13,1,3,0,1,46,64,11
4,2,13,1,0,0,2,46,101,11
4,2,20,1,3,0,2,46,64,11
4,2,2,0,6,1,2,46,20,9
4,2,21,0,3,0,2,46,88,11
4,2,13,1,5,1,2,46,88,11
4,2,8,1,6,1,2,46,64,11
4,2,22,0,5,1,2,46,90,11
4,2,12,1,6,1,2,46,101,11
4,2,20,1,0,0,2,46,101,11
4,2,13,1,1,0,2,46,90,11
4,2,20,1,1,0,2,46,88,11
4,2,10,1,3,0,2,46,64,9
4,2,13,1,3,0,2,46,72,8
4,2,11,1,5,1,2,46,90,11
5,2,9,1,6,1,2,46,101,11
5,2,16,1,6,1,2,46,20,11
5,2,16,1,5,1,2,46,20,8
5,2,8,1,1,0,2,46,101,11
5,2,5,0,4,0,2,46,64,11
6,3,13,1,6,1,2,46,90,11
6,3,23,0,3,0,2,46,64,11
6,3,19,1,2,0,2,46,101,11
6,3,14,1,3,0,2,46,64,11
6,3,10,1,0,0,2,46,55,11
6,3,16,1,2,0,2,46,47,11
6,3,14,1,4,0,2,46,90,11
6,3,0,0,5,1,2,46,75,11
6,3,16,1,5,1,2,46,88,11
6,3,20,1,0,0,2,46,101,11
6,3,20,1,0,0,2,46,101,11
7,3,16,1,5,1,3,46,20,11
7,3,21,0,1,0,3,46,101,11
7,3,17,1,2,0,3,46,101,11
7,3,11,1,4,0,3,46,4,11
7,3,16,1,0,0,3,46,54,11
7,3,22,0,0,0,3,46,81,11
7,3,22,0,0,0,3,46,89,11
7,3,9,1,4,0,3,46,88,11
7,3,6,0,4,0,3,46,88,11
8,3,11,1,0,0,3,46,90,11
8,3,12,1,1,0,3,46,20,9
8,3,17,1,1,0,3,46,75,11
9,4,14,1,5,1,3,46,63,11
9,4,20,1,3,0,3,46,14,11
9,4,13,1,3,0,3,46,101,11
9,4,12,1,4,0,3,46,90,11
9,4,10,1,3,0,3,46,90,9
9,4,16,1,4,0,3,46,107,11
10,4,3,0,6,1,4,46,75,11
10,4,18,1,2,0,4,46,101,11
10,4,7,1,3,0,4,46,88,11
10,4,8,1,3,0,4,46,90,11
10,4,14,1,5,1,4,46,64,11
10,4,13,1,4,0,4,46,88,11
11,4,11,1,1,0,4,46,4,11
11,4,16,1,1,0,4,46,54,11
11,4,15,1,2,0,4,46,25,11
11,4,18,1,4,0,4,46,27,11
11,4,11,1,6,1,4,46,13,11
11,4,14,1,2,0,4,46,88,11
11,4,13,1,1,0,4,46,20,11
11,4,11,1,0,0,4,46,88,11
11,4,13,1,1,0,4,46,14,11
11,4,12,1,3,0,4,46,14,11
11,4,14,1,5,1,4,46,20,11
12,1,8,1,3,0,4,46,76,11
12,1,18,1,6,1,4,46,88,11
12,1,15,1,0,0,4,46,64,11
12,1,20,1,1,0,4,46,88,11
12,1,18,1,1,0,4,46,88,11
12,1,14,1,3,0,4,46,88,11
12,1,20,1,3,0,4,46,88,11
12,1,0,0,6,1,4,46,88,11
12,1,14,1,6,1,4,46,20,9
12,1,17,1,0,0,4,46,64,11
12,1,22,0,0,0,4,46,88,11
12,1,19,1,2,0,4,46,88,11
12,1,10,1,3,0,4,46,20,11
12,1,15,1,3,0,4,46,88,11
12,1,16,1,4,0,4,46,47,11
12,1,18,1,6,1,4,46,75,11
12,1,18,1,3,0,4,46,88,11
12,1,19,1,3,0,4,46,64,11
12,1,22,0,4,0,4,46,64,11
12,1,18,1,5,1,4,46,64,11
1,1,5,0,0,0,1,46,88,11
1,1,13,1,6,1,1,46,88,11
2,1,6,0,5,1,1,46,124,11
2,1,13,1,6,1,1,46,124,11
2,1,1,0,4,0,1,46,88,11
2,1,17,1,6,1,1,46,90,11
3,2,14,1,0,0,1,46,4,11
3,2,15,1,1,0,1,46,90,11
4,2,13,1,2,0,2,46,121,11
5,2,14,1,6,1,2,46,4,11
6,3,7,1,3,0,2,46,124,11
9,4,0,0,6,1,3,46,124,11
9,4,19,1,2,0,3,46,20,11
10,4,12,1,6,1,4,46,101,11
11,4,18,1,6,1,4,46,79,11
12,1,8,1,4,0,4,46,75,11
12,1,16,1,5,1,4,46,4,11
4,2,11,1,6,1,2,46,26,11
5,2,8,1,2,0,2,46,72,11
6,3,15,1,6,1,2,46,23,11
6,3,14,1,3,0,2,46,4,8
8,3,17,1,1,0,3,46,90,11
9,4,15,1,1,0,3,46,90,11
9,4,16,1,4,0,3,46,4,11
9,4,20,1,6,1,3,46,4,11
10,4,19,1,2,0,4,46,26,11
10,4,17,1,5,1,4,46,72,11
1,1,16,1,3,0,1,46,20,9
2,1,2,0,2,0,1,46,64,9
2,1,0,0,4,0,1,46,75,9
7,3,20,1,6,1,3,46,25,11
12,1,7,1,2,0,4,46,62,11
11,4,14,1,3,0,4,46,38,11
1,1,17,1,0,0,1,46,90,11
1,1,0,0,6,1,1,46,20,9
1,1,0,0,1,0,1,46,75,11
2,1,15,1,5,1,1,46,101,11
3,2,4,0,1,0,1,46,124,11
3,2,20,1,5,1,1,46,124,11
3,2,7,1,3,0,1,46,20,9
4,2,16,1,4,0,2,46,34,9
4,2,6,0,5,1,2,46,101,9
4,2,13,1,4,0,2,46,20,11
5,2,18,1,6,1,2,46,90,9
5,2,15,1,1,0,2,46,90,11
6,3,17,1,4,0,2,46,27,9
6,3,19,1,0,0,2,46,27,9
6,3,17,1,6,1,2,46,124,11
6,3,14,1,1,0,2,46,75,11
7,3,14,1,6,1,3,46,90,11
8,3,18,1,2,0,3,46,20,11
8,3,7,1,0,0,3,46,13,11
8,3,12,1,3,0,3,46,90,11
8,3,6,0,6,1,3,46,90,11
9,4,20,1,4,0,3,46,101,11
9,4,10,1,2,0,3,46,98,11
10,4,16,1,3,0,4,46,27,11
11,4,13,1,1,0,4,46,90,11
11,4,14,1,5,1,4,46,27,11
11,4,12,1,4,0,4,46,75,11
11,4,14,1,6,1,4,46,79,9
12,1,16,1,0,0,4,46,72,11
12,1,17,1,1,0,4,46,90,11
12,1,17,1,1,0,4,46,90,9
12,1,7,1,5,1,4,46,64,11
4,2,10,1,1,0,2,46,90,11
5,2,14,1,5,1,2,46,75,11
10,4,1,0,1,0,4,46,14,9
12,1,17,1,6,1,4,46,121,11
5,2,14,1,6,1,2,46,23,11
7,3,13,1,6,1,3,46,90,11
10,4,16,1,5,1,4,46,20,11
12,1,14,1,2,0,4,46,108,11
1,1,19,1,0,0,1,46,72,11
1,1,17,1,4,0,1,46,124,11
2,1,13,1,5,1,1,46,124,11
2,1,12,1,0,0,1,46,101,11
2,1,12,1,1,0,1,46,75,11
2,1,22,0,1,0,1,46,124,11
2,1,17,1,3,0,1,46,101,11
2,1,19,1,5,1,1,46,101,11
2,1,22,0,5,1,1,46,20,11
2,1,20,1,0,0,1,46,75,11
3,2,11,1,0,0,1,46,75,11
3,2,17,1,1,0,1,46,101,11
3,2,11,1,4,0,1,46,101,11
3,2,18,1,0,0,1,46,101,11
3,2,17,1,2,0,1,46,124,11
3,2,7,1,3,0,1,46,75,11
3,2,19,1,2,0,1,46,90,11
4,2,13,1,0,0,2,46,75,11
4,2,19,1,4,0,2,46,101,11
4,2,17,1,3,0,2,46,90,11
4,2,11,1,1,0,2,46,75,11
4,2,15,1,1,0,2,46,75,11
4,2,22,0,1,0,2,46,90,11
8,3,12,1,0,0,3,46,27,11
10,4,16,1,1,0,4,46,101,11
10,4,17,1,3,0,4,46,101,11
10,4,18,1,6,1,4,46,101,11
11,4,12,1,1,0,4,46,101,11
11,4,14,1,4,0,4,46,101,11
11,4,10,1,5,1,4,46,90,11
11,4,13,1,3,0,4,46,20,9
12,1,14,1,0,0,4,46,75,11
2,1,22,0,0,0,1,13,64,11
2,1,21,0,5,1,1,13,88,11
2,1,1,0,0,0,1,13,90,11
3,2,10,1,5,1,1,13,88,11
3,2,3,0,3,0,1,13,101,11
4,2,4,0,2,0,2,13,88,11
6,3,14,1,2,0,2,13,75,11
6,3,5,0,4,0,2,13,20,11
7,3,13,1,0,0,3,13,88,11
7,3,12,1,2,0,3,13,122,11
7,3,18,1,6,1,3,13,20,11
7,3,21,0,6,1,3,13,38,11
8,3,18,1,2,0,3,13,101,11
8,3,20,1,4,0,3,13,109,11
8,3,12,1,4,0,3,13,90,11
10,4,7,1,0,0,4,13,20,9
10,4,16,1,6,1,4,13,38,11
10,4,16,1,5,1,4,13,90,11
11,4,13,1,2,0,4,13,90,11
11,4,12,1,3,0,4,13,90,11
11,4,12,1,3,0,4,13,90,11
11,4,13,1,3,0,4,13,90,11
12,1,11,1,5,1,4,13,20,11
1,1,1,0,6,1,1,13,64,9
2,1,16,1,3,0,1,13,75,11
12,1,13,1,3,0,4,13,75,11
3,2,15,1,0,0,1,13,90,11
10,4,10,1,5,1,4,13,90,11
1,1,20,1,6,1,1,48,72,11
1,1,17,1,6,1,1,48,90,11
1,1,13,1,5,1,1,48,75,11
2,1,21,0,1,0,1,48,124,11
3,2,14,1,1,0,1,48,101,11
4,2,18,1,4,0,2,48,64,11
4,2,22,0,4,0,2,48,72,11
4,2,18,1,0,0,2,48,90,11
4,2,15,1,3,0,2,48,90,11
5,2,12,1,0,0,2,48,64,11
5,2,12,1,1,0,2,48,101,11
5,2,22,0,1,0,2,48,101,11
5,2,12,1,2,0,2,48,64,11
5,2,19,1,4,0,2,48,90,11
6,3,17,1,6,1,2,48,88,11
6,3,17,1,0,0,2,48,90,11
6,3,23,0,2,0,2,48,90,11
7,3,23,0,3,0,3,48,90,11
7,3,16,1,5,1,3,48,75,11
7,3,17,1,6,1,3,48,1,11
8,3,3,0,6,1,3,48,99,11
8,3,19,1,6,1,3,48,101,11
9,4,20,1,4,0,3,48,101,11
10,4,10,1,3,0,4,48,72,11
11,4,12,1,3,0,4,48,101,11
11,4,11,1,6,1,4,48,75,11
11,4,10,1,0,0,4,48,101,11
11,4,23,0,5,1,4,48,101,11
12,1,1,0,6,1,4,48,101,11
12,1,1,0,6,1,4,48,38,9
12,1,15,1,3,0,4,48,101,11
3,2,18,1,1,0,1,48,1,11
5,2,2,0,2,0,2,48,38,8
7,3,14,1,5,1,3,48,88,11
11,4,20,1,5,1,4,48,75,9
11,4,7,1,5,1,4,48,1,9
12,1,14,1,0,0,4,48,101,11
1,1,10,1,3,0,1,48,90,11
4,2,10,1,4,0,2,48,90,11
6,3,8,1,3,0,2,48,101,11
8,3,21,0,2,0,3,48,123,11
10,4,16,1,2,0,4,48,88,11
10,4,11,1,6,1,4,48,88,11
11,4,22,0,3,0,4,48,27,11
11,4,10,1,6,1,4,48,101,11
12,1,5,0,2,0,4,48,75,9
1,1,11,1,6,1,1,48,88,11
2,1,13,1,4,0,1,48,90,9
3,2,19,1,4,0,1,48,90,11
4,2,22,0,2,0,2,48,101,11
4,2,13,1,4,0,2,48,90,11
4,2,15,1,5,1,2,48,88,11
4,2,20,1,3,0,2,48,75,11
5,2,17,1,4,0,2,48,101,11
6,3,16,1,5,1,2,48,14,9
6,3,17,1,4,0,2,48,47,11
10,4,19,1,6,1,4,48,90,11
11,4,13,1,6,1,4,48,38,11
11,4,13,1,0,0,4,48,88,11
12,1,17,1,0,0,4,48,90,11
12,1,23,0,1,0,4,48,101,11
1,1,19,1,5,1,1,7,20,11
1,1,21,0,1,0,1,7,88,11
2,1,18,1,5,1,1,7,42,8
2,1,14,1,1,0,1,7,101,11
2,1,12,1,4,0,1,7,90,11
2,1,22,0,0,0,1,7,54,11
2,1,19,1,5,1,1,7,88,11
3,2,14,1,5,1,1,7,64,11
3,2,22,0,5,1,1,7,64,11
3,2,4,0,6,1,1,7,88,11
3,2,22,0,0,0,1,7,64,11
3,2,22,0,1,0,1,7,64,11
4,2,11,1,5,1,2,7,72,11
4,2,19,1,6,1,2,7,101,11
4,2,16,1,0,0,2,7,101,11
4,2,17,1,0,0,2,7,101,11
4,2,15,1,5,1,2,7,90,11
4,2,10,1,4,0,2,7,96,11
5,2,12,1,4,0,2,7,101,11
5,2,10,1,6,1,2,7,124,11
5,2,14,1,6,1,2,7,101,11
5,2,21,0,2,0,2,7,11,11
5,2,8,1,4,0,2,7,75,11
5,2,10,1,5,1,2,7,101,11
5,2,20,1,6,1,2,7,109,11
6,3,0,0,2,0,2,7,13,8
6,3,10,1,6,1,2,7,101,11
6,3,12,1,2,0,2,7,25,11
6,3,9,1,0,0,2,7,20,11
6,3,12,1,1,0,2,7,101,11
6,3,7,1,2,0,2,7,109,11
6,3,19,1,2,0,2,7,90,11
7,3,7,1,2,0,3,7,101,11
7,3,6,0,4,0,3,7,20,11
7,3,12,1,5,1,3,7,20,11
7,3,1,0,2,0,3,7,101,11
7,3,18,1,1,0,3,7,13,11
7,3,3,0,5,1,3,7,75,11
8,3,13,1,1,0,3,7,38,11
8,3,9,1,4,0,3,7,90,11
8,3,13,1,4,0,3,7,20,11
8,3,6,0,5,1,3,7,101,11
8,3,22,0,3,0,3,7,38,11
8,3,17,1,0,0,3,7,109,11
8,3,12,1,5,1,3,7,72,11
9,4,16,1,5,1,3,7,78,11
9,4,12,1,3,0,3,7,54,11
9,4,16,1,3,0,3,7,90,11
9,4,11,1,0,0,3,7,25,11
9,4,12,1,0,0,3,7,90,11
9,4,15,1,6,1,3,7,25,11
9,4,10,1,2,0,3,7,27,11
9,4,12,1,2,0,3,7,101,11
10,4,11,1,5,1,4,7,25,11
10,4,19,1,0,0,4,7,103,11
10,4,20,1,0,0,4,7,28,11
10,4,16,1,1,0,4,7,75,11
10,4,19,1,1,0,4,7,20,11
10,4,22,0,5,1,4,7,38,11
10,4,6,0,6,1,4,7,90,8
10,4,15,1,6,1,4,7,101,11
10,4,4,0,2,0,4,7,88,11
10,4,10,1,5,1,4,7,101,11
10,4,16,1,5,1,4,7,101,11
10,4,18,1,5,1,4,7,101,11
10,4,8,1,6,1,4,7,90,11
10,4,19,1,6,1,4,7,88,11
11,4,19,1,2,0,4,7,90,11
11,4,13,1,4,0,4,7,90,11
11,4,21,0,5,1,4,7,75,11
11,4,21,0,3,0,4,7,75,11
11,4,15,1,3,0,4,7,90,11
12,1,8,1,1,0,4,7,88,11
12,1,2,0,0,0,4,7,88,11
12,1,21,0,5,1,4,7,88,11
1,1,16,1,0,0,1,7,124,9
1,1,14,1,3,0,1,7,62,11
1,1,14,1,2,0,1,7,109,11
1,1,20,1,1,0,1,7,90,11
1,1,12,1,4,0,1,7,62,11
1,1,14,1,5,1,1,7,90,11
1,1,14,1,6,1,1,7,75,11
1,1,19,1,0,0,1,7,23,11
1,1,13,1,3,0,1,7,75,9
1,1,0,0,0,0,1,7,90,11
2,1,8,1,2,0,1,7,4,11
2,1,15,1,3,0,1,7,75,11
2,1,20,1,3,0,1,7,75,11
2,1,0,0,6,1,1,7,38,11
2,1,18,1,2,0,1,7,4,11
2,1,9,1,6,1,1,7,119,9
2,1,10,1,0,0,1,7,124,11
2,1,10,1,5,1,1,7,88,11
2,1,9,1,3,0,1,7,88,11
2,1,11,1,4,0,1,7,54,9
2,1,16,1,4,0,1,7,88,11
2,1,13,1,6,1,1,7,75,9
3,2,15,1,2,0,1,7,38,11
3,2,17,1,5,1,1,7,88,11
3,2,21,0,1,0,1,7,124,11
3,2,15,1,4,0,1,7,20,8
3,2,20,1,5,1,1,7,38,11
3,2,19,1,2,0,1,7,88,11
3,2,18,1,6,1,1,7,109,9
3,2,20,1,6,1,1,7,75,11
4,2,2,0,4,0,2,7,38,11
4,2,14,1,4,0,2,7,20,11
4,2,20,1,0,0,2,7,72,8
4,2,11,1,3,0,2,7,109,11
4,2,22,0,0,0,2,7,107,11
4,2,15,1,4,0,2,7,4,9
4,2,17,1,4,0,2,7,88,11
4,2,19,1,5,1,2,7,4,11
5,2,7,1,1,0,2,7,88,11
5,2,18,1,1,0,2,7,90,11
5,2,19,1,3,0,2,7,88,11
5,2,20,1,0,0,2,7,88,11
5,2,13,1,3,0,2,7,90,11
5,2,12,1,4,0,2,7,88,9
5,2,14,1,5,1,2,7,88,11
5,2,8,1,6,1,2,7,124,11
5,2,14,1,0,0,2,7,124,9
5,2,17,1,2,0,2,7,90,11
5,2,13,1,4,0,2,7,90,11
5,2,19,1,4,0,2,7,101,11
5,2,19,1,5,1,2,7,90,11
5,2,17,1,6,1,2,7,90,11
5,2,19,1,0,0,2,7,90,9
5,2,12,1,2,0,2,7,23,9
5,2,13,1,2,0,2,7,90,9
5,2,12,1,3,0,2,7,88,11
5,2,16,1,3,0,2,7,88,11
5,2,13,1,4,0,2,7,90,11
5,2,18,1,5,1,2,7,90,11
5,2,21,0,5,1,2,7,90,11
5,2,16,1,6,1,2,7,88,11
5,2,20,1,1,0,2,7,75,11
5,2,21,0,1,0,2,7,114,9
6,3,23,0,3,0,2,7,88,11
6,3,10,1,5,1,2,7,90,11
6,3,20,1,6,1,2,7,114,9
6,3,13,1,0,0,2,7,4,11
6,3,15,1,0,0,2,7,4,11
6,3,16,1,1,0,2,7,62,11
6,3,18,1,3,0,2,7,90,11
6,3,21,0,3,0,2,7,4,11
6,3,20,1,5,1,2,7,62,11
6,3,13,1,1,0,2,7,88,11
6,3,17,1,1,0,2,7,123,11
6,3,20,1,1,0,2,7,101,11
6,3,16,1,5,1,2,7,4,11
6,3,16,1,1,0,2,7,124,11
7,3,15,1,6,1,3,7,90,11
7,3,14,1,0,0,3,7,90,9
7,3,14,1,1,0,3,7,4,9
7,3,13,1,2,0,3,7,4,11
7,3,14,1,2,0,3,7,72,11
7,3,15,1,2,0,3,7,19,9
7,3,20,1,3,0,3,7,101,11
7,3,0,0,4,0,3,7,90,11
7,3,8,1,4,0,3,7,45,11
7,3,14,1,2,0,3,7,14,11
7,3,21,0,4,0,3,7,90,11
7,3,18,1,5,1,3,7,9,11
7,3,15,1,3,0,3,7,90,11
7,3,18,1,4,0,3,7,90,9
7,3,10,1,0,0,3,7,90,11
7,3,16,1,1,0,3,7,88,9
7,3,17,1,1,0,3,7,88,11
7,3,13,1,2,0,3,7,101,11
7,3,14,1,2,0,3,7,4,9
7,3,11,1,3,0,3,7,101,11
7,3,14,1,3,0,3,7,101,11
7,3,19,1,4,0,3,7,64,11
7,3,19,1,4,0,3,7,64,11
7,3,18,1,6,1,3,7,88,11
8,3,16,1,1,0,3,7,4,11
8,3,16,1,2,0,3,7,90,11
8,3,7,1,3,0,3,7,101,11
8,3,1,0,5,1,3,7,90,9
8,3,16,1,5,1,3,7,4,11
8,3,20,1,5,1,3,7,124,11
8,3,18,1,6,1,3,7,20,11
8,3,12,1,0,0,3,7,47,11
8,3,1,0,1,0,3,7,90,11
8,3,9,1,1,0,3,7,63,11
8,3,16,1,3,0,3,7,72,11
8,3,21,0,3,0,3,7,4,11
8,3,10,1,1,0,3,7,20,11
8,3,16,1,2,0,3,7,38,11
8,3,1,0,3,0,3,7,124,11
8,3,20,1,3,0,3,7,90,11
8,3,10,1,4,0,3,7,4,11
8,3,19,1,4,0,3,7,101,11
8,3,8,1,5,1,3,7,23,8
8,3,14,1,0,0,3,7,88,11
8,3,11,1,2,0,3,7,20,9
8,3,19,1,2,0,3,7,90,11
8,3,14,1,3,0,3,7,88,11
8,3,11,1,4,0,3,7,90,11
8,3,18,1,4,0,3,7,101,11
8,3,20,1,6,1,3,7,101,11
8,3,16,1,0,0,3,7,124,9
8,3,19,1,0,0,3,7,124,8
8,3,20,1,2,0,3,7,101,11
9,4,19,1,3,0,3,7,101,11
9,4,18,1,5,1,3,7,101,11
9,4,17,1,5,1,3,7,124,11
9,4,12,1,1,0,3,7,90,11
9,4,15,1,1,0,3,7,101,11
9,4,16,1,5,1,3,7,4,11
9,4,12,1,0,0,3,7,88,11
9,4,11,1,1,0,3,7,88,11
9,4,23,0,2,0,3,7,109,11
9,4,21,0,4,0,3,7,114,11
9,4,14,1,3,0,3,7,90,11
10,4,19,1,6,1,4,7,72,11
10,4,13,1,0,0,4,7,88,11
10,4,14,1,0,0,4,7,4,11
10,4,14,1,1,0,4,7,88,11
10,4,11,1,3,0,4,7,88,11
10,4,8,1,5,1,4,7,72,9
10,4,13,1,6,1,4,7,90,9
10,4,16,1,6,1,4,7,88,11
10,4,13,1,0,0,4,7,88,11
10,4,8,1,4,0,4,7,90,11
10,4,13,1,4,0,4,7,4,11
10,4,19,1,6,1,4,7,90,11
10,4,17,1,0,0,4,7,124,11
10,4,18,1,2,0,4,7,90,11
10,4,17,1,2,0,4,7,88,11
11,4,13,1,2,0,4,7,90,11
11,4,17,1,2,0,4,7,101,11
11,4,13,1,3,0,4,7,4,11
11,4,8,1,4,0,4,7,90,11
11,4,9,1,4,0,4,7,90,11
11,4,9,1,4,0,4,7,90,11
11,4,17,1,4,0,4,7,114,11
11,4,17,1,5,1,4,7,88,11
11,4,1,0,5,1,4,7,90,11
11,4,17,1,6,1,4,7,90,11
11,4,13,1,4,0,4,7,90,11
11,4,18,1,4,0,4,7,101,11
11,4,18,1,4,0,4,7,101,11
11,4,18,1,1,0,4,7,101,11
11,4,18,1,4,0,4,7,101,11
11,4,21,0,6,1,4,7,124,11
11,4,11,1,0,0,4,7,90,11
11,4,19,1,2,0,4,7,20,11
12,1,19,1,6,1,4,7,64,11
12,1,13,1,2,0,4,7,124,11
12,1,13,1,2,0,4,7,101,11
12,1,12,1,4,0,4,7,124,11
12,1,17,1,6,1,4,7,90,11
12,1,16,1,4,0,4,7,109,11
1,1,19,1,5,1,1,7,20,11
1,1,7,1,0,0,1,7,20,11
1,1,18,1,1,0,1,7,96,11
1,1,13,1,2,0,1,7,101,11
1,1,22,0,5,1,1,7,66,11
1,1,7,1,0,0,1,7,75,11
1,1,9,1,0,0,1,7,20,11
1,1,10,1,4,0,1,7,20,11
1,1,13,1,0,0,1,7,20,11
2,1,20,1,0,0,1,7,108,11
2,1,18,1,1,0,1,7,72,11
2,1,13,1,6,1,1,7,101,11
2,1,14,1,3,0,1,7,66,11
2,1,11,1,4,0,1,7,23,11
2,1,15,1,5,1,1,7,54,11
2,1,23,0,0,0,1,7,23,11
3,2,11,1,1,0,1,7,72,11
3,2,17,1,6,1,1,7,90,11
3,2,17,1,6,1,1,7,124,11
3,2,16,1,2,0,1,7,72,11
3,2,0,0,3,0,1,7,38,11
3,2,18,1,5,1,1,7,1,11
3,2,12,1,4,0,1,7,90,11
3,2,8,1,2,0,1,7,72,8
3,2,16,1,1,0,1,7,90,11
4,2,7,1,0,0,2,7,96,11
4,2,14,1,1,0,2,7,27,11
4,2,14,1,3,0,2,7,90,11
4,2,17,1,3,0,2,7,1,11
4,2,17,1,5,1,2,7,101,11
4,2,20,1,6,1,2,7,90,11
4,2,13,1,1,0,2,7,1,11
4,2,0,0,2,0,2,7,109,11
4,2,2,0,0,0,2,7,96,11
4,2,17,1,4,0,2,7,1,11
4,2,18,1,4,0,2,7,1,11
4,2,20,1,4,0,2,7,1,11
4,2,19,1,5,1,2,7,90,11
5,2,11,1,6,1,2,7,1,11
5,2,21,0,2,0,2,7,1,11
5,2,10,1,4,0,2,7,1,11
5,2,9,1,5,1,2,7,104,11
5,2,8,1,6,1,2,7,103,11
5,2,17,1,1,0,2,7,101,11
5,2,14,1,1,0,2,7,101,11
5,2,20,1,2,0,2,7,90,11
5,2,13,1,4,0,2,7,79,11
5,2,12,1,6,1,2,7,1,11
5,2,2,0,0,0,2,7,75,11
5,2,21,0,2,0,2,7,75,11
5,2,15,1,4,0,2,7,20,11
5,2,16,1,0,0,2,7,75,11
6,3,7,1,5,1,2,7,75,11
6,3,21,0,5,1,2,7,90,9
6,3,21,0,2,0,2,7,90,11
6,3,11,1,3,0,2,7,72,11
6,3,14,1,3,0,2,7,109,11
6,3,10,1,5,1,2,7,90,11
6,3,19,1,6,1,2,7,90,11
6,3,20,1,4,0,2,7,101,11
6,3,20,1,4,0,2,7,4,11
6,3,7,1,3,0,2,7,113,11
6,3,14,1,6,1,2,7,75,11
6,3,13,1,1,0,2,7,20,11
6,3,13,1,3,0,2,7,90,11
6,3,18,1,3,0,2,7,45,11
6,3,20,1,3,0,2,7,90,11
7,3,19,1,5,1,3,7,101,11
7,3,8,1,1,0,3,7,90,11
7,3,13,1,2,0,3,7,72,11
7,3,13,1,6,1,3,7,90,11
7,3,16,1,3,0,3,7,90,11
7,3,9,1,5,1,3,7,4,11
7,3,10,1,5,1,3,7,75,11
7,3,13,1,3,0,3,7,72,11
7,3,13,1,4,0,3,7,90,11
7,3,7,1,5,1,3,7,20,11
7,3,14,1,3,0,3,7,90,11
7,3,10,1,5,1,3,7,90,11
7,3,11,1,5,1,3,7,101,11
8,3,0,0,1,0,3,7,90,11
8,3,14,1,4,0,3,7,1,11
8,3,13,1,4,0,3,7,101,11
8,3,13,1,6,1,3,7,75,11
8,3,12,1,0,0,3,7,72,11
8,3,13,1,0,0,3,7,72,11
8,3,14,1,3,0,3,7,75,11
8,3,9,1,0,0,3,7,101,11
8,3,14,1,2,0,3,7,90,11
9,4,19,1,0,0,3,7,101,11
9,4,15,1,5,1,3,7,90,11
9,4,12,1,6,1,3,7,47,11
9,4,2,0,2,0,3,7,101,11
9,4,17,1,2,0,3,7,90,11
10,4,15,1,1,0,4,7,101,11
10,4,21,0,2,0,4,7,101,11
10,4,17,1,6,1,4,7,90,11
10,4,18,1,6,1,4,7,101,11
10,4,15,1,0,0,4,7,90,11
10,4,22,0,0,0,4,7,14,8
10,4,12,1,1,0,4,7,90,11
10,4,9,1,5,1,4,7,90,11
10,4,13,1,3,0,4,7,90,11
10,4,16,1,3,0,4,7,4,11
10,4,12,1,4,0,4,7,90,11
10,4,13,1,5,1,4,7,90,11
10,4,8,1,5,1,4,7,20,11
10,4,14,1,5,1,4,7,101,11
11,4,17,1,1,0,4,7,90,11
11,4,12,1,3,0,4,7,101,11
11,4,13,1,4,0,4,7,90,11
11,4,6,0,5,1,4,7,90,11
11,4,12,1,5,1,4,7,90,11
11,4,13,1,5,1,4,7,90,11
11,4,13,1,5,1,4,7,90,11
11,4,13,1,5,1,4,7,90,11
11,4,16,1,3,0,4,7,14,11
11,4,12,1,4,0,4,7,90,11
11,4,14,1,6,1,4,7,90,11
11,4,15,1,6,1,4,7,90,11
11,4,19,1,0,0,4,7,1,11
11,4,16,1,4,0,4,7,90,11
11,4,12,1,6,1,4,7,90,11
11,4,12,1,6,1,4,7,90,11
11,4,14,1,0,0,4,7,90,11
11,4,15,1,0,0,4,7,90,11
11,4,16,1,1,0,4,7,90,11
11,4,21,0,1,0,4,7,1,11
11,4,23,0,1,0,4,7,101,11
11,4,23,0,1,0,4,7,101,11
11,4,17,1,5,1,4,7,38,11
11,4,10,1,6,1,4,7,1,11
11,4,7,1,0,0,4,7,90,11
11,4,19,1,0,0,4,7,75,8
12,1,16,1,3,0,4,7,20,11
12,1,20,1,0,0,4,7,90,11
12,1,12,1,1,0,4,7,90,11
12,1,22,0,5,1,4,7,26,11
12,1,22,0,0,0,4,7,1,11
12,1,23,0,1,0,4,7,101,11
12,1,12,1,2,0,4,7,101,11
12,1,21,0,2,0,4,7,90,11
12,1,13,1,4,0,4,7,88,11
12,1,13,1,6,1,4,7,88,11
12,1,15,1,0,0,4,7,101,11
12,1,15,1,2,0,4,7,90,11
4,2,5,0,0,0,2,7,72,11
8,3,13,1,1,0,3,7,4,11
10,4,13,1,6,1,4,7,90,11
10,4,17,1,6,1,4,7,75,11
10,4,15,1,5,1,4,7,90,11
12,1,12,1,0,0,4,7,27,11
1,1,9,1,0,0,1,12,20,11
1,1,19,1,2,0,1,12,38,11
1,1,7,1,4,0,1,12,72,11
1,1,12,1,4,0,1,12,101,11
1,1,14,1,4,0,1,12,90,11
1,1,11,1,5,1,1,12,75,11
1,1,18,1,1,0,1,12,109,11
1,1,13,1,5,1,1,12,90,11
1,1,14,1,5,1,1,12,88,11
1,1,18,1,0,0,1,12,116,11
1,1,5,0,0,0,1,12,75,11
1,1,11,1,0,0,1,12,90,11
1,1,12,1,0,0,1,12,14,11
1,1,17,1,3,0,1,12,75,11
1,1,18,1,4,0,1,12,55,11
1,1,15,1,6,1,1,12,88,11
1,1,0,0,0,0,1,12,64,11
2,1,13,1,2,0,1,12,20,11
2,1,16,1,3,0,1,12,93,11
2,1,4,0,5,1,1,12,88,11
2,1,3,0,0,0,1,12,72,11
2,1,19,1,2,0,1,12,90,11
2,1,22,0,2,0,1,12,88,11
2,1,16,1,6,1,1,12,88,11
2,1,11,1,3,0,1,12,14,11
2,1,20,1,6,1,1,12,90,11
2,1,8,1,4,0,1,12,38,11
2,1,4,0,6,1,1,12,72,11
3,2,14,1,5,1,1,12,38,11
3,2,1,0,5,1,1,12,51,11
3,2,15,1,5,1,1,12,88,11
3,2,21,0,0,0,1,12,38,11
3,2,13,1,4,0,1,12,38,11
3,2,0,0,5,1,1,12,64,11
3,2,15,1,5,1,1,12,38,11
3,2,16,1,0,0,1,12,75,11
4,2,22,0,4,0,2,12,63,11
4,2,5,0,6,1,2,12,79,11
4,2,0,0,1,0,2,12,64,11
4,2,15,1,1,0,2,12,64,11
4,2,4,0,2,0,2,12,75,11
4,2,22,0,2,0,2,12,38,11
4,2,17,1,6,1,2,12,75,11
4,2,19,1,6,1,2,12,72,11
4,2,16,1,2,0,2,12,101,11
5,2,10,1,4,0,2,12,56,11
5,2,0,0,2,0,2,12,90,11
5,2,13,1,2,0,2,12,38,11
5,2,12,1,4,0,2,12,54,11
5,2,14,1,0,0,2,12,20,11
5,2,3,0,1,0,2,12,9,11
5,2,4,0,2,0,2,12,38,11
5,2,5,0,2,0,2,12,20,11
5,2,10,1,2,0,2,12,101,11
5,2,15,1,6,1,2,12,38,11
5,2,14,1,4,0,2,12,90,11
5,2,17,1,4,0,2,12,47,11
5,2,1,0,6,1,2,12,101,11
5,2,1,0,6,1,2,12,72,11
5,2,3,0,6,1,2,12,75,11
5,2,17,1,6,1,2,12,109,11
6,3,8,1,4,0,2,12,45,11
6,3,21,0,2,0,2,12,14,11
6,3,8,1,4,0,2,12,47,11
6,3,14,1,6,1,2,12,88,11
6,3,14,1,4,0,2,12,20,11
6,3,5,0,6,1,2,12,90,11
6,3,2,0,0,0,2,12,45,11
6,3,14,1,0,0,2,12,90,11
6,3,4,0,1,0,2,12,64,11
6,3,1,0,2,0,2,12,23,11
6,3,14,1,3,0,2,12,90,11
6,3,1,0,4,0,2,12,90,11
6,3,11,1,3,0,2,12,90,11
6,3,11,1,3,0,2,12,90,11
7,3,12,1,4,0,3,12,90,11
7,3,13,1,5,1,3,12,20,11
7,3,21,0,6,1,3,12,90,11
7,3,22,0,6,1,3,12,14,11
7,3,12,1,0,0,3,12,90,11
7,3,12,1,4,0,3,12,90,11
7,3,18,1,4,0,3,12,90,11
7,3,18,1,4,0,3,12,90,11
7,3,17,1,1,0,3,12,20,11
7,3,9,1,4,0,3,12,11,11
7,3,12,1,6,1,3,12,75,11
7,3,1,0,0,0,3,12,52,11
7,3,0,0,2,0,3,12,101,11
7,3,1,0,3,0,3,12,75,11
7,3,1,0,4,0,3,12,101,11
7,3,6,0,5,1,3,12,101,11
7,3,19,1,0,0,3,12,64,11
7,3,19,1,1,0,3,12,75,11
7,3,8,1,2,0,3,12,90,11
7,3,21,0,2,0,3,12,90,11
7,3,14,1,5,1,3,12,38,11
7,3,13,1,6,1,3,12,47,11
8,3,0,0,0,0,3,12,109,11
8,3,13,1,1,0,3,12,90,11
8,3,23,0,0,0,3,12,101,11
8,3,14,1,3,0,3,12,14,11
8,3,13,1,5,1,3,12,90,11
8,3,20,1,5,1,3,12,38,11
8,3,21,0,0,0,3,12,109,11
8,3,8,1,0,0,3,12,101,11
8,3,17,1,0,0,3,12,124,11
9,4,12,1,5,1,3,12,42,11
9,4,23,0,5,1,3,12,75,11
9,4,21,0,6,1,3,12,45,9
9,4,12,1,1,0,3,12,90,11
9,4,17,1,2,0,3,12,82,11
9,4,12,1,5,1,3,12,47,11
9,4,11,1,6,1,3,12,101,11
9,4,5,0,3,0,3,12,38,11
9,4,16,1,4,0,3,12,64,11
9,4,15,1,5,1,3,12,101,11
9,4,13,1,6,1,3,12,109,11
9,4,16,1,1,0,3,12,101,11
9,4,4,0,4,0,3,12,20,11
9,4,17,1,4,0,3,12,90,11
9,4,20,1,0,0,3,12,101,11
9,4,1,0,3,0,3,12,76,11
10,4,6,0,5,1,4,12,75,11
10,4,13,1,1,0,4,12,90,11
10,4,14,1,2,0,4,12,124,11
10,4,7,1,3,0,4,12,109,11
10,4,21,0,3,0,4,12,19,11
10,4,1,0,4,0,4,12,101,11
10,4,7,1,5,1,4,12,88,11
10,4,21,0,6,1,4,12,88,11
10,4,19,1,1,0,4,12,90,11
10,4,16,1,2,0,4,12,101,11
10,4,13,1,1,0,4,12,90,11
10,4,20,1,2,0,4,12,72,11
10,4,16,1,3,0,4,12,72,11
10,4,20,1,4,0,4,12,88,11
10,4,20,1,4,0,4,12,88,11
10,4,21,0,4,0,4,12,88,11
10,4,12,1,6,1,4,12,101,11
10,4,7,1,2,0,4,12,14,11
10,4,19,1,3,0,4,12,20,11
10,4,12,1,6,1,4,12,101,11
10,4,11,1,0,0,4,12,90,11
11,4,9,1,2,0,4,12,90,11
11,4,11,1,3,0,4,12,90,11
11,4,16,1,1,0,4,12,64,11
11,4,12,1,0,0,4,12,101,11
11,4,17,1,0,0,4,12,90,11
11,4,8,1,2,0,4,12,75,11
11,4,14,1,4,0,4,12,90,11
11,4,14,1,4,0,4,12,90,11
11,4,14,1,4,0,4,12,90,11
11,4,15,1,5,1,4,12,90,11
11,4,1,0,0,0,4,12,72,11
11,4,12,1,0,0,4,12,90,11
11,4,19,1,2,0,4,12,90,11
11,4,21,0,4,0,4,12,23,11
11,4,22,0,4,0,4,12,90,11
11,4,11,1,1,0,4,12,88,11
12,1,14,1,3,0,4,12,75,11
12,1,18,1,3,0,4,12,75,11
12,1,3,0,4,0,4,12,75,11
12,1,23,0,6,1,4,12,88,11
12,1,17,1,1,0,4,12,88,11
12,1,15,1,5,1,4,12,88,11
12,1,20,1,0,0,4,12,9,11
12,1,12,1,1,0,4,12,64,11
12,1,19,1,1,0,4,12,75,11
12,1,15,1,5,1,4,12,20,11
12,1,21,0,0,0,4,12,9,11
12,1,15,1,5,1,4,12,64,11
1,1,1,0,0,0,1,12,124,11
1,1,0,0,3,0,1,12,124,11
1,1,23,0,4,0,1,12,124,11
1,1,1,0,6,1,1,12,124,11
1,1,22,0,0,0,1,12,124,11
1,1,0,0,3,0,1,12,124,11
2,1,1,0,1,0,1,12,124,11
2,1,1,0,1,0,1,12,124,11
2,1,22,0,2,0,1,12,124,11
2,1,23,0,3,0,1,12,124,11
3,2,17,1,2,0,1,12,78,11
3,2,10,1,3,0,1,12,72,11
3,2,15,1,4,0,1,12,124,11
3,2,15,1,6,1,1,12,90,11
3,2,16,1,0,0,1,12,38,11
6,3,1,0,5,1,2,12,64,11
6,3,10,1,3,0,2,12,72,11
6,3,1,0,3,0,2,12,72,11
7,3,11,1,4,0,3,12,72,11
7,3,11,1,0,0,3,12,101,11
10,4,16,1,2,0,4,12,27,11
10,4,0,0,5,1,4,12,101,11
11,4,14,1,2,0,4,12,90,11
12,1,21,0,6,1,4,12,4,11
1,1,19,1,4,0,1,12,75,11
2,1,17,1,3,0,1,12,75,11
2,1,19,1,6,1,1,12,75,11
3,2,10,1,6,1,1,12,64,11
3,2,8,1,6,1,1,12,124,11
3,2,17,1,2,0,1,12,72,11
4,2,10,1,1,0,2,12,75,11
5,2,9,1,2,0,2,12,23,9
5,2,12,1,6,1,2,12,101,11
6,3,1,0,3,0,2,12,84,11
7,3,20,1,5,1,3,12,75,11
8,3,13,1,2,0,3,12,47,11
8,3,18,1,3,0,3,12,20,9
10,4,8,1,5,1,4,12,90,11
10,4,16,1,2,0,4,12,20,11
11,4,6,0,5,1,4,12,109,11
11,4,23,0,3,0,4,12,14,11
11,4,10,1,5,1,4,12,1,11
12,1,4,0,4,0,4,12,124,11
12,1,16,1,3,0,4,12,13,11
1,1,14,1,6,1,1,12,88,11
1,1,18,1,4,0,1,12,101,11
2,1,20,1,5,1,1,12,88,11
3,2,18,1,6,1,1,12,88,11
6,3,16,1,2,0,2,12,90,11
8,3,6,0,6,1,3,12,90,9
10,4,19,1,4,0,4,12,20,11
10,4,12,1,6,1,4,12,101,11
10,4,14,1,6,1,4,12,90,11
11,4,7,1,5,1,4,12,90,11
12,1,13,1,5,1,4,12,101,11
2,1,10,1,1,0,1,12,88,11
2,1,13,1,4,0,1,12,90,11
3,2,14,1,3,0,1,12,90,11
7,3,11,1,0,0,3,12,75,11
8,3,12,1,5,1,3,12,20,11
1,1,5,0,4,0,1,12,20,11
1,1,2,0,1,0,1,12,101,11
3,2,11,1,3,0,1,12,75,11
3,2,19,1,4,0,1,12,75,11
4,2,20,1,0,0,2,12,90,11
4,2,0,0,0,0,2,12,67,11
4,2,16,1,2,0,2,12,90,11
4,2,9,1,2,0,2,12,23,11
6,3,16,1,6,1,2,12,4,11
6,3,20,1,0,0,2,12,90,11
7,3,6,0,0,0,3,12,64,11
7,3,9,1,1,0,3,12,90,11
7,3,23,0,1,0,3,12,75,9
7,3,15,1,3,0,3,12,101,11
7,3,15,1,4,0,3,12,101,11
8,3,11,1,0,0,3,12,75,11
8,3,13,1,2,0,3,12,90,11
10,4,16,1,4,0,4,12,96,11
11,4,12,1,5,1,4,12,14,11
11,4,13,1,6,1,4,12,90,11
11,4,13,1,5,1,4,12,90,11
12,1,15,1,5,1,4,12,101,11
3,2,17,1,1,0,1,12,124,11
3,2,9,1,3,0,1,12,75,9
9,4,21,0,2,0,3,12,75,11
9,4,18,1,3,0,3,12,20,11
12,1,2,0,2,0,4,12,124,11
3,2,8,1,1,0,1,12,72,11
4,2,15,1,6,1,2,12,90,11
4,2,22,0,5,1,2,12,57,11
5,2,22,0,0,0,2,12,38,11
7,3,7,1,5,1,3,12,25,11
7,3,20,1,6,1,3,12,20,11
8,3,4,0,1,0,3,12,75,11
8,3,14,1,5,1,3,12,88,9
8,3,11,1,0,0,3,12,109,11
8,3,12,1,3,0,3,12,101,11
9,4,18,1,6,1,3,12,72,11
9,4,5,0,0,0,3,12,109,11
9,4,9,1,4,0,3,12,101,11
1,1,13,1,5,1,1,29,90,11
2,1,20,1,6,1,1,29,124,11
3,2,23,0,1,0,1,29,20,11
3,2,9,1,6,1,1,29,75,8
3,2,12,1,5,1,1,29,75,9
3,2,16,1,6,1,1,29,90,11
4,2,8,1,5,1,2,29,75,11
4,2,11,1,5,1,2,29,9,11
4,2,15,1,5,1,2,29,90,11
4,2,14,1,0,0,2,29,27,11
4,2,6,0,2,0,2,29,27,11
4,2,13,1,3,0,2,29,84,11
4,2,11,1,4,0,2,29,90,11
4,2,2,0,6,1,2,29,76,11
5,2,8,1,2,0,2,29,124,11
5,2,21,0,1,0,2,29,90,11
5,2,9,1,3,0,2,29,90,11
5,2,15,1,5,1,2,29,106,11
5,2,22,0,3,0,2,29,109,11
6,3,11,1,0,0,2,29,90,11
6,3,10,1,2,0,2,29,20,11
6,3,3,0,3,0,2,29,124,11
6,3,9,1,3,0,2,29,101,11
6,3,16,1,2,0,2,29,101,11
7,3,18,1,4,0,3,29,20,11
7,3,20,1,1,0,3,29,124,11
7,3,13,1,2,0,3,29,101,11
7,3,21,0,3,0,3,29,90,11
7,3,16,1,1,0,3,29,101,11
7,3,7,1,2,0,3,29,109,11
7,3,10,1,2,0,3,29,109,11
7,3,18,1,2,0,3,29,75,11
7,3,0,0,4,0,3,29,76,11
7,3,6,0,4,0,3,29,88,11
7,3,15,1,5,1,3,29,101,11
7,3,17,1,6,1,3,29,90,11
7,3,22,0,1,0,3,29,90,11
7,3,12,1,4,0,3,29,90,11
8,3,20,1,1,0,3,29,90,11
8,3,16,1,1,0,3,29,90,11
8,3,23,0,5,1,3,29,90,11
8,3,6,0,1,0,3,29,109,11
8,3,8,1,2,0,3,29,109,11
8,3,19,1,6,1,3,29,124,11
9,4,20,1,4,0,3,29,90,11
9,4,12,1,0,0,3,29,90,11
9,4,13,1,1,0,3,29,90,11
9,4,14,1,4,0,3,29,14,11
10,4,9,1,3,0,4,29,75,9
10,4,11,1,4,0,4,29,90,11
10,4,19,1,0,0,4,29,90,11
10,4,18,1,1,0,4,29,90,11
10,4,7,1,6,1,4,29,109,11
10,4,11,1,1,0,4,29,90,11
10,4,13,1,5,1,4,29,72,9
10,4,11,1,6,1,4,29,124,11
10,4,12,1,6,1,4,29,90,11
10,4,21,0,0,0,4,29,90,11
11,4,12,1,3,0,4,29,75,11
12,1,17,1,2,0,4,29,121,11
12,1,6,0,1,0,4,29,90,11
4,2,14,1,4,0,2,29,101,11
4,2,0,0,6,1,2,29,101,11
5,2,17,1,1,0,2,29,13,11
7,3,6,0,6,1,3,29,109,11
7,3,14,1,6,1,3,29,101,11
8,3,5,0,0,0,3,29,46,11
12,1,2,0,0,0,4,29,101,11
1,1,22,0,1,0,1,29,57,11
3,2,18,1,5,1,1,29,55,11
3,2,10,1,4,0,1,29,75,11
4,2,10,1,6,1,2,29,109,11
5,2,12,1,0,0,2,29,109,11
6,3,11,1,3,0,2,29,124,11
6,3,1,0,1,0,2,29,124,11
6,3,20,1,4,0,2,29,55,11
6,3,13,1,6,1,2,29,90,11
7,3,21,0,2,0,3,29,72,11
7,3,12,1,4,0,3,29,72,11
7,3,13,1,2,0,3,29,101,11
7,3,6,0,4,0,3,29,124,11
8,3,22,0,4,0,3,29,47,11
8,3,11,1,6,1,3,29,101,11
8,3,10,1,2,0,3,29,90,11
8,3,5,0,3,0,3,29,109,11
8,3,7,1,4,0,3,29,109,11
8,3,21,0,6,1,3,29,20,11
8,3,19,1,2,0,3,29,90,11
9,4,22,0,5,1,3,29,20,11
9,4,8,1,2,0,3,29,109,11
9,4,20,1,2,0,3,29,109,11
10,4,13,1,0,0,4,29,90,11
10,4,2,0,3,0,4,29,109,11
11,4,13,1,0,0,4,29,101,11
12,1,21,0,2,0,4,29,20,11
1,1,13,1,0,0,1,29,124,11
1,1,11,1,5,1,1,29,101,11
2,1,20,1,3,0,1,29,101,11
3,2,19,1,5,1,1,29,79,11
3,2,18,1,6,1,1,29,124,11
4,2,20,1,4,0,2,29,90,11
6,3,14,1,3,0,2,29,101,11
6,3,21,0,1,0,2,29,75,11
6,3,14,1,1,0,2,29,90,11
6,3,21,0,1,0,2,29,101,11
7,3,6,0,5,1,3,29,20,11
7,3,17,1,6,1,3,29,84,11
8,3,15,1,6,1,3,29,13,11
9,4,16,1,3,0,3,29,13,11
9,4,8,1,1,0,3,29,87,11
10,4,20,1,2,0,4,29,124,11
10,4,19,1,6,1,4,29,35,11
10,4,14,1,5,1,4,29,124,9
11,4,23,0,0,0,4,29,4,11
12,1,18,1,2,0,4,29,27,11
12,1,19,1,2,0,4,29,27,9
1,1,16,1,5,1,1,29,20,11
1,1,16,1,5,1,1,29,14,11
1,1,10,1,6,1,1,29,75,11
1,1,16,1,3,0,1,29,101,11
2,1,19,1,4,0,1,29,90,11
2,1,12,1,2,0,1,29,75,11
2,1,0,0,4,0,1,29,124,11
2,1,13,1,4,0,1,29,75,11
3,2,11,1,4,0,1,29,106,11
3,2,13,1,2,0,1,29,101,11
4,2,15,1,2,0,2,29,75,9
4,2,11,1,2,0,2,29,88,11
4,2,10,1,3,0,2,29,88,11
4,2,13,1,5,1,2,29,101,11
5,2,18,1,3,0,2,29,14,9
5,2,0,0,5,1,2,29,101,11
5,2,14,1,5,1,2,29,101,11
5,2,11,1,3,0,2,29,121,11
5,2,19,1,0,0,2,29,124,11
5,2,20,1,4,0,2,29,101,11
6,3,1,0,5,1,2,29,20,11
6,3,21,0,2,0,2,29,90,11
7,3,12,1,6,1,3,29,90,11
7,3,14,1,2,0,3,29,101,11
7,3,23,0,4,0,3,29,101,11
7,3,19,1,5,1,3,29,47,11
8,3,16,1,2,0,3,29,20,11
8,3,17,1,0,0,3,29,84,11
9,4,20,1,5,1,3,29,109,11
9,4,6,0,0,0,3,29,121,11
9,4,18,1,5,1,3,29,90,11
10,4,22,0,6,1,4,29,84,11
10,4,18,1,3,0,4,29,90,11
10,4,16,1,2,0,4,29,20,11
10,4,14,1,6,1,4,29,90,11
11,4,15,1,2,0,4,29,90,11
11,4,15,1,1,0,4,29,90,11
11,4,18,1,2,0,4,29,90,11
11,4,11,1,4,0,4,29,90,11
11,4,18,1,6,1,4,29,75,11
12,1,14,1,1,0,4,29,90,11
12,1,15,1,3,0,4,29,90,11
12,1,17,1,5,1,4,29,90,11
12,1,2,0,4,0,4,29,124,11
12,1,7,1,5,1,4,29,84,11
12,1,8,1,5,1,4,29,90,11
1,1,17,1,4,0,1,29,124,11
3,2,11,1,5,1,1,29,20,11
4,2,11,1,6,1,2,29,75,11
4,2,11,1,0,0,2,29,55,11
4,2,19,1,1,0,2,29,90,11
4,2,21,0,5,1,2,29,84,11
5,2,11,1,3,0,2,29,75,11
5,2,1,0,3,0,2,29,121,11
8,3,13,1,0,0,3,29,124,11
9,4,13,1,4,0,3,29,20,11
9,4,13,1,4,0,3,29,89,11
10,4,12,1,1,0,4,29,90,11
10,4,14,1,3,0,4,29,72,11
11,4,18,1,3,0,4,29,90,11
12,1,22,0,4,0,4,29,101,11
12,1,19,1,0,0,4,29,101,11
12,1,20,1,2,0,4,29,101,11
12,1,11,1,3,0,4,29,20,11
12,1,11,1,5,1,4,29,20,11
1,1,17,1,5,1,1,10,72,11
1,1,11,1,6,1,1,10,90,11
1,1,19,1,6,1,1,10,90,11
1,1,21,0,6,1,1,10,38,11
1,1,20,1,0,0,1,10,63,11
1,1,15,1,1,0,1,10,90,11
1,1,14,1,0,0,1,10,90,11
1,1,4,0,3,0,1,10,75,11
1,1,11,1,3,0,1,10,90,11
1,1,8,1,4,0,1,10,64,11
1,1,15,1,4,0,1,10,101,11
1,1,15,1,5,1,1,10,90,11
1,1,10,1,2,0,1,10,72,11
1,1,15,1,2,0,1,10,90,11
1,1,12,1,4,0,1,10,90,9
1,1,14,1,1,0,1,10,88,11
1,1,18,1,1,0,1,10,88,11
1,1,4,0,4,0,1,10,64,9
1,1,1,0,5,1,1,10,96,11
1,1,0,0,6,1,1,10,88,11
1,1,18,1,0,0,1,10,101,11
2,1,6,0,1,0,1,10,72,11
2,1,20,1,1,0,1,10,64,11
2,1,21,0,2,0,1,10,14,9
2,1,17,1,0,0,1,10,90,11
2,1,23,0,0,0,1,10,90,11
2,1,8,1,3,0,1,10,14,11
2,1,12,1,4,0,1,10,90,11
2,1,22,0,4,0,1,10,90,11
2,1,0,0,6,1,1,10,23,11
2,1,11,1,3,0,1,10,90,11
2,1,3,0,4,0,1,10,38,11
2,1,19,1,4,0,1,10,88,11
2,1,14,1,5,1,1,10,101,11
2,1,19,1,5,1,1,10,101,11
2,1,10,1,6,1,1,10,64,11
2,1,17,1,6,1,1,10,90,9
2,1,1,0,1,0,1,10,90,11
3,2,23,0,1,0,1,10,90,11
3,2,8,1,2,0,1,10,38,11
3,2,4,0,5,1,1,10,14,11
3,2,19,1,2,0,1,10,90,11
3,2,15,1,4,0,1,10,101,11
3,2,18,1,4,0,1,10,90,11
3,2,18,1,5,1,1,10,90,11
3,2,18,1,6,1,1,10,90,11
3,2,7,1,0,0,1,10,90,11
3,2,11,1,1,0,1,10,90,11
3,2,19,1,1,0,1,10,90,11
3,2,20,1,1,0,1,10,64,11
3,2,15,1,0,0,1,10,90,9
3,2,21,0,1,0,1,10,90,11
3,2,4,0,3,0,1,10,90,11
4,2,9,1,5,1,2,10,109,11
4,2,19,1,6,1,2,10,90,11
4,2,19,1,0,0,2,10,124,11
4,2,9,1,5,1,2,10,75,9
4,2,17,1,5,1,2,10,96,9
4,2,18,1,0,0,2,10,90,11
4,2,21,0,5,1,2,10,90,11
4,2,22,0,5,1,2,10,71,8
4,2,16,1,6,1,2,10,90,8
4,2,17,1,6,1,2,10,90,11
4,2,17,1,6,1,2,10,90,11
4,2,20,1,6,1,2,10,90,11
4,2,23,0,0,0,2,10,96,11
4,2,12,1,3,0,2,10,101,11
4,2,14,1,3,0,2,10,75,11
4,2,14,1,4,0,2,10,99,11
4,2,16,1,5,1,2,10,90,11
4,2,11,1,6,1,2,10,88,11
4,2,16,1,6,1,2,10,90,11
4,2,10,1,1,0,2,10,90,8
4,2,9,1,2,0,2,10,90,11
4,2,11,1,2,0,2,10,90,11
4,2,18,1,2,0,2,10,90,11
4,2,19,1,2,0,2,10,90,11
4,2,19,1,2,0,2,10,90,11
4,2,22,0,2,0,2,10,90,8
4,2,19,1,3,0,2,10,90,11
4,2,12,1,4,0,2,10,64,11
5,2,16,1,2,0,2,10,124,8
5,2,17,1,3,0,2,10,90,11
5,2,9,1,6,1,2,10,109,11
5,2,20,1,1,0,2,10,90,11
5,2,11,1,2,0,2,10,55,8
5,2,14,1,2,0,2,10,64,11
5,2,17,1,2,0,2,10,90,11
5,2,22,0,2,0,2,10,109,11
5,2,17,1,3,0,2,10,90,11
5,2,9,1,4,0,2,10,90,11
5,2,19,1,4,0,2,10,55,11
5,2,9,1,5,1,2,10,105,8
5,2,17,1,5,1,2,10,101,11
5,2,15,1,6,1,2,10,10,11
5,2,22,0,4,0,2,10,90,8
5,2,11,1,5,1,2,10,64,9
5,2,15,1,5,1,2,10,90,11
5,2,3,0,2,0,2,10,72,9
5,2,14,1,4,0,2,10,29,11
5,2,11,1,0,0,2,10,72,11
5,2,13,1,1,0,2,10,90,11
5,2,23,0,1,0,2,10,64,11
6,3,16,1,5,1,2,10,90,11
6,3,20,1,5,1,2,10,90,11
6,3,9,1,6,1,2,10,90,9
6,3,12,1,6,1,2,10,14,11
6,3,17,1,6,1,2,10,90,9
6,3,19,1,0,0,2,10,90,9
6,3,17,1,1,0,2,10,90,11
6,3,12,1,3,0,2,10,75,11
6,3,12,1,3,0,2,10,84,11
6,3,13,1,3,0,2,10,90,9
6,3,2,0,6,1,2,10,96,11
6,3,5,0,2,0,2,10,84,11
6,3,20,1,2,0,2,10,90,11
6,3,14,1,6,1,2,10,88,11
6,3,19,1,6,1,2,10,75,11
6,3,11,1,0,0,2,10,90,11
6,3,14,1,0,0,2,10,96,11
6,3,16,1,0,0,2,10,90,11
6,3,10,1,1,0,2,10,72,11
6,3,17,1,1,0,2,10,90,11
6,3,14,1,4,0,2,10,101,11
6,3,22,0,4,0,2,10,72,11
6,3,19,1,6,1,2,10,90,9
6,3,22,0,0,0,2,10,90,11
6,3,4,0,1,0,2,10,38,11
7,3,0,0,5,1,3,10,90,11
7,3,23,0,2,0,3,10,1,11
7,3,13,1,3,0,3,10,9,11
7,3,13,1,6,1,3,10,72,11
7,3,16,1,6,1,3,10,90,11
7,3,18,1,1,0,3,10,51,11
7,3,19,1,2,0,3,10,64,11
7,3,15,1,4,0,3,10,90,11
7,3,12,1,6,1,3,10,90,11
7,3,11,1,0,0,3,10,72,11
7,3,21,0,0,0,3,10,90,11
7,3,22,0,2,0,3,10,101,11
7,3,13,1,5,1,3,10,101,11
7,3,19,1,5,1,3,10,90,9
7,3,18,1,6,1,3,10,90,11
7,3,19,1,6,1,3,10,90,9
7,3,1,0,5,1,3,10,90,11
8,3,23,0,0,0,3,10,101,11
8,3,15,1,1,0,3,10,23,11
8,3,14,1,2,0,3,10,72,11
8,3,18,1,1,0,3,10,90,11
8,3,14,1,2,0,3,10,96,11
8,3,20,1,3,0,3,10,90,11
8,3,21,0,3,0,3,10,96,11
8,3,4,0,4,0,3,10,90,11
8,3,14,1,6,1,3,10,101,11
8,3,21,0,2,0,3,10,90,11
8,3,23,0,2,0,3,10,101,11
8,3,16,1,4,0,3,10,101,11
8,3,0,0,6,1,3,10,90,11
8,3,0,0,0,0,3,10,90,9
8,3,12,1,2,0,3,10,64,11
9,4,6,0,4,0,3,10,84,11
9,4,17,1,3,0,3,10,90,11
9,4,22,0,3,0,3,10,90,11
9,4,19,1,4,0,3,10,90,11
9,4,21,0,4,0,3,10,63,11
9,4,23,0,4,0,3,10,63,11
9,4,1,0,5,1,3,10,96,11
9,4,2,0,5,1,3,10,90,11
9,4,10,1,5,1,3,10,90,11
9,4,21,0,5,1,3,10,90,11
9,4,1,0,6,1,3,10,90,8
9,4,23,0,6,1,3,10,90,11
9,4,0,0,1,0,3,10,90,9
9,4,16,1,1,0,3,10,100,11
9,4,22,0,1,0,3,10,90,8
9,4,5,0,2,0,3,10,72,11
9,4,23,0,3,0,3,10,90,11
9,4,2,0,4,0,3,10,90,11
9,4,14,1,6,1,3,10,64,11
9,4,20,1,4,0,3,10,64,11
9,4,19,1,5,1,3,10,64,8
9,4,8,1,0,0,3,10,64,11
9,4,18,1,0,0,3,10,90,11
9,4,7,1,1,0,3,10,90,9
9,4,15,1,4,0,3,10,84,8
10,4,4,0,6,1,4,10,64,11
10,4,5,0,0,0,4,10,90,11
10,4,12,1,3,0,4,10,52,11
10,4,20,1,4,0,4,10,90,11
10,4,21,0,5,1,4,10,90,11
10,4,18,1,0,0,4,10,90,11
10,4,17,1,1,0,4,10,72,11
10,4,21,0,3,0,4,10,90,11
10,4,10,1,5,1,4,10,90,11
10,4,12,1,6,1,4,10,90,11
10,4,19,1,6,1,4,10,90,11
10,4,12,1,3,0,4,10,88,11
10,4,21,0,4,0,4,10,101,11
10,4,16,1,5,1,4,10,90,8
10,4,0,0,6,1,4,10,90,11
10,4,17,1,6,1,4,10,90,11
10,4,15,1,1,0,4,10,90,11
10,4,18,1,2,0,4,10,90,11
10,4,23,0,2,0,4,10,101,11
10,4,12,1,3,0,4,10,90,11
10,4,19,1,3,0,4,10,90,8
10,4,4,0,4,0,4,10,90,8
10,4,18,1,4,0,4,10,90,11
10,4,18,1,5,1,4,10,90,11
10,4,21,0,5,1,4,10,90,11
10,4,17,1,6,1,4,10,90,11
10,4,17,1,6,1,4,10,90,11
11,4,15,1,1,0,4,10,90,11
11,4,0,0,4,0,4,10,90,8
11,4,17,1,4,0,4,10,90,11
11,4,19,1,4,0,4,10,90,11
11,4,12,1,5,1,4,10,90,11
11,4,1,0,4,0,4,10,88,11
11,4,14,1,4,0,4,10,90,11
11,4,9,1,6,1,4,10,90,11
11,4,10,1,6,1,4,10,90,11
11,4,1,0,1,0,4,10,90,11
11,4,8,1,1,0,4,10,90,11
11,4,16,1,1,0,4,10,90,11
11,4,18,1,3,0,4,10,20,8
12,1,14,1,3,0,4,10,90,11
12,1,21,0,4,0,4,10,64,11
12,1,12,1,4,0,4,10,27,9
12,1,3,0,6,1,4,10,90,11
12,1,12,1,0,0,4,10,90,11
12,1,9,1,1,0,4,10,90,11
12,1,10,1,2,0,4,10,38,11
12,1,16,1,3,0,4,10,90,11
12,1,17,1,3,0,4,10,64,11
12,1,18,1,5,1,4,10,90,11
12,1,2,0,0,0,4,10,90,11
12,1,1,0,1,0,4,10,90,8
12,1,17,1,3,0,4,10,90,11
12,1,22,0,4,0,4,10,47,11
12,1,21,0,5,1,4,10,88,11
1,1,11,1,5,1,1,10,101,11
1,1,13,1,0,0,1,10,124,11
2,1,23,0,0,0,1,10,90,11
3,2,18,1,1,0,1,10,75,11
3,2,12,1,6,1,1,10,79,11
4,2,19,1,0,0,2,10,4,11
4,2,11,1,6,1,2,10,4,11
4,2,11,1,6,1,2,10,90,11
4,2,19,1,1,0,2,10,124,11
4,2,19,1,5,1,2,10,90,11
5,2,19,1,1,0,2,10,90,11
5,2,20,1,5,1,2,10,90,11
6,3,20,1,3,0,2,10,84,11
7,3,10,1,1,0,3,10,90,11
7,3,9,1,3,0,3,10,88,11
7,3,19,1,6,1,3,10,75,11
9,4,19,1,0,0,3,10,84,11
9,4,10,1,0,0,3,10,90,11
10,4,21,0,6,1,4,10,90,11
10,4,0,0,2,0,4,10,101,11
11,4,11,1,3,0,4,10,90,11
11,4,16,1,3,0,4,10,124,11
11,4,12,1,1,0,4,10,4,9
12,1,18,1,0,0,4,10,101,11
12,1,13,1,4,0,4,10,90,11
12,1,4,0,1,0,4,10,90,11
1,1,16,1,5,1,1,10,27,11
2,1,18,1,5,1,1,10,27,11
2,1,8,1,1,0,1,10,90,11
3,2,22,0,3,0,1,10,4,11
3,2,12,1,1,0,1,10,96,11
4,2,17,1,2,0,2,10,90,11
4,2,16,1,0,0,2,10,101,11
4,2,13,1,1,0,2,10,75,11
4,2,17,1,4,0,2,10,101,11
5,2,2,0,6,1,2,10,79,11
5,2,13,1,1,0,2,10,79,11
7,3,14,1,4,0,3,10,72,11
7,3,20,1,0,0,3,10,90,11
7,3,11,1,6,1,3,10,90,11
8,3,10,1,6,1,3,10,20,9
1,1,10,1,4,0,1,10,20,11
2,1,12,1,5,1,1,10,90,11
2,1,19,1,0,0,1,10,90,11
2,1,23,0,4,0,1,10,75,11
2,1,12,1,6,1,1,10,90,11
3,2,12,1,6,1,1,10,4,11
5,2,15,1,6,1,2,10,4,11
5,2,14,1,3,0,2,10,90,11
5,2,8,1,1,0,2,10,4,11
8,3,22,0,0,0,3,10,109,11
10,4,11,1,5,1,4,10,90,11
10,4,13,1,5,1,4,10,90,11
11,4,13,1,4,0,4,10,109,11
12,1,14,1,6,1,4,10,75,11
6,3,5,0,6,1,2,10,95,11
7,3,7,1,5,1,3,10,7,11
7,3,17,1,1,0,3,10,6,11
1,1,12,1,0,0,1,10,90,11
1,1,2,0,3,0,1,10,88,11
2,1,12,1,2,0,1,10,90,11
2,1,10,1,5,1,1,10,90,11
2,1,9,1,6,1,1,10,90,11
3,2,2,0,4,0,1,10,88,11
3,2,12,1,3,0,1,10,64,11
3,2,5,0,4,0,1,10,88,11
3,2,18,1,5,1,1,10,66,11
3,2,10,1,0,0,1,10,110,11
3,2,14,1,3,0,1,10,20,11
4,2,6,0,0,0,2,10,88,11
4,2,14,1,5,1,2,10,90,11
4,2,9,1,6,1,2,10,90,11
4,2,17,1,6,1,2,10,90,11
4,2,1,0,0,0,2,10,124,11
4,2,19,1,5,1,2,10,90,11
6,3,1,0,1,0,2,10,90,11
6,3,13,1,1,0,2,10,90,11
6,3,19,1,6,1,2,10,90,11
6,3,19,1,0,0,2,10,90,11
6,3,14,1,1,0,2,10,90,11
6,3,14,1,2,0,2,10,25,11
7,3,2,0,4,0,3,10,18,11
7,3,8,1,4,0,3,10,18,11
7,3,18,1,0,0,3,10,84,11
7,3,12,1,2,0,3,10,101,11
7,3,9,1,5,1,3,10,90,11
7,3,3,0,6,1,3,10,72,11
7,3,9,1,6,1,3,10,47,11
7,3,19,1,1,0,3,10,90,11
7,3,14,1,5,1,3,10,124,11
8,3,14,1,4,0,3,10,99,11
8,3,10,1,0,0,3,10,23,11
8,3,0,0,2,0,3,10,75,11
8,3,6,0,2,0,3,10,104,11
8,3,16,1,4,0,3,10,101,11
9,4,12,1,6,1,3,10,101,11
9,4,20,1,0,0,3,10,90,11
9,4,11,1,5,1,3,10,75,11
9,4,0,0,6,1,3,10,47,11
9,4,6,0,1,0,3,10,47,8
9,4,6,0,3,0,3,10,47,8
9,4,10,1,3,0,3,10,84,11
9,4,14,1,2,0,3,10,90,11
9,4,14,1,2,0,3,10,27,11
10,4,15,1,0,0,4,10,101,11
10,4,15,1,6,1,4,10,101,11
10,4,21,0,2,0,4,10,96,11
10,4,9,1,0,0,4,10,38,11
11,4,9,1,2,0,4,10,90,11
11,4,18,1,4,0,4,10,96,11
11,4,15,1,6,1,4,10,109,11
11,4,20,1,6,1,4,10,84,11
11,4,12,1,0,0,4,10,88,11
11,4,18,1,2,0,4,10,90,11
11,4,15,1,3,0,4,10,4,11
11,4,17,1,3,0,4,10,4,11
11,4,18,1,5,1,4,10,101,11
11,4,7,1,1,0,4,10,47,11
11,4,6,0,2,0,4,10,90,11
12,1,11,1,3,0,4,10,90,11
12,1,19,1,4,0,4,10,101,11
1,1,22,0,6,1,1,10,88,11
2,1,23,0,0,0,1,10,47,11
3,2,10,1,4,0,1,10,64,11
5,2,17,1,5,1,2,10,101,11
6,3,11,1,4,0,2,10,90,11
6,3,23,0,3,0,2,10,55,11
6,3,21,0,3,0,2,10,101,11
7,3,22,0,6,1,3,10,124,11
7,3,19,1,0,0,3,10,101,11
8,3,3,0,3,0,3,10,72,11
9,4,22,0,0,0,3,10,124,11
9,4,21,0,3,0,3,10,15,11
9,4,23,0,3,0,3,10,124,11
9,4,10,1,2,0,3,10,124,11
9,4,0,0,4,0,3,10,124,11
10,4,2,0,4,0,4,10,96,11
11,4,2,0,5,1,4,10,90,11
1,1,3,0,0,0,1,33,85,11
1,1,16,1,2,0,1,33,75,11
1,1,7,1,5,1,1,33,124,11
1,1,16,1,2,0,1,33,103,9
1,1,18,1,3,0,1,33,75,11
1,1,23,0,4,0,1,33,64,11
1,1,22,0,5,1,1,33,49,11
1,1,13,1,0,0,1,33,14,11
1,1,14,1,2,0,1,33,75,11
1,1,15,1,3,0,1,33,90,11
1,1,18,1,4,0,1,33,20,11
1,1,7,1,0,0,1,33,14,9
1,1,18,1,2,0,1,33,124,11
1,1,11,1,4,0,1,33,124,11
1,1,19,1,4,0,1,33,111,9
1,1,5,0,6,1,1,33,75,11
1,1,13,1,6,1,1,33,124,11
1,1,16,1,6,1,1,33,124,11
2,1,0,0,3,0,1,33,61,11
2,1,18,1,5,1,1,33,124,11
2,1,19,1,5,1,1,33,75,11
2,1,13,1,0,0,1,33,4,9
2,1,15,1,4,0,1,33,75,11
2,1,20,1,4,0,1,33,90,11
2,1,19,1,1,0,1,33,101,11
2,1,9,1,3,0,1,33,14,11
3,2,10,1,3,0,1,33,75,9
3,2,20,1,1,0,1,33,90,11
3,2,8,1,3,0,1,33,20,11
3,2,11,1,4,0,1,33,75,9
3,2,17,1,5,1,1,33,75,11
3,2,7,1,0,0,1,33,75,11
3,2,11,1,0,0,1,33,75,11
3,2,19,1,1,0,1,33,75,11
3,2,20,1,1,0,1,33,124,11
3,2,13,1,3,0,1,33,103,11
3,2,18,1,3,0,1,33,101,11
3,2,19,1,3,0,1,33,124,11
3,2,22,0,4,0,1,33,75,11
3,2,17,1,2,0,1,33,101,11
3,2,17,1,2,0,1,33,101,11
4,2,14,1,5,1,2,33,54,11
4,2,9,1,6,1,2,33,90,11
4,2,13,1,2,0,2,33,20,11
4,2,23,0,4,0,2,33,101,11
4,2,18,1,6,1,2,33,109,11
4,2,14,1,0,0,2,33,90,11
4,2,20,1,0,0,2,33,75,11
4,2,17,1,1,0,2,33,90,11
4,2,19,1,1,0,2,33,90,11
4,2,21,0,2,0,2,33,90,11
4,2,22,0,2,0,2,33,90,11
4,2,15,1,3,0,2,33,90,11
4,2,17,1,3,0,2,33,90,11
4,2,12,1,5,1,2,33,90,11
4,2,13,1,6,1,2,33,75,11
4,2,20,1,6,1,2,33,90,11
4,2,11,1,1,0,2,33,2,11
5,2,15,1,2,0,2,33,90,11
5,2,22,0,1,0,2,33,13,9
5,2,19,1,4,0,2,33,90,11
5,2,16,1,1,0,2,33,88,11
5,2,7,1,2,0,2,33,72,11
5,2,19,1,4,0,2,33,90,11
5,2,12,1,1,0,2,33,101,9
5,2,15,1,4,0,2,33,20,9
5,2,12,1,5,1,2,33,103,8
5,2,21,0,6,1,2,33,90,11
5,2,22,0,6,1,2,33,90,11
6,3,21,0,2,0,2,33,90,11
6,3,17,1,3,0,2,33,18,11
6,3,2,0,4,0,2,33,101,11
6,3,18,1,5,1,2,33,109,11
6,3,21,0,5,1,2,33,101,11
6,3,15,1,3,0,2,33,76,11
6,3,12,1,5,1,2,33,90,11
6,3,14,1,5,1,2,33,90,11
6,3,19,1,5,1,2,33,75,11
6,3,2,0,6,1,2,33,90,11
6,3,10,1,1,0,2,33,90,11
6,3,13,1,3,0,2,33,101,11
6,3,21,0,1,0,2,33,78,11
7,3,16,1,6,1,3,33,124,9
7,3,10,1,2,0,3,33,90,11
7,3,11,1,3,0,3,33,90,11
7,3,20,1,0,0,3,33,88,11
7,3,4,0,1,0,3,33,109,11
7,3,11,1,2,0,3,33,56,11
7,3,20,1,5,1,3,33,111,11
7,3,21,0,5,1,3,33,101,11
7,3,17,1,3,0,3,33,10,11
7,3,19,1,5,1,3,33,10,11
8,3,18,1,0,0,3,33,10,11
8,3,19,1,1,0,3,33,75,11
8,3,20,1,2,0,3,33,4,11
8,3,19,1,2,0,3,33,90,9
8,3,20,1,3,0,3,33,121,11
8,3,10,1,5,1,3,33,90,11
8,3,8,1,1,0,3,33,90,11
8,3,20,1,1,0,3,33,101,11
8,3,20,1,2,0,3,33,109,11
8,3,21,0,5,1,3,33,75,11
8,3,23,0,6,1,3,33,101,11
9,4,8,1,5,1,3,33,75,11
9,4,21,0,5,1,3,33,90,11
9,4,13,1,2,0,3,33,101,11
9,4,18,1,3,0,3,33,90,11
9,4,22,0,4,0,3,33,106,11
9,4,12,1,0,0,3,33,103,9
9,4,18,1,1,0,3,33,75,11
10,4,19,1,2,0,4,33,101,11
10,4,20,1,3,0,4,33,20,11
10,4,15,1,4,0,4,33,13,11
11,4,18,1,2,0,4,33,101,11
11,4,19,1,5,1,4,33,101,11
11,4,17,1,4,0,4,33,38,11
11,4,13,1,3,0,4,33,90,11
12,1,17,1,1,0,4,33,124,11
12,1,13,1,5,1,4,33,75,11
12,1,2,0,0,0,4,33,111,8
12,1,16,1,0,0,4,33,90,11
12,1,13,1,1,0,4,33,75,11
12,1,17,1,1,0,4,33,110,9
12,1,12,1,2,0,4,33,47,11
12,1,16,1,5,1,4,33,64,11
12,1,9,1,2,0,4,33,109,11
12,1,13,1,2,0,4,33,20,11
1,1,13,1,4,0,1,33,23,11
1,1,17,1,5,1,1,33,82,11
1,1,3,0,6,1,1,33,124,11
2,1,10,1,2,0,1,33,14,9
2,1,16,1,4,0,1,33,90,11
3,2,8,1,1,0,1,33,17,11
3,2,18,1,6,1,1,33,101,11
3,2,15,1,3,0,1,33,124,11
4,2,14,1,4,0,2,33,109,11
4,2,10,1,0,0,2,33,4,9
4,2,16,1,4,0,2,33,90,11
4,2,17,1,4,0,2,33,90,11
5,2,14,1,3,0,2,33,90,11
5,2,22,0,5,1,2,33,101,11
5,2,6,0,6,1,2,33,90,11
5,2,20,1,1,0,2,33,90,11
6,3,15,1,2,0,2,33,101,11
7,3,12,1,6,1,3,33,101,11
7,3,17,1,2,0,3,33,101,11
7,3,18,1,3,0,3,33,101,11
7,3,15,1,5,1,3,33,101,11
8,3,11,1,4,0,3,33,4,11
8,3,19,1,0,0,3,33,75,11
9,4,9,1,6,1,3,33,75,9
9,4,17,1,0,0,3,33,57,11
10,4,23,0,1,0,4,33,90,11
12,1,3,0,5,1,4,33,20,8
12,1,23,0,0,0,4,33,90,11
12,1,16,1,1,0,4,33,13,9
4,2,10,1,2,0,2,33,20,11
8,3,9,1,0,0,3,33,20,9
1,1,18,1,1,0,1,33,20,11
1,1,18,1,1,0,1,33,75,11
2,1,11,1,0,0,1,33,14,11
3,2,20,1,2,0,1,33,38,11
3,2,10,1,5,1,1,33,124,11
3,2,16,1,5,1,1,33,75,11
3,2,15,1,1,0,1,33,75,11
3,2,13,1,2,0,1,33,75,9
3,2,10,1,3,0,1,33,90,11
3,2,18,1,6,1,1,33,75,11
3,2,21,0,0,0,1,33,90,11
3,2,15,1,0,0,1,33,75,11
3,2,0,0,2,0,1,33,90,11
3,2,17,1,2,0,1,33,124,11
4,2,3,0,1,0,2,33,75,11
4,2,20,1,2,0,2,33,90,11
5,2,18,1,6,1,2,33,90,11
7,3,21,0,5,1,3,33,101,11
7,3,19,1,6,1,3,33,90,11
8,3,10,1,5,1,3,33,75,11
9,4,23,0,6,1,3,33,20,11
9,4,21,0,1,0,3,33,90,11
9,4,16,1,2,0,3,33,90,11
11,4,15,1,4,0,4,33,109,11
12,1,7,1,1,0,4,33,20,11
12,1,14,1,1,0,4,33,38,11
1,1,12,1,6,1,1,33,101,11
1,1,21,0,6,1,1,33,96,11
1,1,14,1,0,0,1,33,96,11
1,1,10,1,1,0,1,33,38,8
1,1,17,1,0,0,1,33,124,11
2,1,23,0,4,0,1,33,101,11
2,1,8,1,1,0,1,33,96,11
2,1,20,1,3,0,1,33,38,11
3,2,1,0,1,0,1,33,124,11
3,2,1,0,1,0,1,33,124,11
3,2,0,0,5,1,1,33,75,9
3,2,4,0,5,1,1,33,124,11
3,2,14,1,3,0,1,33,85,11
3,2,19,1,6,1,1,33,90,11
4,2,21,0,4,0,2,33,4,11
4,2,21,0,0,0,2,33,88,11
4,2,23,0,5,1,2,33,124,11
5,2,16,1,5,1,2,33,38,9
5,2,14,1,1,0,2,33,90,11
6,3,19,1,4,0,2,33,90,11
6,3,23,0,5,1,2,33,90,11
6,3,17,1,4,0,2,33,67,11
7,3,12,1,2,0,3,33,88,11
7,3,21,0,4,0,3,33,90,11
7,3,3,0,5,1,3,33,101,11
7,3,12,1,6,1,3,33,25,11
7,3,15,1,6,1,3,33,121,11
8,3,0,0,4,0,3,33,101,11
8,3,23,0,4,0,3,33,124,11
8,3,3,0,6,1,3,33,90,9
8,3,4,0,6,1,3,33,90,11
8,3,4,0,2,0,3,33,101,11
8,3,21,0,1,0,3,33,101,11
9,4,15,1,2,0,3,33,56,11
9,4,2,0,3,0,3,33,101,11
9,4,1,0,2,0,3,33,101,11
11,4,10,1,3,0,4,33,20,11
1,1,6,0,0,0,1,51,88,11
1,1,14,1,2,0,1,51,75,11
1,1,13,1,5,1,1,51,88,11
1,1,15,1,5,1,1,51,88,11
1,1,19,1,5,1,1,51,20,11
1,1,17,1,0,0,1,51,4,11
1,1,21,0,3,0,1,51,75,11
1,1,8,1,4,0,1,51,88,11
1,1,10,1,6,1,1,51,88,11
1,1,9,1,0,0,1,51,88,11
1,1,10,1,1,0,1,51,88,11
1,1,16,1,1,0,1,51,88,11
1,1,0,0,5,1,1,51,75,11
1,1,12,1,5,1,1,51,88,11
2,1,14,1,5,1,1,51,88,11
2,1,19,1,6,1,1,51,75,11
2,1,15,1,2,0,1,51,84,11
2,1,0,0,0,0,1,51,88,11
3,2,21,0,1,0,1,51,75,11
3,2,15,1,5,1,1,51,88,11
3,2,15,1,6,1,1,51,88,11
3,2,23,0,0,0,1,51,38,11
3,2,18,1,1,0,1,51,75,11
3,2,15,1,2,0,1,51,88,11
3,2,21,0,2,0,1,51,88,11
3,2,19,1,4,0,1,51,88,11
3,2,20,1,4,0,1,51,75,11
3,2,21,0,4,0,1,51,88,11
3,2,19,1,3,0,1,51,38,11
3,2,7,1,4,0,1,51,88,11
3,2,11,1,4,0,1,51,121,11
3,2,14,1,0,0,1,51,64,11
4,2,10,1,5,1,2,51,88,11
4,2,12,1,3,0,2,51,88,11
4,2,14,1,3,0,2,51,88,11
4,2,11,1,5,1,2,51,88,11
4,2,20,1,0,0,2,51,27,11
4,2,14,1,1,0,2,51,88,11
4,2,16,1,1,0,2,51,88,11
4,2,21,0,4,0,2,51,88,11
4,2,17,1,0,0,2,51,88,11
4,2,11,1,2,0,2,51,88,11
4,2,0,0,6,1,2,51,88,11
4,2,14,1,6,1,2,51,75,11
4,2,20,1,6,1,2,51,88,11
5,2,8,1,4,0,2,51,72,11
5,2,23,0,0,0,2,51,27,11
5,2,14,1,4,0,2,51,27,11
5,2,19,1,0,0,2,51,64,11
5,2,12,1,5,1,2,51,27,11
6,3,20,1,6,1,2,51,27,11
6,3,9,1,5,1,2,51,75,11
6,3,10,1,3,0,2,51,75,11
6,3,23,0,4,0,2,51,27,11
6,3,11,1,0,0,2,51,75,11
6,3,11,1,1,0,2,51,27,11
6,3,7,1,2,0,2,51,38,11
7,3,13,1,0,0,3,51,38,11
7,3,1,0,1,0,3,51,27,11
7,3,23,0,2,0,3,51,109,11
7,3,7,1,3,0,3,51,88,11
7,3,14,1,0,0,3,51,27,11
7,3,21,0,1,0,3,51,64,11
7,3,20,1,5,1,3,51,27,11
7,3,17,1,6,1,3,51,88,11
7,3,12,1,1,0,3,51,88,11
8,3,15,1,1,0,3,51,64,11
8,3,10,1,3,0,3,51,27,11
8,3,13,1,5,1,3,51,72,11
8,3,20,1,5,1,3,51,75,11
8,3,11,1,2,0,3,51,75,11
8,3,15,1,4,0,3,51,88,11
8,3,13,1,2,0,3,51,72,11
9,4,12,1,1,0,3,51,20,11
9,4,14,1,0,0,3,51,75,11
9,4,14,1,6,1,3,51,75,11
9,4,13,1,4,0,3,51,27,11
10,4,15,1,0,0,4,51,75,11
10,4,0,0,0,0,4,51,20,11
10,4,11,1,1,0,4,51,27,11
10,4,20,1,3,0,4,51,75,11
11,4,8,1,1,0,4,51,27,11
11,4,10,1,3,0,4,51,88,11
11,4,8,1,4,0,4,51,27,11
11,4,16,1,1,0,4,51,75,11
11,4,17,1,6,1,4,51,75,11
11,4,8,1,2,0,4,51,72,11
12,1,2,0,6,1,4,51,88,11
12,1,18,1,1,0,4,51,88,11
12,1,19,1,2,0,4,51,27,11
12,1,20,1,4,0,4,51,88,11
12,1,19,1,0,0,4,51,14,11
12,1,13,1,5,1,4,51,75,11
12,1,16,1,0,0,4,51,27,11
12,1,7,1,3,0,4,51,27,11
2,1,9,1,5,1,1,51,27,11
3,2,13,1,4,0,1,51,75,11
3,2,20,1,6,1,1,51,27,11
3,2,9,1,0,0,1,51,88,11
4,2,1,0,6,1,2,51,88,11
4,2,0,0,3,0,2,51,75,11
5,2,12,1,5,1,2,51,88,11
6,3,9,1,3,0,2,51,88,11
11,4,10,1,3,0,4,51,27,11
12,1,8,1,3,0,4,51,27,11
12,1,14,1,4,0,4,51,27,11
12,1,13,1,3,0,4,51,27,11
5,2,11,1,6,1,2,51,27,11
5,2,19,1,6,1,2,51,27,11
6,3,12,1,5,1,2,51,88,11
8,3,12,1,6,1,3,51,109,11
9,4,8,1,0,0,3,51,27,11
12,1,19,1,5,1,4,51,75,11
1,1,11,1,1,0,1,43,20,11
1,1,16,1,4,0,1,43,124,11
1,1,17,1,5,1,1,43,101,11
1,1,8,1,3,0,1,43,88,11
2,1,17,1,6,1,1,43,124,11
2,1,20,1,2,0,1,43,124,11
3,2,14,1,0,0,1,43,121,11
3,2,17,1,5,1,1,43,38,11
3,2,1,0,3,0,1,43,38,11
4,2,11,1,1,0,2,43,90,11
4,2,16,1,6,1,2,43,90,11
5,2,1,0,4,0,2,43,124,11
5,2,7,1,3,0,2,43,62,11
6,3,20,1,3,0,2,43,20,11
6,3,13,1,0,0,2,43,1,11
6,3,0,0,1,0,2,43,101,11
7,3,10,1,5,1,3,43,38,11
7,3,12,1,1,0,3,43,90,11
7,3,13,1,2,0,3,43,27,11
8,3,21,0,0,0,3,43,76,11
9,4,16,1,1,0,3,43,116,11
12,1,2,0,0,0,4,43,89,11
4,2,13,1,2,0,2,43,90,11
4,2,13,1,2,0,2,43,90,11
4,2,21,0,3,0,2,43,90,11
4,2,15,1,5,1,2,43,90,11
5,2,22,0,6,1,2,43,124,11
7,3,14,1,3,0,3,43,90,11
11,4,17,1,5,1,4,43,1,11
1,1,10,1,0,0,1,43,124,11
1,1,11,1,2,0,1,43,124,11
3,2,12,1,6,1,1,43,90,11
3,2,6,0,1,0,1,43,124,11
4,2,9,1,1,0,2,43,75,8
4,2,22,0,4,0,2,43,101,11
4,2,19,1,6,1,2,43,14,8
6,3,21,0,5,1,2,43,122,11
6,3,13,1,1,0,2,43,90,11
6,3,9,1,0,0,2,43,90,11
7,3,0,0,0,0,3,43,90,11
8,3,22,0,0,0,3,43,90,11
8,3,16,1,4,0,3,43,101,11
10,4,12,1,3,0,4,43,49,9
10,4,5,0,6,1,4,43,38,8
12,1,13,1,5,1,4,43,38,11
5,2,16,1,0,0,2,43,109,11
8,3,2,0,0,0,3,43,109,11
9,4,13,1,1,0,3,43,4,11
12,1,21,0,4,0,4,43,1,11
1,1,21,0,6,1,1,17,124,11
1,1,8,1,2,0,1,17,75,11
2,1,11,1,3,0,1,17,38,11
2,1,18,1,5,1,1,17,124,11
2,1,16,1,2,0,1,17,75,11
2,1,10,1,6,1,1,17,75,11
2,1,1,0,3,0,1,17,93,11
2,1,19,1,3,0,1,17,75,11
3,2,20,1,1,0,1,17,124,11
3,2,14,1,6,1,1,17,90,11
3,2,10,1,3,0,1,17,75,11
3,2,20,1,4,0,1,17,75,9
3,2,18,1,6,1,1,17,38,11
3,2,20,1,0,0,1,17,101,11
3,2,13,1,3,0,1,17,101,11
4,2,13,1,3,0,2,17,75,11
4,2,17,1,5,1,2,17,4,11
5,2,19,1,6,1,2,17,108,11
5,2,12,1,0,0,2,17,90,11
5,2,13,1,5,1,2,17,124,11
6,3,12,1,3,0,2,17,4,11
6,3,14,1,5,1,2,17,90,11
6,3,11,1,3,0,2,17,47,11
6,3,22,0,5,1,2,17,90,11
6,3,8,1,0,0,2,17,75,11
7,3,11,1,6,1,3,17,108,11
7,3,18,1,6,1,3,17,1,11
7,3,15,1,1,0,3,17,4,11
7,3,11,1,0,0,3,17,90,11
7,3,15,1,0,0,3,17,101,11
7,3,13,1,1,0,3,17,101,11
7,3,8,1,2,0,3,17,75,11
7,3,15,1,0,0,3,17,101,11
7,3,16,1,0,0,3,17,101,11
7,3,16,1,2,0,3,17,101,11
7,3,18,1,5,1,3,17,63,11
8,3,10,1,2,0,3,17,1,11
8,3,12,1,2,0,3,17,1,11
8,3,15,1,3,0,3,17,1,11
8,3,15,1,4,0,3,17,101,11
9,4,14,1,1,0,3,17,101,11
9,4,10,1,2,0,3,17,101,11
9,4,17,1,3,0,3,17,101,11
9,4,10,1,3,0,3,17,75,11
10,4,22,0,6,1,4,17,101,11
10,4,15,1,1,0,4,17,75,11
10,4,5,0,3,0,4,17,108,11
10,4,20,1,3,0,4,17,101,11
10,4,16,1,0,0,4,17,101,11
11,4,11,1,1,0,4,17,51,11
11,4,8,1,3,0,4,17,101,11
11,4,21,0,2,0,4,17,90,11
11,4,15,1,4,0,4,17,90,11
11,4,18,1,4,0,4,17,101,11
11,4,6,0,5,1,4,17,75,11
11,4,12,1,4,0,4,17,121,11
11,4,23,0,4,0,4,17,101,11
11,4,18,1,6,1,4,17,90,11
12,1,19,1,5,1,4,17,75,11
1,1,13,1,5,1,1,17,101,11
1,1,22,0,5,1,1,17,88,11
1,1,22,0,2,0,1,17,75,9
2,1,20,1,1,0,1,17,109,11
2,1,22,0,5,1,1,17,90,11
2,1,7,1,6,1,1,17,90,11
2,1,18,1,6,1,1,17,75,11
2,1,16,1,0,0,1,17,75,11
3,2,11,1,2,0,1,17,84,11
3,2,12,1,3,0,1,17,75,11
3,2,11,1,5,1,1,17,90,9
3,2,4,0,6,1,1,17,88,11
3,2,23,0,6,1,1,17,75,11
3,2,19,1,0,0,1,17,90,9
3,2,9,1,1,0,1,17,90,11
3,2,10,1,2,0,1,17,90,11
3,2,21,0,2,0,1,17,90,11
4,2,4,0,4,0,2,17,90,11
4,2,23,0,5,1,2,17,90,11
4,2,20,1,6,1,2,17,90,11
4,2,19,1,2,0,2,17,84,11
4,2,10,1,1,0,2,17,4,11
4,2,11,1,5,1,2,17,4,11
4,2,17,1,5,1,2,17,90,11
4,2,21,0,1,0,2,17,75,11
4,2,14,1,2,0,2,17,4,11
4,2,16,1,2,0,2,17,90,11
4,2,21,0,4,0,2,17,90,9
4,2,11,1,4,0,2,17,75,11
5,2,16,1,4,0,2,17,90,11
5,2,3,0,5,1,2,17,88,11
5,2,20,1,5,1,2,17,90,11
5,2,2,0,0,0,2,17,20,11
5,2,23,0,0,0,2,17,88,11
5,2,7,1,3,0,2,17,20,11
6,3,4,0,0,0,2,17,84,11
6,3,17,1,2,0,2,17,106,9
6,3,18,1,3,0,2,17,90,11
7,3,16,1,1,0,3,17,101,11
7,3,17,1,2,0,3,17,88,11
7,3,2,0,5,1,3,17,89,11
7,3,16,1,0,0,3,17,67,11
7,3,1,0,6,1,3,17,75,9
8,3,15,1,5,1,3,17,4,11
8,3,19,1,4,0,3,17,90,11
8,3,9,1,2,0,3,17,75,11
9,4,13,1,4,0,3,17,90,11
9,4,9,1,1,0,3,17,109,11
9,4,10,1,4,0,3,17,109,11
9,4,23,0,4,0,3,17,88,11
9,4,11,1,6,1,3,17,90,11
9,4,14,1,6,1,3,17,64,11
10,4,13,1,0,0,4,17,90,11
10,4,1,0,1,0,4,17,41,11
10,4,21,0,5,1,4,17,109,11
10,4,15,1,3,0,4,17,20,11
10,4,8,1,5,1,4,17,90,11
10,4,20,1,2,0,4,17,4,11
10,4,16,1,6,1,4,17,90,11
11,4,20,1,2,0,4,17,4,11
11,4,18,1,1,0,4,17,20,9
11,4,10,1,2,0,4,17,90,11
11,4,10,1,4,0,4,17,90,11
11,4,15,1,1,0,4,17,38,11
11,4,14,1,4,0,4,17,4,11
12,1,20,1,2,0,4,17,75,11
12,1,8,1,3,0,4,17,90,11
12,1,13,1,5,1,4,17,90,11
12,1,7,1,0,0,4,17,90,11
12,1,19,1,0,0,4,17,4,11
12,1,6,0,1,0,4,17,4,11
12,1,0,0,3,0,4,17,4,11
2,1,18,1,5,1,1,17,27,11
2,1,22,0,2,0,1,17,20,11
2,1,23,0,2,0,1,17,20,11
3,2,23,0,5,1,1,17,90,11
3,2,21,0,0,0,1,17,13,11
3,2,13,1,1,0,1,17,88,11
3,2,23,0,3,0,1,17,88,11
4,2,10,1,3,0,2,17,101,11
4,2,11,1,5,1,2,17,13,11
4,2,15,1,5,1,2,17,88,11
4,2,22,0,5,1,2,17,88,11
4,2,22,0,0,0,2,17,124,11
4,2,23,0,3,0,2,17,88,8
4,2,21,0,2,0,2,17,101,11
5,2,20,1,5,1,2,17,88,11
6,3,11,1,0,0,2,17,27,8
6,3,10,1,0,0,2,17,90,11
6,3,6,0,3,0,2,17,109,11
7,3,0,0,6,1,3,17,75,11
7,3,18,1,6,1,3,17,90,11
7,3,11,1,5,1,3,17,101,11
7,3,13,1,1,0,3,17,101,11
8,3,23,0,6,1,3,17,90,11
8,3,23,0,2,0,3,17,101,11
8,3,11,1,5,1,3,17,90,11
8,3,20,1,3,0,3,17,23,11
8,3,20,1,5,1,3,17,90,11
9,4,21,0,6,1,3,17,108,8
9,4,11,1,4,0,3,17,20,11
9,4,23,0,1,0,3,17,101,11
9,4,23,0,4,0,3,17,72,11
9,4,11,1,1,0,3,17,75,11
10,4,22,0,6,1,4,17,14,8
10,4,8,1,0,0,4,17,90,11
10,4,19,1,1,0,4,17,109,11
10,4,10,1,2,0,4,17,90,11
10,4,11,1,2,0,4,17,90,11
10,4,18,1,5,1,4,17,90,11
10,4,10,1,3,0,4,17,75,8
10,4,15,1,5,1,4,17,11,11
11,4,14,1,3,0,4,17,101,11
11,4,19,1,4,0,4,17,124,11
11,4,8,1,4,0,4,17,101,11
11,4,17,1,4,0,4,17,90,11
11,4,15,1,3,0,4,17,101,11
11,4,15,1,6,1,4,17,101,11
11,4,17,1,6,1,4,17,101,11
12,1,18,1,0,0,4,17,101,11
3,2,10,1,0,0,1,17,88,11
3,2,12,1,0,0,1,17,38,8
4,2,10,1,2,0,2,17,101,11
4,2,12,1,2,0,2,17,101,11
5,2,2,0,3,0,2,17,101,11
9,4,19,1,3,0,3,17,1,11
11,4,13,1,5,1,4,17,124,11
11,4,0,0,6,1,4,17,124,11
11,4,1,0,6,1,4,17,124,11
5,2,20,1,6,1,2,17,90,11
5,2,23,0,1,0,2,17,4,11
6,3,19,1,6,1,2,17,90,11
6,3,14,1,2,0,2,17,88,11
1,1,19,1,3,0,1,17,64,11
1,1,19,1,6,1,1,17,90,11
1,1,4,0,2,0,1,17,88,11
1,1,8,1,5,1,1,17,88,11
1,1,13,1,6,1,1,17,4,11
1,1,11,1,0,0,1,17,63,11
1,1,22,0,0,0,1,17,64,11
1,1,11,1,6,1,1,17,96,11
1,1,21,0,4,0,1,17,64,11
1,1,22,0,5,1,1,17,64,11
1,1,17,1,6,1,1,17,90,11
2,1,3,0,2,0,1,17,88,11
2,1,17,1,2,0,1,17,90,11
2,1,4,0,3,0,1,17,88,11
2,1,16,1,3,0,1,17,38,11
2,1,14,1,4,0,1,17,124,11
2,1,11,1,5,1,1,17,64,11
2,1,14,1,0,0,1,17,20,11
2,1,12,1,3,0,1,17,88,11
2,1,22,0,3,0,1,17,88,11
2,1,12,1,2,0,1,17,64,11
2,1,22,0,2,0,1,17,101,11
2,1,23,0,4,0,1,17,88,11
3,2,19,1,1,0,1,17,64,11
3,2,19,1,3,0,1,17,106,11
3,2,12,1,6,1,1,17,49,11
3,2,14,1,1,0,1,17,49,11
3,2,18,1,3,0,1,17,64,11
3,2,9,1,4,0,1,17,20,9
3,2,23,0,6,1,1,17,101,11
3,2,2,0,2,0,1,17,20,9
3,2,3,0,2,0,1,17,38,11
3,2,17,1,2,0,1,17,49,11
3,2,18,1,2,0,1,17,124,11
3,2,19,1,2,0,1,17,64,11
3,2,19,1,5,1,1,17,75,11
3,2,21,0,5,1,1,17,1,11
3,2,23,0,0,0,1,17,75,11
3,2,9,1,1,0,1,17,75,11
3,2,20,1,1,0,1,17,64,11
3,2,20,1,0,0,1,17,90,11
3,2,10,1,2,0,1,17,90,11
4,2,11,1,4,0,2,17,75,11
4,2,16,1,5,1,2,17,124,11
4,2,17,1,5,1,2,17,88,11
4,2,22,0,5,1,2,17,14,11
4,2,9,1,6,1,2,17,90,11
4,2,19,1,6,1,2,17,90,11
4,2,21,0,6,1,2,17,88,11
4,2,20,1,0,0,2,17,88,11
4,2,20,1,1,0,2,17,88,11
4,2,17,1,2,0,2,17,90,11
4,2,15,1,1,0,2,17,90,11
4,2,8,1,2,0,2,17,90,11
4,2,20,1,2,0,2,17,1,11
4,2,13,1,3,0,2,17,88,11
4,2,1,0,0,0,2,17,88,11
4,2,4,0,0,0,2,17,9,11
4,2,2,0,1,0,2,17,90,11
4,2,21,0,1,0,2,17,90,11
4,2,23,0,5,1,2,17,88,11
4,2,0,0,6,1,2,17,88,11
4,2,14,1,6,1,2,17,64,11
5,2,10,1,3,0,2,17,64,11
5,2,1,0,4,0,2,17,101,11
5,2,4,0,3,0,2,17,124,11
5,2,17,1,6,1,2,17,101,11
5,2,1,0,0,0,2,17,124,11
5,2,20,1,1,0,2,17,101,11
5,2,17,1,4,0,2,17,106,11
5,2,11,1,6,1,2,17,101,11
5,2,13,1,6,1,2,17,101,11
6,3,3,0,2,0,2,17,88,11
6,3,6,0,2,0,2,17,88,11
6,3,11,1,3,0,2,17,75,11
6,3,0,0,6,1,2,17,124,11
6,3,1,0,6,1,2,17,1,11
6,3,2,0,6,1,2,17,88,11
6,3,2,0,6,1,2,17,124,11
6,3,0,0,0,0,2,17,101,11
6,3,22,0,4,0,2,17,63,11
6,3,12,1,6,1,2,17,124,11
6,3,20,1,6,1,2,17,101,11
6,3,20,1,6,1,2,17,38,11
6,3,1,0,5,1,2,17,38,11
6,3,13,1,5,1,2,17,88,11
6,3,13,1,6,1,2,17,90,11
6,3,11,1,0,0,2,17,75,11
6,3,22,0,0,0,2,17,90,11
6,3,15,1,1,0,2,17,45,8
6,3,21,0,1,0,2,17,90,9
6,3,14,1,5,1,2,17,88,11
6,3,22,0,1,0,2,17,88,11
6,3,13,1,2,0,2,17,38,11
6,3,20,1,3,0,2,17,90,11
7,3,11,1,5,1,3,17,27,11
7,3,16,1,2,0,3,17,121,11
7,3,14,1,3,0,3,17,88,11
7,3,17,1,0,0,3,17,88,11
7,3,11,1,1,0,3,17,121,11
7,3,12,1,3,0,3,17,88,11
7,3,14,1,5,1,3,17,34,11
7,3,22,0,5,1,3,17,81,11
7,3,11,1,6,1,3,17,88,11
7,3,17,1,6,1,3,17,121,11
7,3,18,1,2,0,3,17,90,11
7,3,18,1,2,0,3,17,124,11
7,3,19,1,5,1,3,17,75,11
7,3,20,1,6,1,3,17,88,11
7,3,16,1,0,0,3,17,88,11
7,3,20,1,0,0,3,17,90,11
7,3,23,0,1,0,3,17,88,11
7,3,3,0,2,0,3,17,88,11
7,3,10,1,2,0,3,17,101,11
7,3,16,1,2,0,3,17,90,11
7,3,20,1,2,0,3,17,88,11
8,3,17,1,5,1,3,17,121,11
8,3,10,1,4,0,3,17,124,11
8,3,0,0,5,1,3,17,38,11
8,3,16,1,5,1,3,17,124,11
8,3,21,0,6,1,3,17,124,11
8,3,11,1,0,0,3,17,1,11
8,3,19,1,1,0,3,17,1,11
8,3,19,1,4,0,3,17,90,11
8,3,20,1,6,1,3,17,1,11
8,3,11,1,0,0,3,17,64,11
8,3,13,1,0,0,3,17,90,11
8,3,0,0,1,0,3,17,38,11
8,3,12,1,3,0,3,17,20,11
8,3,11,1,0,0,3,17,1,11
8,3,5,0,1,0,3,17,88,11
9,4,22,0,0,0,3,17,1,11
9,4,22,0,1,0,3,17,1,11
9,4,14,1,3,0,3,17,1,11
9,4,22,0,5,1,3,17,1,11
9,4,13,1,6,1,3,17,64,11
9,4,15,1,6,1,3,17,1,11
9,4,12,1,0,0,3,17,1,11
9,4,16,1,5,1,3,17,38,11
9,4,0,0,6,1,3,17,1,11
9,4,11,1,6,1,3,17,124,11
9,4,15,1,1,0,3,17,38,11
9,4,21,0,1,0,3,17,38,11
9,4,12,1,2,0,3,17,88,11
9,4,21,0,2,0,3,17,124,11
9,4,3,0,3,0,3,17,124,11
9,4,14,1,4,0,3,17,124,11
9,4,15,1,6,1,3,17,1,11
9,4,9,1,1,0,3,17,1,11
9,4,14,1,1,0,3,17,1,11
9,4,10,1,3,0,3,17,1,11
10,4,2,0,5,1,4,17,88,11
10,4,8,1,6,1,4,17,121,11
10,4,22,0,6,1,4,17,124,11
10,4,14,1,6,1,4,17,124,11
10,4,12,1,4,0,4,17,1,11
10,4,17,1,4,0,4,17,1,11
10,4,22,0,6,1,4,17,1,11
10,4,11,1,1,0,4,17,38,11
10,4,10,1,2,0,4,17,1,11
10,4,12,1,2,0,4,17,1,11
10,4,18,1,3,0,4,17,90,11
10,4,11,1,6,1,4,17,124,11
10,4,23,0,6,1,4,17,1,11
10,4,10,1,0,0,4,17,15,11
10,4,10,1,1,0,4,17,1,11
10,4,2,0,4,0,4,17,90,11
10,4,18,1,5,1,4,17,23,11
11,4,10,1,1,0,4,17,20,11
11,4,13,1,3,0,4,17,52,11
11,4,19,1,3,0,4,17,90,11
11,4,18,1,4,0,4,17,90,11
11,4,0,0,5,1,4,17,90,11
11,4,14,1,6,1,4,17,64,11
11,4,14,1,6,1,4,17,90,11
11,4,19,1,6,1,4,17,64,11
11,4,14,1,0,0,4,17,88,11
11,4,17,1,0,0,4,17,4,11
11,4,20,1,0,0,4,17,38,11
11,4,10,1,4,0,4,17,90,11
11,4,2,0,1,0,4,17,88,11
11,4,10,1,1,0,4,17,88,8
11,4,19,1,2,0,4,17,88,11
12,1,13,1,3,0,4,17,4,11
12,1,20,1,5,1,4,17,88,11
12,1,9,1,0,0,4,17,64,11
12,1,21,0,2,0,4,17,20,8
12,1,16,1,4,0,4,17,64,11
12,1,3,0,4,0,4,17,88,11
12,1,0,0,5,1,4,17,88,11
12,1,3,0,1,0,4,17,28,11
12,1,13,1,4,0,4,17,88,11
12,1,17,1,4,0,4,17,90,11
12,1,18,1,4,0,4,17,90,11
12,1,4,0,5,1,4,17,88,11
12,1,4,0,6,1,4,17,90,11
12,1,18,1,6,1,4,17,38,11
12,1,16,1,0,0,4,17,14,11
12,1,19,1,1,0,4,17,90,11
12,1,21,0,3,0,4,17,90,11
12,1,11,1,5,1,4,17,64,11
1,1,19,1,3,0,1,17,124,11
1,1,20,1,6,1,1,17,90,11
1,1,19,1,2,0,1,17,75,11
1,1,19,1,3,0,1,17,124,11
1,1,16,1,4,0,1,17,101,11
1,1,2,0,2,0,1,17,124,11
1,1,22,0,2,0,1,17,124,11
2,1,17,1,3,0,1,17,20,11
2,1,23,0,0,0,1,17,101,11
3,2,18,1,3,0,1,17,72,11
3,2,9,1,4,0,1,17,90,11
3,2,19,1,4,0,1,17,90,11
3,2,23,0,6,1,1,17,124,11
3,2,21,0,4,0,1,17,90,11
3,2,21,0,1,0,1,17,20,11
4,2,19,1,5,1,2,17,90,11
4,2,20,1,6,1,2,17,90,11
4,2,10,1,6,1,2,17,124,11
4,2,11,1,6,1,2,17,90,11
4,2,21,0,6,1,2,17,20,11
4,2,22,0,1,0,2,17,90,11
4,2,16,1,2,0,2,17,124,11
4,2,20,1,0,0,2,17,90,11
4,2,15,1,1,0,2,17,90,11
4,2,20,1,5,1,2,17,101,11
4,2,23,0,0,0,2,17,90,11
4,2,23,0,4,0,2,17,109,11
5,2,12,1,6,1,2,17,90,11
5,2,8,1,5,1,2,17,90,11
5,2,17,1,5,1,2,17,23,8
5,2,22,0,2,0,2,17,90,11
5,2,21,0,4,0,2,17,90,11
5,2,13,1,1,0,2,17,101,11
5,2,13,1,4,0,2,17,90,11
6,3,20,1,2,0,2,17,90,11
6,3,21,0,5,1,2,17,90,11
6,3,14,1,3,0,2,17,90,11
6,3,18,1,6,1,2,17,90,11
6,3,8,1,1,0,2,17,90,11
7,3,23,0,0,0,3,17,101,11
7,3,21,0,6,1,3,17,101,11
7,3,9,1,0,0,3,17,124,11
7,3,19,1,1,0,3,17,90,11
7,3,15,1,3,0,3,17,124,11
7,3,22,0,3,0,3,17,90,11
7,3,0,0,5,1,3,17,101,11
7,3,10,1,2,0,3,17,101,11
7,3,11,1,1,0,3,17,90,11
7,3,8,1,6,1,3,17,20,11
8,3,20,1,4,0,3,17,90,11
8,3,21,0,6,1,3,17,90,11
8,3,11,1,0,0,3,17,90,11
8,3,22,0,1,0,3,17,109,11
8,3,17,1,5,1,3,17,90,11
8,3,10,1,4,0,3,17,90,11
8,3,20,1,1,0,3,17,90,11
9,4,0,0,5,1,3,17,90,11
9,4,14,1,4,0,3,17,38,11
9,4,15,1,1,0,3,17,90,11
9,4,19,1,6,1,3,17,90,11
9,4,20,1,6,1,3,17,90,11
9,4,21,0,3,0,3,17,101,11
10,4,14,1,0,0,4,17,90,11
10,4,0,0,1,0,4,17,90,11
11,4,13,1,1,0,4,17,90,11
11,4,19,1,5,1,4,17,124,11
11,4,16,1,0,0,4,17,64,11
12,1,20,1,4,0,4,17,90,11
12,1,18,1,6,1,4,17,124,11
12,1,18,1,0,0,4,17,90,11
12,1,7,1,2,0,4,17,20,11
5,2,11,1,6,1,2,17,5,11
6,3,10,1,1,0,2,17,5,11
1,1,19,1,1,0,1,50,124,11
1,1,12,1,1,0,1,50,90,11
2,1,17,1,0,0,1,50,90,11
2,1,14,1,4,0,1,50,124,11
3,2,7,1,4,0,1,50,20,11
3,2,18,1,4,0,1,50,109,11
3,2,6,0,0,0,1,50,124,11
3,2,17,1,1,0,1,50,101,11
3,2,15,1,2,0,1,50,4,11
4,2,0,0,1,0,2,50,124,11
4,2,17,1,5,1,2,50,124,11
4,2,13,1,3,0,2,50,4,11
4,2,13,1,3,0,2,50,4,11
4,2,12,1,6,1,2,50,90,11
4,2,22,0,6,1,2,50,109,11
4,2,15,1,4,0,2,50,101,11
4,2,16,1,0,0,2,50,90,11
5,2,18,1,0,0,2,50,121,11
5,2,4,0,2,0,2,50,30,8
5,2,21,0,4,0,2,50,90,11
5,2,0,0,6,1,2,50,124,11
6,3,4,0,5,1,2,50,84,8
7,3,16,1,1,0,3,50,101,11
7,3,20,1,5,1,3,50,124,11
7,3,14,1,5,1,3,50,124,11
8,3,17,1,2,0,3,50,90,11
8,3,19,1,6,1,3,50,62,9
9,4,12,1,6,1,3,50,20,11
9,4,1,0,5,1,3,50,20,11
10,4,18,1,0,0,4,50,90,11
10,4,18,1,3,0,4,50,20,9
10,4,11,1,4,0,4,50,101,11
11,4,20,1,0,0,4,50,101,11
11,4,16,1,3,0,4,50,124,11
11,4,10,1,1,0,4,50,101,11
12,1,14,1,5,1,4,50,90,11
12,1,21,0,5,1,4,50,90,11
12,1,18,1,6,1,4,50,75,11
12,1,19,1,4,0,4,50,66,11
12,1,14,1,0,0,4,50,124,11
12,1,6,0,2,0,4,50,124,11
12,1,17,1,3,0,4,50,88,11
3,2,19,1,6,1,1,50,101,11
4,2,1,0,6,1,2,50,90,11
4,2,10,1,2,0,2,50,101,11
10,4,16,1,3,0,4,50,75,11
12,1,15,1,0,0,4,50,75,9
1,1,18,1,1,0,1,50,88,11
1,1,3,0,4,0,1,50,20,11
1,1,16,1,5,1,1,50,64,11
1,1,2,0,1,0,1,50,20,11
1,1,18,1,3,0,1,50,20,11
1,1,20,1,0,0,1,50,13,9
1,1,21,0,2,0,1,50,96,11
1,1,21,0,2,0,1,50,64,11
1,1,18,1,3,0,1,50,75,9
1,1,12,1,1,0,1,50,9,11
1,1,16,1,2,0,1,50,55,9
1,1,12,1,4,0,1,50,101,11
2,1,0,0,3,0,1,50,75,11
2,1,15,1,3,0,1,50,75,11
2,1,6,0,4,0,1,50,75,9
2,1,5,0,5,1,1,50,20,11
2,1,14,1,5,1,1,50,88,11
2,1,13,1,1,0,1,50,72,11
2,1,17,1,1,0,1,50,88,11
2,1,9,1,3,0,1,50,94,11
2,1,10,1,5,1,1,50,13,11
2,1,15,1,5,1,1,50,90,11
2,1,8,1,4,0,1,50,101,11
2,1,9,1,5,1,1,50,75,11
3,2,21,0,5,1,1,50,90,11
3,2,19,1,6,1,1,50,38,11
3,2,3,0,0,0,1,50,90,11
3,2,19,1,3,0,1,50,20,11
3,2,21,0,4,0,1,50,101,11
3,2,9,1,5,1,1,50,101,11
3,2,16,1,6,1,1,50,75,11
3,2,10,1,0,0,1,50,75,11
3,2,21,0,0,0,1,50,38,11
3,2,11,1,3,0,1,50,90,11
3,2,13,1,3,0,1,50,90,11
3,2,14,1,6,1,1,50,75,11
3,2,18,1,6,1,1,50,90,11
3,2,16,1,0,0,1,50,90,11
3,2,22,0,3,0,1,50,90,11
3,2,2,0,4,0,1,50,124,11
3,2,16,1,4,0,1,50,88,11
3,2,22,0,5,1,1,50,88,11
3,2,17,1,0,0,1,50,90,11
3,2,8,1,2,0,1,50,72,9
4,2,18,1,6,1,2,50,90,11
4,2,8,1,1,0,2,50,88,11
4,2,12,1,2,0,2,50,38,11
4,2,21,0,2,0,2,50,20,11
4,2,20,1,3,0,2,50,27,11
4,2,0,0,4,0,2,50,90,11
4,2,10,1,5,1,2,50,90,11
4,2,18,1,3,0,2,50,90,11
4,2,11,1,6,1,2,50,101,11
4,2,19,1,1,0,2,50,90,11
4,2,6,0,4,0,2,50,90,11
4,2,3,0,5,1,2,50,101,11
4,2,3,0,5,1,2,50,96,11
4,2,3,0,5,1,2,50,101,11
4,2,11,1,5,1,2,50,90,11
4,2,14,1,5,1,2,50,90,11
4,2,12,1,2,0,2,50,90,11
4,2,7,1,4,0,2,50,90,11
4,2,10,1,4,0,2,50,90,11
5,2,3,0,2,0,2,50,75,9
5,2,1,0,6,1,2,50,101,11
5,2,15,1,5,1,2,50,38,11
5,2,8,1,6,1,2,50,90,11
5,2,20,1,0,0,2,50,55,11
5,2,0,0,6,1,2,50,101,11
5,2,14,1,6,1,2,50,75,11
6,3,10,1,4,0,2,50,101,11
6,3,2,0,0,0,2,50,64,11
6,3,14,1,0,0,2,50,75,11
6,3,13,1,1,0,2,50,90,11
6,3,0,0,0,0,2,50,20,11
6,3,12,1,3,0,2,50,90,11
6,3,15,1,2,0,2,50,96,11
7,3,8,1,0,0,3,50,20,11
7,3,21,0,4,0,3,50,64,11
7,3,11,1,5,1,3,50,72,11
7,3,4,0,6,1,3,50,72,11
7,3,17,1,3,0,3,50,90,11
7,3,21,0,4,0,3,50,101,11
7,3,12,1,5,1,3,50,90,11
7,3,13,1,6,1,3,50,90,11
7,3,19,1,0,0,3,50,90,11
7,3,12,1,1,0,3,50,20,11
7,3,5,0,2,0,3,50,90,11
7,3,21,0,2,0,3,50,90,11
7,3,15,1,0,0,3,50,64,9
7,3,16,1,0,0,3,50,64,11
7,3,19,1,2,0,3,50,72,11
7,3,20,1,4,0,3,50,64,11
7,3,22,0,5,1,3,50,90,11
7,3,10,1,6,1,3,50,15,11
8,3,18,1,1,0,3,50,56,11
8,3,21,0,1,0,3,50,61,11
8,3,7,1,4,0,3,50,27,11
8,3,23,0,4,0,3,50,90,11
8,3,7,1,5,1,3,50,78,11
8,3,9,1,6,1,3,50,47,11
8,3,12,1,2,0,3,50,90,11
8,3,11,1,0,0,3,50,90,11
8,3,19,1,0,0,3,50,90,11
9,4,13,1,4,0,3,50,75,9
9,4,8,1,1,0,3,50,75,11
9,4,1,0,3,0,3,50,101,9
9,4,17,1,5,1,3,50,20,11
9,4,21,0,5,1,3,50,90,11
10,4,11,1,3,0,4,50,90,11
10,4,10,1,4,0,4,50,84,11
10,4,10,1,5,1,4,50,64,11
10,4,4,0,4,0,4,50,20,11
11,4,22,0,3,0,4,50,90,11
11,4,12,1,1,0,4,50,20,11
11,4,20,1,1,0,4,50,101,11
11,4,23,0,6,1,4,50,90,11
11,4,22,0,1,0,4,50,109,11
11,4,13,1,3,0,4,50,64,11
11,4,21,0,2,0,4,50,47,9
12,1,6,0,4,0,4,50,75,11
12,1,20,1,5,1,4,50,88,11
12,1,6,0,6,1,4,50,90,11
12,1,6,0,6,1,4,50,90,11
12,1,10,1,3,0,4,50,90,11
12,1,18,1,6,1,4,50,27,11
12,1,21,0,3,0,4,50,64,11
12,1,1,0,4,0,4,50,20,11
12,1,19,1,5,1,4,50,96,11
12,1,9,1,6,1,4,50,101,11
12,1,17,1,6,1,4,50,75,11
12,1,1,0,2,0,4,50,56,9
12,1,21,0,5,1,4,50,101,11
1,1,9,1,4,0,1,50,100,11
1,1,19,1,2,0,1,50,100,11
3,2,20,1,2,0,1,50,75,11
4,2,15,1,2,0,2,50,75,11
4,2,4,0,4,0,2,50,124,9
4,2,6,0,4,0,2,50,75,9
4,2,11,1,5,1,2,50,88,9
5,2,17,1,2,0,2,50,101,11
5,2,22,0,0,0,2,50,20,11
6,3,19,1,2,0,2,50,27,11
6,3,18,1,6,1,2,50,101,11
6,3,3,0,4,0,2,50,90,11
7,3,8,1,0,0,3,50,90,11
7,3,8,1,1,0,3,50,90,11
7,3,21,0,4,0,3,50,90,11
8,3,11,1,0,0,3,50,75,11
8,3,8,1,6,1,3,50,90,11
8,3,21,0,3,0,3,50,27,11
8,3,21,0,0,0,3,50,101,11
9,4,9,1,3,0,3,50,90,11
10,4,12,1,0,0,4,50,90,11
10,4,14,1,3,0,4,50,90,11
10,4,9,1,0,0,4,50,90,11
11,4,22,0,0,0,4,50,90,11
11,4,16,1,5,1,4,50,75,11
12,1,19,1,0,0,4,50,90,11
12,1,10,1,1,0,4,50,75,11
1,1,18,1,2,0,1,50,101,11
1,1,22,0,4,0,1,50,90,11
3,2,20,1,1,0,1,50,101,11
3,2,20,1,5,1,1,50,75,11
6,3,2,0,0,0,2,50,101,11
8,3,17,1,3,0,3,50,20,11
8,3,0,0,4,0,3,50,34,11
9,4,2,0,0,0,3,50,101,11
11,4,20,1,0,0,4,50,101,11
11,4,14,1,5,1,4,50,90,9
1,1,17,1,6,1,1,41,88,11
1,1,13,1,3,0,1,41,88,11
1,1,20,1,6,1,1,41,88,11
1,1,23,0,6,1,1,41,38,11
1,1,20,1,2,0,1,41,101,11
2,1,0,0,1,0,1,41,101,11
2,1,19,1,1,0,1,41,64,11
2,1,15,1,0,0,1,41,124,11
2,1,17,1,1,0,1,41,75,11
2,1,10,1,3,0,1,41,124,11
2,1,18,1,1,0,1,41,64,11
2,1,21,0,1,0,1,41,75,11
2,1,14,1,6,1,1,41,90,11
2,1,11,1,4,0,1,41,88,11
2,1,18,1,6,1,1,41,38,11
3,2,17,1,0,0,1,41,124,11
3,2,11,1,1,0,1,41,124,11
3,2,15,1,2,0,1,41,23,11
5,2,8,1,0,0,2,41,101,11
5,2,18,1,0,0,2,41,64,11
5,2,4,0,3,0,2,41,20,9
5,2,23,0,3,0,2,41,64,11
5,2,22,0,5,1,2,41,88,11
6,3,17,1,0,0,2,41,90,11
6,3,10,1,5,1,2,41,88,11
6,3,13,1,0,0,2,41,47,11
6,3,16,1,5,1,2,41,90,11
6,3,16,1,5,1,2,41,75,11
6,3,23,0,0,0,2,41,90,11
7,3,17,1,6,1,3,41,88,11
7,3,21,0,4,0,3,41,72,11
7,3,12,1,6,1,3,41,90,11
7,3,23,0,6,1,3,41,72,11
7,3,12,1,0,0,3,41,90,11
7,3,19,1,3,0,3,41,101,11
7,3,19,1,6,1,3,41,124,11
7,3,4,0,0,0,3,41,38,11
7,3,6,0,5,1,3,41,101,11
8,3,12,1,2,0,3,41,47,11
8,3,11,1,1,0,3,41,101,11
9,4,8,1,0,0,3,41,20,11
9,4,15,1,3,0,3,41,47,9
9,4,9,1,5,1,3,41,124,11
9,4,23,0,6,1,3,41,47,11
10,4,18,1,4,0,4,41,101,11
10,4,19,1,4,0,4,41,101,11
10,4,14,1,6,1,4,41,90,11
10,4,17,1,6,1,4,41,90,11
10,4,22,0,4,0,4,41,109,11
10,4,13,1,0,0,4,41,101,11
11,4,18,1,4,0,4,41,90,11
11,4,19,1,1,0,4,41,20,11
11,4,18,1,6,1,4,41,75,11
11,4,6,0,0,0,4,41,72,11
11,4,14,1,1,0,4,41,72,11
12,1,21,0,2,0,4,41,88,11
12,1,15,1,0,0,4,41,20,11
12,1,13,1,1,0,4,41,90,11
12,1,12,1,2,0,4,41,75,11
12,1,13,1,2,0,4,41,84,11
12,1,18,1,5,1,4,41,38,9
12,1,21,0,5,1,4,41,88,11
2,1,11,1,2,0,1,41,75,11
5,2,17,1,3,0,2,41,75,11
6,3,14,1,4,0,2,41,84,11
6,3,16,1,0,0,2,41,88,11
11,4,10,1,2,0,4,41,109,11
6,3,17,1,1,0,2,41,88,11
6,3,13,1,3,0,2,41,20,11
8,3,18,1,1,0,3,41,101,11
8,3,13,1,1,0,3,41,109,11
12,1,9,1,5,1,4,41,38,11
1,1,9,1,2,0,1,41,17,11
1,1,13,1,5,1,1,41,75,11
2,1,22,0,6,1,1,41,88,11
4,2,10,1,6,1,2,41,88,11
4,2,18,1,0,0,2,41,90,11
4,2,18,1,3,0,2,41,88,11
5,2,2,0,2,0,2,41,101,11
7,3,0,0,3,0,3,41,124,11
7,3,22,0,6,1,3,41,75,11
8,3,18,1,5,1,3,41,109,11
9,4,13,1,0,0,3,41,101,11
9,4,18,1,0,0,3,41,30,11
10,4,15,1,6,1,4,41,101,11
10,4,14,1,5,1,4,41,101,11
1,1,20,1,6,1,1,41,124,11
4,2,21,0,6,1,2,41,109,11
5,2,12,1,1,0,2,41,25,11
5,2,23,0,4,0,2,41,75,11
9,4,11,1,4,0,3,41,75,11
10,4,16,1,4,0,4,41,75,11
8,3,18,1,0,0,3,41,101,11
10,4,20,1,6,1,4,41,75,11
10,4,12,1,1,0,4,41,101,11
11,4,17,1,1,0,4,41,75,11
12,1,23,0,5,1,4,41,88,11
2,1,11,1,2,0,1,41,56,11
2,1,9,1,5,1,1,41,88,11
2,1,21,0,6,1,1,41,88,11
3,2,5,0,5,1,1,41,72,11
3,2,11,1,1,0,1,41,90,11
4,2,19,1,4,0,2,41,75,11
4,2,20,1,1,0,2,41,88,11
4,2,20,1,2,0,2,41,101,11
4,2,4,0,2,0,2,41,14,11
6,3,16,1,2,0,2,41,90,11
7,3,11,1,4,0,3,41,124,11
8,3,13,1,6,1,3,41,90,11
8,3,19,1,2,0,3,41,101,11
8,3,22,0,2,0,3,41,124,11
10,4,13,1,1,0,4,41,90,11
2,1,8,1,2,0,1,32,20,11
2,1,9,1,6,1,1,32,124,11
2,1,12,1,0,0,1,32,13,9
3,2,20,1,6,1,1,32,109,11
3,2,23,0,6,1,1,32,124,11
3,2,13,1,5,1,1,32,109,11
3,2,22,0,4,0,1,32,124,11
4,2,10,1,3,0,2,32,90,11
4,2,15,1,5,1,2,32,101,11
4,2,20,1,4,0,2,32,90,11
4,2,19,1,2,0,2,32,90,11
4,2,5,0,4,0,2,32,72,11
4,2,17,1,5,1,2,32,101,11
5,2,6,0,3,0,2,32,90,11
5,2,22,0,4,0,2,32,64,11
5,2,20,1,1,0,2,32,101,11
5,2,18,1,4,0,2,32,47,11
5,2,20,1,5,1,2,32,90,11
6,3,5,0,4,0,2,32,14,9
6,3,2,0,4,0,2,32,83,11
6,3,7,1,5,1,2,32,109,11
6,3,20,1,0,0,2,32,101,11
6,3,15,1,3,0,2,32,101,11
6,3,11,1,5,1,2,32,101,11
6,3,14,1,5,1,2,32,124,11
7,3,11,1,2,0,3,32,101,11
7,3,12,1,4,0,3,32,96,11
7,3,12,1,2,0,3,32,101,11
7,3,11,1,5,1,3,32,101,11
8,3,1,0,4,0,3,32,124,11
8,3,1,0,6,1,3,32,20,11
9,4,8,1,5,1,3,32,101,11
9,4,11,1,5,1,3,32,75,11
9,4,22,0,0,0,3,32,47,11
10,4,19,1,4,0,4,32,75,11
11,4,13,1,4,0,4,32,124,11
11,4,12,1,4,0,4,32,124,11
12,1,23,0,4,0,4,32,124,11
1,1,7,1,1,0,1,32,20,11
1,1,16,1,4,0,1,32,47,11
2,1,21,0,2,0,1,32,14,11
3,2,18,1,0,0,1,32,75,11
5,2,14,1,3,0,2,32,101,11
7,3,6,0,2,0,3,32,72,11
9,4,18,1,0,0,3,32,20,11
1,1,13,1,3,0,1,32,75,11
1,1,21,0,6,1,1,32,72,9
3,2,10,1,2,0,1,32,87,11
3,2,12,1,2,0,1,32,51,9
3,2,7,1,3,0,1,32,72,11
3,2,22,0,3,0,1,32,14,11
3,2,18,1,5,1,1,32,124,11
4,2,19,1,1,0,2,32,90,11
5,2,20,1,5,1,2,32,90,11
5,2,1,0,4,0,2,32,4,9
5,2,16,1,6,1,2,32,4,11
6,3,2,0,6,1,2,32,75,11
6,3,10,1,0,0,2,32,72,9
6,3,14,1,5,1,2,32,101,11
6,3,12,1,1,0,2,32,101,11
7,3,13,1,6,1,3,32,101,11
7,3,14,1,6,1,3,32,90,11
8,3,13,1,1,0,3,32,90,11
8,3,16,1,3,0,3,32,64,11
9,4,14,1,4,0,3,32,101,11
9,4,19,1,5,1,3,32,90,11
9,4,0,0,6,1,3,32,72,11
9,4,19,1,3,0,3,32,101,11
11,4,11,1,3,0,4,32,72,11
11,4,14,1,5,1,4,32,64,11
11,4,8,1,0,0,4,32,63,11
1,1,16,1,0,0,1,32,75,11
1,1,17,1,4,0,1,32,88,11
1,1,4,0,5,1,1,32,88,11
2,1,12,1,3,0,1,32,38,11
3,2,23,0,3,0,1,32,88,11
4,2,14,1,0,0,2,32,13,11
6,3,23,0,2,0,2,32,109,11
8,3,18,1,1,0,3,32,14,11
9,4,2,0,4,0,3,32,124,11
10,4,21,0,2,0,4,32,90,11
10,4,6,0,5,1,4,32,109,11
10,4,0,0,6,1,4,32,75,11
11,4,15,1,2,0,4,32,38,11
12,1,7,1,3,0,4,32,14,8
1,1,20,1,2,0,1,24,124,11
1,1,14,1,6,1,1,24,20,8
2,1,19,1,3,0,1,24,15,11
2,1,17,1,2,0,1,24,75,11
2,1,11,1,0,0,1,24,90,9
5,2,9,1,6,1,2,24,90,11
5,2,15,1,6,1,2,24,14,11
5,2,6,0,2,0,2,24,20,11
6,3,4,0,5,1,2,24,47,11
6,3,12,1,5,1,2,24,64,11
6,3,23,0,3,0,2,24,14,11
7,3,17,1,4,0,3,24,109,11
7,3,1,0,6,1,3,24,1,11
7,3,1,0,2,0,3,24,1,11
7,3,15,1,2,0,3,24,1,11
7,3,9,1,5,1,3,24,4,11
7,3,1,0,0,0,3,24,101,11
8,3,18,1,3,0,3,24,75,11
9,4,18,1,6,1,3,24,14,11
9,4,10,1,5,1,3,24,109,11
9,4,18,1,2,0,3,24,75,11
9,4,13,1,2,0,3,24,109,11
10,4,0,0,5,1,4,24,1,11
10,4,17,1,5,1,4,24,64,9
12,1,22,0,5,1,4,24,109,11
2,1,0,0,6,1,1,24,75,11
3,2,16,1,1,0,1,24,90,11
4,2,13,1,4,0,2,24,75,11
4,2,6,0,5,1,2,24,109,11
4,2,14,1,0,0,2,24,101,11
4,2,23,0,5,1,2,24,20,11
5,2,11,1,0,0,2,24,109,11
5,2,22,0,5,1,2,24,1,11
5,2,10,1,6,1,2,24,101,11
5,2,14,1,6,1,2,24,90,11
5,2,17,1,6,1,2,24,90,11
5,2,0,0,6,1,2,24,124,11
6,3,18,1,4,0,2,24,38,9
6,3,8,1,5,1,2,24,109,11
7,3,16,1,1,0,3,24,75,11
8,3,14,1,5,1,3,24,90,11
10,4,9,1,6,1,4,24,1,11
11,4,21,0,5,1,4,24,4,11
1,1,16,1,0,0,1,24,75,11
4,2,21,0,2,0,2,24,90,11
4,2,1,0,4,0,2,24,75,11
4,2,13,1,6,1,2,24,90,11
4,2,20,1,5,1,2,24,101,11
5,2,21,0,2,0,2,24,1,11
1,1,1,0,5,1,1,24,124,11
1,1,13,1,6,1,1,24,124,11
1,1,18,1,0,0,1,24,90,11
1,1,0,0,2,0,1,24,124,11
2,1,16,1,2,0,1,24,38,11
2,1,20,1,6,1,1,24,106,11
2,1,11,1,3,0,1,24,109,11
2,1,6,0,4,0,1,24,71,8
2,1,13,1,4,0,1,24,75,9
2,1,15,1,6,1,1,24,90,11
3,2,12,1,6,1,1,24,124,11
3,2,11,1,0,0,1,24,4,11
3,2,17,1,0,0,1,24,75,11
3,2,5,0,1,0,1,24,75,11
3,2,20,1,2,0,1,24,38,11
3,2,10,1,5,1,1,24,90,11
3,2,10,1,0,0,1,24,4,11
3,2,21,0,1,0,1,24,12,11
3,2,20,1,5,1,1,24,88,11
3,2,7,1,6,1,1,24,27,11
3,2,20,1,6,1,1,24,90,11
3,2,12,1,0,0,1,24,90,9
3,2,19,1,3,0,1,24,75,11
4,2,22,0,0,0,2,24,90,11
4,2,12,1,2,0,2,24,90,11
4,2,22,0,2,0,2,24,72,11
4,2,15,1,5,1,2,24,124,11
4,2,17,1,5,1,2,24,1,11
4,2,0,0,1,0,2,24,90,11
4,2,22,0,1,0,2,24,75,11
4,2,1,0,2,0,2,24,124,11
4,2,3,0,5,1,2,24,109,11
4,2,1,0,6,1,2,24,124,11
5,2,6,0,6,1,2,24,109,11
5,2,18,1,1,0,2,24,38,11
5,2,23,0,1,0,2,24,101,11
5,2,21,0,2,0,2,24,90,11
5,2,10,1,3,0,2,24,88,11
5,2,17,1,5,1,2,24,76,11
5,2,21,0,3,0,2,24,90,11
5,2,8,1,4,0,2,24,124,11
5,2,21,0,1,0,2,24,1,11
5,2,12,1,2,0,2,24,54,11
5,2,10,1,4,0,2,24,55,11
5,2,14,1,5,1,2,24,90,11
5,2,14,1,5,1,2,24,64,11
5,2,1,0,6,1,2,24,90,11
5,2,9,1,0,0,2,24,64,11
6,3,7,1,6,1,2,24,90,11
6,3,21,0,6,1,2,24,90,11
6,3,9,1,0,0,2,24,101,11
6,3,12,1,0,0,2,24,90,11
6,3,19,1,0,0,2,24,90,11
6,3,12,1,3,0,2,24,55,11
6,3,20,1,3,0,2,24,90,11
6,3,16,1,2,0,2,24,38,11
6,3,16,1,2,0,2,24,20,11
6,3,13,1,4,0,2,24,1,11
6,3,18,1,5,1,2,24,75,11
6,3,10,1,0,0,2,24,4,11
7,3,14,1,5,1,3,24,4,11
7,3,7,1,6,1,3,24,27,11
7,3,21,0,1,0,3,24,1,11
7,3,14,1,6,1,3,24,90,11
7,3,8,1,4,0,3,24,1,11
7,3,3,0,6,1,3,24,1,11
7,3,21,0,1,0,3,24,1,11
7,3,23,0,1,0,3,24,84,11
7,3,13,1,2,0,3,24,123,11
7,3,14,1,5,1,3,24,90,11
7,3,14,1,0,0,3,24,64,11
7,3,3,0,3,0,3,24,1,11
7,3,23,0,3,0,3,24,1,11
7,3,10,1,4,0,3,24,97,11
7,3,20,1,4,0,3,24,1,11
7,3,0,0,6,1,3,24,64,11
8,3,20,1,6,1,3,24,101,11
8,3,10,1,0,0,3,24,124,11
8,3,8,1,5,1,3,24,109,11
8,3,19,1,4,0,3,24,58,11
8,3,11,1,6,1,3,24,9,11
9,4,11,1,1,0,3,24,64,11
9,4,16,1,2,0,3,24,49,9
9,4,2,0,6,1,3,24,75,11
9,4,14,1,6,1,3,24,124,11
9,4,12,1,2,0,3,24,1,11
9,4,4,0,3,0,3,24,90,11
10,4,18,1,3,0,4,24,90,11
10,4,13,1,4,0,4,24,1,11
10,4,19,1,5,1,4,24,75,11
10,4,15,1,4,0,4,24,1,11
10,4,7,1,1,0,4,24,90,11
10,4,16,1,3,0,4,24,90,11
10,4,19,1,5,1,4,24,90,11
10,4,11,1,6,1,4,24,90,11
10,4,19,1,0,0,4,24,1,11
10,4,2,0,0,0,4,24,38,11
11,4,15,1,2,0,4,24,75,11
11,4,18,1,2,0,4,24,121,11
11,4,13,1,5,1,4,24,75,11
11,4,20,1,0,0,4,24,1,11
11,4,18,1,3,0,4,24,20,9
11,4,19,1,4,0,4,24,122,11
11,4,21,0,5,1,4,24,75,11
11,4,13,1,6,1,4,24,20,11
11,4,22,0,1,0,4,24,101,11
11,4,19,1,2,0,4,24,64,11
11,4,4,0,3,0,4,24,1,11
11,4,14,1,4,0,4,24,96,11
11,4,18,1,5,1,4,24,66,11
11,4,4,0,0,0,4,24,75,11
12,1,18,1,6,1,4,24,4,11
12,1,22,0,2,0,4,24,124,11
12,1,18,1,4,0,4,24,64,11
12,1,21,0,3,0,4,24,1,11
12,1,17,1,6,1,4,24,1,11
12,1,12,1,0,0,4,24,1,11
12,1,13,1,3,0,4,24,124,11
12,1,14,1,5,1,4,24,90,11
12,1,18,1,5,1,4,24,38,11
12,1,22,0,5,1,4,24,38,11
1,1,15,1,0,0,1,34,64,11
1,1,1,0,4,0,1,34,109,11
1,1,20,1,5,1,1,34,64,11
1,1,7,1,1,0,1,34,96,11
1,1,14,1,2,0,1,34,96,11
1,1,19,1,1,0,1,34,38,11
1,1,19,1,2,0,1,1,38,8
1,1,22,0,5,1,1,34,90,11
1,1,0,0,1,0,1,34,88,11
1,1,18,1,3,0,1,34,96,11
1,1,22,0,0,0,1,34,96,11
2,1,12,1,1,0,1,34,38,9
2,1,17,1,4,0,1,34,96,11
2,1,23,0,0,0,1,34,101,11
2,1,18,1,5,1,1,34,38,11
2,1,0,0,1,0,1,34,38,11
2,1,20,1,5,1,1,34,38,11
2,1,9,1,6,1,1,34,106,11
2,1,13,1,6,1,1,34,88,11
3,2,12,1,3,0,1,34,96,11
3,2,15,1,5,1,1,1,101,11
3,2,17,1,5,1,1,34,83,11
3,2,17,1,5,1,1,34,90,11
3,2,0,0,2,0,1,1,101,11
3,2,14,1,2,0,1,1,101,11
4,2,1,0,4,0,2,1,90,11
4,2,14,1,6,1,2,34,90,9
4,2,14,1,0,0,2,34,90,9
4,2,19,1,1,0,2,1,101,11
4,2,20,1,6,1,2,1,71,11
4,2,13,1,1,0,2,34,101,11
5,2,17,1,5,1,2,1,124,9
5,2,14,1,2,0,2,34,75,11
5,2,15,1,5,1,2,34,109,11
5,2,15,1,6,1,2,1,101,11
5,2,13,1,1,0,2,1,101,11
6,3,10,1,6,1,2,1,72,11
6,3,11,1,1,0,2,34,9,11
6,3,18,1,1,0,2,34,109,11
6,3,19,1,2,0,2,1,124,11
7,3,2,0,2,0,3,1,101,11
7,3,19,1,5,1,3,1,124,11
8,3,2,0,5,1,3,34,90,11
8,3,12,1,2,0,3,1,109,11
8,3,19,1,4,0,3,34,90,11
8,3,17,1,5,1,3,1,116,9
8,3,17,1,5,1,3,34,90,11
9,4,0,0,3,0,3,34,90,11
9,4,13,1,0,0,3,34,90,11
9,4,22,0,2,0,3,1,90,11
9,4,20,1,0,0,3,1,101,11
10,4,16,1,2,0,4,1,71,11
10,4,19,1,2,0,4,34,90,11
10,4,14,1,5,1,4,34,90,9
10,4,10,1,1,0,4,34,109,11
10,4,17,1,3,0,4,1,90,11
10,4,17,1,1,0,4,34,90,9
11,4,11,1,1,0,4,34,90,9
11,4,19,1,3,0,4,34,90,11
11,4,23,0,3,0,4,34,90,11
11,4,11,1,5,1,4,34,90,11
11,4,18,1,4,0,4,34,90,11
11,4,20,1,4,0,4,34,90,11
11,4,18,1,5,1,4,34,90,11
12,1,20,1,0,0,4,34,96,11
1,1,10,1,2,0,1,34,38,8
3,2,16,1,5,1,1,34,90,11
4,2,19,1,1,0,2,34,101,11
7,3,8,1,6,1,3,34,38,8
8,3,9,1,3,0,3,34,101,11
8,3,3,0,1,0,3,34,90,11
8,3,18,1,1,0,3,34,90,11
9,4,6,0,1,0,3,34,109,11
10,4,14,1,1,0,4,34,72,11
1,1,22,0,0,0,1,25,90,11
1,1,1,0,5,1,1,25,75,11
1,1,12,1,6,1,1,25,27,11
1,1,18,1,0,0,1,25,90,11
2,1,14,1,3,0,1,25,124,11
2,1,21,0,3,0,1,25,124,11
2,1,6,0,0,0,1,25,38,11
2,1,20,1,4,0,1,25,124,11
2,1,20,1,1,0,1,25,124,11
3,2,11,1,1,0,1,25,90,11
3,2,0,0,0,0,1,25,64,9
3,2,19,1,6,1,1,25,75,8
3,2,20,1,0,0,1,25,75,11
4,2,12,1,5,1,2,25,90,11
4,2,11,1,1,0,2,25,34,11
4,2,17,1,2,0,2,25,88,11
4,2,17,1,0,0,2,25,90,11
4,2,14,1,3,0,2,25,1,11
4,2,22,0,3,0,2,25,88,11
4,2,9,1,6,1,2,25,90,11
4,2,10,1,6,1,2,25,64,9
4,2,16,1,6,1,2,25,90,11
4,2,21,0,6,1,2,25,88,11
4,2,21,0,3,0,2,25,124,11
4,2,23,0,5,1,2,25,124,11
4,2,20,1,1,0,2,25,124,11
5,2,21,0,3,0,2,25,104,11
5,2,22,0,5,1,2,25,124,11
5,2,21,0,2,0,2,25,101,11
5,2,12,1,6,1,2,25,10,11
5,2,13,1,0,0,2,25,75,11
5,2,7,1,2,0,2,25,88,11
5,2,7,1,3,0,2,25,124,11
5,2,9,1,3,0,2,25,101,11
5,2,11,1,3,0,2,25,64,9
5,2,22,0,6,1,2,25,88,11
5,2,7,1,3,0,2,25,88,11
5,2,7,1,6,1,2,25,124,11
5,2,7,1,0,0,2,25,124,11
6,3,21,0,3,0,2,25,20,11
6,3,12,1,4,0,2,25,75,9
6,3,5,0,4,0,2,25,88,11
7,3,20,1,6,1,3,25,20,11
7,3,2,0,2,0,3,25,20,11
7,3,18,1,5,1,3,25,14,11
8,3,13,1,6,1,3,25,20,11
9,4,17,1,6,1,3,25,75,11
9,4,22,0,2,0,3,25,109,11
9,4,5,0,5,1,3,25,72,9
9,4,19,1,2,0,3,25,100,9
9,4,21,0,2,0,3,25,1,11
9,4,12,1,3,0,3,25,20,11
10,4,7,1,6,1,4,25,109,11
10,4,12,1,0,0,4,25,90,11
11,4,19,1,3,0,4,25,109,11
11,4,1,0,0,0,4,25,75,9
11,4,14,1,6,1,4,25,64,11
11,4,19,1,3,0,4,25,75,11
11,4,8,1,1,0,4,25,64,11
1,1,18,1,6,1,1,25,38,11
2,1,17,1,3,0,1,25,75,11
4,2,12,1,4,0,2,25,75,11
7,3,18,1,0,0,3,25,20,11
8,3,16,1,1,0,3,25,20,11
9,4,15,1,0,0,3,25,100,8
11,4,15,1,4,0,4,25,27,11
12,1,21,0,1,0,4,25,96,11
12,1,21,0,1,0,4,25,47,11
7,3,5,0,2,0,3,25,14,11
7,3,18,1,2,0,3,25,101,11
8,3,18,1,6,1,3,25,20,11
9,4,19,1,4,0,3,25,124,11
10,4,20,1,6,1,4,25,101,11
11,4,18,1,1,0,4,25,90,11
1,1,15,1,5,1,1,25,90,11
2,1,19,1,4,0,1,25,88,11
4,2,0,0,6,1,2,25,88,11
4,2,15,1,2,0,2,25,124,11
5,2,16,1,5,1,2,25,88,11
5,2,7,1,1,0,2,25,109,11
6,3,17,1,2,0,2,25,90,11
7,3,0,0,5,1,3,25,90,11
8,3,17,1,4,0,3,25,90,11
8,3,14,1,1,0,3,25,90,11
8,3,13,1,1,0,3,25,38,11
8,3,19,1,6,1,3,25,47,11
9,4,18,1,6,1,3,25,9,9
9,4,23,0,0,0,3,25,101,11
9,4,10,1,1,0,3,25,109,11
10,4,14,1,1,0,4,25,72,11
10,4,20,1,2,0,4,25,90,11
10,4,11,1,6,1,4,25,88,11
12,1,22,0,2,0,4,25,38,11
1,1,7,1,6,1,1,14,75,9
1,1,18,1,6,1,1,14,75,11
2,1,20,1,3,0,1,14,75,11
2,1,7,1,1,0,1,14,90,11
2,1,13,1,4,0,1,14,90,11
2,1,16,1,4,0,1,14,90,11
2,1,20,1,1,0,1,14,75,11
2,1,12,1,5,1,1,14,90,11
3,2,20,1,3,0,1,14,124,11
3,2,11,1,1,0,1,14,101,11
3,2,20,1,1,0,1,14,38,11
3,2,19,1,2,0,1,14,90,11
3,2,15,1,4,0,1,14,88,11
3,2,0,0,0,0,1,14,75,11
3,2,20,1,1,0,1,14,90,11
3,2,13,1,2,0,1,14,90,11
3,2,18,1,2,0,1,14,4,11
3,2,13,1,3,0,1,14,90,11
3,2,22,0,3,0,1,14,83,11
4,2,14,1,4,0,2,14,90,11
4,2,14,1,6,1,2,14,124,11
4,2,12,1,1,0,2,14,90,11
4,2,21,0,3,0,2,14,90,11
4,2,16,1,5,1,2,14,90,11
4,2,12,1,6,1,2,14,109,11
4,2,18,1,5,1,2,14,9,11
4,2,22,0,1,0,2,14,90,11
4,2,20,1,2,0,2,14,4,11
4,2,23,0,5,1,2,14,90,11
5,2,11,1,6,1,2,14,124,11
5,2,14,1,6,1,2,14,38,11
5,2,5,0,2,0,2,14,47,11
6,3,13,1,4,0,2,14,109,11
6,3,21,0,4,0,2,14,90,11
6,3,13,1,6,1,2,14,90,11
6,3,8,1,0,0,2,14,75,11
6,3,12,1,1,0,2,14,90,11
6,3,18,1,6,1,2,14,88,11
6,3,20,1,2,0,2,14,90,11
7,3,0,0,5,1,3,14,101,11
7,3,22,0,6,1,3,14,90,11
7,3,17,1,0,0,3,14,90,11
7,3,9,1,2,0,3,14,90,11
7,3,19,1,4,0,3,14,124,11
7,3,20,1,4,0,3,14,90,11
7,3,17,1,5,1,3,14,90,11
7,3,4,0,2,0,3,14,90,11
7,3,5,0,3,0,3,14,64,11
7,3,4,0,5,1,3,14,90,11
7,3,5,0,5,1,3,14,90,11
7,3,15,1,5,1,3,14,90,11
7,3,22,0,5,1,3,14,90,11
7,3,18,1,2,0,3,14,27,11
7,3,10,1,4,0,3,14,124,11
7,3,14,1,4,0,3,14,101,11
7,3,15,1,5,1,3,14,101,11
7,3,21,0,5,1,3,14,101,11
8,3,15,1,4,0,3,14,101,11
8,3,16,1,5,1,3,14,90,11
8,3,20,1,5,1,3,14,90,11
8,3,23,0,0,0,3,14,90,11
8,3,11,1,1,0,3,14,124,11
8,3,13,1,5,1,3,14,124,11
8,3,19,1,5,1,3,14,90,11
8,3,15,1,3,0,3,14,90,11
9,4,8,1,1,0,3,14,54,11
9,4,8,1,2,0,3,14,90,11
9,4,19,1,4,0,3,14,101,11
9,4,14,1,6,1,3,14,27,11
9,4,16,1,0,0,3,14,90,11
9,4,16,1,1,0,3,14,90,11
9,4,14,1,3,0,3,14,90,11
9,4,14,1,5,1,3,14,101,11
9,4,10,1,6,1,3,14,20,11
9,4,0,0,2,0,3,14,84,11
9,4,11,1,6,1,3,14,124,11
9,4,11,1,6,1,3,14,90,11
9,4,15,1,0,0,3,14,124,11
9,4,22,0,2,0,3,14,90,11
9,4,10,1,4,0,3,14,90,11
10,4,1,0,1,0,4,14,90,11
10,4,13,1,3,0,4,14,90,11
10,4,17,1,6,1,4,14,101,11
10,4,15,1,6,1,4,14,47,11
10,4,15,1,3,0,4,14,90,11
10,4,13,1,5,1,4,14,90,11
11,4,16,1,2,0,4,14,90,11
11,4,18,1,2,0,4,14,90,11
11,4,23,0,4,0,4,14,90,11
11,4,18,1,2,0,4,14,90,11
11,4,8,1,4,0,4,14,21,11
11,4,17,1,4,0,4,14,90,11
11,4,18,1,2,0,4,14,90,11
11,4,11,1,3,0,4,14,124,11
11,4,23,0,1,0,4,14,13,11
11,4,4,0,2,0,4,14,84,11
11,4,12,1,2,0,4,14,88,11
12,1,12,1,5,1,4,14,90,11
12,1,23,0,2,0,4,14,38,11
12,1,15,1,5,1,4,14,84,11
12,1,22,0,6,1,4,14,124,11
12,1,23,0,0,0,4,14,124,11
12,1,18,1,2,0,4,14,124,11
1,1,18,1,4,0,1,14,124,11
5,2,12,1,0,0,2,14,85,11
6,3,14,1,0,0,2,14,124,11
6,3,21,0,0,0,2,14,101,11
7,3,0,0,1,0,3,14,124,11
9,4,15,1,3,0,3,14,124,11
11,4,11,1,4,0,4,14,90,11
