@Relation urban_new_2024_fold8_train

@ATTRIBUTE f1_minas          NUMERIC  % Μήνας (1-12)
@ATTRIBUTE f2_epochi         NUMERIC  % Εποχή (1=Χειμ 2=Άνοιξ 3=Καλοκ 4=Φθιν)
@ATTRIBUTE f3_ora            NUMERIC  % Ώρα ημέρας (0-23)
@ATTRIBUTE f4_mera_nyxta     NUMERIC  % Μέρα=1 Νύχτα=0
@ATTRIBUTE f5_imera_evdom    NUMERIC  % Ημέρα εβδομάδας (0=Δευτ 6=Κυρ)
@ATTRIBUTE f6_savvatokyriako NUMERIC  % Σαββ/κο=1 Καθημ=0
@ATTRIBUTE f7_trimino        NUMERIC  % Τρίμηνο (1-4)
@ATTRIBUTE f8_nomos          NUMERIC  % Κωδικός Νομού
@ATTRIBUTE f9_typos_xorou    NUMERIC  % Κωδικός τύπου χώρου
@ATTRIBUTE class             {8,9,11} % 8=Μεγάλη 9=Μεσαία 11=Μικρή

@DATA
1,1,1,0,6,1,1,5,89,11
1,1,19,1,3,0,1,5,87,11
1,1,1,0,6,1,1,5,89,11
2,1,17,1,0,0,1,5,75,11
2,1,13,1,4,0,1,5,125,11
3,2,15,1,2,0,1,5,100,11
3,2,19,1,5,1,1,5,100,11
3,2,8,1,6,1,1,5,89,11
4,2,9,1,0,0,2,5,89,11
4,2,23,0,4,0,2,5,89,11
4,2,11,1,6,1,2,5,89,11
4,2,18,1,1,0,2,5,89,11
4,2,13,1,2,0,2,5,89,11
4,2,8,1,6,1,2,5,89,11
4,2,11,1,3,0,2,5,89,11
4,2,13,1,3,0,2,5,89,11
4,2,15,1,4,0,2,5,89,11
4,2,18,1,5,1,2,5,89,11
4,2,7,1,1,0,2,5,89,11
4,2,20,1,1,0,2,5,89,11
5,2,15,1,4,0,2,5,89,11
5,2,12,1,2,0,2,5,89,11
5,2,1,0,0,0,2,5,75,11
8,3,13,1,3,0,3,5,89,11
8,3,15,1,3,0,3,5,89,11
8,3,21,0,3,0,3,5,89,11
8,3,13,1,2,0,3,5,75,11
9,4,7,1,6,1,3,5,100,11
9,4,14,1,5,1,3,5,18,11
9,4,10,1,0,0,3,5,89,11
10,4,16,1,5,1,4,5,34,11
10,4,18,1,5,1,4,5,89,11
10,4,9,1,6,1,4,5,89,11
11,4,16,1,6,1,4,5,89,11
11,4,23,0,3,0,4,5,89,11
11,4,8,1,5,1,4,5,89,11
11,4,11,1,5,1,4,5,34,11
11,4,19,1,3,0,4,5,89,11
12,1,17,1,6,1,4,5,89,11
12,1,21,0,6,1,4,5,75,11
1,1,11,1,3,0,1,5,28,11
4,2,14,1,2,0,2,5,5,11
4,2,15,1,2,0,2,5,5,11
4,2,15,1,5,1,2,5,5,11
4,2,18,1,6,1,2,5,100,11
5,2,23,0,0,0,2,5,107,9
5,2,14,1,2,0,2,5,5,11
6,3,11,1,5,1,2,5,100,11
7,3,19,1,0,0,3,5,5,11
10,4,4,0,1,0,4,5,87,11
12,1,14,1,2,0,4,5,58,11
1,1,7,1,0,0,1,5,87,11
1,1,7,1,0,0,1,5,87,11
1,1,7,1,0,0,1,5,95,11
1,1,7,1,0,0,1,5,107,11
1,1,22,0,4,0,1,5,87,11
1,1,12,1,5,1,1,5,65,11
1,1,19,1,5,1,1,5,87,11
1,1,22,0,5,1,1,5,65,11
1,1,18,1,6,1,1,5,62,11
1,1,7,1,1,0,1,5,8,11
1,1,10,1,1,0,1,5,65,11
1,1,15,1,3,0,1,5,87,11
1,1,18,1,3,0,1,5,87,11
1,1,2,0,5,1,1,5,87,11
1,1,6,0,5,1,1,5,13,11
1,1,21,0,6,1,1,5,65,11
1,1,18,1,2,0,1,5,18,11
1,1,3,0,3,0,1,5,87,11
1,1,3,0,3,0,1,5,87,11
1,1,4,0,3,0,1,5,87,11
1,1,10,1,3,0,1,5,58,11
1,1,18,1,3,0,1,5,87,11
1,1,12,1,4,0,1,5,87,11
1,1,4,0,5,1,1,5,87,11
1,1,10,1,5,1,1,5,87,11
1,1,23,0,5,1,1,5,87,11
1,1,6,0,6,1,1,5,87,11
1,1,6,0,6,1,1,5,7,11
1,1,6,0,6,1,1,5,87,11
1,1,7,1,6,1,1,5,87,11
1,1,18,1,6,1,1,5,87,11
1,1,8,1,0,0,1,5,87,11
1,1,23,0,0,0,1,5,87,11
1,1,2,0,1,0,1,5,87,11
1,1,5,0,1,0,1,5,65,11
1,1,9,1,1,0,1,5,87,11
2,1,23,0,3,0,1,5,87,11
2,1,2,0,6,1,1,5,87,11
2,1,3,0,0,0,1,5,87,11
2,1,13,1,0,0,1,5,7,11
2,1,21,0,2,0,1,5,87,11
2,1,4,0,6,1,1,5,18,11
2,1,11,1,6,1,1,5,87,11
2,1,5,0,1,0,1,5,87,11
2,1,10,1,1,0,1,5,65,11
2,1,0,0,2,0,1,5,87,11
2,1,6,0,5,1,1,5,87,11
2,1,4,0,6,1,1,5,75,8
2,1,7,1,6,1,1,5,87,11
2,1,21,0,1,0,1,5,65,11
2,1,12,1,5,1,1,5,8,11
2,1,14,1,5,1,1,5,87,11
2,1,4,0,6,1,1,5,18,11
2,1,12,1,0,0,1,5,46,11
2,1,16,1,2,0,1,5,87,11
2,1,17,1,2,0,1,5,87,11
2,1,0,0,3,0,1,5,87,11
2,1,1,0,3,0,1,5,87,8
2,1,2,0,3,0,1,5,87,11
2,1,8,1,3,0,1,5,18,8
2,1,9,1,3,0,1,5,87,11
3,2,2,0,4,0,1,5,87,11
3,2,21,0,5,1,1,5,87,11
3,2,21,0,5,1,1,5,87,11
3,2,10,1,3,0,1,5,87,11
3,2,14,1,3,0,1,5,87,11
3,2,8,1,4,0,1,5,87,11
3,2,13,1,4,0,1,5,87,11
3,2,9,1,6,1,1,5,18,11
3,2,8,1,0,0,1,5,58,11
3,2,14,1,2,0,1,5,87,11
3,2,14,1,4,0,1,5,87,11
3,2,6,0,0,0,1,5,87,11
3,2,7,1,0,0,1,5,7,11
3,2,16,1,2,0,1,5,65,11
3,2,19,1,2,0,1,5,87,11
3,2,19,1,2,0,1,5,65,11
3,2,22,0,2,0,1,5,87,11
3,2,1,0,5,1,1,5,87,11
3,2,21,0,5,1,1,5,7,11
3,2,3,0,6,1,1,5,87,11
3,2,5,0,0,0,1,5,87,11
3,2,16,1,3,0,1,5,65,11
3,2,19,1,3,0,1,5,65,11
3,2,17,1,6,1,1,5,30,11
4,2,0,0,1,0,2,5,65,11
4,2,19,1,1,0,2,5,65,11
4,2,17,1,2,0,2,5,65,11
4,2,1,0,3,0,2,5,87,11
4,2,1,0,5,1,2,5,65,8
4,2,22,0,5,1,2,5,65,11
4,2,13,1,6,1,2,5,41,11
4,2,5,0,0,0,2,5,87,11
4,2,13,1,0,0,2,5,46,11
4,2,2,0,3,0,2,5,87,11
4,2,16,1,3,0,2,5,65,11
4,2,22,0,4,0,2,5,87,11
4,2,0,0,5,1,2,5,87,11
4,2,10,1,6,1,2,5,87,11
4,2,0,0,3,0,2,5,87,11
4,2,14,1,3,0,2,5,58,11
4,2,0,0,5,1,2,5,18,11
4,2,15,1,1,0,2,5,87,11
4,2,3,0,3,0,2,5,30,11
4,2,12,1,4,0,2,5,65,11
4,2,12,1,6,1,2,5,65,8
4,2,16,1,1,0,2,5,46,11
4,2,16,1,1,0,2,5,65,11
5,2,17,1,3,0,2,5,7,11
5,2,23,0,4,0,2,5,7,11
5,2,17,1,5,1,2,5,87,11
5,2,0,0,6,1,2,5,87,11
5,2,2,0,1,0,2,5,7,11
5,2,1,0,2,0,2,5,87,11
5,2,19,1,2,0,2,5,87,11
5,2,20,1,0,0,2,5,18,11
5,2,1,0,4,0,2,5,31,11
5,2,14,1,4,0,2,5,65,11
5,2,17,1,6,1,2,5,95,11
5,2,16,1,0,0,2,5,65,8
5,2,2,0,1,0,2,5,65,11
5,2,8,1,2,0,2,5,95,11
5,2,12,1,4,0,2,5,7,11
5,2,15,1,4,0,2,5,87,11
5,2,18,1,5,1,2,5,65,8
5,2,15,1,6,1,2,5,95,11
5,2,2,0,0,0,2,5,97,11
5,2,23,0,0,0,2,5,65,11
5,2,13,1,1,0,2,5,7,11
5,2,1,0,3,0,2,5,87,11
5,2,12,1,3,0,2,5,7,11
5,2,13,1,3,0,2,5,89,11
5,2,22,0,3,0,2,5,54,11
5,2,2,0,4,0,2,5,87,11
6,3,11,1,6,1,2,5,65,11
6,3,5,0,0,0,2,5,87,11
6,3,5,0,0,0,2,5,13,11
6,3,15,1,0,0,2,5,65,11
6,3,17,1,0,0,2,5,95,11
6,3,22,0,0,0,2,5,18,11
6,3,14,1,1,0,2,5,18,11
6,3,1,0,5,1,2,5,65,11
6,3,2,0,5,1,2,5,7,11
6,3,1,0,6,1,2,5,65,11
6,3,8,1,0,0,2,5,87,11
6,3,13,1,0,0,2,5,18,11
6,3,9,1,1,0,2,5,78,11
6,3,12,1,1,0,2,5,65,11
6,3,3,0,3,0,2,5,87,11
6,3,3,0,3,0,2,5,87,11
6,3,17,1,4,0,2,5,97,11
6,3,16,1,1,0,2,5,87,11
6,3,20,1,1,0,2,5,81,11
6,3,4,0,3,0,2,5,87,11
6,3,23,0,3,0,2,5,87,11
6,3,20,1,4,0,2,5,89,11
6,3,14,1,5,1,2,5,65,11
6,3,9,1,6,1,2,5,65,11
6,3,10,1,6,1,2,5,65,11
6,3,23,0,6,1,2,5,65,11
6,3,12,1,0,0,2,5,7,8
6,3,14,1,0,0,2,5,65,11
6,3,16,1,0,0,2,5,65,11
6,3,15,1,1,0,2,5,1,11
6,3,23,0,1,0,2,5,7,11
6,3,23,0,3,0,2,5,89,11
6,3,0,0,4,0,2,5,87,11
6,3,20,1,5,1,2,5,7,11
6,3,11,1,6,1,2,5,7,11
7,3,12,1,0,0,3,5,7,11
7,3,21,0,4,0,3,5,65,11
7,3,22,0,0,0,3,5,87,11
7,3,5,0,2,0,3,5,75,11
7,3,5,0,3,0,3,5,65,11
7,3,19,1,3,0,3,5,64,11
7,3,21,0,3,0,3,5,87,11
7,3,12,1,5,1,3,5,95,11
7,3,9,1,6,1,3,5,65,11
7,3,15,1,6,1,3,5,87,11
7,3,12,1,2,0,3,5,87,11
7,3,17,1,2,0,3,5,107,11
7,3,23,0,2,0,3,5,87,11
7,3,23,0,3,0,3,5,8,11
7,3,11,1,4,0,3,5,8,11
7,3,11,1,4,0,3,5,65,11
7,3,4,0,6,1,3,5,95,11
7,3,10,1,6,1,3,5,49,11
7,3,15,1,6,1,3,5,65,11
7,3,15,1,0,0,3,5,58,11
7,3,4,0,1,0,3,5,72,11
7,3,11,1,1,0,3,5,46,11
7,3,12,1,3,0,3,5,87,11
7,3,1,0,5,1,3,5,95,11
7,3,18,1,1,0,3,5,65,11
7,3,2,0,2,0,3,5,65,11
8,3,16,1,3,0,3,5,87,11
8,3,23,0,3,0,3,5,18,11
8,3,4,0,4,0,3,5,87,11
8,3,5,0,5,1,3,5,65,11
8,3,23,0,5,1,3,5,95,11
8,3,2,0,2,0,3,5,128,11
8,3,3,0,2,0,3,5,87,11
8,3,5,0,2,0,3,5,87,11
8,3,6,0,2,0,3,5,87,11
8,3,10,1,2,0,3,5,85,11
8,3,18,1,5,1,3,5,87,11
8,3,10,1,0,0,3,5,65,11
8,3,1,0,1,0,3,5,65,11
8,3,7,1,3,0,3,5,65,8
8,3,9,1,3,0,3,5,65,11
8,3,9,1,3,0,3,5,18,11
8,3,4,0,4,0,3,5,128,11
8,3,16,1,5,1,3,5,46,11
8,3,21,0,5,1,3,5,65,11
8,3,16,1,6,1,3,5,65,11
8,3,12,1,1,0,3,5,65,11
8,3,20,1,1,0,3,5,58,11
8,3,20,1,2,0,3,5,64,11
8,3,21,0,3,0,3,5,65,11
8,3,8,1,4,0,3,5,65,11
8,3,13,1,4,0,3,5,65,11
8,3,8,1,5,1,3,5,65,11
8,3,18,1,6,1,3,5,65,11
8,3,11,1,0,0,3,5,72,11
8,3,4,0,1,0,3,5,60,11
8,3,10,1,1,0,3,5,46,11
8,3,16,1,1,0,3,5,65,11
8,3,16,1,1,0,3,5,38,11
8,3,17,1,3,0,3,5,65,11
8,3,23,0,3,0,3,5,87,11
8,3,11,1,4,0,3,5,34,11
8,3,12,1,4,0,3,5,65,11
8,3,13,1,4,0,3,5,65,11
9,4,15,1,6,1,3,5,87,11
9,4,20,1,3,0,3,5,65,11
9,4,6,0,2,0,3,5,7,11
9,4,22,0,4,0,3,5,65,11
9,4,10,1,5,1,3,5,65,11
9,4,9,1,0,0,3,5,18,11
9,4,4,0,1,0,3,5,87,11
9,4,0,0,6,1,3,5,95,11
9,4,19,1,2,0,3,5,58,11
9,4,21,0,4,0,3,5,65,8
9,4,8,1,5,1,3,5,65,11
9,4,19,1,5,1,3,5,65,11
9,4,5,0,6,1,3,5,87,11
9,4,12,1,0,0,3,5,65,11
10,4,3,0,2,0,4,5,87,11
10,4,16,1,2,0,4,5,106,8
10,4,0,0,3,0,4,5,87,11
10,4,22,0,4,0,4,5,106,8
10,4,6,0,6,1,4,5,85,11
10,4,18,1,1,0,4,5,87,11
10,4,13,1,2,0,4,5,65,11
10,4,6,0,4,0,4,5,87,11
10,4,21,0,4,0,4,5,87,11
10,4,4,0,0,0,4,5,87,11
10,4,7,1,0,0,4,5,49,11
10,4,18,1,1,0,4,5,65,11
10,4,23,0,2,0,4,5,64,11
10,4,11,1,3,0,4,5,87,11
10,4,17,1,3,0,4,5,87,11
10,4,18,1,3,0,4,5,18,11
10,4,18,1,5,1,4,5,65,11
10,4,8,1,6,1,4,5,87,11
10,4,15,1,6,1,4,5,18,8
10,4,22,0,6,1,4,5,87,11
10,4,23,0,0,0,4,5,65,11
10,4,22,0,1,0,4,5,65,11
10,4,14,1,3,0,4,5,75,11
10,4,15,1,3,0,4,5,18,11
10,4,0,0,6,1,4,5,76,11
10,4,8,1,6,1,4,5,18,11
10,4,17,1,0,0,4,5,34,11
10,4,16,1,3,0,4,5,65,11
10,4,18,1,3,0,4,5,84,11
11,4,15,1,6,1,4,5,65,11
11,4,23,0,1,0,4,5,87,11
11,4,14,1,2,0,4,5,116,11
11,4,22,0,2,0,4,5,87,11
11,4,16,1,3,0,4,5,58,11
11,4,1,0,5,1,4,5,58,11
11,4,4,0,5,1,4,5,18,8
11,4,11,1,5,1,4,5,87,11
11,4,20,1,0,0,4,5,87,11
11,4,3,0,1,0,4,5,128,11
11,4,4,0,1,0,4,5,128,11
11,4,19,1,1,0,4,5,87,11
11,4,21,0,1,0,4,5,128,11
11,4,23,0,1,0,4,5,87,11
11,4,1,0,3,0,4,5,65,11
11,4,12,1,4,0,4,5,87,11
11,4,10,1,6,1,4,5,65,11
11,4,22,0,6,1,4,5,58,11
11,4,15,1,1,0,4,5,46,11
11,4,17,1,4,0,4,5,65,11
11,4,20,1,4,0,4,5,65,11
11,4,17,1,5,1,4,5,65,11
12,1,1,0,0,0,4,5,87,11
12,1,21,0,0,0,4,5,87,11
12,1,1,0,3,0,4,5,87,11
12,1,5,0,3,0,4,5,7,11
12,1,21,0,3,0,4,5,87,11
12,1,20,1,3,0,4,5,87,11
12,1,3,0,5,1,4,5,87,11
12,1,15,1,3,0,4,5,87,11
12,1,23,0,4,0,4,5,65,11
12,1,2,0,6,1,4,5,128,11
12,1,3,0,6,1,4,5,128,11
12,1,3,0,6,1,4,5,128,11
12,1,3,0,6,1,4,5,128,11
12,1,23,0,1,0,4,5,14,11
12,1,10,1,3,0,4,5,18,11
12,1,22,0,3,0,4,5,65,11
12,1,12,1,6,1,4,5,87,11
12,1,15,1,0,0,4,5,87,11
12,1,19,1,1,0,4,5,128,11
1,1,0,0,0,0,1,5,65,11
1,1,15,1,0,0,1,5,87,11
1,1,5,0,1,0,1,5,95,9
1,1,1,0,2,0,1,5,87,11
1,1,7,1,2,0,1,5,13,11
1,1,14,1,3,0,1,5,77,11
1,1,15,1,3,0,1,5,58,9
1,1,22,0,3,0,1,5,87,11
1,1,22,0,3,0,1,5,87,11
1,1,0,0,5,1,1,5,87,11
1,1,8,1,5,1,1,5,65,11
1,1,16,1,5,1,1,5,128,11
1,1,23,0,5,1,1,5,89,11
1,1,14,1,6,1,1,5,87,11
1,1,14,1,6,1,1,5,87,11
1,1,20,1,6,1,1,5,128,11
1,1,22,0,6,1,1,5,87,11
1,1,4,0,0,0,1,5,95,11
1,1,16,1,0,0,1,5,89,11
1,1,18,1,0,0,1,5,87,11
1,1,2,0,1,0,1,5,75,9
1,1,13,1,1,0,1,5,65,11
1,1,0,0,2,0,1,5,100,11
1,1,0,0,3,0,1,5,65,11
1,1,21,0,5,1,1,5,89,11
1,1,23,0,5,1,1,5,87,11
1,1,18,1,6,1,1,5,58,11
1,1,3,0,0,0,1,5,7,11
1,1,6,0,0,0,1,5,87,11
1,1,9,1,0,0,1,5,75,11
1,1,9,1,0,0,1,5,75,11
1,1,20,1,0,0,1,5,8,11
1,1,16,1,1,0,1,5,87,11
1,1,16,1,1,0,1,5,22,11
1,1,3,0,2,0,1,5,7,11
1,1,4,0,2,0,1,5,75,11
1,1,22,0,2,0,1,5,5,11
1,1,23,0,2,0,1,5,112,11
1,1,6,0,3,0,1,5,75,11
1,1,6,0,3,0,1,5,100,11
1,1,6,0,3,0,1,5,7,11
1,1,23,0,3,0,1,5,7,11
1,1,6,0,4,0,1,5,7,11
1,1,17,1,5,1,1,5,65,11
1,1,7,1,6,1,1,5,65,11
1,1,20,1,6,1,1,5,127,11
1,1,7,1,0,0,1,5,38,11
1,1,2,0,1,0,1,5,65,11
1,1,17,1,2,0,1,5,128,11
1,1,21,0,2,0,1,5,128,11
1,1,22,0,2,0,1,5,115,11
1,1,0,0,3,0,1,5,75,11
1,1,8,1,3,0,1,5,58,11
1,1,3,0,4,0,1,5,65,11
1,1,5,0,4,0,1,5,87,11
1,1,17,1,4,0,1,5,65,11
1,1,10,1,5,1,1,5,75,11
1,1,5,0,0,0,1,5,65,11
1,1,20,1,0,0,1,5,87,11
1,1,14,1,1,0,1,5,128,11
1,1,20,1,1,0,1,5,65,11
1,1,10,1,2,0,1,5,7,11
2,1,11,1,3,0,1,5,87,11
2,1,6,0,4,0,1,5,87,11
2,1,16,1,4,0,1,5,128,11
2,1,0,0,5,1,1,5,18,11
2,1,8,1,2,0,1,5,38,11
2,1,12,1,3,0,1,5,65,11
2,1,16,1,3,0,1,5,65,11
2,1,17,1,4,0,1,5,22,11
2,1,4,0,0,0,1,5,128,11
2,1,14,1,0,0,1,5,100,9
2,1,18,1,0,0,1,5,87,11
2,1,18,1,0,0,1,5,87,11
2,1,18,1,0,0,1,5,87,11
2,1,20,1,1,0,1,5,65,11
2,1,22,0,2,0,1,5,18,11
2,1,0,0,4,0,1,5,38,11
2,1,2,0,4,0,1,5,75,11
2,1,0,0,5,1,1,5,75,11
2,1,3,0,5,1,1,5,95,11
2,1,13,1,5,1,1,5,128,11
2,1,15,1,5,1,1,5,7,11
2,1,13,1,6,1,1,5,87,11
2,1,21,0,6,1,1,5,87,11
2,1,4,0,1,0,1,5,87,11
2,1,18,1,1,0,1,5,65,11
2,1,19,1,1,0,1,5,13,9
2,1,3,0,2,0,1,5,18,11
2,1,4,0,2,0,1,5,18,11
2,1,5,0,3,0,1,5,100,11
2,1,22,0,3,0,1,5,65,11
2,1,4,0,4,0,1,5,65,9
2,1,4,0,4,0,1,5,65,9
2,1,2,0,5,1,1,5,38,9
2,1,7,1,5,1,1,5,78,11
2,1,0,0,6,1,1,5,87,9
2,1,10,1,6,1,1,5,75,11
2,1,21,0,6,1,1,5,1,11
2,1,16,1,1,0,1,5,87,11
2,1,23,0,1,0,1,5,56,11
2,1,0,0,3,0,1,5,65,11
2,1,15,1,3,0,1,5,65,11
3,2,11,1,4,0,1,5,65,11
3,2,17,1,4,0,1,5,87,11
3,2,2,0,5,1,1,5,18,11
3,2,5,0,5,1,1,5,87,11
3,2,9,1,5,1,1,5,18,11
3,2,9,1,5,1,1,5,100,11
3,2,17,1,6,1,1,5,65,11
3,2,23,0,6,1,1,5,18,11
3,2,19,1,0,0,1,5,87,11
3,2,20,1,0,0,1,5,87,11
3,2,8,1,1,0,1,5,89,11
3,2,20,1,1,0,1,5,87,11
3,2,22,0,1,0,1,5,65,9
3,2,8,1,2,0,1,5,38,11
3,2,13,1,2,0,1,5,7,11
3,2,2,0,3,0,1,5,128,11
3,2,4,0,3,0,1,5,7,11
3,2,6,0,3,0,1,5,89,11
3,2,8,1,5,1,1,5,38,11
3,2,11,1,5,1,1,5,38,11
3,2,19,1,5,1,1,5,97,11
3,2,21,0,5,1,1,5,100,11
3,2,19,1,6,1,1,5,87,11
3,2,6,0,0,0,1,5,65,9
3,2,7,1,0,0,1,5,78,11
3,2,4,0,2,0,1,5,65,11
3,2,0,0,3,0,1,5,87,11
3,2,0,0,3,0,1,5,100,11
3,2,13,1,3,0,1,5,65,9
3,2,22,0,4,0,1,5,7,11
3,2,0,0,6,1,1,5,87,11
3,2,6,0,6,1,1,5,59,11
3,2,12,1,6,1,1,5,87,11
3,2,14,1,0,0,1,5,65,11
3,2,0,0,1,0,1,5,87,11
3,2,11,1,1,0,1,5,7,11
3,2,15,1,2,0,1,5,29,11
3,2,18,1,2,0,1,5,7,11
3,2,18,1,2,0,1,5,7,9
3,2,21,0,3,0,1,5,128,11
3,2,7,1,4,0,1,5,88,11
3,2,7,1,5,1,1,5,87,11
3,2,7,1,5,1,1,5,65,9
3,2,22,0,5,1,1,5,128,11
3,2,9,1,6,1,1,5,65,11
3,2,9,1,6,1,1,5,65,11
3,2,3,0,1,0,1,5,65,11
3,2,6,0,1,0,1,5,38,11
3,2,4,0,2,0,1,5,87,11
3,2,18,1,2,0,1,5,65,11
3,2,22,0,2,0,1,5,128,11
3,2,2,0,3,0,1,5,75,11
3,2,1,0,4,0,1,5,89,9
3,2,7,1,4,0,1,5,75,11
3,2,12,1,4,0,1,5,87,11
3,2,14,1,5,1,1,5,38,11
3,2,23,0,5,1,1,5,128,11
3,2,10,1,6,1,1,5,65,11
3,2,18,1,6,1,1,5,75,11
4,2,3,0,1,0,2,5,75,11
4,2,14,1,1,0,2,5,95,11
4,2,17,1,2,0,2,5,38,11
4,2,17,1,3,0,2,5,7,11
4,2,5,0,5,1,2,5,87,11
4,2,13,1,5,1,2,5,87,11
4,2,14,1,5,1,2,5,87,11
4,2,7,1,6,1,2,5,87,11
4,2,11,1,6,1,2,5,65,11
4,2,20,1,6,1,2,5,100,11
4,2,21,0,6,1,2,5,84,11
4,2,6,0,0,0,2,5,128,11
4,2,6,0,1,0,2,5,65,11
4,2,11,1,1,0,2,5,75,11
4,2,15,1,1,0,2,5,38,11
4,2,17,1,1,0,2,5,100,11
4,2,21,0,1,0,2,5,87,11
4,2,3,0,2,0,2,5,87,11
4,2,4,0,2,0,2,5,87,11
4,2,9,1,2,0,2,5,87,11
4,2,17,1,2,0,2,5,7,11
4,2,22,0,2,0,2,5,7,11
4,2,0,0,3,0,2,5,64,11
4,2,2,0,3,0,2,5,75,9
4,2,5,0,3,0,2,5,128,11
4,2,10,1,3,0,2,5,38,11
4,2,3,0,4,0,2,5,128,11
4,2,12,1,4,0,2,5,65,11
4,2,3,0,5,1,2,5,1,11
4,2,20,1,5,1,2,5,65,11
4,2,22,0,5,1,2,5,100,11
4,2,22,0,5,1,2,5,64,11
4,2,2,0,6,1,2,5,87,11
4,2,3,0,6,1,2,5,87,11
4,2,12,1,6,1,2,5,13,11
4,2,16,1,6,1,2,5,84,9
4,2,21,0,6,1,2,5,65,11
4,2,23,0,6,1,2,5,38,9
4,2,19,1,0,0,2,5,87,11
4,2,19,1,0,0,2,5,65,11
4,2,17,1,1,0,2,5,38,11
4,2,18,1,1,0,2,5,65,11
4,2,21,0,1,0,2,5,65,8
4,2,21,0,1,0,2,5,65,11
4,2,15,1,2,0,2,5,100,11
4,2,22,0,2,0,2,5,128,11
4,2,23,0,3,0,2,5,87,11
4,2,8,1,6,1,2,5,88,11
4,2,10,1,6,1,2,5,75,11
4,2,18,1,6,1,2,5,7,11
4,2,21,0,6,1,2,5,75,11
4,2,5,0,0,0,2,5,87,9
4,2,15,1,0,0,2,5,87,11
4,2,2,0,1,0,2,5,7,9
4,2,2,0,2,0,2,5,104,11
4,2,6,0,3,0,2,5,7,11
4,2,21,0,4,0,2,5,128,11
4,2,2,0,5,1,2,5,65,9
4,2,22,0,5,1,2,5,87,11
4,2,0,0,6,1,2,5,7,11
4,2,16,1,6,1,2,5,87,11
4,2,8,1,0,0,2,5,65,11
4,2,10,1,0,0,2,5,58,11
4,2,13,1,1,0,2,5,7,11
5,2,13,1,2,0,2,5,65,11
5,2,14,1,3,0,2,5,100,11
5,2,20,1,3,0,2,5,38,11
5,2,21,0,3,0,2,5,65,11
5,2,2,0,4,0,2,5,1,11
5,2,0,0,5,1,2,5,65,11
5,2,2,0,5,1,2,5,128,11
5,2,4,0,5,1,2,5,65,11
5,2,2,0,6,1,2,5,65,11
5,2,17,1,6,1,2,5,7,11
5,2,20,1,6,1,2,5,128,11
5,2,21,0,6,1,2,5,128,11
5,2,0,0,0,0,2,5,65,11
5,2,10,1,0,0,2,5,65,11
5,2,14,1,1,0,2,5,128,11
5,2,3,0,2,0,2,5,65,11
5,2,11,1,2,0,2,5,128,11
5,2,20,1,2,0,2,5,65,11
5,2,21,0,2,0,2,5,128,11
5,2,7,1,3,0,2,5,65,11
5,2,1,0,4,0,2,5,72,11
5,2,21,0,4,0,2,5,72,11
5,2,15,1,5,1,2,5,65,11
5,2,18,1,5,1,2,5,128,11
5,2,22,0,5,1,2,5,128,11
5,2,10,1,6,1,2,5,65,9
5,2,19,1,6,1,2,5,72,11
5,2,1,0,0,0,2,5,65,11
5,2,9,1,0,0,2,5,87,11
5,2,19,1,1,0,2,5,13,11
5,2,14,1,2,0,2,5,128,11
5,2,1,0,3,0,2,5,128,11
5,2,17,1,3,0,2,5,1,11
5,2,18,1,3,0,2,5,65,11
5,2,21,0,3,0,2,5,65,9
5,2,1,0,4,0,2,5,72,9
5,2,7,1,4,0,2,5,18,11
5,2,12,1,4,0,2,5,128,11
5,2,2,0,5,1,2,5,72,11
5,2,4,0,5,1,2,5,87,11
5,2,3,0,6,1,2,5,87,11
5,2,1,0,0,0,2,5,87,11
5,2,8,1,0,0,2,5,65,8
5,2,17,1,0,0,2,5,72,11
5,2,0,0,1,0,2,5,128,11
5,2,19,1,1,0,2,5,65,11
5,2,13,1,2,0,2,5,7,11
5,2,20,1,2,0,2,5,128,11
5,2,10,1,4,0,2,5,72,11
5,2,14,1,5,1,2,5,83,11
5,2,18,1,6,1,2,5,87,11
5,2,1,0,0,0,2,5,65,9
5,2,9,1,0,0,2,5,61,11
5,2,19,1,0,0,2,5,128,11
5,2,19,1,0,0,2,5,29,11
5,2,13,1,1,0,2,5,72,8
5,2,19,1,1,0,2,5,58,11
5,2,22,0,1,0,2,5,65,11
5,2,2,0,3,0,2,5,128,9
5,2,17,1,3,0,2,5,1,11
5,2,3,0,4,0,2,5,72,11
6,3,8,1,6,1,2,5,128,11
6,3,10,1,6,1,2,5,65,11
6,3,14,1,6,1,2,5,128,11
6,3,21,0,6,1,2,5,128,11
6,3,12,1,0,0,2,5,128,9
6,3,21,0,1,0,2,5,128,11
6,3,4,0,2,0,2,5,7,11
6,3,7,1,4,0,2,5,128,11
6,3,8,1,4,0,2,5,7,11
6,3,8,1,4,0,2,5,65,11
6,3,19,1,4,0,2,5,44,8
6,3,11,1,5,1,2,5,128,11
6,3,15,1,5,1,2,5,65,11
6,3,1,0,6,1,2,5,87,11
6,3,3,0,6,1,2,5,7,11
6,3,5,0,6,1,2,5,128,11
6,3,9,1,6,1,2,5,7,11
6,3,15,1,0,0,2,5,65,11
6,3,19,1,0,0,2,5,65,8
6,3,19,1,1,0,2,5,64,11
6,3,1,0,2,0,2,5,7,9
6,3,1,0,2,0,2,5,7,11
6,3,7,1,2,0,2,5,128,11
6,3,12,1,2,0,2,5,72,11
6,3,14,1,2,0,2,5,65,11
6,3,18,1,4,0,2,5,22,11
6,3,22,0,5,1,2,5,58,8
6,3,18,1,6,1,2,5,64,11
6,3,8,1,0,0,2,5,87,11
6,3,17,1,0,0,2,5,89,11
6,3,21,0,0,0,2,5,89,11
6,3,22,0,0,0,2,5,89,11
6,3,0,0,1,0,2,5,65,11
6,3,2,0,2,0,2,5,87,11
6,3,18,1,2,0,2,5,41,11
6,3,23,0,2,0,2,5,87,11
6,3,0,0,3,0,2,5,75,11
6,3,14,1,3,0,2,5,13,8
6,3,14,1,4,0,2,5,7,11
6,3,2,0,5,1,2,5,7,11
6,3,10,1,5,1,2,5,7,9
6,3,13,1,6,1,2,5,72,11
6,3,14,1,6,1,2,5,65,11
6,3,23,0,6,1,2,5,87,11
6,3,0,0,0,0,2,5,87,11
6,3,0,0,1,0,2,5,65,8
6,3,4,0,2,0,2,5,100,11
6,3,22,0,2,0,2,5,128,11
6,3,23,0,2,0,2,5,38,11
6,3,1,0,3,0,2,5,75,11
6,3,7,1,4,0,2,5,128,11
6,3,8,1,4,0,2,5,65,11
6,3,14,1,5,1,2,5,7,9
6,3,19,1,5,1,2,5,7,11
6,3,23,0,5,1,2,5,128,11
6,3,2,0,6,1,2,5,128,11
6,3,7,1,6,1,2,5,128,11
6,3,21,0,6,1,2,5,87,11
7,3,4,0,2,0,3,5,38,11
7,3,21,0,2,0,3,5,44,9
7,3,21,0,4,0,3,5,60,11
7,3,2,0,5,1,3,5,89,9
7,3,19,1,5,1,3,5,87,11
7,3,1,0,6,1,3,5,13,9
7,3,11,1,6,1,3,5,28,11
7,3,18,1,6,1,3,5,87,11
7,3,1,0,0,0,3,5,128,11
7,3,0,0,1,0,3,5,75,11
7,3,14,1,2,0,3,5,87,11
7,3,18,1,3,0,3,5,89,11
7,3,22,0,3,0,3,5,65,11
7,3,23,0,3,0,3,5,87,11
7,3,4,0,5,1,3,5,65,11
7,3,10,1,5,1,3,5,89,11
7,3,18,1,6,1,3,5,65,11
7,3,20,1,6,1,3,5,38,11
7,3,0,0,0,0,3,5,65,11
7,3,22,0,0,0,3,5,128,11
7,3,23,0,0,0,3,5,65,11
7,3,23,0,0,0,3,5,100,11
7,3,14,1,1,0,3,5,100,11
7,3,8,1,2,0,3,5,100,11
7,3,9,1,2,0,3,5,38,11
7,3,22,0,2,0,3,5,38,11
7,3,0,0,3,0,3,5,38,11
7,3,5,0,3,0,3,5,38,11
7,3,6,0,3,0,3,5,65,11
7,3,10,1,3,0,3,5,128,11
7,3,20,1,3,0,3,5,64,11
7,3,6,0,4,0,3,5,7,11
7,3,5,0,5,1,3,5,7,9
7,3,10,1,5,1,3,5,95,11
7,3,10,1,5,1,3,5,7,11
7,3,19,1,5,1,3,5,87,11
7,3,3,0,6,1,3,5,65,11
7,3,4,0,6,1,3,5,87,11
7,3,7,1,6,1,3,5,7,11
7,3,14,1,0,0,3,5,18,11
7,3,14,1,0,0,3,5,28,11
7,3,6,0,1,0,3,5,7,11
7,3,20,1,1,0,3,5,38,11
7,3,3,0,2,0,3,5,87,11
7,3,22,0,3,0,3,5,49,11
7,3,19,1,5,1,3,5,84,9
7,3,2,0,6,1,3,5,89,11
7,3,5,0,6,1,3,5,65,11
7,3,6,0,6,1,3,5,100,11
7,3,16,1,6,1,3,5,7,11
7,3,9,1,0,0,3,5,87,11
7,3,13,1,0,0,3,5,72,11
7,3,22,0,0,0,3,5,72,11
7,3,1,0,1,0,3,5,75,11
7,3,13,1,2,0,3,5,13,8
8,3,16,1,3,0,3,5,65,11
8,3,3,0,4,0,3,5,128,11
8,3,10,1,4,0,3,5,128,11
8,3,23,0,4,0,3,5,128,11
8,3,3,0,6,1,3,5,7,9
8,3,9,1,6,1,3,5,7,11
8,3,15,1,1,0,3,5,128,11
8,3,3,0,3,0,3,5,128,11
8,3,2,0,4,0,3,5,126,11
8,3,3,0,4,0,3,5,65,9
8,3,17,1,4,0,3,5,18,11
8,3,20,1,4,0,3,5,95,11
8,3,23,0,4,0,3,5,87,11
8,3,15,1,5,1,3,5,87,11
8,3,22,0,5,1,3,5,89,11
8,3,4,0,6,1,3,5,87,11
8,3,14,1,6,1,3,5,100,11
8,3,16,1,6,1,3,5,75,11
8,3,1,0,0,0,3,5,75,11
8,3,10,1,0,0,3,5,65,9
8,3,2,0,1,0,3,5,87,11
8,3,4,0,1,0,3,5,7,11
8,3,0,0,4,0,3,5,64,11
8,3,19,1,4,0,3,5,87,11
8,3,3,0,5,1,3,5,87,11
8,3,6,0,5,1,3,5,87,11
8,3,15,1,6,1,3,5,87,11
8,3,19,1,6,1,3,5,87,11
8,3,21,0,6,1,3,5,72,9
8,3,23,0,6,1,3,5,65,11
8,3,2,0,0,0,3,5,72,11
8,3,17,1,1,0,3,5,65,11
8,3,23,0,3,0,3,5,72,11
8,3,16,1,6,1,3,5,65,11
8,3,23,0,0,0,3,5,72,11
8,3,3,0,1,0,3,5,87,11
8,3,16,1,1,0,3,5,87,11
8,3,21,0,1,0,3,5,87,11
8,3,6,0,2,0,3,5,97,11
8,3,8,1,2,0,3,5,65,9
8,3,12,1,2,0,3,5,7,11
8,3,14,1,2,0,3,5,7,11
8,3,18,1,2,0,3,5,7,11
8,3,3,0,3,0,3,5,64,11
8,3,5,0,3,0,3,5,87,11
8,3,13,1,4,0,3,5,78,11
9,4,15,1,6,1,3,5,8,11
9,4,15,1,6,1,3,5,87,11
9,4,21,0,6,1,3,5,89,11
9,4,0,0,0,0,3,5,128,11
9,4,7,1,0,0,3,5,7,11
9,4,3,0,1,0,3,5,128,11
9,4,4,0,1,0,3,5,128,11
9,4,5,0,1,0,3,5,89,9
9,4,16,1,1,0,3,5,65,11
9,4,23,0,2,0,3,5,100,11
9,4,0,0,3,0,3,5,128,11
9,4,0,0,3,0,3,5,128,11
9,4,21,0,3,0,3,5,7,11
9,4,7,1,5,1,3,5,65,11
9,4,14,1,5,1,3,5,65,11
9,4,5,0,0,0,3,5,100,11
9,4,9,1,0,0,3,5,65,11
9,4,18,1,0,0,3,5,65,11
9,4,18,1,0,0,3,5,65,11
9,4,22,0,0,0,3,5,75,11
9,4,15,1,1,0,3,5,110,11
9,4,18,1,1,0,3,5,100,11
9,4,20,1,1,0,3,5,65,11
9,4,16,1,3,0,3,5,87,11
9,4,20,1,3,0,3,5,7,11
9,4,8,1,4,0,3,5,97,11
9,4,23,0,5,1,3,5,128,11
9,4,23,0,5,1,3,5,97,11
9,4,20,1,6,1,3,5,7,11
9,4,21,0,6,1,3,5,100,11
9,4,4,0,0,0,3,5,87,11
9,4,6,0,0,0,3,5,89,11
9,4,9,1,0,0,3,5,7,11
9,4,5,0,3,0,3,5,87,11
9,4,13,1,5,1,3,5,87,11
9,4,19,1,6,1,3,5,87,11
9,4,20,1,6,1,3,5,87,11
9,4,18,1,0,0,3,5,87,11
9,4,18,1,2,0,3,5,97,11
9,4,22,0,3,0,3,5,87,11
9,4,9,1,4,0,3,5,87,11
9,4,16,1,4,0,3,5,65,9
9,4,17,1,4,0,3,5,87,11
9,4,22,0,4,0,3,5,65,11
9,4,7,1,5,1,3,5,97,11
9,4,14,1,5,1,3,5,17,11
9,4,16,1,5,1,3,5,65,11
9,4,18,1,5,1,3,5,65,11
9,4,21,0,6,1,3,5,89,11
9,4,12,1,0,0,3,5,87,11
9,4,15,1,0,0,3,5,7,11
9,4,16,1,0,0,3,5,89,11
10,4,0,0,1,0,4,5,7,11
10,4,3,0,1,0,4,5,1,11
10,4,19,1,1,0,4,5,65,11
10,4,12,1,2,0,4,5,7,11
10,4,0,0,5,1,4,5,65,11
10,4,6,0,5,1,4,5,87,11
10,4,0,0,6,1,4,5,1,11
10,4,3,0,6,1,4,5,7,11
10,4,10,1,6,1,4,5,7,11
10,4,12,1,6,1,4,5,128,11
10,4,21,0,6,1,4,5,65,11
10,4,3,0,0,0,4,5,18,11
10,4,3,0,0,0,4,5,87,11
10,4,9,1,0,0,4,5,46,11
10,4,22,0,0,0,4,5,128,11
10,4,0,0,1,0,4,5,65,11
10,4,2,0,1,0,4,5,107,8
10,4,0,0,2,0,4,5,128,11
10,4,1,0,2,0,4,5,72,11
10,4,15,1,2,0,4,5,65,11
10,4,1,0,3,0,4,5,87,11
10,4,1,0,3,0,4,5,87,11
10,4,10,1,3,0,4,5,89,11
10,4,3,0,4,0,4,5,38,8
10,4,11,1,5,1,4,5,107,11
10,4,14,1,5,1,4,5,89,11
10,4,17,1,6,1,4,5,128,11
10,4,21,0,4,0,4,5,87,11
10,4,21,0,4,0,4,5,89,11
10,4,8,1,5,1,4,5,65,11
10,4,12,1,5,1,4,5,128,11
10,4,22,0,1,0,4,5,65,11
10,4,1,0,2,0,4,5,87,9
10,4,13,1,2,0,4,5,65,11
10,4,1,0,3,0,4,5,75,9
10,4,21,0,3,0,4,5,87,11
10,4,22,0,3,0,4,5,87,11
10,4,3,0,4,0,4,5,58,11
10,4,21,0,4,0,4,5,87,11
10,4,0,0,6,1,4,5,65,11
10,4,4,0,6,1,4,5,78,11
10,4,12,1,6,1,4,5,128,11
10,4,18,1,6,1,4,5,89,11
10,4,9,1,0,0,4,5,128,11
10,4,23,0,0,0,4,5,128,11
10,4,21,0,1,0,4,5,128,11
10,4,11,1,2,0,4,5,65,9
10,4,16,1,3,0,4,5,89,8
11,4,8,1,4,0,4,5,7,11
11,4,7,1,5,1,4,5,65,11
11,4,17,1,5,1,4,5,87,11
11,4,4,0,6,1,4,5,87,11
11,4,4,0,6,1,4,5,87,11
11,4,17,1,6,1,4,5,87,11
11,4,14,1,0,0,4,5,65,9
11,4,18,1,0,0,4,5,100,11
11,4,7,1,1,0,4,5,87,9
11,4,10,1,1,0,4,5,89,11
11,4,17,1,1,0,4,5,65,11
11,4,0,0,2,0,4,5,65,11
11,4,5,0,2,0,4,5,100,11
11,4,7,1,2,0,4,5,89,11
11,4,16,1,2,0,4,5,7,9
11,4,22,0,2,0,4,5,7,11
11,4,21,0,3,0,4,5,65,11
11,4,22,0,3,0,4,5,128,11
11,4,4,0,4,0,4,5,78,11
11,4,7,1,5,1,4,5,7,11
11,4,21,0,5,1,4,5,58,11
11,4,22,0,5,1,4,5,128,11
11,4,1,0,6,1,4,5,64,11
11,4,2,0,6,1,4,5,95,11
11,4,18,1,6,1,4,5,7,11
11,4,14,1,0,0,4,5,89,11
11,4,15,1,0,0,4,5,89,9
11,4,0,0,1,0,4,5,89,11
11,4,7,1,1,0,4,5,89,11
11,4,8,1,1,0,4,5,65,11
11,4,14,1,1,0,4,5,128,11
11,4,21,0,1,0,4,5,65,11
11,4,22,0,1,0,4,5,75,11
11,4,17,1,2,0,4,5,100,11
11,4,18,1,4,0,4,5,95,11
11,4,18,1,0,0,4,5,89,11
11,4,19,1,0,0,4,5,100,11
11,4,23,0,0,0,4,5,65,11
11,4,10,1,2,0,4,5,89,11
11,4,13,1,3,0,4,5,87,11
11,4,13,1,5,1,4,5,87,11
11,4,13,1,6,1,4,5,7,11
11,4,18,1,6,1,4,5,95,11
11,4,23,0,6,1,4,5,87,11
11,4,2,0,2,0,4,5,87,11
11,4,10,1,2,0,4,5,7,11
11,4,1,0,3,0,4,5,7,9
11,4,9,1,3,0,4,5,18,11
11,4,19,1,3,0,4,5,87,11
11,4,8,1,4,0,4,5,7,11
11,4,9,1,4,0,4,5,65,11
11,4,9,1,4,0,4,5,7,11
11,4,17,1,4,0,4,5,87,11
11,4,18,1,4,0,4,5,87,11
11,4,23,0,4,0,4,5,87,11
12,1,1,0,4,0,4,5,87,11
12,1,6,0,4,0,4,5,7,9
12,1,22,0,0,0,4,5,87,11
12,1,12,1,3,0,4,5,87,11
12,1,13,1,0,0,4,5,65,11
12,1,20,1,0,0,4,5,100,11
12,1,22,0,1,0,4,5,87,11
12,1,2,0,2,0,4,5,87,11
12,1,13,1,2,0,4,5,65,9
12,1,1,0,3,0,4,5,65,11
12,1,2,0,3,0,4,5,7,11
12,1,9,1,4,0,4,5,87,11
12,1,16,1,4,0,4,5,87,11
12,1,10,1,5,1,4,5,87,11
12,1,0,0,6,1,4,5,87,11
12,1,19,1,6,1,4,5,87,11
12,1,0,0,0,0,4,5,100,11
12,1,16,1,0,0,4,5,87,11
12,1,18,1,2,0,4,5,65,11
12,1,20,1,2,0,4,5,87,11
12,1,16,1,3,0,4,5,87,11
12,1,14,1,4,0,4,5,72,11
12,1,7,1,5,1,4,5,7,9
12,1,12,1,5,1,4,5,87,11
12,1,5,0,6,1,4,5,87,11
12,1,18,1,6,1,4,5,87,11
12,1,21,0,6,1,4,5,87,11
12,1,20,1,1,0,4,5,128,11
12,1,22,0,1,0,4,5,128,11
1,1,16,1,2,0,1,5,88,11
1,1,15,1,3,0,1,5,51,11
1,1,18,1,3,0,1,5,87,11
1,1,0,0,0,0,1,5,87,11
1,1,15,1,1,0,1,5,87,11
1,1,4,0,2,0,1,5,18,11
1,1,22,0,3,0,1,5,65,11
1,1,7,1,4,0,1,5,46,11
1,1,9,1,5,1,1,5,38,11
1,1,19,1,5,1,1,5,65,11
1,1,3,0,0,0,1,5,65,11
1,1,12,1,1,0,1,5,100,11
1,1,16,1,1,0,1,5,27,11
1,1,21,0,3,0,1,5,1,11
1,1,12,1,6,1,1,5,87,11
2,1,1,0,4,0,1,5,18,11
2,1,15,1,4,0,1,5,87,11
2,1,23,0,6,1,1,5,87,11
2,1,10,1,3,0,1,5,65,11
2,1,17,1,5,1,1,5,65,11
2,1,1,0,1,0,1,5,110,11
2,1,21,0,4,0,1,5,75,11
2,1,9,1,6,1,1,5,87,11
2,1,0,0,4,0,1,5,38,11
2,1,20,1,5,1,1,5,128,11
2,1,21,0,5,1,1,5,128,11
2,1,6,0,6,1,1,5,128,11
2,1,6,0,6,1,1,5,87,11
2,1,10,1,0,0,1,5,65,11
2,1,10,1,3,0,1,5,1,11
3,2,2,0,6,1,1,5,87,11
3,2,5,0,6,1,1,5,87,11
3,2,4,0,4,0,1,5,87,11
7,3,12,1,4,0,3,5,65,11
7,3,3,0,5,1,3,5,65,11
7,3,9,1,0,0,3,5,65,11
7,3,21,0,0,0,3,5,87,11
7,3,19,1,2,0,3,5,18,11
8,3,0,0,4,0,3,5,87,11
8,3,18,1,6,1,3,5,89,11
8,3,6,0,2,0,3,5,65,11
8,3,19,1,5,1,3,5,87,11
8,3,10,1,6,1,3,5,87,11
8,3,14,1,1,0,3,5,128,11
8,3,16,1,4,0,3,5,112,11
9,4,6,0,6,1,3,5,87,11
9,4,17,1,0,0,3,5,65,11
9,4,16,1,5,1,3,5,87,11
9,4,0,0,6,1,3,5,65,11
9,4,12,1,6,1,3,5,65,11
9,4,3,0,2,0,3,5,18,11
9,4,5,0,0,0,3,5,83,11
9,4,10,1,0,0,3,5,65,11
9,4,12,1,4,0,3,5,65,11
9,4,21,0,4,0,3,5,65,11
9,4,19,1,5,1,3,5,18,11
9,4,7,1,0,0,3,5,87,11
10,4,13,1,2,0,4,5,18,11
10,4,20,1,3,0,4,5,87,11
10,4,6,0,6,1,4,5,65,11
10,4,20,1,2,0,4,5,65,11
10,4,22,0,3,0,4,5,65,11
10,4,4,0,4,0,4,5,128,11
10,4,4,0,4,0,4,5,128,11
10,4,16,1,5,1,4,5,65,11
10,4,0,0,6,1,4,5,128,11
10,4,6,0,1,0,4,5,87,11
11,4,2,0,6,1,4,5,87,11
11,4,3,0,6,1,4,5,87,11
11,4,5,0,6,1,4,5,72,11
11,4,19,1,6,1,4,5,65,11
11,4,23,0,6,1,4,5,87,11
11,4,23,0,0,0,4,5,87,11
11,4,9,1,2,0,4,5,62,11
11,4,13,1,2,0,4,5,65,11
11,4,20,1,4,0,4,5,28,9
11,4,20,1,5,1,4,5,64,11
11,4,3,0,2,0,4,5,81,11
11,4,11,1,2,0,4,5,38,11
11,4,19,1,2,0,4,5,87,11
11,4,20,1,2,0,4,5,87,11
11,4,10,1,3,0,4,5,65,11
11,4,21,0,3,0,4,5,65,11
11,4,12,1,6,1,4,5,75,11
11,4,16,1,0,0,4,5,59,11
11,4,0,0,3,0,4,5,65,11
11,4,15,1,4,0,4,5,87,11
12,1,15,1,6,1,4,5,18,11
12,1,22,0,6,1,4,5,87,11
12,1,21,0,5,1,4,5,18,11
12,1,3,0,1,0,4,5,65,11
12,1,3,0,4,0,4,5,87,11
12,1,14,1,0,0,4,5,18,11
12,1,13,1,4,0,4,5,65,11
12,1,15,1,4,0,4,5,128,11
12,1,17,1,4,0,4,5,87,11
12,1,21,0,6,1,4,5,87,11
12,1,22,0,6,1,4,5,87,11
12,1,0,0,0,0,4,5,89,11
2,1,11,1,0,0,1,5,89,11
2,1,17,1,0,0,1,5,100,11
2,1,2,0,5,1,1,5,18,11
3,2,20,1,0,0,1,5,87,11
3,2,12,1,0,0,1,5,75,11
4,2,6,0,4,0,2,5,89,11
5,2,10,1,6,1,2,5,89,11
6,3,19,1,3,0,2,5,87,11
8,3,7,1,6,1,3,5,89,11
9,4,23,0,6,1,3,5,87,11
9,4,6,0,2,0,3,5,128,11
9,4,12,1,2,0,3,5,1,11
9,4,15,1,5,1,3,5,89,11
10,4,23,0,0,0,4,5,89,11
10,4,0,0,3,0,4,5,89,11
10,4,9,1,3,0,4,5,87,11
11,4,19,1,0,0,4,5,18,11
11,4,18,1,5,1,4,5,65,11
12,1,22,0,2,0,4,5,95,11
12,1,20,1,3,0,4,5,38,11
1,1,17,1,0,0,1,5,58,11
1,1,8,1,2,0,1,5,65,11
1,1,22,0,1,0,1,5,58,11
1,1,16,1,3,0,1,5,95,11
1,1,21,0,5,1,1,5,65,11
1,1,2,0,4,0,1,5,87,11
1,1,8,1,6,1,1,5,95,11
1,1,10,1,6,1,1,5,95,11
1,1,21,0,6,1,1,5,65,11
1,1,15,1,0,0,1,5,65,11
1,1,12,1,1,0,1,5,95,11
1,1,13,1,1,0,1,5,95,11
1,1,8,1,2,0,1,5,72,11
1,1,7,1,3,0,1,5,128,11
1,1,8,1,3,0,1,5,65,11
1,1,12,1,2,0,1,5,95,11
2,1,0,0,5,1,1,5,95,11
2,1,17,1,5,1,1,5,87,11
2,1,23,0,5,1,1,5,95,11
2,1,0,0,3,0,1,5,95,11
2,1,21,0,5,1,1,5,65,11
2,1,16,1,6,1,1,5,65,11
2,1,11,1,1,0,1,5,89,11
2,1,13,1,1,0,1,5,65,11
2,1,17,1,6,1,1,5,65,11
2,1,20,1,6,1,1,5,65,11
2,1,18,1,6,1,1,5,95,11
2,1,12,1,2,0,1,5,100,11
3,2,15,1,5,1,1,5,95,11
3,2,1,0,6,1,1,5,65,11
3,2,19,1,6,1,1,5,65,8
3,2,18,1,0,0,1,5,64,11
3,2,19,1,3,0,1,5,65,11
3,2,12,1,5,1,1,5,65,11
3,2,6,0,6,1,1,5,65,11
3,2,15,1,6,1,1,5,95,11
3,2,20,1,6,1,1,5,128,11
3,2,20,1,2,0,1,5,87,11
3,2,4,0,4,0,1,5,65,11
3,2,22,0,1,0,1,5,87,11
3,2,23,0,1,0,1,5,87,11
3,2,20,1,1,0,1,5,100,11
3,2,19,1,6,1,1,5,65,11
4,2,17,1,1,0,2,5,65,11
4,2,13,1,2,0,2,5,18,11
4,2,22,0,1,0,2,5,95,11
4,2,0,0,2,0,2,5,128,11
4,2,2,0,2,0,2,5,18,11
4,2,21,0,2,0,2,5,65,11
4,2,14,1,5,1,2,5,65,11
4,2,12,1,6,1,2,5,46,11
4,2,19,1,6,1,2,5,18,11
4,2,14,1,0,0,2,5,65,11
4,2,15,1,2,0,2,5,65,11
4,2,16,1,2,0,2,5,89,11
4,2,18,1,3,0,2,5,65,11
4,2,14,1,4,0,2,5,65,11
4,2,13,1,6,1,2,5,65,11
4,2,10,1,0,0,2,5,91,11
4,2,13,1,0,0,2,5,89,11
5,2,18,1,2,0,2,5,87,11
5,2,22,0,2,0,2,5,65,11
5,2,22,0,2,0,2,5,87,11
5,2,20,1,4,0,2,5,48,11
5,2,23,0,5,1,2,5,126,11
5,2,23,0,5,1,2,5,18,11
5,2,1,0,1,0,2,5,65,11
5,2,0,0,5,1,2,5,65,11
5,2,1,0,5,1,2,5,87,11
5,2,1,0,5,1,2,5,128,11
5,2,4,0,1,0,2,5,65,9
5,2,7,1,4,0,2,5,48,11
5,2,8,1,4,0,2,5,65,11
5,2,7,1,0,0,2,5,65,11
5,2,19,1,0,0,2,5,65,11
5,2,14,1,1,0,2,5,65,11
5,2,9,1,3,0,2,5,65,11
5,2,16,1,3,0,2,5,87,11
5,2,0,0,0,0,2,5,89,11
5,2,6,0,2,0,2,5,65,11
6,3,1,0,6,1,2,5,95,11
6,3,3,0,0,0,2,5,87,11
6,3,3,0,0,0,2,5,87,11
6,3,19,1,1,0,2,5,65,9
6,3,0,0,4,0,2,5,71,9
6,3,12,1,6,1,2,5,65,11
6,3,22,0,6,1,2,5,46,11
6,3,12,1,1,0,2,5,72,11
6,3,13,1,2,0,2,5,18,11
6,3,4,0,3,0,2,5,95,11
6,3,13,1,3,0,2,5,95,11
6,3,15,1,4,0,2,5,128,11
6,3,21,0,4,0,2,5,87,11
6,3,21,0,5,1,2,5,87,11
6,3,11,1,6,1,2,5,65,11
6,3,11,1,0,0,2,5,65,11
6,3,15,1,0,0,2,5,72,11
6,3,17,1,2,0,2,5,87,11
6,3,0,0,3,0,2,5,65,11
6,3,16,1,3,0,2,5,87,11
6,3,18,1,3,0,2,5,100,11
6,3,7,1,4,0,2,5,87,11
6,3,12,1,4,0,2,5,87,11
6,3,13,1,4,0,2,5,128,11
6,3,16,1,4,0,2,5,87,11
6,3,20,1,5,1,2,5,65,11
6,3,1,0,6,1,2,5,65,11
6,3,22,0,6,1,2,5,95,11
6,3,0,0,1,0,2,5,95,11
6,3,11,1,4,0,2,5,65,11
6,3,15,1,4,0,2,5,100,11
6,3,20,1,6,1,2,5,105,11
7,3,7,1,0,0,3,5,95,11
7,3,12,1,0,0,3,5,65,9
7,3,10,1,2,0,3,5,38,11
7,3,15,1,2,0,3,5,72,11
7,3,17,1,2,0,3,5,105,11
7,3,0,0,3,0,3,5,38,11
7,3,15,1,6,1,3,5,100,11
7,3,14,1,1,0,3,5,72,11
7,3,22,0,1,0,3,5,100,11
7,3,12,1,2,0,3,5,65,11
7,3,16,1,2,0,3,5,100,11
7,3,13,1,4,0,3,5,65,9
7,3,18,1,0,0,3,5,65,11
7,3,17,1,1,0,3,5,72,11
7,3,2,0,3,0,3,5,65,11
7,3,21,0,3,0,3,5,126,8
7,3,11,1,4,0,3,5,46,11
7,3,0,0,5,1,3,5,65,11
7,3,13,1,5,1,3,5,65,8
7,3,6,0,6,1,3,5,72,11
7,3,19,1,1,0,3,5,127,11
7,3,15,1,2,0,3,5,95,11
7,3,1,0,6,1,3,5,65,11
7,3,14,1,2,0,3,5,87,11
8,3,0,0,3,0,3,5,76,11
8,3,12,1,4,0,3,5,65,11
8,3,20,1,5,1,3,5,126,11
8,3,3,0,6,1,3,5,65,11
8,3,1,0,1,0,3,5,95,11
8,3,22,0,1,0,3,5,65,11
8,3,22,0,4,0,3,5,100,11
8,3,0,0,6,1,3,5,100,11
8,3,10,1,5,1,3,5,87,11
8,3,13,1,6,1,3,5,107,11
8,3,4,0,0,0,3,5,65,11
8,3,11,1,0,0,3,5,65,11
8,3,3,0,2,0,3,5,72,8
8,3,22,0,3,0,3,5,89,11
8,3,9,1,0,0,3,5,95,11
8,3,10,1,0,0,3,5,65,11
8,3,11,1,0,0,3,5,100,11
8,3,23,0,0,0,3,5,72,11
8,3,21,0,2,0,3,5,65,11
8,3,20,1,4,0,3,5,100,11
8,3,12,1,5,1,3,5,100,11
9,4,11,1,0,0,3,5,87,11
9,4,21,0,0,0,3,5,87,11
9,4,17,1,2,0,3,5,65,11
9,4,20,1,3,0,3,5,65,11
9,4,18,1,4,0,3,5,89,11
9,4,12,1,5,1,3,5,65,11
9,4,21,0,6,1,3,5,72,11
9,4,11,1,4,0,3,5,65,11
9,4,13,1,4,0,3,5,65,11
9,4,14,1,5,1,3,5,65,11
9,4,14,1,5,1,3,5,95,11
9,4,21,0,5,1,3,5,48,11
9,4,18,1,1,0,3,5,65,11
9,4,20,1,3,0,3,5,48,11
9,4,3,0,5,1,3,5,65,11
9,4,12,1,0,0,3,5,65,11
9,4,1,0,1,0,3,5,95,11
9,4,2,0,1,0,3,5,107,11
9,4,15,1,1,0,3,5,65,11
9,4,16,1,3,0,3,5,87,11
9,4,8,1,0,0,3,5,87,11
9,4,20,1,0,0,3,5,48,11
10,4,18,1,3,0,4,5,65,11
10,4,22,0,3,0,4,5,127,11
10,4,11,1,4,0,4,5,45,11
10,4,4,0,0,0,4,5,18,11
10,4,16,1,1,0,4,5,65,11
10,4,7,1,0,0,4,5,87,11
10,4,2,0,3,0,4,5,72,11
10,4,2,0,3,0,4,5,95,11
10,4,5,0,4,0,4,5,65,11
10,4,1,0,1,0,4,5,100,11
10,4,21,0,2,0,4,5,65,11
10,4,11,1,4,0,4,5,65,11
10,4,0,0,5,1,4,5,72,11
10,4,14,1,6,1,4,5,65,11
10,4,0,0,2,0,4,5,87,11
11,4,6,0,4,0,4,5,65,11
11,4,15,1,4,0,4,5,87,11
11,4,15,1,2,0,4,5,65,11
11,4,7,1,3,0,4,5,65,11
11,4,1,0,5,1,4,5,65,11
11,4,16,1,6,1,4,5,87,11
11,4,14,1,0,0,4,5,65,11
11,4,19,1,2,0,4,5,18,11
11,4,19,1,5,1,4,5,128,11
11,4,23,0,5,1,4,5,128,11
11,4,14,1,4,0,4,5,65,11
11,4,19,1,5,1,4,5,65,11
12,1,21,0,6,1,4,5,89,11
12,1,1,0,4,0,4,5,72,9
12,1,12,1,0,0,4,5,95,11
12,1,17,1,1,0,4,5,72,11
12,1,22,0,1,0,4,5,95,11
12,1,17,1,2,0,4,5,95,11
12,1,23,0,3,0,4,5,95,11
12,1,13,1,6,1,4,5,65,11
12,1,18,1,6,1,4,5,65,11
12,1,17,1,1,0,4,5,65,11
12,1,23,0,1,0,4,5,128,11
12,1,21,0,5,1,4,5,72,11
1,1,11,1,1,0,1,5,7,11
1,1,17,1,2,0,1,5,89,11
1,1,20,1,2,0,1,5,65,11
1,1,17,1,4,0,1,5,89,11
1,1,2,0,6,1,1,5,7,11
1,1,7,1,6,1,1,5,75,11
1,1,0,0,0,0,1,5,87,11
1,1,1,0,0,0,1,5,87,11
1,1,18,1,1,0,1,5,89,11
1,1,2,0,4,0,1,5,72,11
1,1,3,0,6,1,1,5,72,11
1,1,17,1,6,1,1,5,7,11
1,1,19,1,6,1,1,5,75,11
1,1,17,1,0,0,1,5,7,11
1,1,19,1,1,0,1,5,89,11
1,1,21,0,1,0,1,5,65,11
1,1,13,1,4,0,1,5,65,11
1,1,21,0,4,0,1,5,128,11
1,1,2,0,5,1,1,5,88,11
1,1,11,1,6,1,1,5,65,11
1,1,12,1,6,1,1,5,95,11
1,1,12,1,6,1,1,5,128,11
1,1,20,1,6,1,1,5,75,11
1,1,19,1,2,0,1,5,18,11
1,1,18,1,3,0,1,5,89,11
1,1,21,0,3,0,1,5,128,11
1,1,20,1,4,0,1,5,89,11
1,1,21,0,4,0,1,5,7,11
1,1,22,0,5,1,1,5,89,11
1,1,3,0,6,1,1,5,18,11
1,1,19,1,6,1,1,5,7,11
2,1,3,0,3,0,1,5,18,11
2,1,22,0,3,0,1,5,89,11
2,1,22,0,4,0,1,5,95,11
2,1,17,1,0,0,1,5,89,11
2,1,20,1,5,1,1,5,38,11
2,1,14,1,6,1,1,5,26,11
2,1,2,0,0,0,1,5,18,11
2,1,17,1,0,0,1,5,58,11
2,1,3,0,1,0,1,5,89,11
2,1,19,1,1,0,1,5,100,11
2,1,0,0,2,0,1,5,100,11
2,1,16,1,2,0,1,5,89,11
2,1,23,0,2,0,1,5,100,11
2,1,18,1,3,0,1,5,65,11
2,1,20,1,4,0,1,5,7,11
2,1,14,1,6,1,1,5,88,11
2,1,11,1,0,0,1,5,46,11
2,1,3,0,2,0,1,5,89,11
2,1,19,1,3,0,1,5,100,11
2,1,18,1,4,0,1,5,89,11
2,1,20,1,4,0,1,5,89,11
2,1,18,1,1,0,1,5,18,11
2,1,17,1,3,0,1,5,89,11
3,2,16,1,4,0,1,5,65,11
3,2,23,0,6,1,1,5,128,11
3,2,19,1,3,0,1,5,65,11
3,2,0,0,4,0,1,5,7,11
3,2,1,0,5,1,1,5,89,11
3,2,21,0,5,1,1,5,100,11
3,2,0,0,6,1,1,5,89,11
3,2,11,1,6,1,1,5,100,11
3,2,8,1,0,0,1,5,72,11
3,2,17,1,0,0,1,5,89,11
3,2,21,0,1,0,1,5,65,11
3,2,13,1,2,0,1,5,89,11
3,2,19,1,4,0,1,5,128,11
3,2,6,0,5,1,1,5,1,11
3,2,21,0,6,1,1,5,87,11
3,2,11,1,3,0,1,5,100,11
3,2,1,0,4,0,1,5,18,11
3,2,23,0,4,0,1,5,65,11
3,2,0,0,5,1,1,5,87,11
3,2,12,1,6,1,1,5,87,11
3,2,15,1,0,0,1,5,89,11
3,2,22,0,1,0,1,5,126,11
3,2,16,1,4,0,1,5,89,11
3,2,9,1,5,1,1,5,89,11
3,2,18,1,5,1,1,5,89,11
3,2,14,1,6,1,1,5,75,11
3,2,19,1,6,1,1,5,13,11
3,2,20,1,6,1,1,5,89,11
4,2,3,0,2,0,2,5,100,11
4,2,20,1,2,0,2,5,72,11
4,2,12,1,3,0,2,5,7,11
4,2,20,1,3,0,2,5,89,11
4,2,8,1,6,1,2,5,89,11
4,2,12,1,6,1,2,5,89,11
4,2,1,0,1,0,2,5,89,11
4,2,22,0,1,0,2,5,100,11
4,2,17,1,2,0,2,5,89,11
4,2,4,0,3,0,2,5,72,11
4,2,16,1,5,1,2,5,89,11
4,2,21,0,6,1,2,5,87,11
4,2,21,0,0,0,2,5,38,11
4,2,2,0,1,0,2,5,100,11
4,2,23,0,1,0,2,5,89,11
4,2,10,1,2,0,2,5,89,11
4,2,14,1,2,0,2,5,89,11
4,2,22,0,2,0,2,5,89,11
4,2,23,0,2,0,2,5,89,11
4,2,5,0,3,0,2,5,18,11
4,2,20,1,3,0,2,5,89,11
4,2,22,0,3,0,2,5,18,11
4,2,0,0,4,0,2,5,89,11
4,2,12,1,4,0,2,5,89,11
4,2,21,0,6,1,2,5,89,11
4,2,20,1,0,0,2,5,89,11
4,2,20,1,0,0,2,5,89,11
4,2,23,0,3,0,2,5,100,11
4,2,13,1,4,0,2,5,89,11
4,2,0,0,5,1,2,5,89,11
4,2,10,1,5,1,2,5,89,11
4,2,15,1,5,1,2,5,89,11
4,2,12,1,6,1,2,5,75,9
4,2,16,1,6,1,2,5,89,11
4,2,16,1,6,1,2,5,89,11
4,2,12,1,0,0,2,5,7,11
4,2,13,1,0,0,2,5,89,11
4,2,19,1,0,0,2,5,89,11
4,2,20,1,0,0,2,5,89,11
4,2,19,1,1,0,2,5,89,11
4,2,20,1,1,0,2,5,100,11
5,2,22,0,2,0,2,5,89,11
5,2,13,1,3,0,2,5,89,11
5,2,14,1,3,0,2,5,89,11
5,2,22,0,3,0,2,5,89,11
5,2,0,0,4,0,2,5,89,11
5,2,0,0,4,0,2,5,89,11
5,2,1,0,4,0,2,5,89,11
5,2,16,1,5,1,2,5,75,11
5,2,0,0,6,1,2,5,75,11
5,2,14,1,6,1,2,5,100,11
5,2,15,1,6,1,2,5,89,11
5,2,0,0,0,0,2,5,100,11
5,2,2,0,0,0,2,5,100,11
5,2,14,1,0,0,2,5,89,11
5,2,3,0,1,0,2,5,89,11
5,2,13,1,1,0,2,5,100,11
5,2,19,1,1,0,2,5,89,11
5,2,15,1,2,0,2,5,100,11
5,2,18,1,2,0,2,5,100,11
5,2,20,1,2,0,2,5,89,11
5,2,20,1,2,0,2,5,100,11
5,2,23,0,2,0,2,5,13,11
5,2,0,0,5,1,2,5,100,11
5,2,2,0,6,1,2,5,72,11
5,2,20,1,6,1,2,5,89,11
5,2,21,0,6,1,2,5,89,11
5,2,22,0,2,0,2,5,125,11
5,2,0,0,6,1,2,5,128,11
5,2,0,0,6,1,2,5,72,11
5,2,19,1,6,1,2,5,89,11
5,2,20,1,0,0,2,5,89,11
5,2,13,1,1,0,2,5,128,11
5,2,20,1,2,0,2,5,100,11
5,2,22,0,2,0,2,5,100,11
5,2,15,1,3,0,2,5,89,11
5,2,18,1,3,0,2,5,72,11
5,2,0,0,4,0,2,5,89,11
5,2,0,0,4,0,2,5,89,11
5,2,2,0,4,0,2,5,13,11
5,2,21,0,5,1,2,5,7,11
5,2,14,1,6,1,2,5,89,11
5,2,20,1,6,1,2,5,89,11
5,2,20,1,0,0,2,5,100,11
5,2,6,0,1,0,2,5,65,11
5,2,17,1,2,0,2,5,100,11
5,2,18,1,2,0,2,5,44,11
5,2,14,1,4,0,2,5,100,11
6,3,13,1,5,1,2,5,89,11
6,3,23,0,5,1,2,5,89,11
6,3,23,0,5,1,2,5,89,11
6,3,16,1,6,1,2,5,89,11
6,3,20,1,6,1,2,5,89,11
6,3,13,1,0,0,2,5,100,11
6,3,17,1,0,0,2,5,100,11
6,3,1,0,2,0,2,5,18,11
6,3,4,0,2,0,2,5,75,11
6,3,9,1,3,0,2,5,89,11
6,3,10,1,3,0,2,5,89,11
6,3,17,1,3,0,2,5,13,11
6,3,19,1,4,0,2,5,75,11
6,3,17,1,5,1,2,5,89,11
6,3,22,0,5,1,2,5,89,11
6,3,13,1,6,1,2,5,89,11
6,3,13,1,6,1,2,5,89,11
6,3,0,0,0,0,2,5,89,11
6,3,6,0,0,0,2,5,89,11
6,3,10,1,1,0,2,5,114,11
6,3,12,1,1,0,2,5,89,11
6,3,15,1,2,0,2,5,44,8
6,3,23,0,2,0,2,5,89,11
6,3,1,0,3,0,2,5,89,11
6,3,23,0,3,0,2,5,89,11
6,3,11,1,4,0,2,5,89,11
6,3,14,1,5,1,2,5,75,11
6,3,21,0,5,1,2,5,89,11
6,3,6,0,6,1,2,5,65,11
6,3,9,1,6,1,2,5,44,11
6,3,0,0,1,0,2,5,89,11
6,3,1,0,1,0,2,5,75,11
6,3,3,0,1,0,2,5,89,11
6,3,12,1,1,0,2,5,72,11
6,3,12,1,1,0,2,5,100,11
6,3,15,1,1,0,2,5,89,11
6,3,0,0,2,0,2,5,72,11
6,3,10,1,2,0,2,5,89,11
6,3,23,0,2,0,2,5,89,11
6,3,0,0,3,0,2,5,89,11
6,3,13,1,3,0,2,5,89,11
6,3,14,1,3,0,2,5,89,9
6,3,16,1,3,0,2,5,89,11
6,3,22,0,5,1,2,5,19,11
6,3,5,0,6,1,2,5,89,11
6,3,21,0,6,1,2,5,89,11
6,3,21,0,6,1,2,5,100,11
6,3,1,0,0,0,2,5,100,11
6,3,2,0,0,0,2,5,100,11
6,3,13,1,0,0,2,5,89,11
6,3,23,0,0,0,2,5,7,11
6,3,2,0,3,0,2,5,100,11
6,3,3,0,3,0,2,5,100,11
6,3,20,1,3,0,2,5,7,11
6,3,22,0,3,0,2,5,100,11
6,3,0,0,6,1,2,5,89,11
6,3,20,1,6,1,2,5,89,11
7,3,14,1,1,0,3,5,100,11
7,3,18,1,1,0,3,5,88,11
7,3,15,1,2,0,3,5,89,11
7,3,4,0,3,0,3,5,75,11
7,3,23,0,4,0,3,5,7,11
7,3,13,1,5,1,3,5,89,11
7,3,15,1,5,1,3,5,89,11
7,3,18,1,5,1,3,5,89,11
7,3,7,1,6,1,3,5,100,11
7,3,21,0,6,1,3,5,89,11
7,3,7,1,0,0,3,5,13,11
7,3,9,1,1,0,3,5,100,11
7,3,13,1,1,0,3,5,89,11
7,3,18,1,2,0,3,5,7,11
7,3,2,0,3,0,3,5,89,11
7,3,10,1,4,0,3,5,89,11
7,3,15,1,4,0,3,5,89,11
7,3,17,1,4,0,3,5,89,9
7,3,18,1,4,0,3,5,89,11
7,3,23,0,4,0,3,5,89,11
7,3,3,0,5,1,3,5,89,9
7,3,13,1,5,1,3,5,18,11
7,3,21,0,6,1,3,5,75,11
7,3,21,0,6,1,3,5,65,11
7,3,22,0,6,1,3,5,75,11
7,3,2,0,0,0,3,5,89,11
7,3,11,1,0,0,3,5,128,11
7,3,16,1,0,0,3,5,18,11
7,3,17,1,0,0,3,5,89,11
7,3,19,1,0,0,3,5,125,11
7,3,23,0,0,0,3,5,89,11
7,3,7,1,1,0,3,5,4,11
7,3,12,1,1,0,3,5,89,11
7,3,12,1,1,0,3,5,89,11
7,3,10,1,2,0,3,5,125,11
7,3,12,1,2,0,3,5,89,11
7,3,23,0,2,0,3,5,89,11
7,3,10,1,3,0,3,5,89,11
7,3,17,1,4,0,3,5,89,11
7,3,3,0,6,1,3,5,89,11
7,3,21,0,6,1,3,5,89,11
7,3,3,0,0,0,3,5,89,11
7,3,6,0,0,0,3,5,89,11
7,3,22,0,0,0,3,5,97,11
7,3,5,0,1,0,3,5,89,11
7,3,23,0,1,0,3,5,89,11
7,3,14,1,2,0,3,5,89,11
7,3,2,0,3,0,3,5,44,11
7,3,20,1,4,0,3,5,89,11
7,3,17,1,6,1,3,5,89,11
7,3,18,1,6,1,3,5,87,11
7,3,8,1,0,0,3,5,89,11
7,3,17,1,1,0,3,5,89,11
7,3,18,1,1,0,3,5,89,11
7,3,20,1,2,0,3,5,65,11
8,3,14,1,3,0,3,5,18,11
8,3,17,1,4,0,3,5,7,11
8,3,7,1,5,1,3,5,89,11
8,3,7,1,5,1,3,5,89,11
8,3,14,1,6,1,3,5,89,11
8,3,2,0,0,0,3,5,89,11
8,3,10,1,0,0,3,5,100,11
8,3,18,1,1,0,3,5,89,11
8,3,20,1,2,0,3,5,89,11
8,3,8,1,3,0,3,5,89,11
8,3,17,1,3,0,3,5,89,11
8,3,3,0,4,0,3,5,128,11
8,3,12,1,4,0,3,5,128,9
8,3,21,0,4,0,3,5,89,11
8,3,18,1,5,1,3,5,72,11
8,3,7,1,0,0,3,5,89,11
8,3,11,1,0,0,3,5,44,11
8,3,18,1,0,0,3,5,100,11
8,3,19,1,0,0,3,5,89,11
8,3,19,1,0,0,3,5,89,11
8,3,7,1,1,0,3,5,89,11
8,3,14,1,1,0,3,5,100,11
8,3,1,0,3,0,3,5,89,11
8,3,6,0,3,0,3,5,89,11
8,3,18,1,3,0,3,5,89,11
8,3,19,1,3,0,3,5,89,11
8,3,20,1,3,0,3,5,89,11
8,3,23,0,3,0,3,5,89,11
8,3,12,1,4,0,3,5,89,11
8,3,16,1,5,1,3,5,89,11
8,3,21,0,5,1,3,5,65,11
8,3,1,0,6,1,3,5,89,11
8,3,3,0,6,1,3,5,89,11
8,3,18,1,6,1,3,5,89,11
8,3,19,1,6,1,3,5,89,11
8,3,0,0,1,0,3,5,89,11
8,3,4,0,1,0,3,5,89,11
8,3,9,1,3,0,3,5,102,11
8,3,1,0,4,0,3,5,89,11
8,3,5,0,4,0,3,5,89,11
8,3,22,0,5,1,3,5,89,11
8,3,19,1,6,1,3,5,89,11
8,3,20,1,6,1,3,5,89,11
8,3,22,0,0,0,3,5,75,11
8,3,22,0,1,0,3,5,100,11
8,3,10,1,2,0,3,5,89,11
8,3,21,0,2,0,3,5,128,11
9,4,21,0,0,0,3,5,64,11
9,4,14,1,2,0,3,5,65,11
9,4,19,1,0,0,3,5,89,11
9,4,19,1,1,0,3,5,89,11
9,4,11,1,2,0,3,5,7,11
9,4,0,0,3,0,3,5,89,11
9,4,2,0,3,0,3,5,89,11
9,4,9,1,3,0,3,5,89,11
9,4,15,1,4,0,3,5,89,11
9,4,3,0,6,1,3,5,89,11
9,4,10,1,6,1,3,5,18,11
9,4,16,1,0,0,3,5,128,11
9,4,21,0,0,0,3,5,89,11
9,4,17,1,2,0,3,5,89,11
9,4,21,0,2,0,3,5,89,11
9,4,19,1,6,1,3,5,89,11
9,4,23,0,6,1,3,5,89,11
9,4,11,1,1,0,3,5,89,11
9,4,21,0,1,0,3,5,89,11
9,4,0,0,3,0,3,5,65,11
10,4,10,1,1,0,4,5,89,11
10,4,21,0,1,0,4,5,65,11
10,4,6,0,2,0,4,5,65,11
10,4,9,1,2,0,4,5,7,11
10,4,17,1,2,0,4,5,89,8
10,4,8,1,4,0,4,5,89,11
10,4,20,1,6,1,4,5,89,11
10,4,21,0,6,1,4,5,89,11
10,4,23,0,6,1,4,5,89,11
10,4,11,1,0,0,4,5,89,11
10,4,23,0,0,0,4,5,88,11
10,4,23,0,1,0,4,5,100,11
10,4,16,1,2,0,4,5,89,11
10,4,13,1,3,0,4,5,89,11
10,4,17,1,4,0,4,5,89,11
10,4,17,1,5,1,4,5,89,11
10,4,19,1,6,1,4,5,89,11
10,4,19,1,0,0,4,5,89,11
10,4,19,1,0,0,4,5,75,11
10,4,21,0,2,0,4,5,89,11
10,4,23,0,3,0,4,5,89,11
10,4,17,1,4,0,4,5,89,11
10,4,17,1,6,1,4,5,89,11
10,4,19,1,6,1,4,5,89,11
10,4,3,0,0,0,4,5,89,11
10,4,9,1,1,0,4,5,72,11
10,4,13,1,2,0,4,5,89,11
10,4,0,0,4,0,4,5,89,11
10,4,18,1,6,1,4,5,89,11
10,4,11,1,0,0,4,5,89,11
10,4,10,1,3,0,4,5,89,11
11,4,13,1,6,1,4,5,7,11
11,4,16,1,6,1,4,5,65,11
11,4,19,1,0,0,4,5,89,11
11,4,20,1,0,0,4,5,7,11
11,4,21,0,0,0,4,5,89,11
11,4,18,1,1,0,4,5,89,11
11,4,21,0,1,0,4,5,89,11
11,4,18,1,2,0,4,5,7,11
11,4,22,0,2,0,4,5,89,11
11,4,22,0,3,0,4,5,89,11
11,4,1,0,4,0,4,5,89,11
11,4,14,1,5,1,4,5,13,11
11,4,16,1,0,0,4,5,14,8
11,4,23,0,0,0,4,5,89,11
11,4,18,1,1,0,4,5,89,11
11,4,14,1,2,0,4,5,89,11
11,4,11,1,3,0,4,5,75,11
11,4,9,1,4,0,4,5,75,11
11,4,22,0,5,1,4,5,89,11
11,4,0,0,6,1,4,5,75,11
11,4,2,0,6,1,4,5,89,11
11,4,3,0,6,1,4,5,89,11
11,4,7,1,6,1,4,5,89,11
11,4,19,1,0,0,4,5,87,11
11,4,15,1,6,1,4,5,7,11
11,4,19,1,6,1,4,5,89,11
11,4,23,0,6,1,4,5,75,11
11,4,23,0,6,1,4,5,89,11
11,4,21,0,1,0,4,5,89,11
11,4,15,1,2,0,4,5,100,11
11,4,20,1,2,0,4,5,89,11
11,4,21,0,2,0,4,5,89,11
11,4,21,0,2,0,4,5,100,11
11,4,21,0,2,0,4,5,100,11
12,1,12,1,1,0,4,5,89,11
12,1,17,1,4,0,4,5,89,11
12,1,0,0,5,1,4,5,72,11
12,1,17,1,5,1,4,5,89,11
12,1,19,1,5,1,4,5,89,11
12,1,20,1,5,1,4,5,89,11
12,1,22,0,6,1,4,5,89,11
12,1,8,1,0,0,4,5,7,11
12,1,11,1,0,0,4,5,89,11
12,1,19,1,1,0,4,5,89,11
12,1,6,0,3,0,4,5,7,11
12,1,17,1,3,0,4,5,100,11
12,1,7,1,4,0,4,5,65,11
12,1,17,1,4,0,4,5,75,11
12,1,19,1,4,0,4,5,72,11
12,1,15,1,5,1,4,5,100,11
12,1,18,1,5,1,4,5,89,11
12,1,19,1,6,1,4,5,65,11
12,1,19,1,6,1,4,5,38,11
12,1,16,1,0,0,4,5,89,11
12,1,1,0,1,0,4,5,87,11
12,1,11,1,1,0,4,5,89,11
12,1,20,1,1,0,4,5,65,11
12,1,6,0,5,1,4,5,46,11
12,1,15,1,5,1,4,5,89,11
12,1,15,1,1,0,4,5,100,11
12,1,20,1,1,0,4,5,7,11
12,1,20,1,1,0,4,5,65,11
12,1,19,1,3,0,4,5,38,11
12,1,8,1,4,0,4,5,100,11
12,1,18,1,5,1,4,5,89,11
12,1,17,1,6,1,4,5,65,11
12,1,14,1,0,0,4,5,65,11
12,1,20,1,0,0,4,5,89,11
12,1,21,0,0,0,4,5,89,11
12,1,1,0,1,0,4,5,7,11
12,1,2,0,1,0,4,5,89,11
1,1,13,1,0,0,1,5,18,11
1,1,7,1,6,1,1,5,65,11
1,1,12,1,1,0,1,5,65,11
1,1,15,1,5,1,1,5,87,11
1,1,17,1,5,1,1,5,87,11
1,1,0,0,6,1,1,5,65,11
1,1,18,1,1,0,1,5,100,11
1,1,0,0,4,0,1,5,18,11
1,1,7,1,4,0,1,5,128,11
1,1,10,1,4,0,1,5,65,11
1,1,16,1,1,0,1,5,72,11
1,1,22,0,1,0,1,5,65,11
2,1,11,1,5,1,1,5,87,11
2,1,10,1,6,1,1,5,87,11
2,1,11,1,6,1,1,5,87,11
2,1,19,1,3,0,1,5,56,11
2,1,3,0,4,0,1,5,128,11
2,1,13,1,4,0,1,5,65,11
2,1,1,0,0,0,1,5,72,11
2,1,7,1,0,0,1,5,87,11
2,1,1,0,2,0,1,5,58,11
2,1,15,1,3,0,1,5,65,11
2,1,18,1,5,1,1,5,65,9
2,1,2,0,3,0,1,5,100,11
2,1,2,0,5,1,1,5,87,11
2,1,18,1,5,1,1,5,87,11
2,1,8,1,0,0,1,5,64,11
3,2,5,0,5,1,1,5,87,11
3,2,20,1,6,1,1,5,87,11
3,2,11,1,1,0,1,5,65,11
3,2,5,0,5,1,1,5,18,11
3,2,22,0,5,1,1,5,65,11
3,2,23,0,5,1,1,5,128,11
3,2,18,1,0,0,1,5,65,11
3,2,20,1,2,0,1,5,38,11
3,2,4,0,4,0,1,5,87,11
3,2,14,1,4,0,1,5,79,11
3,2,1,0,6,1,1,5,87,11
3,2,18,1,6,1,1,5,65,11
3,2,22,0,6,1,1,5,64,11
3,2,23,0,4,0,1,5,18,11
3,2,21,0,5,1,1,5,65,11
4,2,13,1,1,0,2,5,122,11
4,2,15,1,2,0,2,5,19,11
4,2,21,0,6,1,2,5,87,11
4,2,20,1,1,0,2,5,75,11
4,2,22,0,4,0,2,5,87,11
4,2,18,1,6,1,2,5,65,11
4,2,13,1,0,0,2,5,65,11
4,2,3,0,1,0,2,5,87,11
4,2,22,0,1,0,2,5,95,11
4,2,19,1,5,1,2,5,65,11
4,2,17,1,0,0,2,5,95,11
4,2,11,1,4,0,2,5,65,11
4,2,19,1,4,0,2,5,65,11
4,2,19,1,5,1,2,5,65,11
4,2,21,0,6,1,2,5,87,11
4,2,13,1,0,0,2,5,89,11
4,2,13,1,1,0,2,5,89,11
5,2,0,0,3,0,2,5,72,11
5,2,21,0,4,0,2,5,87,9
5,2,14,1,6,1,2,5,46,11
5,2,5,0,4,0,2,5,87,11
5,2,19,1,4,0,2,5,47,11
5,2,14,1,5,1,2,5,87,11
5,2,20,1,6,1,2,5,87,11
5,2,12,1,0,0,2,5,65,11
5,2,1,0,1,0,2,5,58,11
5,2,12,1,1,0,2,5,18,11
6,3,9,1,3,0,2,5,87,11
6,3,11,1,3,0,2,5,87,11
6,3,1,0,5,1,2,5,87,11
6,3,12,1,5,1,2,5,65,11
6,3,21,0,5,1,2,5,87,11
6,3,8,1,0,0,2,5,65,11
6,3,16,1,1,0,2,5,65,11
6,3,13,1,3,0,2,5,87,11
6,3,16,1,4,0,2,5,100,11
6,3,12,1,5,1,2,5,18,11
6,3,19,1,1,0,2,5,65,11
6,3,14,1,2,0,2,5,18,11
6,3,15,1,2,0,2,5,78,11
6,3,18,1,2,0,2,5,64,11
6,3,20,1,2,0,2,5,64,11
6,3,21,0,2,0,2,5,46,11
6,3,21,0,2,0,2,5,64,11
6,3,6,0,3,0,2,5,16,11
6,3,8,1,3,0,2,5,65,8
6,3,0,0,4,0,2,5,65,11
6,3,19,1,4,0,2,5,64,11
6,3,21,0,4,0,2,5,65,8
6,3,23,0,4,0,2,5,110,11
7,3,20,1,1,0,3,5,43,11
7,3,13,1,2,0,3,5,38,11
7,3,2,0,5,1,3,5,58,11
7,3,18,1,6,1,3,5,87,11
7,3,19,1,6,1,3,5,87,11
7,3,3,0,0,0,3,5,75,11
7,3,15,1,2,0,3,5,65,11
7,3,11,1,4,0,3,5,100,11
7,3,5,0,5,1,3,5,38,11
7,3,15,1,5,1,3,5,18,11
7,3,21,0,5,1,3,5,89,11
7,3,13,1,6,1,3,5,81,11
7,3,14,1,0,0,3,5,18,11
7,3,19,1,2,0,3,5,72,11
7,3,16,1,3,0,3,5,65,11
7,3,19,1,1,0,3,5,100,11
7,3,4,0,3,0,3,5,100,11
7,3,6,0,4,0,3,5,100,11
7,3,4,0,0,0,3,5,18,11
7,3,5,0,0,0,3,5,100,11
8,3,14,1,4,0,3,5,65,11
8,3,9,1,2,0,3,5,38,11
8,3,18,1,4,0,3,5,18,11
8,3,17,1,1,0,3,5,65,11
8,3,12,1,0,0,3,5,18,11
8,3,12,1,1,0,3,5,65,11
8,3,17,1,2,0,3,5,89,11
8,3,17,1,2,0,3,5,87,11
8,3,15,1,3,0,3,5,100,11
8,3,23,0,3,0,3,5,18,11
8,3,11,1,6,1,3,5,65,11
8,3,20,1,6,1,3,5,65,11
8,3,14,1,1,0,3,5,128,11
8,3,22,0,1,0,3,5,65,11
9,4,14,1,0,0,3,5,65,11
9,4,23,0,3,0,3,5,10,11
9,4,2,0,6,1,3,5,75,8
9,4,8,1,6,1,3,5,65,11
9,4,18,1,2,0,3,5,65,11
9,4,15,1,6,1,3,5,65,11
9,4,18,1,0,0,3,5,65,11
9,4,21,0,1,0,3,5,8,11
9,4,22,0,1,0,3,5,100,11
9,4,22,0,2,0,3,5,128,11
9,4,22,0,2,0,3,5,87,11
9,4,22,0,5,1,3,5,8,11
9,4,14,1,2,0,3,5,72,11
9,4,11,1,0,0,3,5,87,11
9,4,13,1,0,0,3,5,65,11
10,4,19,1,3,0,4,5,18,11
10,4,23,0,3,0,4,5,128,11
10,4,22,0,4,0,4,5,59,11
10,4,22,0,5,1,4,5,41,11
10,4,16,1,6,1,4,5,89,11
10,4,22,0,6,1,4,5,87,11
10,4,10,1,0,0,4,5,72,11
10,4,23,0,3,0,4,5,65,11
10,4,8,1,4,0,4,5,18,11
10,4,17,1,4,0,4,5,65,11
10,4,14,1,6,1,4,5,95,11
10,4,21,0,6,1,4,5,65,11
10,4,23,0,1,0,4,5,128,11
10,4,22,0,4,0,4,5,128,11
10,4,15,1,5,1,4,5,95,11
10,4,22,0,5,1,4,5,64,11
10,4,22,0,6,1,4,5,64,11
10,4,20,1,0,0,4,5,65,11
11,4,21,0,6,1,4,5,128,11
11,4,22,0,4,0,4,5,57,11
11,4,0,0,6,1,4,5,87,11
11,4,4,0,0,0,4,5,72,11
11,4,5,0,2,0,4,5,128,11
11,4,3,0,4,0,4,5,87,11
11,4,16,1,2,0,4,5,65,11
11,4,12,1,5,1,4,5,65,11
11,4,12,1,5,1,4,5,58,11
12,1,11,1,6,1,4,5,87,11
12,1,18,1,6,1,4,5,65,11
12,1,21,0,2,0,4,5,65,11
12,1,1,0,6,1,4,5,65,11
12,1,12,1,0,0,4,5,65,11
12,1,13,1,2,0,4,5,128,11
12,1,11,1,3,0,4,5,65,11
12,1,10,1,5,1,4,5,65,11
12,1,5,0,2,0,4,5,87,11
12,1,1,0,3,0,4,5,65,11
12,1,16,1,6,1,4,5,65,11
12,1,22,0,6,1,4,5,87,11
12,1,6,0,0,0,4,5,87,11
12,1,1,0,1,0,4,5,49,11
1,1,19,1,0,0,1,5,110,11
1,1,19,1,2,0,1,5,7,11
1,1,11,1,3,0,1,5,128,11
1,1,20,1,5,1,1,5,65,11
1,1,12,1,0,0,1,5,128,11
1,1,18,1,0,0,1,5,128,11
1,1,19,1,0,0,1,5,65,11
1,1,19,1,1,0,1,5,65,11
1,1,15,1,4,0,1,5,18,11
1,1,13,1,5,1,1,5,128,11
1,1,19,1,6,1,1,5,75,11
1,1,20,1,6,1,1,5,38,11
1,1,7,1,0,0,1,5,18,11
1,1,16,1,2,0,1,5,128,11
1,1,21,0,3,0,1,5,18,11
1,1,3,0,1,0,1,5,100,11
1,1,11,1,1,0,1,5,128,11
1,1,15,1,4,0,1,5,46,11
1,1,21,0,6,1,1,5,65,11
1,1,21,0,6,1,1,5,128,11
1,1,12,1,2,0,1,5,128,11
2,1,1,0,3,0,1,5,128,11
2,1,20,1,3,0,1,5,38,11
2,1,15,1,4,0,1,5,128,11
2,1,6,0,5,1,1,5,100,11
2,1,7,1,5,1,1,5,100,11
2,1,21,0,6,1,1,5,72,11
2,1,13,1,0,0,1,5,72,11
2,1,20,1,1,0,1,5,128,11
2,1,12,1,2,0,1,5,128,11
2,1,11,1,3,0,1,5,88,11
2,1,12,1,6,1,1,5,48,11
2,1,15,1,6,1,1,5,18,11
2,1,8,1,0,0,1,5,128,11
2,1,0,0,1,0,1,5,48,11
2,1,21,0,3,0,1,5,38,11
2,1,2,0,0,0,1,5,18,11
2,1,19,1,0,0,1,5,128,11
2,1,0,0,2,0,1,5,18,11
2,1,21,0,2,0,1,5,65,11
2,1,20,1,0,0,1,5,7,11
2,1,14,1,1,0,1,5,38,11
3,2,9,1,5,1,1,5,4,11
3,2,10,1,6,1,1,5,128,11
3,2,16,1,6,1,1,5,65,11
3,2,21,0,6,1,1,5,128,11
3,2,13,1,2,0,1,5,18,11
3,2,15,1,5,1,1,5,4,11
3,2,22,0,5,1,1,5,128,11
3,2,22,0,5,1,1,5,128,11
3,2,5,0,5,1,1,5,18,11
3,2,14,1,5,1,1,5,128,11
3,2,21,0,0,0,1,5,97,11
3,2,17,1,3,0,1,5,7,9
3,2,20,1,0,0,1,5,65,11
3,2,13,1,4,0,1,5,128,11
3,2,13,1,4,0,1,5,64,11
3,2,15,1,6,1,1,5,65,11
3,2,17,1,6,1,1,5,48,11
4,2,4,0,0,0,2,5,128,11
4,2,13,1,0,0,2,5,76,11
4,2,18,1,0,0,2,5,128,11
4,2,21,0,0,0,2,5,65,11
4,2,17,1,1,0,2,5,18,11
4,2,18,1,4,0,2,5,89,11
4,2,8,1,6,1,2,5,89,11
4,2,12,1,6,1,2,5,89,11
4,2,19,1,0,0,2,5,18,11
4,2,12,1,4,0,2,5,18,11
4,2,18,1,4,0,2,5,18,11
4,2,7,1,6,1,2,5,65,11
4,2,23,0,6,1,2,5,52,11
4,2,18,1,5,1,2,5,48,11
4,2,8,1,6,1,2,5,89,11
4,2,17,1,3,0,2,5,14,11
4,2,11,1,4,0,2,5,89,11
4,2,22,0,4,0,2,5,72,11
4,2,8,1,5,1,2,5,110,11
4,2,10,1,5,1,2,5,110,11
4,2,2,0,0,0,2,5,7,9
4,2,19,1,1,0,2,5,89,11
4,2,19,1,1,0,2,5,89,11
4,2,21,0,1,0,2,5,100,11
5,2,10,1,2,0,2,5,89,11
5,2,14,1,2,0,2,5,100,11
5,2,15,1,3,0,2,5,100,11
5,2,19,1,2,0,2,5,87,11
5,2,7,1,6,1,2,5,65,11
5,2,16,1,6,1,2,5,4,11
5,2,1,0,0,0,2,5,65,11
5,2,11,1,1,0,2,5,89,11
5,2,20,1,1,0,2,5,100,11
5,2,13,1,2,0,2,5,58,8
5,2,6,0,4,0,2,5,75,9
5,2,10,1,5,1,2,5,65,11
5,2,18,1,6,1,2,5,128,11
5,2,11,1,1,0,2,5,89,11
5,2,1,0,0,0,2,5,18,11
5,2,5,0,0,0,2,5,128,11
5,2,4,0,3,0,2,5,18,11
6,3,10,1,0,0,2,5,76,11
6,3,14,1,0,0,2,5,89,11
6,3,21,0,2,0,2,5,100,11
6,3,22,0,4,0,2,5,100,11
6,3,2,0,5,1,2,5,89,11
6,3,0,0,6,1,2,5,89,11
6,3,0,0,6,1,2,5,128,11
6,3,12,1,0,0,2,5,58,11
6,3,10,1,3,0,2,5,58,11
6,3,10,1,0,0,2,5,38,11
6,3,11,1,2,0,2,5,89,9
6,3,19,1,2,0,2,5,18,11
6,3,23,0,2,0,2,5,18,11
6,3,14,1,3,0,2,5,128,11
6,3,23,0,3,0,2,5,100,11
6,3,20,1,6,1,2,5,100,11
6,3,10,1,0,0,2,5,18,11
6,3,8,1,1,0,2,5,18,11
6,3,0,0,2,0,2,5,88,11
6,3,21,0,2,0,2,5,18,11
6,3,11,1,6,1,2,5,18,11
6,3,20,1,6,1,2,5,65,11
7,3,13,1,1,0,3,5,38,11
7,3,22,0,1,0,3,5,128,11
7,3,0,0,2,0,3,5,128,11
7,3,23,0,2,0,3,5,128,11
7,3,2,0,5,1,3,5,128,11
7,3,1,0,2,0,3,5,95,11
7,3,19,1,2,0,3,5,89,11
7,3,5,0,4,0,3,5,18,11
7,3,10,1,4,0,3,5,64,11
7,3,17,1,6,1,3,5,100,11
7,3,13,1,0,0,3,5,18,11
7,3,5,0,1,0,3,5,89,11
7,3,22,0,1,0,3,5,64,11
7,3,1,0,2,0,3,5,65,11
7,3,8,1,3,0,3,5,100,11
7,3,15,1,3,0,3,5,65,11
7,3,23,0,3,0,3,5,18,11
7,3,15,1,6,1,3,5,100,11
7,3,22,0,6,1,3,5,64,11
7,3,23,0,6,1,3,5,65,11
7,3,15,1,2,0,3,5,88,11
7,3,17,1,2,0,3,5,18,11
7,3,8,1,6,1,3,5,100,11
7,3,14,1,0,0,3,5,128,11
7,3,22,0,0,0,3,5,64,11
8,3,17,1,3,0,3,5,100,11
8,3,14,1,4,0,3,5,100,11
8,3,22,0,4,0,3,5,18,11
8,3,23,0,5,1,3,5,128,11
8,3,3,0,1,0,3,5,27,11
8,3,22,0,3,0,3,5,65,8
8,3,19,1,6,1,3,5,110,11
8,3,21,0,1,0,3,5,87,11
8,3,20,1,2,0,3,5,89,11
8,3,23,0,3,0,3,5,128,11
8,3,15,1,4,0,3,5,89,11
8,3,23,0,5,1,3,5,48,11
8,3,7,1,0,0,3,5,65,11
8,3,9,1,0,0,3,5,87,11
8,3,22,0,2,0,3,5,128,11
8,3,19,1,4,0,3,5,18,11
9,4,11,1,6,1,3,5,106,11
9,4,13,1,1,0,3,5,97,11
9,4,23,0,1,0,3,5,128,11
9,4,13,1,3,0,3,5,46,11
9,4,9,1,0,0,3,5,65,11
9,4,16,1,1,0,3,5,100,11
9,4,17,1,2,0,3,5,72,11
9,4,8,1,3,0,3,5,65,11
9,4,1,0,6,1,3,5,30,11
9,4,12,1,0,0,3,5,72,11
9,4,8,1,1,0,3,5,65,11
9,4,11,1,5,1,3,5,7,11
9,4,13,1,6,1,3,5,128,11
9,4,19,1,6,1,3,5,128,11
10,4,15,1,5,1,4,5,18,11
10,4,18,1,1,0,4,5,125,11
10,4,0,0,0,0,4,5,65,11
10,4,21,0,0,0,4,5,128,11
10,4,10,1,5,1,4,5,89,11
10,4,22,0,6,1,4,5,18,11
10,4,21,0,2,0,4,5,128,11
11,4,16,1,1,0,4,5,18,11
11,4,21,0,5,1,4,5,65,11
11,4,15,1,1,0,4,5,65,11
11,4,16,1,2,0,4,5,110,11
11,4,3,0,5,1,4,5,112,11
11,4,14,1,6,1,4,5,65,11
11,4,16,1,6,1,4,5,128,11
11,4,18,1,0,0,4,5,128,11
11,4,19,1,0,0,4,5,65,11
11,4,14,1,4,0,4,5,65,11
11,4,4,0,5,1,4,5,65,11
11,4,19,1,5,1,4,5,128,11
11,4,20,1,5,1,4,5,89,11
11,4,21,0,5,1,4,5,128,11
11,4,2,0,6,1,4,5,65,9
11,4,10,1,6,1,4,5,128,11
11,4,19,1,0,0,4,5,89,11
11,4,20,1,3,0,4,5,65,11
11,4,19,1,4,0,4,5,65,11
11,4,20,1,5,1,4,5,65,11
12,1,13,1,6,1,4,5,128,11
12,1,18,1,0,0,4,5,65,11
12,1,2,0,1,0,4,5,65,11
12,1,20,1,1,0,4,5,65,11
12,1,19,1,2,0,4,5,58,11
12,1,18,1,4,0,4,5,18,11
12,1,15,1,1,0,4,5,65,11
12,1,16,1,1,0,4,5,18,11
12,1,21,0,2,0,4,5,65,11
12,1,10,1,3,0,4,5,89,11
12,1,13,1,3,0,4,5,112,11
12,1,0,0,0,0,4,5,18,11
12,1,22,0,4,0,4,5,65,11
12,1,23,0,2,0,4,5,4,11
12,1,6,0,3,0,4,5,65,11
12,1,7,1,0,0,4,5,89,11
12,1,23,0,1,0,4,5,65,11
1,1,13,1,0,0,1,5,125,11
1,1,14,1,1,0,1,5,87,11
1,1,17,1,1,0,1,5,18,11
1,1,23,0,1,0,1,5,95,11
1,1,16,1,2,0,1,5,87,11
1,1,20,1,3,0,1,5,65,11
1,1,1,0,5,1,1,5,87,11
1,1,15,1,6,1,1,5,87,11
1,1,17,1,6,1,1,5,65,11
1,1,19,1,2,0,1,5,75,11
1,1,5,0,3,0,1,5,78,11
1,1,11,1,4,0,1,5,78,11
1,1,4,0,5,1,1,5,87,11
1,1,18,1,5,1,1,5,87,11
1,1,13,1,6,1,1,5,89,11
1,1,15,1,6,1,1,5,65,11
1,1,18,1,6,1,1,5,87,11
1,1,21,0,6,1,1,5,75,11
1,1,10,1,0,0,1,5,87,11
1,1,23,0,0,0,1,5,65,11
1,1,18,1,1,0,1,5,95,11
1,1,11,1,3,0,1,5,41,11
1,1,16,1,6,1,1,5,38,11
1,1,5,0,1,0,1,5,87,11
1,1,8,1,1,0,1,5,87,11
1,1,8,1,1,0,1,5,7,11
1,1,10,1,1,0,1,5,65,11
1,1,15,1,1,0,1,5,65,11
1,1,1,0,2,0,1,5,65,9
1,1,5,0,2,0,1,5,18,11
1,1,21,0,2,0,1,5,87,11
1,1,6,0,4,0,1,5,87,11
1,1,13,1,5,1,1,5,95,11
1,1,19,1,5,1,1,5,87,11
1,1,23,0,5,1,1,5,87,11
1,1,4,0,6,1,1,5,7,11
1,1,9,1,6,1,1,5,75,11
1,1,3,0,0,0,1,5,76,11
1,1,14,1,0,0,1,5,101,11
1,1,17,1,0,0,1,5,75,11
1,1,15,1,1,0,1,5,22,11
1,1,17,1,1,0,1,5,75,11
1,1,19,1,1,0,1,5,75,11
1,1,15,1,2,0,1,5,8,11
1,1,16,1,2,0,1,5,87,11
1,1,18,1,2,0,1,5,87,11
2,1,18,1,3,0,1,5,65,11
2,1,13,1,6,1,1,5,87,11
2,1,15,1,6,1,1,5,87,11
2,1,6,0,1,0,1,5,87,11
2,1,19,1,5,1,1,5,65,9
2,1,12,1,1,0,1,5,87,11
2,1,13,1,1,0,1,5,18,11
2,1,15,1,2,0,1,5,81,11
2,1,16,1,4,0,1,5,65,11
2,1,2,0,5,1,1,5,89,11
2,1,15,1,5,1,1,5,46,11
2,1,21,0,5,1,1,5,65,11
2,1,22,0,5,1,1,5,65,11
2,1,3,0,6,1,1,5,87,11
2,1,5,0,6,1,1,5,79,11
2,1,13,1,6,1,1,5,38,11
2,1,0,0,3,0,1,5,87,11
2,1,17,1,4,0,1,5,38,11
2,1,5,0,6,1,1,5,87,11
2,1,15,1,6,1,1,5,87,11
2,1,17,1,6,1,1,5,65,11
2,1,19,1,0,0,1,5,58,11
2,1,20,1,0,0,1,5,65,11
2,1,22,0,0,0,1,5,65,11
2,1,2,0,1,0,1,5,87,11
2,1,1,0,2,0,1,5,18,11
2,1,20,1,2,0,1,5,58,11
2,1,23,0,2,0,1,5,87,11
3,2,13,1,4,0,1,5,44,11
3,2,23,0,5,1,1,5,87,11
3,2,0,0,1,0,1,5,87,11
3,2,15,1,1,0,1,5,100,11
3,2,18,1,3,0,1,5,46,11
3,2,19,1,3,0,1,5,65,11
3,2,18,1,4,0,1,5,18,11
3,2,1,0,5,1,1,5,66,11
3,2,11,1,6,1,1,5,65,11
3,2,21,0,6,1,1,5,95,11
3,2,21,0,0,0,1,5,66,11
3,2,18,1,2,0,1,5,65,11
3,2,0,0,3,0,1,5,18,11
3,2,10,1,4,0,1,5,65,11
3,2,12,1,1,0,1,5,65,11
3,2,9,1,2,0,1,5,65,9
3,2,20,1,2,0,1,5,65,11
3,2,21,0,2,0,1,5,65,11
3,2,15,1,4,0,1,5,38,11
3,2,2,0,0,0,1,5,65,8
3,2,8,1,0,0,1,5,65,11
3,2,16,1,1,0,1,5,58,9
3,2,16,1,1,0,1,5,89,11
3,2,21,0,1,0,1,5,87,11
3,2,1,0,5,1,1,5,46,8
3,2,14,1,5,1,1,5,89,11
3,2,5,0,6,1,1,5,18,11
3,2,13,1,6,1,1,5,89,9
4,2,18,1,1,0,2,5,18,11
4,2,17,1,2,0,2,5,22,11
4,2,20,1,3,0,2,5,87,11
4,2,22,0,3,0,2,5,7,11
4,2,22,0,5,1,2,5,107,9
4,2,1,0,6,1,2,5,87,11
4,2,16,1,3,0,2,5,18,11
4,2,20,1,4,0,2,5,87,11
4,2,0,0,6,1,2,5,87,11
4,2,0,0,0,0,2,5,100,11
4,2,15,1,5,1,2,5,65,9
4,2,21,0,5,1,2,5,65,11
4,2,0,0,6,1,2,5,95,11
4,2,21,0,0,0,2,5,65,11
4,2,8,1,1,0,2,5,87,11
4,2,23,0,1,0,2,5,58,11
4,2,21,0,2,0,2,5,87,11
4,2,20,1,3,0,2,5,65,11
4,2,15,1,4,0,2,5,7,11
4,2,18,1,5,1,2,5,83,11
4,2,15,1,6,1,2,5,65,11
4,2,0,0,1,0,2,5,87,11
4,2,18,1,1,0,2,5,64,11
5,2,5,0,2,0,2,5,38,11
5,2,15,1,2,0,2,5,65,11
5,2,0,0,5,1,2,5,87,11
5,2,12,1,5,1,2,5,89,11
5,2,13,1,0,0,2,5,89,11
5,2,17,1,1,0,2,5,7,11
5,2,22,0,1,0,2,5,18,11
5,2,19,1,2,0,2,5,18,11
5,2,19,1,5,1,2,5,100,11
5,2,8,1,6,1,2,5,65,11
5,2,22,0,6,1,2,5,87,11
5,2,4,0,4,0,2,5,95,11
5,2,16,1,6,1,2,5,64,11
5,2,20,1,6,1,2,5,89,11
5,2,14,1,0,0,2,5,18,11
5,2,7,1,1,0,2,5,18,11
5,2,17,1,3,0,2,5,18,11
5,2,6,0,4,0,2,5,87,11
5,2,16,1,5,1,2,5,18,11
5,2,6,0,6,1,2,5,95,11
5,2,6,0,6,1,2,5,78,11
5,2,9,1,6,1,2,5,87,11
5,2,10,1,6,1,2,5,18,11
5,2,23,0,6,1,2,5,65,11
5,2,23,0,0,0,2,5,64,11
5,2,23,0,1,0,2,5,75,11
5,2,4,0,2,0,2,5,100,11
5,2,21,0,3,0,2,5,87,11
5,2,15,1,4,0,2,5,100,11
6,3,18,1,5,1,2,5,89,11
6,3,1,0,0,0,2,5,89,11
6,3,2,0,0,0,2,5,8,11
6,3,16,1,3,0,2,5,38,11
6,3,3,0,5,1,2,5,76,11
6,3,7,1,6,1,2,5,8,11
6,3,8,1,0,0,2,5,87,11
6,3,17,1,0,0,2,5,87,11
6,3,5,0,2,0,2,5,65,11
6,3,17,1,4,0,2,5,87,11
6,3,10,1,5,1,2,5,18,11
6,3,20,1,0,0,2,5,87,11
6,3,19,1,3,0,2,5,18,11
6,3,15,1,4,0,2,5,75,11
6,3,2,0,5,1,2,5,18,11
6,3,4,0,5,1,2,5,46,11
6,3,20,1,0,0,2,5,65,11
6,3,20,1,0,0,2,5,22,11
6,3,14,1,2,0,2,5,18,11
6,3,13,1,3,0,2,5,7,11
6,3,11,1,4,0,2,5,100,11
6,3,16,1,5,1,2,5,65,11
6,3,16,1,5,1,2,5,115,11
6,3,7,1,6,1,2,5,95,11
6,3,12,1,6,1,2,5,95,11
7,3,10,1,0,0,3,5,1,11
7,3,19,1,0,0,3,5,89,11
7,3,13,1,3,0,3,5,89,11
7,3,14,1,5,1,3,5,88,9
7,3,12,1,2,0,3,5,87,11
7,3,15,1,2,0,3,5,95,11
7,3,16,1,3,0,3,5,65,11
7,3,14,1,4,0,3,5,18,11
7,3,21,0,5,1,3,5,64,11
7,3,4,0,6,1,3,5,100,11
7,3,9,1,0,0,3,5,87,11
7,3,18,1,0,0,3,5,30,11
7,3,10,1,2,0,3,5,65,11
7,3,4,0,3,0,3,5,65,11
7,3,19,1,6,1,3,5,65,11
7,3,1,0,1,0,3,5,7,11
7,3,14,1,1,0,3,5,87,11
7,3,7,1,2,0,3,5,89,11
7,3,20,1,2,0,3,5,64,11
7,3,9,1,3,0,3,5,58,11
7,3,20,1,3,0,3,5,87,11
7,3,21,0,3,0,3,5,87,11
8,3,0,0,3,0,3,5,87,11
8,3,10,1,3,0,3,5,46,11
8,3,18,1,3,0,3,5,89,11
8,3,3,0,4,0,3,5,46,11
8,3,7,1,1,0,3,5,18,9
8,3,20,1,3,0,3,5,65,11
8,3,8,1,4,0,3,5,126,11
8,3,5,0,1,0,3,5,100,11
8,3,8,1,3,0,3,5,100,11
8,3,15,1,3,0,3,5,89,11
8,3,9,1,4,0,3,5,89,11
8,3,1,0,5,1,3,5,65,11
8,3,22,0,3,0,3,5,87,11
8,3,1,0,6,1,3,5,87,11
9,4,10,1,0,0,3,5,65,11
9,4,5,0,3,0,3,5,18,11
9,4,13,1,3,0,3,5,18,11
9,4,16,1,3,0,3,5,87,11
9,4,0,0,0,0,3,5,18,11
9,4,13,1,1,0,3,5,18,11
9,4,19,1,1,0,3,5,18,11
9,4,4,0,4,0,3,5,18,11
9,4,18,1,4,0,3,5,75,11
9,4,14,1,5,1,3,5,65,11
9,4,0,0,6,1,3,5,38,11
9,4,0,0,6,1,3,5,89,11
9,4,7,1,6,1,3,5,19,9
9,4,20,1,6,1,3,5,87,11
9,4,10,1,1,0,3,5,22,11
9,4,19,1,1,0,3,5,65,11
9,4,12,1,2,0,3,5,46,11
9,4,13,1,3,0,3,5,22,11
9,4,15,1,5,1,3,5,29,11
9,4,16,1,2,0,3,5,115,11
9,4,21,0,3,0,3,5,65,11
9,4,0,0,4,0,3,5,65,11
9,4,9,1,4,0,3,5,38,11
9,4,13,1,0,0,3,5,64,11
9,4,14,1,0,0,3,5,13,11
9,4,19,1,0,0,3,5,7,11
10,4,22,0,4,0,4,5,87,11
10,4,3,0,5,1,4,5,65,9
10,4,15,1,5,1,4,5,115,11
10,4,18,1,2,0,4,5,89,11
10,4,5,0,3,0,4,5,18,11
10,4,16,1,5,1,4,5,38,11
10,4,16,1,5,1,4,5,128,11
10,4,15,1,1,0,4,5,7,11
10,4,22,0,1,0,4,5,8,11
10,4,21,0,3,0,4,5,100,11
10,4,1,0,4,0,4,5,8,11
10,4,14,1,4,0,4,5,65,11
10,4,22,0,4,0,4,5,87,11
10,4,4,0,5,1,4,5,65,9
10,4,22,0,5,1,4,5,75,11
10,4,23,0,5,1,4,5,64,11
10,4,0,0,0,0,4,5,87,11
10,4,11,1,0,0,4,5,18,11
10,4,13,1,0,0,4,5,87,11
10,4,3,0,2,0,4,5,79,11
10,4,18,1,2,0,4,5,65,11
10,4,14,1,4,0,4,5,79,11
10,4,19,1,4,0,4,5,87,11
10,4,18,1,6,1,4,5,95,11
10,4,21,0,0,0,4,5,87,11
10,4,18,1,1,0,4,5,65,11
10,4,23,0,2,0,4,5,65,11
11,4,19,1,6,1,4,5,87,11
11,4,9,1,0,0,4,5,46,11
11,4,12,1,0,0,4,5,65,11
11,4,16,1,0,0,4,5,18,11
11,4,2,0,1,0,4,5,87,11
11,4,4,0,1,0,4,5,87,11
11,4,10,1,1,0,4,5,95,11
11,4,19,1,2,0,4,5,87,11
11,4,17,1,3,0,4,5,65,11
11,4,21,0,3,0,4,5,75,11
11,4,22,0,5,1,4,5,65,11
11,4,4,0,6,1,4,5,65,11
11,4,16,1,6,1,4,5,100,11
11,4,1,0,2,0,4,5,87,11
11,4,1,0,2,0,4,5,87,11
11,4,2,0,3,0,4,5,89,11
11,4,14,1,5,1,4,5,87,11
11,4,21,0,5,1,4,5,65,11
11,4,10,1,6,1,4,5,95,11
11,4,20,1,6,1,4,5,65,11
11,4,23,0,6,1,4,5,65,11
11,4,20,1,0,0,4,5,100,11
11,4,5,0,2,0,4,5,18,11
11,4,13,1,2,0,4,5,87,11
11,4,20,1,5,1,4,5,75,11
11,4,23,0,5,1,4,5,18,11
11,4,0,0,6,1,4,5,65,11
11,4,7,1,6,1,4,5,7,11
11,4,16,1,0,0,4,5,65,11
11,4,17,1,0,0,4,5,38,11
11,4,19,1,0,0,4,5,89,11
11,4,6,0,1,0,4,5,58,11
11,4,16,1,2,0,4,5,65,11
11,4,2,0,3,0,4,5,38,9
11,4,12,1,4,0,4,5,89,11
11,4,2,0,5,1,4,5,18,11
11,4,16,1,5,1,4,5,75,11
12,1,17,1,6,1,4,5,65,8
12,1,13,1,1,0,4,5,128,11
12,1,18,1,3,0,4,5,128,11
12,1,15,1,4,0,4,5,7,11
12,1,2,0,5,1,4,5,18,11
12,1,15,1,5,1,4,5,128,11
12,1,3,0,0,0,4,5,7,11
12,1,16,1,5,1,4,5,38,11
12,1,20,1,5,1,4,5,7,11
12,1,17,1,1,0,4,5,75,11
12,1,1,0,2,0,4,5,128,11
12,1,18,1,3,0,4,5,65,11
12,1,16,1,4,0,4,5,18,11
12,1,22,0,4,0,4,5,7,11
12,1,13,1,6,1,4,5,75,11
12,1,15,1,6,1,4,5,38,11
12,1,5,0,0,0,4,5,107,11
12,1,10,1,1,0,4,5,65,11
12,1,9,1,2,0,4,5,128,11
12,1,11,1,2,0,4,5,65,11
12,1,13,1,2,0,4,5,18,11
12,1,13,1,3,0,4,5,128,11
12,1,17,1,3,0,4,5,65,11
12,1,3,0,4,0,4,5,75,9
12,1,14,1,4,0,4,5,128,11
12,1,17,1,4,0,4,5,128,11
12,1,18,1,4,0,4,5,65,11
12,1,5,0,6,1,4,5,18,11
12,1,18,1,6,1,4,5,95,11
12,1,19,1,6,1,4,5,65,11
12,1,15,1,0,0,4,5,18,11
12,1,20,1,0,0,4,5,65,11
12,1,5,0,1,0,4,5,128,11
12,1,10,1,1,0,4,5,128,11
1,1,0,0,0,0,1,5,87,11
1,1,13,1,0,0,1,5,46,11
1,1,17,1,0,0,1,5,65,11
1,1,4,0,1,0,1,5,128,11
1,1,7,1,5,1,1,5,128,11
1,1,14,1,5,1,1,5,128,11
1,1,5,0,6,1,1,5,86,11
1,1,10,1,2,0,1,5,89,11
1,1,22,0,2,0,1,5,65,11
1,1,5,0,4,0,1,5,22,11
1,1,2,0,6,1,1,5,72,11
1,1,21,0,0,0,1,5,65,11
1,1,17,1,0,0,1,5,128,11
1,1,18,1,1,0,1,5,89,11
1,1,5,0,2,0,1,5,128,11
1,1,17,1,2,0,1,5,18,11
1,1,15,1,3,0,1,5,18,11
1,1,18,1,4,0,1,5,75,11
1,1,19,1,5,1,1,5,128,11
1,1,7,1,6,1,1,5,65,11
1,1,17,1,6,1,1,5,128,11
1,1,2,0,0,0,1,5,72,8
1,1,2,0,0,0,1,5,75,8
1,1,10,1,0,0,1,5,38,11
1,1,9,1,1,0,1,5,72,11
2,1,5,0,3,0,1,5,65,11
2,1,9,1,4,0,1,5,38,11
2,1,3,0,5,1,1,5,128,11
2,1,18,1,5,1,1,5,89,11
2,1,20,1,5,1,1,5,7,11
2,1,16,1,6,1,1,5,128,11
2,1,20,1,6,1,1,5,128,11
2,1,0,0,0,0,1,5,72,11
2,1,6,0,0,0,1,5,64,11
2,1,23,0,1,0,1,5,100,11
2,1,23,0,2,0,1,5,100,11
2,1,3,0,3,0,1,5,72,11
2,1,23,0,3,0,1,5,100,11
2,1,12,1,6,1,1,5,87,11
2,1,20,1,6,1,1,5,128,11
2,1,17,1,2,0,1,5,65,11
2,1,21,0,2,0,1,5,87,11
2,1,22,0,4,0,1,5,100,11
2,1,0,0,6,1,1,5,89,11
2,1,16,1,6,1,1,5,128,11
2,1,14,1,0,0,1,5,128,11
2,1,23,0,0,0,1,5,128,11
2,1,23,0,0,0,1,5,87,11
2,1,13,1,1,0,1,5,38,11
2,1,16,1,1,0,1,5,65,11
2,1,2,0,2,0,1,5,89,11
2,1,21,0,2,0,1,5,75,11
2,1,19,1,4,0,1,5,65,11
2,1,21,0,5,1,1,5,38,11
2,1,5,0,6,1,1,5,72,11
2,1,22,0,6,1,1,5,95,11
2,1,0,0,1,0,1,5,128,11
2,1,22,0,1,0,1,5,128,11
2,1,6,0,2,0,1,5,65,11
2,1,21,0,2,0,1,5,72,11
2,1,4,0,3,0,1,5,58,11
2,1,19,1,3,0,1,5,89,11
3,2,17,1,4,0,1,5,7,11
3,2,19,1,6,1,1,5,128,11
3,2,16,1,0,0,1,5,89,11
3,2,20,1,0,0,1,5,13,11
3,2,7,1,2,0,1,5,72,11
3,2,8,1,3,0,1,5,89,11
3,2,18,1,3,0,1,5,89,11
3,2,11,1,4,0,1,5,89,11
3,2,13,1,4,0,1,5,128,11
3,2,18,1,4,0,1,5,7,11
3,2,23,0,5,1,1,5,89,11
3,2,23,0,5,1,1,5,89,11
3,2,14,1,6,1,1,5,88,11
3,2,18,1,6,1,1,5,65,11
3,2,21,0,6,1,1,5,128,11
3,2,23,0,0,0,1,5,95,11
3,2,2,0,1,0,1,5,89,11
3,2,3,0,2,0,1,5,65,11
3,2,4,0,4,0,1,5,89,11
3,2,1,0,5,1,1,5,89,11
3,2,7,1,5,1,1,5,128,11
3,2,4,0,6,1,1,5,128,11
3,2,4,0,0,0,1,5,128,11
3,2,14,1,0,0,1,5,38,11
3,2,11,1,4,0,1,5,38,11
3,2,20,1,5,1,1,5,128,11
3,2,21,0,5,1,1,5,89,11
3,2,20,1,6,1,1,5,89,11
3,2,1,0,0,0,1,5,89,11
3,2,3,0,0,0,1,5,128,11
3,2,1,0,1,0,1,5,75,11
3,2,11,1,1,0,1,5,75,8
3,2,21,0,2,0,1,5,89,11
3,2,3,0,3,0,1,5,75,11
3,2,6,0,3,0,1,5,131,11
3,2,20,1,3,0,1,5,72,11
3,2,14,1,4,0,1,5,128,11
3,2,15,1,4,0,1,5,128,11
3,2,1,0,6,1,1,5,95,11
4,2,16,1,2,0,2,5,65,8
4,2,0,0,3,0,2,5,95,11
4,2,1,0,4,0,2,5,89,11
4,2,16,1,4,0,2,5,72,11
4,2,14,1,5,1,2,5,65,11
4,2,17,1,5,1,2,5,65,11
4,2,20,1,6,1,2,5,65,11
4,2,3,0,0,0,2,5,89,11
4,2,9,1,0,0,2,5,38,11
4,2,16,1,0,0,2,5,75,11
4,2,23,0,0,0,2,5,72,11
4,2,20,1,5,1,2,5,65,11
4,2,23,0,5,1,2,5,100,11
4,2,1,0,6,1,2,5,89,11
4,2,19,1,0,0,2,5,58,11
4,2,3,0,1,0,2,5,128,11
4,2,23,0,1,0,2,5,72,11
4,2,23,0,2,0,2,5,89,11
4,2,9,1,5,1,2,5,65,11
4,2,21,0,5,1,2,5,126,11
4,2,3,0,0,0,2,5,128,11
4,2,19,1,3,0,2,5,128,11
4,2,17,1,4,0,2,5,89,11
4,2,19,1,4,0,2,5,86,11
4,2,23,0,4,0,2,5,89,11
4,2,0,0,5,1,2,5,89,11
4,2,23,0,6,1,2,5,128,11
4,2,1,0,1,0,2,5,128,11
5,2,2,0,2,0,2,5,128,11
5,2,16,1,4,0,2,5,89,11
5,2,17,1,4,0,2,5,89,11
5,2,17,1,4,0,2,5,126,11
5,2,23,0,4,0,2,5,89,11
5,2,2,0,5,1,2,5,75,11
5,2,5,0,5,1,2,5,75,11
5,2,15,1,5,1,2,5,87,11
5,2,22,0,5,1,2,5,128,11
5,2,0,0,6,1,2,5,128,11
5,2,20,1,6,1,2,5,128,11
5,2,15,1,0,0,2,5,89,11
5,2,3,0,1,0,2,5,65,11
5,2,20,1,1,0,2,5,65,11
5,2,5,0,2,0,2,5,128,11
5,2,0,0,3,0,2,5,100,11
5,2,13,1,3,0,2,5,65,11
5,2,0,0,4,0,2,5,7,11
5,2,10,1,4,0,2,5,65,11
5,2,19,1,5,1,2,5,65,11
5,2,20,1,5,1,2,5,89,11
5,2,23,0,5,1,2,5,100,11
5,2,0,0,6,1,2,5,89,11
5,2,16,1,6,1,2,5,65,11
5,2,9,1,0,0,2,5,100,11
5,2,19,1,0,0,2,5,89,11
5,2,0,0,1,0,2,5,128,11
5,2,18,1,1,0,2,5,89,11
5,2,8,1,2,0,2,5,38,11
5,2,15,1,2,0,2,5,8,9
5,2,23,0,2,0,2,5,128,11
5,2,18,1,2,0,2,5,100,11
5,2,21,0,2,0,2,5,89,11
5,2,23,0,2,0,2,5,64,11
5,2,19,1,3,0,2,5,75,11
5,2,23,0,3,0,2,5,89,11
5,2,17,1,4,0,2,5,75,11
5,2,14,1,6,1,2,5,75,11
5,2,15,1,6,1,2,5,89,11
5,2,8,1,0,0,2,5,65,11
5,2,10,1,0,0,2,5,65,11
5,2,0,0,1,0,2,5,128,11
5,2,1,0,1,0,2,5,89,11
5,2,10,1,1,0,2,5,89,11
5,2,17,1,1,0,2,5,89,11
5,2,1,0,2,0,2,5,128,9
5,2,1,0,4,0,2,5,72,11
6,3,0,0,5,1,2,5,89,11
6,3,1,0,5,1,2,5,89,11
6,3,20,1,0,0,2,5,89,11
6,3,23,0,0,0,2,5,65,11
6,3,21,0,1,0,2,5,89,11
6,3,1,0,2,0,2,5,64,11
6,3,13,1,2,0,2,5,89,11
6,3,15,1,3,0,2,5,75,11
6,3,19,1,3,0,2,5,128,11
6,3,0,0,4,0,2,5,7,11
6,3,12,1,4,0,2,5,89,11
6,3,14,1,4,0,2,5,89,11
6,3,1,0,5,1,2,5,7,11
6,3,3,0,5,1,2,5,100,11
6,3,20,1,5,1,2,5,18,11
6,3,22,0,5,1,2,5,89,11
6,3,8,1,0,0,2,5,87,11
6,3,19,1,0,0,2,5,58,11
6,3,14,1,1,0,2,5,89,11
6,3,22,0,1,0,2,5,128,11
6,3,0,0,2,0,2,5,95,11
6,3,16,1,2,0,2,5,18,11
6,3,0,0,3,0,2,5,72,11
6,3,3,0,3,0,2,5,72,11
6,3,0,0,4,0,2,5,128,11
6,3,2,0,4,0,2,5,89,11
6,3,7,1,4,0,2,5,72,11
6,3,12,1,4,0,2,5,89,11
6,3,18,1,4,0,2,5,89,11
6,3,1,0,5,1,2,5,72,11
6,3,5,0,5,1,2,5,128,11
6,3,20,1,5,1,2,5,89,11
6,3,23,0,5,1,2,5,89,11
6,3,0,0,6,1,2,5,89,11
6,3,2,0,0,0,2,5,89,11
6,3,15,1,0,0,2,5,89,11
6,3,12,1,1,0,2,5,89,11
6,3,15,1,1,0,2,5,89,11
6,3,20,1,1,0,2,5,89,11
6,3,22,0,1,0,2,5,89,11
6,3,3,0,2,0,2,5,89,11
6,3,11,1,2,0,2,5,75,11
6,3,21,0,2,0,2,5,89,11
6,3,1,0,3,0,2,5,89,11
6,3,12,1,3,0,2,5,89,11
6,3,9,1,5,1,2,5,89,11
6,3,20,1,5,1,2,5,75,11
6,3,6,0,6,1,2,5,89,11
6,3,21,0,6,1,2,5,89,11
6,3,23,0,6,1,2,5,89,11
6,3,0,0,0,0,2,5,89,11
6,3,15,1,0,0,2,5,89,11
6,3,21,0,0,0,2,5,89,11
6,3,6,0,1,0,2,5,128,11
6,3,15,1,1,0,2,5,100,11
6,3,4,0,3,0,2,5,89,11
6,3,12,1,3,0,2,5,89,11
6,3,22,0,4,0,2,5,89,11
6,3,0,0,5,1,2,5,72,11
6,3,0,0,5,1,2,5,89,11
6,3,1,0,5,1,2,5,89,11
6,3,2,0,5,1,2,5,89,11
6,3,5,0,5,1,2,5,89,11
6,3,23,0,5,1,2,5,89,11
6,3,11,1,6,1,2,5,89,11
6,3,20,1,6,1,2,5,89,11
6,3,22,0,6,1,2,5,89,11
7,3,23,0,0,0,3,5,89,11
7,3,9,1,1,0,3,5,72,11
7,3,13,1,1,0,3,5,75,11
7,3,15,1,1,0,3,5,65,8
7,3,21,0,1,0,3,5,64,11
7,3,21,0,2,0,3,5,89,11
7,3,18,1,3,0,3,5,89,11
7,3,2,0,4,0,3,5,89,11
7,3,12,1,4,0,3,5,89,11
7,3,21,0,4,0,3,5,89,11
7,3,23,0,6,1,3,5,89,11
7,3,6,0,0,0,3,5,89,11
7,3,8,1,0,0,3,5,65,11
7,3,14,1,0,0,3,5,89,11
7,3,15,1,0,0,3,5,89,11
7,3,15,1,0,0,3,5,89,11
7,3,20,1,0,0,3,5,89,11
7,3,0,0,1,0,3,5,89,11
7,3,1,0,2,0,3,5,89,11
7,3,6,0,2,0,3,5,89,11
7,3,9,1,2,0,3,5,75,11
7,3,18,1,2,0,3,5,89,11
7,3,20,1,2,0,3,5,89,11
7,3,21,0,2,0,3,5,72,11
7,3,8,1,3,0,3,5,75,8
7,3,12,1,3,0,3,5,89,11
7,3,22,0,3,0,3,5,89,11
7,3,4,0,4,0,3,5,89,11
7,3,20,1,4,0,3,5,128,11
7,3,22,0,5,1,3,5,89,11
7,3,22,0,5,1,3,5,72,11
7,3,22,0,6,1,3,5,89,11
7,3,1,0,0,0,3,5,89,11
7,3,1,0,1,0,3,5,128,11
7,3,1,0,2,0,3,5,89,11
7,3,23,0,2,0,3,5,89,11
7,3,15,1,3,0,3,5,7,11
7,3,22,0,3,0,3,5,89,11
7,3,1,0,4,0,3,5,89,11
7,3,1,0,4,0,3,5,65,11
7,3,21,0,4,0,3,5,89,11
7,3,22,0,4,0,3,5,96,11
7,3,21,0,5,1,3,5,89,11
7,3,23,0,5,1,3,5,89,11
7,3,18,1,6,1,3,5,89,11
7,3,7,1,0,0,3,5,100,11
7,3,20,1,0,0,3,5,72,11
7,3,2,0,1,0,3,5,128,11
7,3,3,0,1,0,3,5,128,11
7,3,18,1,1,0,3,5,89,11
7,3,6,0,2,0,3,5,72,11
7,3,3,0,3,0,3,5,128,11
7,3,6,0,3,0,3,5,75,11
7,3,13,1,3,0,3,5,128,11
7,3,23,0,3,0,3,5,89,11
7,3,2,0,4,0,3,5,89,11
7,3,7,1,4,0,3,5,128,11
7,3,0,0,5,1,3,5,89,11
7,3,21,0,5,1,3,5,1,11
7,3,4,0,6,1,3,5,89,11
7,3,8,1,6,1,3,5,72,11
7,3,22,0,6,1,3,5,89,11
7,3,23,0,6,1,3,5,100,11
7,3,2,0,0,0,3,5,89,11
7,3,3,0,0,0,3,5,89,11
7,3,5,0,1,0,3,5,75,11
7,3,19,1,1,0,3,5,100,11
7,3,13,1,2,0,3,5,89,11
8,3,1,0,3,0,3,5,100,11
8,3,5,0,3,0,3,5,100,11
8,3,10,1,3,0,3,5,89,11
8,3,13,1,3,0,3,5,89,11
8,3,19,1,3,0,3,5,100,11
8,3,22,0,3,0,3,5,72,8
8,3,22,0,3,0,3,5,89,11
8,3,1,0,4,0,3,5,100,11
8,3,20,1,4,0,3,5,65,11
8,3,20,1,4,0,3,5,89,11
8,3,7,1,5,1,3,5,87,11
8,3,20,1,5,1,3,5,89,11
8,3,20,1,5,1,3,5,65,11
8,3,22,0,5,1,3,5,22,11
8,3,23,0,5,1,3,5,89,11
8,3,23,0,6,1,3,5,89,11
8,3,0,0,0,0,3,5,128,11
8,3,22,0,0,0,3,5,89,11
8,3,9,1,1,0,3,5,89,11
8,3,0,0,3,0,3,5,95,11
8,3,2,0,3,0,3,5,89,11
8,3,3,0,3,0,3,5,89,11
8,3,17,1,3,0,3,5,38,11
8,3,21,0,3,0,3,5,89,11
8,3,22,0,3,0,3,5,89,11
8,3,22,0,3,0,3,5,89,11
8,3,1,0,4,0,3,5,89,11
8,3,14,1,4,0,3,5,89,11
8,3,16,1,4,0,3,5,89,11
8,3,9,1,5,1,3,5,89,11
8,3,21,0,5,1,3,5,89,11
8,3,1,0,6,1,3,5,128,11
8,3,12,1,6,1,3,5,89,11
8,3,14,1,0,0,3,5,65,11
8,3,1,0,1,0,3,5,89,11
8,3,2,0,1,0,3,5,89,11
8,3,2,0,2,0,3,5,128,11
8,3,4,0,3,0,3,5,128,11
8,3,16,1,3,0,3,5,89,11
8,3,17,1,3,0,3,5,89,11
8,3,17,1,3,0,3,5,89,11
8,3,1,0,4,0,3,5,87,11
8,3,2,0,4,0,3,5,89,11
8,3,23,0,4,0,3,5,89,11
8,3,2,0,5,1,3,5,89,11
8,3,3,0,5,1,3,5,89,11
8,3,1,0,6,1,3,5,89,11
8,3,4,0,6,1,3,5,100,11
8,3,6,0,6,1,3,5,100,11
8,3,14,1,6,1,3,5,1,11
8,3,12,1,0,0,3,5,89,11
8,3,20,1,0,0,3,5,89,11
8,3,21,0,0,0,3,5,89,11
8,3,3,0,1,0,3,5,7,11
8,3,4,0,1,0,3,5,7,11
8,3,4,0,1,0,3,5,7,11
8,3,9,1,2,0,3,5,89,11
8,3,3,0,3,0,3,5,7,11
8,3,19,1,3,0,3,5,89,11
8,3,1,0,4,0,3,5,89,11
8,3,1,0,0,0,3,5,128,11
8,3,13,1,0,0,3,5,87,11
8,3,0,0,1,0,3,5,89,11
8,3,12,1,1,0,3,5,7,11
8,3,7,1,3,0,3,5,89,11
9,4,13,1,0,0,3,5,72,11
9,4,21,0,0,0,3,5,46,11
9,4,21,0,1,0,3,5,89,11
9,4,5,0,2,0,3,5,89,11
9,4,19,1,4,0,3,5,89,11
9,4,23,0,4,0,3,5,89,11
9,4,6,0,5,1,3,5,89,11
9,4,18,1,6,1,3,5,89,11
9,4,15,1,0,0,3,5,72,11
9,4,8,1,2,0,3,5,89,11
9,4,19,1,2,0,3,5,89,11
9,4,23,0,2,0,3,5,1,11
9,4,8,1,4,0,3,5,89,11
9,4,20,1,4,0,3,5,89,11
9,4,23,0,4,0,3,5,89,11
9,4,21,0,6,1,3,5,65,11
9,4,3,0,1,0,3,5,89,11
9,4,19,1,1,0,3,5,89,11
9,4,22,0,1,0,3,5,8,11
9,4,22,0,1,0,3,5,100,11
9,4,23,0,1,0,3,5,128,11
9,4,8,1,4,0,3,5,89,11
9,4,16,1,4,0,3,5,18,11
9,4,17,1,5,1,3,5,89,11
9,4,16,1,6,1,3,5,89,11
9,4,17,1,6,1,3,5,128,11
9,4,21,0,6,1,3,5,89,11
9,4,22,0,6,1,3,5,89,11
9,4,15,1,0,0,3,5,100,11
9,4,15,1,0,0,3,5,89,11
9,4,18,1,0,0,3,5,89,11
9,4,9,1,1,0,3,5,96,11
9,4,19,1,1,0,3,5,89,11
9,4,23,0,1,0,3,5,89,11
9,4,20,1,2,0,3,5,89,11
9,4,19,1,3,0,3,5,100,11
9,4,21,0,3,0,3,5,65,11
9,4,22,0,3,0,3,5,89,11
9,4,23,0,3,0,3,5,89,11
9,4,22,0,4,0,3,5,89,11
9,4,1,0,5,1,3,5,72,11
9,4,18,1,5,1,3,5,127,11
9,4,22,0,6,1,3,5,95,11
9,4,2,0,0,0,3,5,89,11
9,4,5,0,0,0,3,5,89,11
9,4,22,0,0,0,3,5,89,11
10,4,0,0,1,0,4,5,89,11
10,4,10,1,1,0,4,5,89,11
10,4,1,0,2,0,4,5,89,11
10,4,7,1,2,0,4,5,89,11
10,4,20,1,2,0,4,5,89,11
10,4,8,1,4,0,4,5,89,11
10,4,1,0,5,1,4,5,128,11
10,4,13,1,5,1,4,5,89,11
10,4,5,0,6,1,4,5,128,11
10,4,20,1,6,1,4,5,89,11
10,4,13,1,0,0,4,5,89,11
10,4,19,1,0,0,4,5,89,11
10,4,16,1,1,0,4,5,89,11
10,4,19,1,1,0,4,5,89,11
10,4,21,0,1,0,4,5,89,11
10,4,20,1,2,0,4,5,89,11
10,4,20,1,3,0,4,5,89,11
10,4,2,0,4,0,4,5,72,11
10,4,19,1,4,0,4,5,65,11
10,4,22,0,4,0,4,5,72,11
10,4,23,0,4,0,4,5,72,11
10,4,19,1,5,1,4,5,72,11
10,4,8,1,6,1,4,5,65,11
10,4,15,1,6,1,4,5,59,11
10,4,11,1,0,0,4,5,89,11
10,4,23,0,0,0,4,5,95,11
10,4,12,1,1,0,4,5,89,11
10,4,11,1,2,0,4,5,111,11
10,4,18,1,2,0,4,5,89,11
10,4,18,1,5,1,4,5,131,11
10,4,3,0,6,1,4,5,89,11
10,4,22,0,6,1,4,5,89,11
10,4,23,0,0,0,4,5,128,11
10,4,22,0,1,0,4,5,72,11
10,4,4,0,2,0,4,5,128,11
10,4,18,1,2,0,4,5,89,11
10,4,19,1,2,0,4,5,89,11
10,4,18,1,5,1,4,5,131,11
10,4,13,1,6,1,4,5,72,11
10,4,19,1,6,1,4,5,89,11
10,4,22,0,6,1,4,5,65,11
10,4,18,1,0,0,4,5,1,11
10,4,18,1,0,0,4,5,89,11
10,4,3,0,1,0,4,5,72,11
10,4,19,1,1,0,4,5,89,11
10,4,1,0,2,0,4,5,89,11
10,4,8,1,2,0,4,5,107,11
10,4,8,1,2,0,4,5,89,11
10,4,2,0,3,0,4,5,7,11
11,4,2,0,5,1,4,5,100,11
11,4,15,1,5,1,4,5,72,11
11,4,16,1,5,1,4,5,65,8
11,4,1,0,6,1,4,5,89,11
11,4,2,0,6,1,4,5,89,11
11,4,9,1,6,1,4,5,89,11
11,4,21,0,6,1,4,5,95,11
11,4,14,1,0,0,4,5,89,11
11,4,16,1,0,0,4,5,65,11
11,4,15,1,1,0,4,5,128,11
11,4,5,0,2,0,4,5,128,11
11,4,19,1,2,0,4,5,72,11
11,4,1,0,3,0,4,5,7,8
11,4,12,1,4,0,4,5,89,11
11,4,2,0,5,1,4,5,89,11
11,4,14,1,5,1,4,5,7,11
11,4,4,0,6,1,4,5,89,11
11,4,1,0,0,0,4,5,89,11
11,4,5,0,0,0,4,5,89,11
11,4,13,1,0,0,4,5,89,11
11,4,13,1,0,0,4,5,89,11
11,4,18,1,1,0,4,5,75,11
11,4,20,1,1,0,4,5,38,11
11,4,17,1,2,0,4,5,89,11
11,4,12,1,3,0,4,5,89,11
11,4,8,1,4,0,4,5,38,11
11,4,19,1,5,1,4,5,59,11
11,4,13,1,6,1,4,5,38,11
11,4,10,1,0,0,4,5,89,11
11,4,15,1,0,0,4,5,128,11
11,4,0,0,1,0,4,5,18,11
11,4,21,0,1,0,4,5,65,11
11,4,19,1,2,0,4,5,89,11
11,4,3,0,3,0,4,5,72,11
11,4,20,1,3,0,4,5,89,11
11,4,13,1,5,1,4,5,75,11
11,4,20,1,5,1,4,5,38,11
11,4,22,0,5,1,4,5,72,11
11,4,21,0,6,1,4,5,72,11
11,4,13,1,0,0,4,5,89,11
11,4,21,0,2,0,4,5,95,11
11,4,0,0,3,0,4,5,7,11
11,4,22,0,5,1,4,5,65,11
12,1,20,1,0,0,4,5,89,11
12,1,20,1,3,0,4,5,95,11
12,1,14,1,4,0,4,5,89,11
12,1,16,1,5,1,4,5,89,11
12,1,17,1,5,1,4,5,72,11
12,1,12,1,0,0,4,5,65,11
12,1,17,1,1,0,4,5,89,11
12,1,14,1,3,0,4,5,75,11
12,1,15,1,4,0,4,5,72,11
12,1,9,1,6,1,4,5,75,11
12,1,13,1,6,1,4,5,95,11
12,1,13,1,6,1,4,5,128,11
12,1,14,1,6,1,4,5,72,11
12,1,18,1,6,1,4,5,7,11
12,1,13,1,2,0,4,5,128,11
12,1,16,1,4,0,4,5,128,11
12,1,20,1,4,0,4,5,38,11
12,1,19,1,6,1,4,5,128,11
12,1,1,0,0,0,4,5,128,11
12,1,22,0,1,0,4,5,65,11
1,1,15,1,0,0,1,5,87,11
1,1,14,1,3,0,1,5,87,11
1,1,16,1,3,0,1,5,38,9
1,1,23,0,4,0,1,5,87,11
1,1,14,1,5,1,1,5,87,11
1,1,17,1,5,1,1,5,87,11
1,1,8,1,1,0,1,5,75,11
1,1,11,1,4,0,1,5,89,11
1,1,19,1,5,1,1,5,128,11
1,1,20,1,5,1,1,5,65,11
1,1,23,0,0,0,1,5,38,11
1,1,14,1,1,0,1,5,128,11
1,1,17,1,2,0,1,5,65,8
1,1,21,0,2,0,1,5,65,11
2,1,17,1,4,0,1,5,75,11
2,1,7,1,5,1,1,5,60,11
2,1,22,0,5,1,1,5,65,11
2,1,13,1,6,1,1,5,87,11
2,1,20,1,6,1,1,5,65,11
2,1,12,1,4,0,1,5,87,11
2,1,13,1,4,0,1,5,89,11
2,1,1,0,5,1,1,5,72,11
2,1,19,1,5,1,1,5,65,8
2,1,8,1,6,1,1,5,72,11
2,1,19,1,4,0,1,5,87,11
2,1,18,1,6,1,1,5,87,11
2,1,13,1,3,0,1,5,89,11
2,1,13,1,5,1,1,5,87,11
2,1,18,1,5,1,1,5,65,11
2,1,9,1,6,1,1,5,89,9
2,1,12,1,1,0,1,5,89,11
2,1,15,1,1,0,1,5,58,11
3,2,19,1,4,0,1,5,18,11
3,2,13,1,3,0,1,5,89,11
3,2,15,1,5,1,1,5,100,11
3,2,23,0,6,1,1,5,128,11
3,2,21,0,1,0,1,5,72,11
3,2,21,0,2,0,1,5,65,11
3,2,10,1,5,1,1,5,89,11
3,2,19,1,5,1,1,5,18,8
3,2,0,0,0,0,1,5,128,11
3,2,6,0,6,1,1,5,89,11
4,2,8,1,2,0,2,5,89,11
4,2,16,1,3,0,2,5,89,11
4,2,4,0,4,0,2,5,18,11
4,2,9,1,0,0,2,5,89,11
4,2,9,1,2,0,2,5,110,11
4,2,11,1,2,0,2,5,100,11
4,2,15,1,2,0,2,5,87,11
4,2,11,1,3,0,2,5,89,11
4,2,12,1,4,0,2,5,100,11
4,2,9,1,6,1,2,5,89,11
4,2,20,1,6,1,2,5,89,11
4,2,12,1,0,0,2,5,38,11
4,2,16,1,2,0,2,5,89,11
4,2,12,1,0,0,2,5,89,11
4,2,16,1,0,0,2,5,87,11
4,2,16,1,1,0,2,5,18,11
4,2,22,0,1,0,2,5,18,11
4,2,11,1,3,0,2,5,89,11
4,2,20,1,3,0,2,5,65,11
4,2,20,1,5,1,2,5,13,11
4,2,1,0,6,1,2,5,75,11
4,2,17,1,0,0,2,5,87,11
4,2,17,1,1,0,2,5,89,11
5,2,15,1,2,0,2,5,87,11
5,2,12,1,3,0,2,5,65,11
5,2,6,0,4,0,2,5,65,11
5,2,23,0,4,0,2,5,87,11
5,2,5,0,6,1,2,5,65,8
5,2,19,1,6,1,2,5,75,11
5,2,20,1,6,1,2,5,65,11
5,2,10,1,0,0,2,5,89,11
5,2,13,1,1,0,2,5,89,9
5,2,13,1,3,0,2,5,75,8
5,2,22,0,5,1,2,5,75,11
5,2,10,1,4,0,2,5,18,11
5,2,22,0,6,1,2,5,18,11
5,2,14,1,3,0,2,5,89,11
5,2,18,1,3,0,2,5,100,11
6,3,1,0,0,0,2,5,97,11
6,3,14,1,1,0,2,5,100,11
6,3,11,1,3,0,2,5,89,11
6,3,7,1,1,0,2,5,89,11
6,3,9,1,1,0,2,5,89,11
6,3,15,1,1,0,2,5,89,9
6,3,19,1,1,0,2,5,89,11
6,3,10,1,4,0,2,5,100,11
6,3,20,1,0,0,2,5,13,11
6,3,12,1,3,0,2,5,89,9
6,3,4,0,4,0,2,5,89,11
6,3,17,1,0,0,2,5,87,11
6,3,9,1,4,0,2,5,65,11
6,3,9,1,4,0,2,5,89,11
6,3,22,0,4,0,2,5,58,11
7,3,18,1,0,0,3,5,89,11
7,3,6,0,6,1,3,5,87,11
7,3,4,0,5,1,3,5,87,11
7,3,12,1,6,1,3,5,89,11
7,3,19,1,6,1,3,5,65,11
7,3,20,1,2,0,3,5,89,11
7,3,20,1,1,0,3,5,89,11
8,3,10,1,5,1,3,5,89,11
8,3,14,1,5,1,3,5,89,11
8,3,17,1,1,0,3,5,89,11
8,3,8,1,1,0,3,5,89,11
8,3,11,1,1,0,3,5,87,11
8,3,21,0,3,0,3,5,112,8
8,3,19,1,5,1,3,5,130,11
8,3,22,0,2,0,3,5,18,11
9,4,4,0,0,0,3,5,89,11
9,4,13,1,3,0,3,5,65,11
9,4,10,1,5,1,3,5,65,11
9,4,13,1,5,1,3,5,89,11
9,4,10,1,6,1,3,5,89,11
9,4,10,1,1,0,3,5,87,11
9,4,16,1,5,1,3,5,89,11
9,4,16,1,6,1,3,5,18,11
9,4,19,1,1,0,3,5,87,11
9,4,20,1,1,0,3,5,89,11
9,4,9,1,0,0,3,5,1,11
10,4,12,1,0,0,4,5,18,11
10,4,22,0,4,0,4,5,65,8
10,4,22,0,5,1,4,5,1,11
10,4,7,1,0,0,4,5,18,11
10,4,9,1,0,0,4,5,18,11
10,4,23,0,4,0,4,5,87,9
10,4,13,1,1,0,4,5,89,11
10,4,17,1,2,0,4,5,89,11
11,4,13,1,5,1,4,5,72,11
11,4,20,1,6,1,4,5,75,11
11,4,23,0,0,0,4,5,18,11
11,4,15,1,2,0,4,5,89,11
11,4,19,1,6,1,4,5,87,11
11,4,8,1,2,0,4,5,89,11
11,4,9,1,2,0,4,5,89,11
11,4,5,0,3,0,4,5,65,11
11,4,10,1,3,0,4,5,89,11
11,4,8,1,2,0,4,5,89,11
11,4,7,1,5,1,4,5,89,11
11,4,18,1,5,1,4,5,65,11
12,1,8,1,3,0,4,5,65,11
12,1,13,1,5,1,4,5,87,11
12,1,3,0,1,0,4,5,58,11
12,1,15,1,3,0,4,5,89,11
12,1,18,1,4,0,4,5,18,11
12,1,11,1,6,1,4,5,87,11
12,1,19,1,0,0,4,5,22,11
12,1,10,1,1,0,4,5,89,11
12,1,13,1,4,0,4,5,89,11
12,1,13,1,5,1,4,5,87,11
12,1,17,1,5,1,4,5,89,11
12,1,10,1,3,0,4,5,65,8
12,1,15,1,3,0,4,5,87,11
12,1,18,1,3,0,4,5,87,11
12,1,20,1,3,0,4,5,65,11
12,1,15,1,5,1,4,5,87,11
12,1,1,0,6,1,4,5,65,11
12,1,17,1,0,0,4,5,13,11
1,1,22,0,0,0,1,5,89,11
1,1,0,0,6,1,1,5,89,11
1,1,16,1,6,1,1,5,75,11
1,1,10,1,6,1,1,5,89,11
1,1,17,1,5,1,1,5,89,9
1,1,21,0,0,0,1,5,75,11
1,1,8,1,1,0,1,5,13,11
1,1,14,1,2,0,1,5,72,11
1,1,0,0,5,1,1,5,128,11
1,1,18,1,5,1,1,5,89,11
1,1,20,1,5,1,1,5,18,9
1,1,21,0,5,1,1,5,89,11
1,1,10,1,6,1,1,5,128,11
1,1,12,1,6,1,1,5,128,11
1,1,19,1,6,1,1,5,89,11
1,1,8,1,0,0,1,5,128,11
2,1,13,1,4,0,1,5,89,11
2,1,3,0,5,1,1,5,18,11
2,1,17,1,5,1,1,5,89,11
2,1,18,1,0,0,1,5,1,11
2,1,14,1,1,0,1,5,89,11
2,1,18,1,2,0,1,5,18,11
2,1,11,1,6,1,1,5,33,11
2,1,3,0,4,0,1,5,89,11
2,1,8,1,5,1,1,5,89,11
2,1,13,1,5,1,1,5,89,9
2,1,18,1,5,1,1,5,89,11
2,1,21,0,5,1,1,5,89,11
3,2,0,0,5,1,1,5,18,11
3,2,12,1,3,0,1,5,18,11
3,2,21,0,5,1,1,5,1,11
3,2,13,1,6,1,1,5,89,11
3,2,10,1,1,0,1,5,89,11
3,2,10,1,4,0,1,5,89,11
3,2,14,1,4,0,1,5,89,11
3,2,20,1,4,0,1,5,89,11
3,2,15,1,0,0,1,5,89,11
3,2,6,0,1,0,1,5,89,11
3,2,6,0,3,0,1,5,75,11
3,2,13,1,5,1,1,5,89,11
3,2,18,1,5,1,1,5,89,11
3,2,8,1,6,1,1,5,89,11
4,2,22,0,0,0,2,5,18,11
4,2,22,0,0,0,2,5,89,11
4,2,21,0,5,1,2,5,75,11
4,2,12,1,6,1,2,5,89,11
4,2,22,0,1,0,2,5,89,11
4,2,0,0,2,0,2,5,89,11
4,2,15,1,6,1,2,5,89,11
4,2,23,0,6,1,2,5,89,11
4,2,12,1,4,0,2,5,89,11
4,2,1,0,0,0,2,5,100,11
4,2,4,0,1,0,2,5,78,8
4,2,14,1,3,0,2,5,89,11
4,2,12,1,4,0,2,5,89,11
4,2,23,0,4,0,2,5,128,11
4,2,0,0,6,1,2,5,89,11
4,2,1,0,6,1,2,5,89,11
4,2,10,1,0,0,2,5,26,11
4,2,22,0,0,0,2,5,89,11
4,2,2,0,1,0,2,5,89,11
5,2,1,0,3,0,2,5,89,11
5,2,18,1,3,0,2,5,128,9
5,2,5,0,5,1,2,5,75,11
5,2,0,0,6,1,2,5,89,11
5,2,0,0,6,1,2,5,89,11
5,2,12,1,6,1,2,5,89,11
5,2,14,1,6,1,2,5,89,11
5,2,17,1,6,1,2,5,89,11
5,2,19,1,6,1,2,5,89,11
5,2,13,1,0,0,2,5,18,11
5,2,22,0,6,1,2,5,125,11
5,2,8,1,1,0,2,5,89,11
6,3,1,0,6,1,2,5,18,11
6,3,18,1,6,1,2,5,89,8
6,3,5,0,2,0,2,5,89,11
6,3,17,1,2,0,2,5,89,11
6,3,2,0,6,1,2,5,89,11
6,3,21,0,6,1,2,5,48,11
6,3,17,1,3,0,2,5,100,11
6,3,10,1,5,1,2,5,89,11
7,3,2,0,0,0,3,5,89,11
7,3,3,0,2,0,3,5,87,11
7,3,16,1,2,0,3,5,87,11
7,3,5,0,1,0,3,5,89,9
7,3,19,1,4,0,3,5,75,11
7,3,16,1,5,1,3,5,89,11
7,3,12,1,3,0,3,5,89,9
7,3,1,0,5,1,3,5,87,9
7,3,7,1,5,1,3,5,89,11
7,3,3,0,3,0,3,5,100,11
7,3,15,1,6,1,3,5,89,11
7,3,10,1,0,0,3,5,89,11
7,3,8,1,1,0,3,5,80,11
7,3,13,1,1,0,3,5,89,11
8,3,14,1,6,1,3,5,89,11
8,3,18,1,2,0,3,5,89,11
8,3,21,0,2,0,3,5,89,11
8,3,4,0,0,0,3,5,89,11
9,4,9,1,0,0,3,5,89,11
9,4,12,1,0,0,3,5,100,9
9,4,15,1,0,0,3,5,89,11
9,4,5,0,2,0,3,5,18,11
9,4,21,0,0,0,3,5,100,11
9,4,19,1,3,0,3,5,89,11
9,4,2,0,2,0,3,5,100,11
10,4,19,1,1,0,4,5,75,11
10,4,4,0,5,1,4,5,128,11
10,4,19,1,5,1,4,5,89,11
10,4,15,1,1,0,4,5,38,11
10,4,14,1,3,0,4,5,18,11
11,4,12,1,4,0,4,5,89,11
11,4,21,0,6,1,4,5,128,11
11,4,13,1,0,0,4,5,128,11
11,4,9,1,3,0,4,5,100,11
11,4,1,0,4,0,4,5,128,11
11,4,1,0,5,1,4,5,97,11
11,4,17,1,6,1,4,5,38,11
11,4,19,1,4,0,4,5,58,11
11,4,13,1,0,0,4,5,128,11
11,4,1,0,1,0,4,5,89,11
11,4,8,1,3,0,4,5,128,11
11,4,3,0,4,0,4,5,18,11
12,1,0,0,1,0,4,5,89,11
12,1,20,1,2,0,4,5,89,11
12,1,18,1,3,0,4,5,89,11
12,1,16,1,5,1,4,5,100,11
12,1,16,1,5,1,4,5,75,11
12,1,21,0,6,1,4,5,75,11
12,1,22,0,0,0,4,5,38,11
1,1,16,1,5,1,1,5,89,11
1,1,2,0,3,0,1,5,87,11
2,1,11,1,0,0,1,5,89,11
2,1,18,1,5,1,1,5,89,11
2,1,18,1,6,1,1,5,75,11
2,1,14,1,0,0,1,5,58,11
2,1,19,1,2,0,1,5,46,11
3,2,15,1,6,1,1,5,75,11
3,2,18,1,6,1,1,5,100,11
3,2,13,1,3,0,1,5,112,11
3,2,16,1,3,0,1,5,89,11
3,2,14,1,5,1,1,5,89,11
4,2,20,1,4,0,2,5,89,11
4,2,19,1,6,1,2,5,89,11
4,2,12,1,1,0,2,5,89,11
4,2,19,1,4,0,2,5,89,11
4,2,9,1,2,0,2,5,89,11
4,2,19,1,4,0,2,5,89,11
4,2,18,1,5,1,2,5,89,11
4,2,19,1,6,1,2,5,89,11
5,2,15,1,5,1,2,5,110,11
5,2,1,0,6,1,2,5,38,11
5,2,22,0,0,0,2,5,100,11
6,3,18,1,5,1,2,5,18,11
7,3,22,0,2,0,3,5,110,11
7,3,12,1,6,1,3,5,65,11
7,3,17,1,6,1,3,5,46,11
7,3,21,0,2,0,3,5,89,11
7,3,21,0,4,0,3,5,76,11
7,3,19,1,2,0,3,5,89,11
8,3,19,1,3,0,3,5,18,11
8,3,16,1,1,0,3,5,100,11
8,3,21,0,3,0,3,5,100,11
9,4,1,0,6,1,3,5,110,11
9,4,11,1,1,0,3,5,75,11
10,4,5,0,3,0,4,5,46,11
11,4,17,1,5,1,4,5,89,11
11,4,8,1,6,1,4,5,89,11
12,1,7,1,4,0,4,5,116,11
12,1,23,0,2,0,4,5,89,11
1,1,6,0,0,0,1,5,87,9
1,1,22,0,0,0,1,5,114,11
1,1,4,0,1,0,1,5,2,11
1,1,8,1,1,0,1,5,18,11
1,1,17,1,1,0,1,5,87,11
1,1,0,0,2,0,1,5,95,11
1,1,20,1,2,0,1,5,87,11
1,1,5,0,3,0,1,5,2,8
1,1,23,0,3,0,1,5,87,9
1,1,12,1,6,1,1,5,87,11
1,1,15,1,6,1,1,5,87,11
1,1,9,1,0,0,1,5,30,11
1,1,5,0,2,0,1,5,87,11
1,1,10,1,3,0,1,5,65,11
1,1,17,1,3,0,1,5,65,9
1,1,11,1,4,0,1,5,28,9
1,1,9,1,6,1,1,5,87,11
1,1,8,1,3,0,1,5,87,11
1,1,21,0,3,0,1,5,65,11
2,1,20,1,5,1,1,5,87,11
2,1,22,0,5,1,1,5,78,11
2,1,19,1,4,0,1,5,7,8
2,1,4,0,5,1,1,5,65,9
2,1,15,1,1,0,1,5,65,11
2,1,13,1,2,0,1,5,65,9
2,1,17,1,3,0,1,5,87,11
2,1,12,1,6,1,1,5,87,11
2,1,4,0,0,0,1,5,87,11
2,1,12,1,0,0,1,5,87,11
2,1,18,1,0,0,1,5,87,11
3,2,10,1,0,0,1,5,65,11
3,2,15,1,3,0,1,5,65,11
3,2,6,0,5,1,1,5,65,11
3,2,4,0,2,0,1,5,87,11
3,2,22,0,5,1,1,5,87,11
3,2,8,1,6,1,1,5,65,11
3,2,0,0,0,0,1,5,87,11
3,2,23,0,5,1,1,5,87,11
3,2,9,1,0,0,1,5,87,9
4,2,17,1,1,0,2,5,87,9
4,2,17,1,6,1,2,5,87,11
4,2,18,1,5,1,2,5,46,9
4,2,5,0,5,1,2,5,87,11
4,2,19,1,3,0,2,5,87,11
4,2,20,1,0,0,2,5,65,11
4,2,4,0,1,0,2,5,87,11
5,2,17,1,2,0,2,5,46,9
5,2,0,0,6,1,2,5,87,11
5,2,0,0,6,1,2,5,87,11
5,2,0,0,6,1,2,5,87,11
5,2,14,1,6,1,2,5,65,9
5,2,14,1,1,0,2,5,65,11
5,2,17,1,2,0,2,5,65,11
5,2,5,0,3,0,2,5,65,9
5,2,2,0,4,0,2,5,87,9
5,2,9,1,4,0,2,5,87,11
5,2,1,0,5,1,2,5,87,11
5,2,2,0,5,1,2,5,87,9
5,2,11,1,1,0,2,5,41,9
5,2,0,0,3,0,2,5,87,11
5,2,11,1,3,0,2,5,87,11
5,2,5,0,4,0,2,5,2,11
5,2,22,0,2,0,2,5,87,11
5,2,15,1,3,0,2,5,87,11
5,2,2,0,0,0,2,5,87,11
5,2,9,1,4,0,2,5,87,11
6,3,9,1,5,1,2,5,87,11
6,3,18,1,5,1,2,5,65,11
6,3,22,0,5,1,2,5,87,11
6,3,13,1,6,1,2,5,65,11
6,3,4,0,2,0,2,5,87,11
6,3,20,1,5,1,2,5,65,11
6,3,4,0,0,0,2,5,87,11
6,3,19,1,2,0,2,5,65,9
6,3,13,1,5,1,2,5,87,9
6,3,15,1,5,1,2,5,65,11
6,3,19,1,2,0,2,5,65,11
6,3,13,1,4,0,2,5,87,11
6,3,0,0,5,1,2,5,87,11
6,3,1,0,5,1,2,5,87,11
6,3,13,1,6,1,2,5,87,11
6,3,16,1,6,1,2,5,87,11
6,3,14,1,0,0,2,5,87,11
6,3,14,1,2,0,2,5,13,8
6,3,8,1,4,0,2,5,87,11
6,3,10,1,4,0,2,5,87,11
6,3,15,1,5,1,2,5,13,9
6,3,16,1,5,1,2,5,65,11
6,3,15,1,6,1,2,5,87,9
7,3,18,1,0,0,3,5,65,11
7,3,7,1,1,0,3,5,22,11
7,3,13,1,1,0,3,5,38,11
7,3,20,1,5,1,3,5,18,11
7,3,0,0,1,0,3,5,87,11
7,3,9,1,4,0,3,5,65,11
7,3,18,1,4,0,3,5,87,11
7,3,3,0,2,0,3,5,13,8
7,3,14,1,0,0,3,5,87,11
7,3,5,0,1,0,3,5,87,11
8,3,13,1,4,0,3,5,72,11
8,3,15,1,6,1,3,5,87,11
8,3,17,1,5,1,3,5,65,11
8,3,12,1,0,0,3,5,65,11
8,3,18,1,1,0,3,5,87,8
8,3,9,1,6,1,3,5,89,9
8,3,14,1,6,1,3,5,81,11
8,3,9,1,0,0,3,5,87,11
8,3,12,1,1,0,3,5,87,11
8,3,14,1,1,0,3,5,65,11
8,3,13,1,5,1,3,5,87,11
9,4,20,1,1,0,3,5,18,11
9,4,21,0,2,0,3,5,87,11
9,4,12,1,6,1,3,5,87,11
9,4,4,0,5,1,3,5,46,9
9,4,23,0,5,1,3,5,87,11
10,4,3,0,4,0,4,5,87,9
10,4,18,1,1,0,4,5,44,8
10,4,12,1,0,0,4,5,87,11
10,4,17,1,1,0,4,5,22,9
10,4,20,1,2,0,4,5,128,11
10,4,11,1,0,0,4,5,87,8
10,4,13,1,1,0,4,5,100,11
10,4,15,1,6,1,4,5,87,11
11,4,13,1,0,0,4,5,87,11
11,4,14,1,2,0,4,5,87,11
11,4,23,0,3,0,4,5,65,11
11,4,20,1,6,1,4,5,65,9
11,4,12,1,3,0,4,5,65,11
11,4,21,0,4,0,4,5,87,11
11,4,21,0,1,0,4,5,18,11
12,1,14,1,1,0,4,5,87,11
12,1,21,0,5,1,4,5,65,11
12,1,4,0,0,0,4,5,87,11
12,1,12,1,1,0,4,5,65,11
12,1,16,1,3,0,4,5,18,11
12,1,20,1,5,1,4,5,87,11
12,1,21,0,6,1,4,5,65,11
12,1,16,1,1,0,4,5,87,11
12,1,20,1,2,0,4,5,65,11
12,1,21,0,2,0,4,5,75,9
12,1,18,1,2,0,4,5,87,11
12,1,21,0,2,0,4,5,65,11
12,1,13,1,3,0,4,5,65,11
12,1,3,0,4,0,4,5,87,9
12,1,4,0,6,1,4,5,58,11
12,1,18,1,6,1,4,5,58,11
12,1,13,1,0,0,4,5,100,11
1,1,12,1,1,0,1,5,1,11
1,1,17,1,2,0,1,5,128,11
1,1,8,1,3,0,1,5,65,11
1,1,17,1,6,1,1,5,97,9
1,1,22,0,0,0,1,5,72,11
1,1,0,0,3,0,1,5,128,11
1,1,13,1,3,0,1,5,128,11
1,1,23,0,3,0,1,5,38,11
1,1,19,1,2,0,1,5,65,11
1,1,19,1,4,0,1,5,65,11
1,1,20,1,4,0,1,5,65,9
1,1,13,1,0,0,1,5,128,11
1,1,15,1,2,0,1,5,65,11
2,1,11,1,5,1,1,5,128,11
2,1,10,1,0,0,1,5,128,11
2,1,0,0,2,0,1,5,128,11
2,1,12,1,3,0,1,5,65,11
2,1,23,0,4,0,1,5,128,11
2,1,19,1,0,0,1,5,72,11
2,1,7,1,2,0,1,5,13,9
3,2,22,0,4,0,1,5,97,11
3,2,6,0,5,1,1,5,2,9
3,2,12,1,5,1,1,5,58,11
3,2,13,1,0,0,1,5,65,8
3,2,20,1,0,0,1,5,65,9
3,2,13,1,1,0,1,5,7,11
3,2,14,1,0,0,1,5,127,11
3,2,17,1,0,0,1,5,22,9
3,2,15,1,3,0,1,5,128,11
3,2,23,0,5,1,1,5,89,11
4,2,16,1,0,0,2,5,128,11
4,2,22,0,4,0,2,5,128,11
4,2,23,0,6,1,2,5,128,11
4,2,12,1,5,1,2,5,95,11
4,2,12,1,3,0,2,5,100,11
4,2,1,0,4,0,2,5,100,11
4,2,1,0,4,0,2,5,100,11
4,2,23,0,1,0,2,5,128,11
4,2,20,1,3,0,2,5,65,11
4,2,12,1,4,0,2,5,89,11
4,2,22,0,4,0,2,5,65,11
5,2,23,0,5,1,2,5,89,11
5,2,2,0,4,0,2,5,128,11
5,2,11,1,4,0,2,5,89,11
5,2,0,0,5,1,2,5,128,11
5,2,0,0,0,0,2,5,128,11
5,2,1,0,0,0,2,5,78,11
5,2,22,0,0,0,2,5,46,11
5,2,5,0,1,0,2,5,65,11
5,2,3,0,3,0,2,5,65,11
5,2,7,1,3,0,2,5,128,11
6,3,13,1,0,0,2,5,65,11
6,3,16,1,3,0,2,5,89,11
6,3,22,0,0,0,2,5,65,11
6,3,18,1,3,0,2,5,65,9
6,3,3,0,4,0,2,5,47,11
6,3,10,1,5,1,2,5,65,11
6,3,6,0,6,1,2,5,65,9
6,3,13,1,0,0,2,5,65,11
6,3,17,1,0,0,2,5,1,11
6,3,13,1,5,1,2,5,65,11
7,3,17,1,3,0,3,5,65,11
7,3,20,1,4,0,3,5,43,11
7,3,14,1,2,0,3,5,58,11
7,3,22,0,5,1,3,5,128,11
7,3,15,1,6,1,3,5,13,9
7,3,11,1,0,0,3,5,65,11
7,3,14,1,1,0,3,5,100,9
7,3,20,1,1,0,3,5,78,11
8,3,23,0,3,0,3,5,98,8
8,3,13,1,2,0,3,5,100,11
8,3,0,0,2,0,3,5,128,11
8,3,21,0,2,0,3,5,89,11
8,3,16,1,3,0,3,5,65,11
8,3,4,0,4,0,3,5,128,11
8,3,7,1,5,1,3,5,75,11
8,3,0,0,1,0,3,5,65,11
8,3,11,1,5,1,3,5,128,11
8,3,13,1,5,1,3,5,14,11
9,4,12,1,1,0,3,5,65,9
9,4,16,1,1,0,3,5,18,11
9,4,20,1,2,0,3,5,43,11
9,4,1,0,4,0,3,5,65,11
9,4,16,1,0,0,3,5,65,11
9,4,16,1,2,0,3,5,18,11
9,4,3,0,3,0,3,5,128,11
9,4,7,1,6,1,3,5,18,9
9,4,22,0,0,0,3,5,65,11
10,4,19,1,1,0,4,5,58,11
10,4,17,1,4,0,4,5,58,11
10,4,0,0,6,1,4,5,128,11
10,4,18,1,0,0,4,5,65,8
10,4,3,0,1,0,4,5,65,9
10,4,3,0,1,0,4,5,22,9
11,4,16,1,4,0,4,5,65,11
11,4,19,1,4,0,4,5,76,11
11,4,5,0,5,1,4,5,72,9
11,4,8,1,3,0,4,5,65,8
11,4,22,0,1,0,4,5,46,9
11,4,6,0,2,0,4,5,18,11
11,4,9,1,3,0,4,5,65,11
11,4,18,1,5,1,4,5,65,11
11,4,21,0,5,1,4,5,1,11
11,4,20,1,6,1,4,5,128,11
11,4,14,1,1,0,4,5,89,11
11,4,8,1,2,0,4,5,96,9
11,4,19,1,2,0,4,5,65,9
11,4,12,1,3,0,4,5,13,11
11,4,13,1,5,1,4,5,18,9
12,1,14,1,2,0,4,5,65,11
12,1,16,1,1,0,4,5,65,9
1,1,4,0,0,0,1,5,59,9
1,1,15,1,0,0,1,5,75,11
1,1,13,1,6,1,1,5,87,11
1,1,22,0,6,1,1,5,65,11
1,1,19,1,4,0,1,5,65,11
1,1,16,1,5,1,1,5,38,11
2,1,4,0,5,1,1,5,18,11
2,1,6,0,2,0,1,5,128,11
3,2,16,1,1,0,1,5,65,11
3,2,12,1,2,0,1,5,87,11
3,2,18,1,4,0,1,5,87,11
3,2,11,1,3,0,1,5,95,11
4,2,12,1,4,0,2,5,65,11
4,2,14,1,4,0,2,5,38,11
4,2,22,0,6,1,2,5,95,11
5,2,6,0,5,1,2,5,75,11
5,2,0,0,6,1,2,5,128,11
5,2,0,0,6,1,2,5,75,11
5,2,14,1,6,1,2,5,38,11
5,2,2,0,5,1,2,5,128,11
5,2,21,0,2,0,2,5,128,11
6,3,0,0,6,1,2,5,38,11
6,3,2,0,6,1,2,5,87,11
6,3,21,0,3,0,2,5,4,11
6,3,4,0,5,1,2,5,97,11
6,3,7,1,5,1,2,5,97,11
6,3,22,0,1,0,2,5,75,11
6,3,1,0,2,0,2,5,87,11
6,3,14,1,0,0,2,5,65,11
6,3,9,1,2,0,2,5,87,11
6,3,7,1,4,0,2,5,71,8
6,3,16,1,5,1,2,5,72,11
6,3,9,1,6,1,2,5,75,11
6,3,19,1,6,1,2,5,65,11
7,3,14,1,0,0,3,5,87,9
7,3,22,0,1,0,3,5,89,11
7,3,1,0,4,0,3,5,65,11
7,3,15,1,6,1,3,5,18,11
7,3,17,1,5,1,3,5,89,9
7,3,1,0,0,0,3,5,87,11
8,3,17,1,3,0,3,5,100,11
8,3,3,0,4,0,3,5,8,11
8,3,5,0,5,1,3,5,128,11
8,3,21,0,1,0,3,5,87,11
8,3,15,1,2,0,3,5,1,9
9,4,14,1,6,1,3,5,65,11
9,4,2,0,3,0,3,5,64,11
9,4,4,0,3,0,3,5,87,11
9,4,21,0,6,1,3,5,13,11
9,4,22,0,6,1,3,5,72,9
9,4,10,1,5,1,3,5,13,11
10,4,14,1,0,0,4,5,89,11
10,4,7,1,4,0,4,5,87,11
10,4,13,1,3,0,4,5,65,11
11,4,21,0,2,0,4,5,75,11
11,4,15,1,5,1,4,5,1,11
11,4,18,1,5,1,4,5,38,11
11,4,8,1,0,0,4,5,71,9
11,4,18,1,2,0,4,5,46,11
12,1,18,1,0,0,4,5,89,11
12,1,18,1,5,1,4,5,87,11
12,1,15,1,0,0,4,5,87,11
1,1,12,1,0,0,1,5,89,9
1,1,12,1,1,0,1,5,89,11
1,1,14,1,6,1,1,5,87,11
1,1,4,0,3,0,1,5,89,11
2,1,7,1,0,0,1,5,89,11
2,1,8,1,0,0,1,5,87,11
2,1,9,1,3,0,1,5,72,11
2,1,3,0,6,1,1,5,89,11
2,1,10,1,0,0,1,5,89,11
2,1,9,1,3,0,1,5,89,11
2,1,2,0,0,0,1,5,65,11
3,2,3,0,6,1,1,5,87,11
3,2,20,1,1,0,1,5,65,11
3,2,17,1,4,0,1,5,87,11
3,2,11,1,1,0,1,5,89,11
3,2,1,0,2,0,1,5,18,11
3,2,22,0,0,0,1,5,18,11
4,2,12,1,1,0,2,5,22,11
4,2,20,1,4,0,2,5,89,11
4,2,20,1,5,1,2,5,33,11
4,2,23,0,5,1,2,5,89,11
4,2,10,1,0,0,2,5,89,11
4,2,4,0,6,1,2,5,30,11
4,2,5,0,6,1,2,5,13,11
4,2,16,1,6,1,2,5,87,11
4,2,13,1,1,0,2,5,7,11
5,2,16,1,2,0,2,5,65,11
5,2,7,1,6,1,2,5,65,11
5,2,11,1,0,0,2,5,100,11
5,2,15,1,3,0,2,5,110,11
5,2,9,1,2,0,2,5,125,11
5,2,9,1,4,0,2,5,18,11
5,2,17,1,5,1,2,5,87,11
5,2,5,0,1,0,2,5,18,9
6,3,8,1,0,0,2,5,18,11
6,3,11,1,1,0,2,5,18,11
6,3,13,1,2,0,2,5,89,11
6,3,2,0,4,0,2,5,13,11
6,3,22,0,6,1,2,5,89,11
6,3,8,1,3,0,2,5,125,9
6,3,11,1,4,0,2,5,87,11
6,3,10,1,6,1,2,5,87,11
7,3,3,0,0,0,3,5,65,9
7,3,17,1,1,0,3,5,65,11
7,3,10,1,6,1,3,5,75,11
7,3,14,1,6,1,3,5,75,11
7,3,15,1,0,0,3,5,87,11
7,3,15,1,1,0,3,5,65,9
7,3,10,1,3,0,3,5,86,11
7,3,22,0,6,1,3,5,69,9
7,3,18,1,1,0,3,5,22,11
7,3,1,0,3,0,3,5,87,11
7,3,1,0,4,0,3,5,38,9
7,3,21,0,0,0,3,5,99,9
7,3,10,1,1,0,3,5,87,11
8,3,6,0,5,1,3,5,89,11
8,3,19,1,3,0,3,5,110,11
8,3,16,1,4,0,3,5,100,11
8,3,6,0,1,0,3,5,65,11
9,4,19,1,6,1,3,5,89,11
9,4,3,0,5,1,3,5,81,11
9,4,13,1,1,0,3,5,65,11
9,4,3,0,2,0,3,5,76,11
9,4,21,0,5,1,3,5,110,11
9,4,2,0,2,0,3,5,18,11
10,4,9,1,5,1,4,5,18,11
10,4,19,1,6,1,4,5,65,11
10,4,10,1,2,0,4,5,38,8
10,4,2,0,6,1,4,5,87,11
10,4,0,0,0,0,4,5,65,11
11,4,0,0,6,1,4,5,75,9
11,4,12,1,3,0,4,5,58,11
11,4,14,1,6,1,4,5,65,8
12,1,11,1,2,0,4,5,98,8
12,1,0,0,3,0,4,5,89,11
12,1,23,0,3,0,4,5,89,11
12,1,3,0,0,0,4,5,38,11
12,1,12,1,3,0,4,5,107,11
1,1,18,1,2,0,1,5,89,11
1,1,9,1,4,0,1,5,89,11
1,1,19,1,4,0,1,5,38,11
1,1,19,1,4,0,1,5,100,11
1,1,9,1,5,1,1,5,89,11
1,1,14,1,5,1,1,5,89,11
1,1,20,1,5,1,1,5,1,11
1,1,17,1,6,1,1,5,100,11
1,1,20,1,6,1,1,5,100,11
1,1,22,0,0,0,1,5,72,11
1,1,2,0,4,0,1,5,89,11
1,1,16,1,6,1,1,5,89,11
1,1,12,1,1,0,1,5,1,11
1,1,13,1,5,1,1,5,89,11
1,1,20,1,5,1,1,5,89,11
1,1,6,0,6,1,1,5,72,11
1,1,10,1,6,1,1,5,75,11
1,1,19,1,6,1,1,5,89,11
1,1,6,0,0,0,1,5,89,11
1,1,16,1,4,0,1,5,89,11
1,1,21,0,4,0,1,5,87,11
1,1,21,0,4,0,1,5,75,11
1,1,12,1,5,1,1,5,22,11
2,1,17,1,4,0,1,5,128,11
2,1,1,0,5,1,1,5,89,11
2,1,16,1,0,0,1,5,89,11
2,1,19,1,0,0,1,5,89,11
2,1,20,1,1,0,1,5,89,11
2,1,2,0,2,0,1,5,89,11
2,1,18,1,2,0,1,5,72,11
2,1,13,1,3,0,1,5,89,11
2,1,19,1,3,0,1,5,89,11
2,1,18,1,6,1,1,5,89,11
2,1,11,1,1,0,1,5,100,11
2,1,22,0,2,0,1,5,89,11
2,1,19,1,3,0,1,5,18,11
2,1,23,0,3,0,1,5,100,11
2,1,2,0,0,0,1,5,89,11
2,1,2,0,1,0,1,5,102,8
2,1,13,1,1,0,1,5,112,11
2,1,2,0,2,0,1,5,89,11
2,1,11,1,3,0,1,5,75,11
2,1,18,1,3,0,1,5,89,11
2,1,7,1,4,0,1,5,44,11
2,1,18,1,4,0,1,5,100,11
2,1,10,1,5,1,1,5,89,11
2,1,15,1,6,1,1,5,128,11
2,1,15,1,1,0,1,5,1,11
3,2,12,1,4,0,1,5,1,11
3,2,12,1,5,1,1,5,72,11
3,2,15,1,6,1,1,5,89,11
3,2,10,1,0,0,1,5,87,11
3,2,10,1,0,0,1,5,1,11
3,2,21,0,2,0,1,5,100,11
3,2,16,1,3,0,1,5,65,11
3,2,19,1,4,0,1,5,89,11
3,2,18,1,5,1,1,5,89,11
3,2,18,1,5,1,1,5,89,11
3,2,20,1,6,1,1,5,1,11
3,2,1,0,3,0,1,5,72,11
3,2,8,1,3,0,1,5,89,9
3,2,19,1,4,0,1,5,89,11
3,2,15,1,5,1,1,5,100,11
3,2,16,1,5,1,1,5,89,11
3,2,18,1,0,0,1,5,1,11
3,2,16,1,3,0,1,5,89,11
3,2,17,1,3,0,1,5,89,11
3,2,0,0,4,0,1,5,89,11
3,2,11,1,4,0,1,5,63,11
3,2,13,1,4,0,1,5,89,11
3,2,23,0,4,0,1,5,89,11
3,2,2,0,5,1,1,5,87,11
3,2,10,1,6,1,1,5,89,11
3,2,9,1,1,0,1,5,18,11
3,2,17,1,1,0,1,5,89,11
3,2,22,0,1,0,1,5,89,11
3,2,22,0,1,0,1,5,128,11
3,2,9,1,2,0,1,5,89,11
3,2,11,1,2,0,1,5,89,11
3,2,19,1,3,0,1,5,87,11
3,2,21,0,3,0,1,5,89,11
3,2,23,0,3,0,1,5,89,11
3,2,20,1,4,0,1,5,89,11
3,2,11,1,5,1,1,5,89,11
3,2,14,1,5,1,1,5,75,11
3,2,14,1,5,1,1,5,89,11
3,2,21,0,5,1,1,5,89,11
4,2,21,0,0,0,2,5,89,11
4,2,22,0,0,0,2,5,1,11
4,2,13,1,1,0,2,5,89,11
4,2,14,1,2,0,2,5,1,11
4,2,20,1,2,0,2,5,89,11
4,2,5,0,3,0,2,5,16,11
4,2,8,1,3,0,2,5,89,11
4,2,15,1,3,0,2,5,89,11
4,2,18,1,3,0,2,5,89,11
4,2,0,0,4,0,2,5,89,11
4,2,15,1,4,0,2,5,89,11
4,2,7,1,5,1,2,5,1,11
4,2,9,1,6,1,2,5,89,11
4,2,13,1,6,1,2,5,89,11
4,2,14,1,6,1,2,5,89,11
4,2,4,0,0,0,2,5,89,11
4,2,11,1,0,0,2,5,89,11
4,2,13,1,0,0,2,5,1,11
4,2,22,0,0,0,2,5,65,11
4,2,17,1,1,0,2,5,89,11
4,2,19,1,1,0,2,5,89,11
4,2,20,1,1,0,2,5,100,11
4,2,5,0,3,0,2,5,100,11
4,2,18,1,3,0,2,5,89,11
4,2,20,1,3,0,2,5,89,11
4,2,14,1,4,0,2,5,89,11
4,2,17,1,4,0,2,5,89,11
4,2,21,0,5,1,2,5,89,11
4,2,14,1,6,1,2,5,1,11
4,2,20,1,6,1,2,5,89,11
4,2,22,0,6,1,2,5,89,11
4,2,17,1,0,0,2,5,89,9
4,2,12,1,1,0,2,5,89,11
4,2,14,1,1,0,2,5,89,11
4,2,18,1,1,0,2,5,89,11
4,2,18,1,1,0,2,5,89,11
4,2,9,1,2,0,2,5,89,11
4,2,13,1,2,0,2,5,89,11
4,2,16,1,2,0,2,5,89,11
4,2,14,1,4,0,2,5,89,9
4,2,14,1,5,1,2,5,89,11
4,2,11,1,0,0,2,5,89,11
4,2,15,1,0,0,2,5,89,9
4,2,17,1,0,0,2,5,89,11
4,2,18,1,0,0,2,5,89,11
4,2,12,1,1,0,2,5,89,11
4,2,22,0,1,0,2,5,89,11
4,2,22,0,1,0,2,5,89,11
4,2,23,0,1,0,2,5,89,11
4,2,9,1,3,0,2,5,89,11
4,2,14,1,3,0,2,5,89,11
4,2,15,1,3,0,2,5,89,11
4,2,17,1,3,0,2,5,30,9
4,2,19,1,3,0,2,5,89,11
4,2,11,1,4,0,2,5,89,11
4,2,17,1,0,0,2,5,89,9
4,2,19,1,0,0,2,5,89,11
4,2,21,0,0,0,2,5,89,11
4,2,23,0,0,0,2,5,89,11
4,2,0,0,1,0,2,5,89,11
4,2,20,1,1,0,2,5,18,11
5,2,21,0,2,0,2,5,89,11
5,2,22,0,2,0,2,5,89,11
5,2,12,1,3,0,2,5,89,11
5,2,1,0,4,0,2,5,89,11
5,2,11,1,4,0,2,5,89,11
5,2,12,1,4,0,2,5,1,11
5,2,14,1,4,0,2,5,89,11
5,2,14,1,4,0,2,5,89,11
5,2,15,1,4,0,2,5,89,11
5,2,18,1,4,0,2,5,89,9
5,2,23,0,5,1,2,5,75,11
5,2,14,1,6,1,2,5,88,9
5,2,17,1,6,1,2,5,89,11
5,2,18,1,6,1,2,5,89,11
5,2,1,0,0,0,2,5,89,11
5,2,9,1,0,0,2,5,89,11
5,2,17,1,0,0,2,5,89,11
5,2,11,1,1,0,2,5,89,11
5,2,19,1,1,0,2,5,89,11
5,2,14,1,2,0,2,5,89,11
5,2,19,1,2,0,2,5,89,11
5,2,12,1,3,0,2,5,89,11
5,2,13,1,3,0,2,5,65,11
5,2,17,1,4,0,2,5,89,11
5,2,17,1,5,1,2,5,89,11
5,2,21,0,5,1,2,5,89,11
5,2,11,1,6,1,2,5,87,9
5,2,17,1,6,1,2,5,89,11
5,2,0,0,1,0,2,5,89,11
5,2,18,1,1,0,2,5,89,11
5,2,20,1,1,0,2,5,128,11
5,2,10,1,2,0,2,5,89,11
5,2,13,1,4,0,2,5,89,11
5,2,14,1,4,0,2,5,89,11
5,2,23,0,4,0,2,5,89,11
5,2,10,1,6,1,2,5,89,9
5,2,0,0,1,0,2,5,89,11
5,2,16,1,1,0,2,5,87,11
5,2,0,0,2,0,2,5,89,11
5,2,1,0,2,0,2,5,89,11
5,2,22,0,2,0,2,5,89,11
5,2,23,0,2,0,2,5,89,11
5,2,15,1,3,0,2,5,89,11
5,2,17,1,3,0,2,5,89,11
5,2,20,1,3,0,2,5,89,11
5,2,21,0,3,0,2,5,89,11
5,2,3,0,4,0,2,5,89,11
5,2,0,0,5,1,2,5,89,11
5,2,21,0,5,1,2,5,89,11
5,2,22,0,5,1,2,5,89,11
5,2,5,0,6,1,2,5,100,11
5,2,9,1,6,1,2,5,89,11
5,2,14,1,6,1,2,5,1,11
5,2,15,1,6,1,2,5,1,11
5,2,16,1,6,1,2,5,1,11
5,2,0,0,0,0,2,5,1,11
5,2,1,0,0,0,2,5,89,11
5,2,13,1,0,0,2,5,89,9
5,2,22,0,0,0,2,5,89,11
5,2,14,1,1,0,2,5,89,11
5,2,23,0,1,0,2,5,89,11
5,2,6,0,2,0,2,5,89,11
5,2,15,1,2,0,2,5,89,11
5,2,16,1,2,0,2,5,89,11
5,2,16,1,2,0,2,5,89,11
5,2,1,0,3,0,2,5,1,11
5,2,6,0,3,0,2,5,89,11
5,2,16,1,3,0,2,5,89,11
5,2,20,1,3,0,2,5,89,11
5,2,22,0,4,0,2,5,1,11
6,3,9,1,5,1,2,5,89,11
6,3,11,1,5,1,2,5,89,11
6,3,14,1,5,1,2,5,89,11
6,3,15,1,5,1,2,5,89,11
6,3,21,0,5,1,2,5,89,11
6,3,13,1,6,1,2,5,89,11
6,3,14,1,6,1,2,5,89,11
6,3,22,0,6,1,2,5,100,11
6,3,5,0,0,0,2,5,87,11
6,3,10,1,0,0,2,5,89,11
6,3,13,1,0,0,2,5,89,11
6,3,20,1,0,0,2,5,89,11
6,3,22,0,0,0,2,5,89,11
6,3,8,1,1,0,2,5,1,11
6,3,13,1,1,0,2,5,89,11
6,3,13,1,1,0,2,5,89,11
6,3,13,1,1,0,2,5,89,11
6,3,17,1,1,0,2,5,89,11
6,3,12,1,2,0,2,5,87,11
6,3,13,1,2,0,2,5,89,11
6,3,14,1,2,0,2,5,87,11
6,3,1,0,3,0,2,5,100,11
6,3,12,1,3,0,2,5,89,11
6,3,16,1,3,0,2,5,89,11
6,3,3,0,4,0,2,5,112,8
6,3,6,0,4,0,2,5,89,9
6,3,11,1,4,0,2,5,89,11
6,3,16,1,4,0,2,5,89,11
6,3,16,1,4,0,2,5,89,11
6,3,22,0,4,0,2,5,89,11
6,3,23,0,4,0,2,5,89,11
6,3,12,1,5,1,2,5,89,11
6,3,14,1,6,1,2,5,89,11
6,3,17,1,6,1,2,5,89,11
6,3,23,0,6,1,2,5,89,11
6,3,0,0,0,0,2,5,89,11
6,3,3,0,0,0,2,5,89,11
6,3,7,1,0,0,2,5,89,11
6,3,8,1,0,0,2,5,89,11
6,3,12,1,0,0,2,5,89,11
6,3,17,1,0,0,2,5,89,11
6,3,20,1,0,0,2,5,89,11
6,3,0,0,1,0,2,5,89,11
6,3,0,0,1,0,2,5,89,11
6,3,0,0,1,0,2,5,89,11
6,3,13,1,1,0,2,5,89,11
6,3,16,1,1,0,2,5,89,11
6,3,21,0,1,0,2,5,89,11
6,3,20,1,2,0,2,5,89,11
6,3,20,1,2,0,2,5,89,11
6,3,21,0,2,0,2,5,89,11
6,3,16,1,3,0,2,5,89,11
6,3,16,1,3,0,2,5,89,11
6,3,0,0,4,0,2,5,89,11
6,3,1,0,4,0,2,5,89,11
6,3,15,1,4,0,2,5,89,11
6,3,1,0,5,1,2,5,89,11
6,3,17,1,5,1,2,5,89,11
6,3,14,1,6,1,2,5,89,11
6,3,20,1,6,1,2,5,89,11
6,3,21,0,6,1,2,5,89,11
6,3,23,0,6,1,2,5,89,11
6,3,1,0,0,0,2,5,89,11
6,3,17,1,0,0,2,5,89,11
6,3,18,1,0,0,2,5,89,11
6,3,20,1,0,0,2,5,89,9
6,3,22,0,0,0,2,5,1,11
6,3,13,1,1,0,2,5,89,11
6,3,13,1,1,0,2,5,89,11
6,3,17,1,1,0,2,5,89,11
6,3,21,0,1,0,2,5,89,8
6,3,21,0,2,0,2,5,89,11
6,3,22,0,3,0,2,5,89,11
6,3,12,1,4,0,2,5,89,11
6,3,23,0,4,0,2,5,89,11
6,3,15,1,5,1,2,5,89,11
6,3,21,0,5,1,2,5,89,11
6,3,5,0,6,1,2,5,128,11
6,3,17,1,6,1,2,5,89,11
6,3,1,0,0,0,2,5,89,11
6,3,6,0,0,0,2,5,89,11
6,3,16,1,0,0,2,5,89,11
6,3,22,0,0,0,2,5,89,11
6,3,15,1,1,0,2,5,89,11
6,3,16,1,1,0,2,5,89,11
6,3,22,0,1,0,2,5,89,11
6,3,1,0,2,0,2,5,89,11
6,3,3,0,2,0,2,5,89,11
6,3,19,1,2,0,2,5,18,11
6,3,15,1,3,0,2,5,89,11
6,3,9,1,4,0,2,5,89,11
6,3,16,1,4,0,2,5,89,11
6,3,17,1,4,0,2,5,65,11
6,3,19,1,4,0,2,5,89,11
6,3,20,1,4,0,2,5,89,11
6,3,15,1,6,1,2,5,89,9
6,3,19,1,6,1,2,5,89,11
7,3,14,1,0,0,3,5,65,11
7,3,18,1,1,0,3,5,89,11
7,3,4,0,3,0,3,5,89,11
7,3,14,1,3,0,3,5,89,11
7,3,4,0,4,0,3,5,89,11
7,3,15,1,5,1,3,5,89,11
7,3,14,1,6,1,3,5,89,11
7,3,22,0,6,1,3,5,89,11
7,3,9,1,0,0,3,5,100,11
7,3,16,1,0,0,3,5,44,8
7,3,11,1,2,0,3,5,89,11
7,3,22,0,2,0,3,5,89,11
7,3,0,0,3,0,3,5,89,11
7,3,2,0,3,0,3,5,89,11
7,3,5,0,3,0,3,5,89,11
7,3,14,1,4,0,3,5,72,11
7,3,21,0,5,1,3,5,89,11
7,3,23,0,5,1,3,5,89,11
7,3,18,1,6,1,3,5,89,11
7,3,14,1,0,0,3,5,89,11
7,3,1,0,1,0,3,5,89,11
7,3,7,1,1,0,3,5,89,11
7,3,11,1,1,0,3,5,89,11
7,3,16,1,3,0,3,5,128,9
7,3,18,1,3,0,3,5,89,9
7,3,9,1,4,0,3,5,89,11
7,3,13,1,4,0,3,5,89,11
7,3,14,1,4,0,3,5,89,11
7,3,21,0,4,0,3,5,89,11
7,3,1,0,5,1,3,5,89,11
7,3,9,1,5,1,3,5,89,11
7,3,23,0,5,1,3,5,89,9
7,3,7,1,6,1,3,5,89,11
7,3,18,1,6,1,3,5,89,11
7,3,0,0,0,0,3,5,18,11
7,3,4,0,0,0,3,5,100,11
7,3,13,1,0,0,3,5,89,11
7,3,13,1,0,0,3,5,89,11
7,3,17,1,0,0,3,5,89,11
7,3,22,0,0,0,3,5,89,11
7,3,23,0,0,0,3,5,1,11
7,3,23,0,0,0,3,5,89,11
7,3,3,0,1,0,3,5,89,11
7,3,6,0,1,0,3,5,89,11
7,3,21,0,1,0,3,5,89,11
7,3,3,0,2,0,3,5,89,11
7,3,5,0,2,0,3,5,89,11
7,3,16,1,2,0,3,5,89,11
7,3,0,0,3,0,3,5,89,11
7,3,10,1,3,0,3,5,89,11
7,3,14,1,3,0,3,5,89,11
7,3,18,1,3,0,3,5,89,11
7,3,18,1,3,0,3,5,89,11
7,3,22,0,3,0,3,5,89,11
7,3,0,0,4,0,3,5,89,11
7,3,1,0,4,0,3,5,89,11
7,3,2,0,4,0,3,5,89,11
7,3,6,0,4,0,3,5,89,11
7,3,14,1,4,0,3,5,18,11
7,3,21,0,4,0,3,5,89,11
7,3,21,0,4,0,3,5,89,11
7,3,3,0,5,1,3,5,89,11
7,3,13,1,6,1,3,5,89,11
7,3,22,0,6,1,3,5,89,11
7,3,23,0,0,0,3,5,89,9
7,3,0,0,1,0,3,5,89,11
7,3,14,1,1,0,3,5,89,11
7,3,14,1,1,0,3,5,89,11
7,3,12,1,2,0,3,5,89,11
7,3,16,1,2,0,3,5,89,11
7,3,18,1,2,0,3,5,89,11
8,3,3,0,3,0,3,5,89,11
8,3,6,0,3,0,3,5,89,11
8,3,14,1,3,0,3,5,89,11
8,3,9,1,4,0,3,5,89,9
8,3,12,1,4,0,3,5,89,8
8,3,20,1,4,0,3,5,89,9
8,3,21,0,4,0,3,5,89,11
8,3,22,0,4,0,3,5,89,11
8,3,0,0,5,1,3,5,89,9
8,3,1,0,5,1,3,5,128,11
8,3,9,1,5,1,3,5,89,11
8,3,16,1,5,1,3,5,89,9
8,3,20,1,5,1,3,5,89,11
8,3,0,0,6,1,3,5,89,11
8,3,7,1,6,1,3,5,1,11
8,3,9,1,6,1,3,5,13,11
8,3,11,1,6,1,3,5,89,11
8,3,15,1,6,1,3,5,89,11
8,3,7,1,1,0,3,5,89,11
8,3,8,1,1,0,3,5,89,11
8,3,16,1,1,0,3,5,89,11
8,3,21,0,1,0,3,5,89,11
8,3,7,1,3,0,3,5,89,11
8,3,20,1,4,0,3,5,89,11
8,3,1,0,5,1,3,5,89,11
8,3,3,0,5,1,3,5,89,11
8,3,11,1,5,1,3,5,89,11
8,3,15,1,5,1,3,5,89,11
8,3,13,1,0,0,3,5,89,11
8,3,19,1,0,0,3,5,89,11
8,3,8,1,1,0,3,5,89,11
8,3,11,1,1,0,3,5,89,11
8,3,19,1,1,0,3,5,89,11
8,3,7,1,3,0,3,5,89,11
8,3,12,1,3,0,3,5,89,11
8,3,13,1,3,0,3,5,89,11
8,3,20,1,4,0,3,5,89,11
8,3,22,0,6,1,3,5,89,11
8,3,23,0,6,1,3,5,89,11
8,3,1,0,0,0,3,5,89,11
8,3,6,0,0,0,3,5,89,11
8,3,8,1,0,0,3,5,89,11
8,3,21,0,0,0,3,5,89,11
8,3,1,0,1,0,3,5,89,11
8,3,3,0,1,0,3,5,89,11
8,3,3,0,1,0,3,5,89,11
8,3,7,1,1,0,3,5,89,11
8,3,20,1,1,0,3,5,89,11
8,3,23,0,1,0,3,5,89,11
8,3,7,1,2,0,3,5,89,9
8,3,9,1,2,0,3,5,89,11
8,3,15,1,2,0,3,5,89,11
8,3,18,1,2,0,3,5,89,11
8,3,21,0,2,0,3,5,89,11
8,3,1,0,3,0,3,5,89,11
8,3,10,1,3,0,3,5,89,11
8,3,10,1,3,0,3,5,100,11
8,3,11,1,3,0,3,5,89,11
8,3,16,1,3,0,3,5,89,11
8,3,19,1,4,0,3,5,7,9
8,3,20,1,4,0,3,5,89,11
8,3,6,0,5,1,3,5,89,11
8,3,21,0,5,1,3,5,89,11
8,3,22,0,5,1,3,5,89,11
8,3,21,0,6,1,3,5,89,11
8,3,0,0,0,0,3,5,89,11
8,3,11,1,0,0,3,5,89,11
8,3,13,1,0,0,3,5,89,11
8,3,19,1,0,0,3,5,89,11
8,3,19,1,0,0,3,5,89,11
8,3,20,1,0,0,3,5,89,11
8,3,22,0,0,0,3,5,89,11
8,3,6,0,1,0,3,5,89,11
8,3,10,1,1,0,3,5,89,11
8,3,13,1,1,0,3,5,89,11
8,3,18,1,1,0,3,5,89,11
8,3,21,0,1,0,3,5,89,11
8,3,1,0,2,0,3,5,89,11
8,3,6,0,2,0,3,5,89,11
8,3,20,1,2,0,3,5,89,11
8,3,0,0,3,0,3,5,89,11
8,3,3,0,3,0,3,5,89,11
8,3,20,1,3,0,3,5,89,11
8,3,20,1,3,0,3,5,89,11
8,3,10,1,4,0,3,5,89,11
8,3,19,1,4,0,3,5,89,11
8,3,23,0,4,0,3,5,89,11
8,3,17,1,5,1,3,5,33,11
8,3,22,0,5,1,3,5,89,11
8,3,23,0,5,1,3,5,89,11
9,4,7,1,6,1,3,5,89,11
9,4,7,1,0,0,3,5,89,11
9,4,8,1,0,0,3,5,89,11
9,4,15,1,0,0,3,5,89,11
9,4,15,1,0,0,3,5,89,11
9,4,15,1,0,0,3,5,89,11
9,4,19,1,0,0,3,5,89,11
9,4,17,1,1,0,3,5,89,11
9,4,20,1,1,0,3,5,89,11
9,4,11,1,2,0,3,5,89,11
9,4,20,1,2,0,3,5,89,11
9,4,20,1,2,0,3,5,89,11
9,4,22,0,2,0,3,5,89,11
9,4,23,0,2,0,3,5,89,11
9,4,19,1,3,0,3,5,89,11
9,4,19,1,3,0,3,5,89,11
9,4,2,0,4,0,3,5,89,11
9,4,7,1,6,1,3,5,89,11
9,4,11,1,6,1,3,5,89,11
9,4,12,1,6,1,3,5,89,11
9,4,14,1,6,1,3,5,89,11
9,4,14,1,6,1,3,5,18,11
9,4,17,1,6,1,3,5,89,11
9,4,19,1,6,1,3,5,89,11
9,4,21,0,6,1,3,5,89,11
9,4,21,0,6,1,3,5,89,11
9,4,0,0,0,0,3,5,89,11
9,4,4,0,0,0,3,5,89,11
9,4,19,1,0,0,3,5,89,11
9,4,21,0,0,0,3,5,89,11
9,4,19,1,1,0,3,5,89,11
9,4,21,0,1,0,3,5,89,11
9,4,22,0,1,0,3,5,89,11
9,4,0,0,2,0,3,5,89,11
9,4,8,1,2,0,3,5,89,11
9,4,9,1,2,0,3,5,89,11
9,4,9,1,2,0,3,5,89,11
9,4,13,1,2,0,3,5,89,11
9,4,13,1,2,0,3,5,89,11
9,4,19,1,2,0,3,5,89,11
9,4,21,0,2,0,3,5,89,11
9,4,23,0,2,0,3,5,89,11
9,4,23,0,2,0,3,5,89,11
9,4,0,0,3,0,3,5,89,11
9,4,8,1,3,0,3,5,89,11
9,4,17,1,3,0,3,5,89,11
9,4,20,1,3,0,3,5,89,11
9,4,21,0,3,0,3,5,89,11
9,4,22,0,3,0,3,5,89,11
9,4,23,0,3,0,3,5,89,11
9,4,8,1,5,1,3,5,89,11
9,4,14,1,5,1,3,5,89,11
9,4,0,0,6,1,3,5,89,11
9,4,8,1,6,1,3,5,89,11
9,4,8,1,6,1,3,5,89,11
9,4,9,1,6,1,3,5,89,11
9,4,11,1,6,1,3,5,89,9
9,4,19,1,6,1,3,5,1,11
9,4,22,0,6,1,3,5,89,11
9,4,7,1,0,0,3,5,89,11
9,4,15,1,1,0,3,5,18,11
9,4,21,0,1,0,3,5,89,11
9,4,0,0,2,0,3,5,89,11
9,4,8,1,2,0,3,5,89,11
9,4,9,1,2,0,3,5,89,11
9,4,8,1,3,0,3,5,89,11
9,4,10,1,3,0,3,5,89,11
9,4,18,1,3,0,3,5,89,11
9,4,4,0,5,1,3,5,89,11
9,4,4,0,5,1,3,5,89,11
9,4,16,1,5,1,3,5,18,9
9,4,2,0,6,1,3,5,89,9
9,4,5,0,6,1,3,5,89,11
9,4,6,0,6,1,3,5,89,11
9,4,10,1,6,1,3,5,89,11
9,4,10,1,6,1,3,5,65,9
9,4,8,1,0,0,3,5,89,11
9,4,12,1,0,0,3,5,89,11
9,4,14,1,0,0,3,5,89,11
9,4,19,1,0,0,3,5,89,11
9,4,21,0,0,0,3,5,89,11
9,4,22,0,0,0,3,5,89,11
9,4,10,1,1,0,3,5,89,11
9,4,20,1,1,0,3,5,89,11
9,4,21,0,1,0,3,5,89,11
9,4,8,1,3,0,3,5,89,11
9,4,10,1,3,0,3,5,89,11
9,4,10,1,3,0,3,5,89,11
9,4,20,1,3,0,3,5,89,11
9,4,21,0,3,0,3,5,89,11
9,4,22,0,3,0,3,5,89,11
9,4,22,0,3,0,3,5,89,11
9,4,0,0,4,0,3,5,89,11
9,4,2,0,4,0,3,5,89,11
9,4,9,1,4,0,3,5,89,11
9,4,19,1,4,0,3,5,89,11
9,4,17,1,6,1,3,5,89,11
9,4,10,1,0,0,3,5,89,9
9,4,15,1,0,0,3,5,89,11
9,4,18,1,0,0,3,5,89,11
9,4,19,1,0,0,3,5,89,11
10,4,20,1,1,0,4,5,89,11
10,4,21,0,1,0,4,5,89,11
10,4,22,0,1,0,4,5,89,11
10,4,23,0,1,0,4,5,89,11
10,4,3,0,2,0,4,5,89,11
10,4,7,1,2,0,4,5,89,11
10,4,7,1,2,0,4,5,89,11
10,4,9,1,2,0,4,5,89,11
10,4,20,1,2,0,4,5,89,11
10,4,10,1,3,0,4,5,89,11
10,4,13,1,3,0,4,5,89,9
10,4,18,1,3,0,4,5,89,11
10,4,19,1,3,0,4,5,1,11
10,4,1,0,5,1,4,5,89,11
10,4,8,1,5,1,4,5,89,11
10,4,11,1,5,1,4,5,89,11
10,4,11,1,5,1,4,5,89,11
10,4,14,1,5,1,4,5,89,11
10,4,15,1,5,1,4,5,100,11
10,4,15,1,5,1,4,5,44,11
10,4,18,1,5,1,4,5,89,11
10,4,20,1,5,1,4,5,110,11
10,4,22,0,6,1,4,5,89,11
10,4,13,1,0,0,4,5,89,11
10,4,10,1,1,0,4,5,89,11
10,4,12,1,1,0,4,5,89,11
10,4,18,1,1,0,4,5,89,11
10,4,19,1,1,0,4,5,89,11
10,4,20,1,1,0,4,5,89,11
10,4,11,1,2,0,4,5,89,11
10,4,12,1,2,0,4,5,89,11
10,4,13,1,2,0,4,5,89,11
10,4,15,1,2,0,4,5,89,11
10,4,16,1,2,0,4,5,89,11
10,4,18,1,2,0,4,5,89,11
10,4,19,1,2,0,4,5,89,11
10,4,7,1,3,0,4,5,89,11
10,4,9,1,4,0,4,5,89,11
10,4,3,0,5,1,4,5,89,11
10,4,8,1,5,1,4,5,89,11
10,4,20,1,5,1,4,5,89,11
10,4,16,1,6,1,4,5,89,11
10,4,11,1,0,0,4,5,89,11
10,4,16,1,0,0,4,5,89,11
10,4,20,1,0,0,4,5,89,11
10,4,22,0,0,0,4,5,89,11
10,4,22,0,0,0,4,5,13,11
10,4,7,1,1,0,4,5,89,11
10,4,15,1,1,0,4,5,89,11
10,4,21,0,1,0,4,5,89,11
10,4,8,1,2,0,4,5,89,11
10,4,17,1,2,0,4,5,89,11
10,4,18,1,2,0,4,5,89,11
10,4,17,1,3,0,4,5,89,11
10,4,19,1,3,0,4,5,89,11
10,4,7,1,4,0,4,5,1,11
10,4,18,1,4,0,4,5,89,11
10,4,12,1,5,1,4,5,1,11
10,4,17,1,5,1,4,5,128,11
10,4,18,1,5,1,4,5,89,11
10,4,23,0,5,1,4,5,89,11
10,4,23,0,5,1,4,5,1,11
10,4,9,1,6,1,4,5,89,11
10,4,10,1,6,1,4,5,89,11
10,4,12,1,6,1,4,5,89,11
10,4,16,1,6,1,4,5,89,11
10,4,22,0,6,1,4,5,89,11
10,4,3,0,1,0,4,5,89,11
10,4,13,1,1,0,4,5,89,11
10,4,16,1,1,0,4,5,89,11
10,4,8,1,2,0,4,5,89,11
10,4,9,1,2,0,4,5,89,11
10,4,15,1,2,0,4,5,18,11
10,4,23,0,2,0,4,5,89,11
10,4,1,0,3,0,4,5,89,11
10,4,10,1,4,0,4,5,89,11
10,4,18,1,4,0,4,5,89,11
10,4,8,1,5,1,4,5,89,11
10,4,3,0,6,1,4,5,18,11
10,4,3,0,6,1,4,5,89,11
10,4,1,0,1,0,4,5,89,11
10,4,11,1,1,0,4,5,89,11
10,4,19,1,1,0,4,5,89,11
10,4,16,1,2,0,4,5,89,11
11,4,9,1,4,0,4,5,89,11
11,4,15,1,4,0,4,5,89,11
11,4,18,1,4,0,4,5,89,11
11,4,21,0,4,0,4,5,89,11
11,4,23,0,5,1,4,5,1,11
11,4,21,0,0,0,4,5,1,11
11,4,22,0,0,0,4,5,1,11
11,4,0,0,2,0,4,5,12,11
11,4,5,0,2,0,4,5,1,9
11,4,11,1,3,0,4,5,89,11
11,4,11,1,3,0,4,5,89,11
11,4,19,1,3,0,4,5,89,11
11,4,4,0,4,0,4,5,89,11
11,4,13,1,6,1,4,5,89,11
11,4,22,0,6,1,4,5,89,11
11,4,23,0,6,1,4,5,22,9
11,4,6,0,0,0,4,5,89,11
11,4,14,1,0,0,4,5,89,9
11,4,15,1,0,0,4,5,89,11
11,4,18,1,0,0,4,5,89,11
11,4,19,1,0,0,4,5,1,11
11,4,21,0,0,0,4,5,89,11
11,4,4,0,1,0,4,5,89,11
11,4,7,1,1,0,4,5,89,11
11,4,15,1,1,0,4,5,89,11
11,4,20,1,1,0,4,5,89,11
11,4,4,0,2,0,4,5,89,11
11,4,14,1,2,0,4,5,1,11
11,4,15,1,2,0,4,5,89,11
11,4,16,1,2,0,4,5,89,11
11,4,17,1,2,0,4,5,89,11
11,4,21,0,2,0,4,5,1,11
11,4,16,1,5,1,4,5,100,11
11,4,17,1,5,1,4,5,100,11
11,4,22,0,0,0,4,5,128,11
11,4,22,0,0,0,4,5,128,11
11,4,17,1,1,0,4,5,89,11
11,4,9,1,2,0,4,5,89,11
11,4,13,1,2,0,4,5,1,11
11,4,17,1,2,0,4,5,1,11
11,4,17,1,4,0,4,5,89,11
11,4,18,1,4,0,4,5,89,11
11,4,21,0,4,0,4,5,89,11
11,4,17,1,5,1,4,5,128,11
11,4,8,1,0,0,4,5,89,11
11,4,18,1,0,0,4,5,89,11
11,4,19,1,0,0,4,5,89,11
11,4,21,0,0,0,4,5,89,11
11,4,3,0,4,0,4,5,89,11
11,4,20,1,4,0,4,5,65,11
11,4,10,1,5,1,4,5,89,11
11,4,16,1,5,1,4,5,89,11
12,1,21,0,6,1,4,5,89,11
12,1,10,1,1,0,4,5,89,11
12,1,18,1,1,0,4,5,89,11
12,1,3,0,3,0,4,5,89,11
12,1,16,1,4,0,4,5,89,11
12,1,20,1,4,0,4,5,89,11
12,1,20,1,4,0,4,5,89,11
12,1,6,0,5,1,4,5,89,11
12,1,22,0,6,1,4,5,64,11
12,1,17,1,0,0,4,5,89,11
12,1,19,1,1,0,4,5,89,11
12,1,7,1,0,0,4,5,72,11
12,1,23,0,0,0,4,5,72,11
12,1,19,1,1,0,4,5,65,11
12,1,19,1,5,1,4,5,89,11
12,1,19,1,6,1,4,5,100,11
12,1,11,1,4,0,4,5,72,11
12,1,13,1,4,0,4,5,128,11
1,1,18,1,1,0,1,5,89,8
1,1,21,0,4,0,1,5,100,11
1,1,11,1,0,0,1,5,18,11
1,1,16,1,0,0,1,5,68,9
1,1,23,0,5,1,1,5,128,11
1,1,21,0,6,1,1,5,100,11
1,1,16,1,2,0,1,5,89,11
1,1,20,1,6,1,1,5,92,11
1,1,12,1,1,0,1,5,100,11
1,1,21,0,1,0,1,5,22,11
1,1,17,1,5,1,1,5,89,11
2,1,19,1,5,1,1,5,89,11
2,1,3,0,0,0,1,5,89,9
3,2,6,0,3,0,1,5,18,11
3,2,19,1,3,0,1,5,89,11
3,2,19,1,3,0,1,5,89,11
3,2,19,1,4,0,1,5,89,11
3,2,19,1,5,1,1,5,89,11
3,2,15,1,6,1,1,5,100,11
3,2,12,1,0,0,1,5,100,11
3,2,20,1,1,0,1,5,65,9
4,2,8,1,2,0,2,5,111,11
4,2,12,1,2,0,2,5,4,11
4,2,13,1,2,0,2,5,4,9
4,2,18,1,2,0,2,5,75,11
4,2,16,1,3,0,2,5,89,11
4,2,20,1,3,0,2,5,4,11
4,2,17,1,4,0,2,5,89,11
4,2,17,1,5,1,2,5,89,11
4,2,20,1,5,1,2,5,100,11
4,2,16,1,6,1,2,5,89,11
4,2,18,1,6,1,2,5,89,11
4,2,9,1,0,0,2,5,87,11
4,2,22,0,0,0,2,5,87,11
4,2,13,1,1,0,2,5,72,11
4,2,0,0,2,0,2,5,89,11
4,2,16,1,2,0,2,5,89,11
4,2,20,1,2,0,2,5,89,11
4,2,17,1,5,1,2,5,100,11
4,2,11,1,6,1,2,5,89,11
4,2,10,1,0,0,2,5,128,11
4,2,11,1,5,1,2,5,100,11
4,2,13,1,3,0,2,5,89,11
4,2,18,1,4,0,2,5,89,11
4,2,23,0,6,1,2,5,89,11
5,2,19,1,4,0,2,5,100,11
5,2,11,1,0,0,2,5,89,11
5,2,14,1,3,0,2,5,4,11
5,2,16,1,4,0,2,5,89,11
5,2,14,1,4,0,2,5,4,11
5,2,15,1,3,0,2,5,89,11
5,2,17,1,3,0,2,5,89,11
5,2,10,1,4,0,2,5,4,11
5,2,15,1,6,1,2,5,87,11
5,2,21,0,6,1,2,5,89,11
5,2,16,1,0,0,2,5,89,11
5,2,17,1,1,0,2,5,89,11
5,2,13,1,2,0,2,5,89,11
6,3,18,1,6,1,2,5,72,11
6,3,21,0,0,0,2,5,100,11
6,3,14,1,1,0,2,5,89,11
6,3,22,0,1,0,2,5,89,11
6,3,17,1,2,0,2,5,89,11
6,3,11,1,3,0,2,5,89,11
6,3,8,1,6,1,2,5,4,11
6,3,9,1,3,0,2,5,100,11
6,3,11,1,0,0,2,5,89,11
6,3,12,1,0,0,2,5,4,11
6,3,14,1,5,1,2,5,87,11
6,3,13,1,2,0,2,5,100,11
6,3,16,1,6,1,2,5,89,11
7,3,15,1,0,0,3,5,89,11
7,3,20,1,2,0,3,5,89,11
7,3,7,1,3,0,3,5,110,11
7,3,19,1,3,0,3,5,89,11
7,3,10,1,6,1,3,5,89,11
7,3,11,1,1,0,3,5,89,11
7,3,10,1,2,0,3,5,58,11
7,3,3,0,0,0,3,5,18,9
7,3,12,1,0,0,3,5,58,11
8,3,19,1,4,0,3,5,72,11
8,3,18,1,5,1,3,5,89,11
8,3,7,1,4,0,3,5,89,11
8,3,21,0,5,1,3,5,89,11
8,3,17,1,1,0,3,5,13,9
8,3,22,0,6,1,3,5,87,11
8,3,19,1,5,1,3,5,100,11
8,3,17,1,0,0,3,5,89,9
8,3,11,1,4,0,3,5,100,11
9,4,6,0,4,0,3,5,22,11
9,4,8,1,5,1,3,5,88,9
9,4,18,1,2,0,3,5,97,11
9,4,17,1,0,0,3,5,89,11
9,4,22,0,1,0,3,5,75,11
10,4,12,1,5,1,4,5,89,11
10,4,16,1,0,0,4,5,89,11
10,4,14,1,1,0,4,5,125,11
10,4,18,1,1,0,4,5,7,9
10,4,4,0,2,0,4,5,18,11
10,4,11,1,5,1,4,5,100,11
10,4,2,0,5,1,4,5,72,11
10,4,20,1,2,0,4,5,89,11
11,4,12,1,6,1,4,5,87,11
11,4,8,1,0,0,4,5,125,11
11,4,15,1,6,1,4,5,65,11
11,4,18,1,1,0,4,5,100,11
11,4,21,0,1,0,4,5,89,11
11,4,22,0,1,0,4,5,89,11
11,4,12,1,2,0,4,5,4,11
11,4,15,1,5,1,4,5,128,11
11,4,17,1,0,0,4,5,89,11
11,4,11,1,1,0,4,5,75,11
11,4,17,1,4,0,4,5,128,11
12,1,6,0,1,0,4,5,65,11
12,1,19,1,4,0,4,5,13,9
12,1,23,0,5,1,4,5,89,11
12,1,21,0,0,0,4,5,18,11
12,1,15,1,2,0,4,5,89,11
12,1,15,1,5,1,4,5,4,11
12,1,21,0,1,0,4,5,128,11
1,1,15,1,5,1,1,5,67,11
3,2,19,1,6,1,1,5,100,11
3,2,9,1,1,0,1,5,100,11
4,2,20,1,1,0,2,5,1,11
8,3,21,0,0,0,3,5,18,11
10,4,14,1,6,1,4,5,100,11
11,4,13,1,4,0,4,5,75,11
2,1,15,1,0,0,1,5,72,11
2,1,15,1,6,1,1,5,72,11
3,2,9,1,4,0,1,5,72,11
3,2,7,1,4,0,1,5,87,11
4,2,12,1,0,0,2,5,18,11
7,3,15,1,1,0,3,5,19,11
8,3,10,1,4,0,3,5,72,9
9,4,16,1,2,0,3,5,72,11
9,4,15,1,5,1,3,5,72,11
9,4,21,0,4,0,3,5,72,11
10,4,11,1,6,1,4,5,72,11
10,4,19,1,3,0,4,5,87,11
10,4,12,1,1,0,4,5,100,11
10,4,3,0,2,0,4,5,87,11
10,4,13,1,5,1,4,5,87,11
12,1,22,0,2,0,4,28,72,11
1,1,16,1,2,0,1,5,89,11
1,1,14,1,3,0,1,5,100,11
1,1,14,1,5,1,1,5,89,11
1,1,10,1,2,0,1,5,87,11
1,1,19,1,4,0,1,5,65,11
1,1,0,0,2,0,1,5,41,11
1,1,18,1,1,0,1,5,75,8
1,1,13,1,5,1,1,5,89,11
1,1,18,1,1,0,1,5,75,11
1,1,18,1,1,0,1,5,75,11
2,1,18,1,0,0,1,5,89,11
2,1,12,1,5,1,1,5,87,11
2,1,5,0,6,1,1,5,18,11
2,1,7,1,1,0,1,5,89,11
2,1,14,1,6,1,1,5,75,11
2,1,5,0,0,0,1,5,87,11
3,2,16,1,5,1,1,5,72,11
3,2,23,0,0,0,1,5,89,11
3,2,9,1,1,0,1,5,89,11
3,2,13,1,1,0,1,5,89,11
3,2,19,1,1,0,1,5,89,11
3,2,16,1,6,1,1,5,89,11
4,2,9,1,0,0,2,5,89,11
4,2,19,1,4,0,2,5,75,11
4,2,19,1,0,0,2,5,89,11
4,2,17,1,1,0,2,5,18,11
4,2,13,1,5,1,2,5,89,11
4,2,9,1,4,0,2,5,89,11
4,2,12,1,6,1,2,5,107,11
5,2,11,1,4,0,2,5,71,11
5,2,20,1,4,0,2,5,100,11
5,2,23,0,5,1,2,5,87,11
5,2,1,0,6,1,2,5,100,11
5,2,1,0,6,1,2,5,87,11
5,2,12,1,1,0,2,5,18,11
5,2,11,1,5,1,2,5,87,11
5,2,18,1,5,1,2,5,75,11
5,2,13,1,0,0,2,5,75,9
5,2,15,1,3,0,2,5,75,11
6,3,11,1,0,0,2,5,77,11
6,3,11,1,6,1,2,5,100,11
6,3,17,1,3,0,2,5,100,11
6,3,18,1,5,1,2,5,89,11
6,3,13,1,6,1,2,5,71,11
6,3,11,1,1,0,2,5,125,11
6,3,15,1,5,1,2,5,89,11
7,3,8,1,2,0,3,5,100,11
7,3,16,1,3,0,3,5,100,11
7,3,0,0,5,1,3,5,30,9
7,3,18,1,1,0,3,5,18,11
7,3,20,1,5,1,3,5,110,11
7,3,15,1,5,1,3,5,89,11
7,3,9,1,6,1,3,5,65,11
7,3,11,1,1,0,3,5,89,11
8,3,21,0,1,0,3,5,110,11
8,3,2,0,0,0,3,5,75,11
9,4,11,1,3,0,3,5,87,11
9,4,21,0,3,0,3,5,18,11
10,4,10,1,6,1,4,5,89,11
10,4,14,1,6,1,4,5,87,11
10,4,19,1,3,0,4,5,87,11
10,4,18,1,0,0,4,5,87,11
11,4,15,1,1,0,4,5,89,11
11,4,11,1,5,1,4,5,89,11
11,4,11,1,5,1,4,5,89,11
11,4,1,0,4,0,4,5,18,11
11,4,10,1,3,0,4,5,75,11
12,1,22,0,6,1,4,5,89,11
12,1,20,1,0,0,4,5,89,11
12,1,3,0,3,0,4,5,75,11
12,1,15,1,3,0,4,5,66,11
12,1,13,1,5,1,4,5,87,11
12,1,23,0,6,1,4,5,87,11
12,1,20,1,4,0,4,5,75,8
12,1,9,1,2,0,4,5,87,11
12,1,11,1,2,0,4,5,87,11
12,1,1,0,3,0,4,5,75,9
12,1,18,1,4,0,4,5,87,11
12,1,3,0,1,0,4,5,58,11
6,3,14,1,4,0,2,29,89,11
7,3,20,1,0,0,3,29,89,11
7,3,21,0,1,0,3,29,100,11
8,3,17,1,5,1,3,5,89,11
12,1,18,1,0,0,4,29,18,11
12,1,1,0,2,0,4,29,18,11
1,1,12,1,6,1,1,5,87,11
1,1,16,1,0,0,1,5,89,11
1,1,13,1,1,0,1,5,87,11
1,1,16,1,5,1,1,5,89,11
1,1,16,1,6,1,1,5,89,11
1,1,12,1,3,0,1,5,89,11
1,1,22,0,3,0,1,5,72,11
1,1,23,0,3,0,1,5,75,11
1,1,18,1,0,0,1,5,89,11
1,1,9,1,1,0,1,5,87,11
1,1,13,1,3,0,1,5,87,11
1,1,12,1,4,0,1,5,87,11
1,1,16,1,4,0,1,5,87,11
2,1,7,1,3,0,1,5,87,11
2,1,15,1,3,0,1,5,128,11
2,1,11,1,4,0,1,5,87,11
2,1,16,1,5,1,1,5,87,11
2,1,12,1,6,1,1,5,128,11
2,1,10,1,3,0,1,5,89,11
2,1,15,1,3,0,1,5,89,11
2,1,17,1,5,1,1,5,89,11
2,1,13,1,1,0,1,5,128,11
2,1,16,1,3,0,1,5,87,11
2,1,10,1,6,1,1,5,87,11
2,1,11,1,6,1,1,5,75,11
2,1,21,0,1,0,1,5,75,11
2,1,10,1,2,0,1,5,100,11
2,1,19,1,3,0,1,5,89,11
2,1,13,1,5,1,1,5,89,11
2,1,13,1,6,1,1,5,89,11
2,1,21,0,0,0,1,5,38,11
2,1,14,1,2,0,1,5,87,11
3,2,0,0,4,0,1,5,89,11
3,2,23,0,0,0,1,5,87,11
3,2,1,0,0,0,1,5,89,11
3,2,16,1,0,0,1,5,75,11
3,2,18,1,3,0,1,5,89,11
3,2,10,1,4,0,1,5,89,11
3,2,0,0,3,0,1,5,89,11
3,2,18,1,4,0,1,5,89,11
3,2,20,1,5,1,1,5,75,11
3,2,17,1,6,1,1,5,89,11
4,2,12,1,1,0,2,5,89,11
4,2,0,0,2,0,2,5,89,11
4,2,10,1,6,1,2,5,89,11
4,2,7,1,2,0,2,5,89,11
4,2,14,1,5,1,2,5,89,11
4,2,9,1,6,1,2,5,89,11
4,2,17,1,6,1,2,5,18,11
4,2,10,1,0,0,2,5,65,11
4,2,0,0,2,0,2,5,89,11
4,2,18,1,0,0,2,5,13,11
5,2,11,1,5,1,2,5,128,11
5,2,23,0,5,1,2,5,128,11
5,2,23,0,5,1,2,5,44,11
5,2,0,0,6,1,2,5,128,11
5,2,21,0,6,1,2,5,89,11
5,2,21,0,6,1,2,5,97,11
5,2,6,0,0,0,2,5,89,11
5,2,11,1,0,0,2,5,87,11
5,2,23,0,0,0,2,5,18,11
5,2,13,1,1,0,2,5,100,11
5,2,10,1,3,0,2,5,89,11
5,2,14,1,6,1,2,5,89,11
5,2,8,1,0,0,2,5,89,11
5,2,13,1,1,0,2,5,44,11
6,3,14,1,2,0,2,5,89,11
6,3,19,1,5,1,2,5,67,11
6,3,19,1,5,1,2,5,87,11
6,3,9,1,0,0,2,5,16,11
6,3,11,1,0,0,2,5,87,11
6,3,9,1,1,0,2,5,87,11
6,3,1,0,3,0,2,5,89,11
6,3,18,1,3,0,2,5,89,8
6,3,2,0,0,0,2,5,89,11
7,3,22,0,0,0,3,5,75,11
7,3,3,0,2,0,3,5,89,11
7,3,0,0,0,0,3,5,89,11
7,3,19,1,2,0,3,5,18,11
7,3,19,1,5,1,3,5,75,11
7,3,13,1,4,0,3,5,89,11
8,3,18,1,4,0,3,5,18,11
8,3,0,0,5,1,3,5,79,11
8,3,8,1,5,1,3,5,89,11
8,3,9,1,2,0,3,5,18,11
8,3,3,0,3,0,3,5,89,11
8,3,21,0,3,0,3,5,89,11
8,3,14,1,6,1,3,5,89,9
8,3,8,1,3,0,3,5,89,11
8,3,16,1,3,0,3,5,89,11
9,4,0,0,1,0,3,5,89,11
9,4,17,1,4,0,3,5,75,8
10,4,11,1,2,0,4,5,75,11
10,4,14,1,4,0,4,5,89,11
10,4,12,1,6,1,4,5,87,11
10,4,15,1,1,0,4,5,79,11
10,4,1,0,2,0,4,5,89,11
10,4,6,0,4,0,4,5,89,11
10,4,17,1,0,0,4,5,89,11
10,4,13,1,6,1,4,5,89,11
10,4,23,0,6,1,4,5,89,11
10,4,13,1,2,0,4,5,89,11
11,4,14,1,4,0,4,5,89,11
11,4,8,1,5,1,4,5,89,11
11,4,18,1,5,1,4,5,89,11
11,4,15,1,3,0,4,5,89,11
11,4,11,1,5,1,4,5,75,11
11,4,19,1,6,1,4,5,75,11
11,4,13,1,0,0,4,5,89,11
11,4,11,1,1,0,4,5,89,11
11,4,14,1,1,0,4,5,89,11
11,4,6,0,2,0,4,5,89,11
11,4,13,1,5,1,4,5,87,11
11,4,17,1,5,1,4,5,89,11
11,4,21,0,4,0,4,5,89,11
11,4,12,1,4,0,4,5,89,11
12,1,20,1,3,0,4,5,89,11
12,1,9,1,4,0,4,5,18,8
12,1,9,1,1,0,4,5,89,11
12,1,16,1,1,0,4,5,89,11
12,1,20,1,3,0,4,5,89,11
12,1,19,1,4,0,4,5,89,11
12,1,8,1,2,0,4,5,89,11
12,1,15,1,2,0,4,5,75,11
12,1,5,0,3,0,4,5,38,11
12,1,16,1,3,0,4,5,89,11
1,1,21,0,3,0,1,5,89,11
1,1,12,1,4,0,1,5,89,11
1,1,10,1,6,1,1,5,89,11
1,1,10,1,2,0,1,5,72,9
1,1,13,1,6,1,1,5,89,11
1,1,22,0,6,1,1,5,89,11
1,1,10,1,0,0,1,5,87,11
1,1,18,1,3,0,1,5,89,11
1,1,12,1,5,1,1,5,89,11
1,1,16,1,5,1,1,5,89,11
1,1,11,1,5,1,1,5,89,11
1,1,12,1,6,1,1,5,89,11
1,1,14,1,6,1,1,5,87,11
2,1,11,1,3,0,1,5,89,11
2,1,0,0,4,0,1,5,65,11
2,1,11,1,5,1,1,5,75,11
2,1,19,1,5,1,1,5,75,9
2,1,22,0,0,0,1,5,89,11
2,1,12,1,1,0,1,5,89,11
2,1,15,1,3,0,1,5,100,11
2,1,17,1,3,0,1,5,89,11
2,1,18,1,3,0,1,5,89,11
2,1,12,1,4,0,1,5,89,11
2,1,15,1,5,1,1,5,89,11
2,1,14,1,6,1,1,5,89,11
2,1,18,1,6,1,1,5,89,11
2,1,6,0,0,0,1,5,87,11
2,1,6,0,0,0,1,5,87,11
2,1,21,0,0,0,1,5,18,11
2,1,7,1,4,0,1,5,87,11
2,1,17,1,1,0,1,5,89,11
2,1,13,1,2,0,1,5,89,11
2,1,13,1,2,0,1,5,89,11
2,1,22,0,4,0,1,5,89,11
2,1,19,1,6,1,1,5,89,11
2,1,14,1,0,0,1,5,89,11
2,1,18,1,3,0,1,5,89,11
3,2,13,1,5,1,1,5,89,11
3,2,18,1,5,1,1,5,89,11
3,2,15,1,6,1,1,5,89,11
3,2,17,1,2,0,1,5,89,11
3,2,12,1,5,1,1,5,89,11
3,2,18,1,2,0,1,5,89,11
3,2,11,1,3,0,1,5,89,11
3,2,16,1,3,0,1,5,26,11
3,2,10,1,4,0,1,5,87,11
3,2,14,1,5,1,1,5,89,11
3,2,16,1,5,1,1,5,89,11
3,2,17,1,0,0,1,5,87,11
3,2,20,1,1,0,1,5,75,11
3,2,15,1,3,0,1,5,89,11
3,2,19,1,3,0,1,5,89,11
3,2,20,1,4,0,1,5,89,11
3,2,5,0,5,1,1,5,87,11
3,2,10,1,5,1,1,5,75,11
3,2,12,1,6,1,1,5,89,11
4,2,21,0,0,0,2,5,89,11
4,2,22,0,0,0,2,5,18,11
4,2,2,0,1,0,2,5,75,11
4,2,14,1,2,0,2,5,89,11
4,2,16,1,2,0,2,5,89,11
4,2,20,1,2,0,2,5,89,11
4,2,22,0,2,0,2,5,87,11
4,2,10,1,3,0,2,5,89,11
4,2,19,1,3,0,2,5,89,11
4,2,10,1,4,0,2,5,89,11
4,2,15,1,4,0,2,5,89,11
4,2,12,1,5,1,2,5,89,11
4,2,14,1,5,1,2,5,89,8
4,2,9,1,6,1,2,5,89,11
4,2,11,1,6,1,2,5,89,11
4,2,12,1,6,1,2,5,89,11
4,2,15,1,0,0,2,5,100,11
4,2,20,1,0,0,2,5,100,11
4,2,10,1,2,0,2,5,89,11
4,2,20,1,2,0,2,5,89,11
4,2,0,0,6,1,2,5,18,11
4,2,19,1,6,1,2,5,89,11
4,2,14,1,0,0,2,5,89,9
4,2,10,1,1,0,2,5,34,8
4,2,13,1,2,0,2,5,89,11
4,2,14,1,2,0,2,5,89,11
4,2,17,1,4,0,2,5,89,11
4,2,13,1,6,1,2,5,89,11
4,2,4,0,1,0,2,5,89,11
4,2,12,1,1,0,2,5,89,11
4,2,16,1,1,0,2,5,89,11
4,2,17,1,1,0,2,5,89,11
4,2,18,1,1,0,2,5,89,11
4,2,11,1,5,1,2,5,89,11
4,2,14,1,5,1,2,5,89,11
4,2,15,1,5,1,2,5,89,11
5,2,20,1,3,0,2,5,89,11
5,2,23,0,5,1,2,5,89,11
5,2,0,0,6,1,2,5,89,11
5,2,15,1,0,0,2,5,89,11
5,2,18,1,2,0,2,5,89,11
5,2,20,1,2,0,2,5,89,11
5,2,21,0,2,0,2,5,89,11
5,2,0,0,5,1,2,5,89,11
5,2,17,1,5,1,2,5,89,9
5,2,22,0,6,1,2,5,89,11
5,2,13,1,0,0,2,5,89,11
5,2,20,1,1,0,2,5,89,11
5,2,10,1,3,0,2,5,89,11
5,2,10,1,5,1,2,5,89,11
5,2,20,1,0,0,2,5,89,11
5,2,0,0,1,0,2,5,18,8
5,2,20,1,1,0,2,5,89,11
5,2,6,0,2,0,2,5,18,11
5,2,18,1,2,0,2,5,75,9
5,2,15,1,3,0,2,5,89,11
5,2,13,1,5,1,2,5,89,11
5,2,16,1,0,0,2,5,89,11
5,2,18,1,0,0,2,5,25,11
5,2,18,1,0,0,2,5,89,11
5,2,20,1,0,0,2,5,26,11
5,2,20,1,0,0,2,5,89,11
5,2,20,1,0,0,2,5,71,8
5,2,11,1,1,0,2,5,89,9
5,2,21,0,1,0,2,5,89,11
6,3,11,1,6,1,2,5,89,11
6,3,21,0,6,1,2,5,89,11
6,3,16,1,1,0,2,5,89,11
6,3,19,1,2,0,2,5,89,11
6,3,15,1,5,1,2,5,89,11
6,3,13,1,6,1,2,5,125,9
6,3,23,0,6,1,2,5,88,11
6,3,15,1,0,0,2,5,100,11
6,3,21,0,0,0,2,5,89,11
6,3,11,1,1,0,2,5,89,11
6,3,6,0,2,0,2,5,89,11
6,3,12,1,3,0,2,5,18,11
6,3,10,1,6,1,2,5,18,11
6,3,11,1,6,1,2,5,18,11
6,3,23,0,6,1,2,5,89,11
6,3,14,1,1,0,2,5,89,11
6,3,9,1,2,0,2,5,89,11
6,3,15,1,3,0,2,5,89,11
6,3,11,1,6,1,2,5,89,11
6,3,21,0,0,0,2,5,89,11
6,3,23,0,3,0,2,5,89,11
6,3,12,1,4,0,2,5,89,11
6,3,19,1,4,0,2,5,89,11
6,3,19,1,4,0,2,5,89,11
7,3,18,1,0,0,3,5,89,8
7,3,20,1,0,0,3,5,89,11
7,3,18,1,1,0,3,5,89,11
7,3,13,1,2,0,3,5,89,11
7,3,14,1,2,0,3,5,89,11
7,3,15,1,2,0,3,5,89,11
7,3,19,1,2,0,3,5,89,11
7,3,23,0,2,0,3,5,89,9
7,3,21,0,3,0,3,5,89,11
7,3,8,1,0,0,3,5,89,11
7,3,19,1,2,0,3,5,89,11
7,3,18,1,6,1,3,5,75,11
7,3,1,0,0,0,3,5,89,11
7,3,1,0,0,0,3,5,87,11
7,3,11,1,2,0,3,5,89,11
7,3,22,0,3,0,3,5,89,11
7,3,13,1,4,0,3,5,89,11
7,3,14,1,5,1,3,5,75,8
7,3,7,1,0,0,3,5,87,9
7,3,12,1,2,0,3,5,44,11
7,3,19,1,2,0,3,5,18,11
7,3,0,0,3,0,3,5,72,9
7,3,5,0,3,0,3,5,89,11
7,3,19,1,4,0,3,5,89,11
7,3,22,0,0,0,3,5,89,11
8,3,11,1,4,0,3,5,89,9
8,3,16,1,6,1,3,5,89,11
8,3,18,1,1,0,3,5,89,11
8,3,2,0,4,0,3,5,89,11
8,3,6,0,4,0,3,5,89,11
8,3,6,0,4,0,3,5,89,11
8,3,21,0,0,0,3,5,89,11
8,3,12,1,3,0,3,5,89,11
8,3,1,0,4,0,3,5,89,11
8,3,14,1,4,0,3,5,89,11
8,3,20,1,5,1,3,5,75,11
8,3,15,1,6,1,3,5,89,11
8,3,13,1,2,0,3,5,89,11
8,3,17,1,3,0,3,5,44,8
8,3,16,1,4,0,3,5,89,9
8,3,9,1,5,1,3,5,18,11
8,3,13,1,5,1,3,5,89,11
8,3,9,1,3,0,3,5,89,11
8,3,13,1,4,0,3,5,89,11
9,4,15,1,6,1,3,5,89,11
9,4,19,1,6,1,3,5,89,11
9,4,13,1,1,0,3,5,89,11
9,4,19,1,2,0,3,5,89,11
9,4,12,1,4,0,3,5,125,11
9,4,19,1,5,1,3,5,89,11
9,4,14,1,6,1,3,5,18,11
9,4,20,1,6,1,3,5,89,11
9,4,2,0,0,0,3,5,89,11
9,4,2,0,0,0,3,5,89,9
9,4,18,1,3,0,3,5,89,11
9,4,8,1,6,1,3,5,89,11
9,4,16,1,2,0,3,5,89,11
10,4,12,1,6,1,4,5,89,11
10,4,14,1,6,1,4,5,89,9
10,4,9,1,5,1,4,5,89,11
10,4,17,1,5,1,4,5,89,11
10,4,14,1,4,0,4,5,89,11
10,4,4,0,2,0,4,5,18,11
10,4,10,1,3,0,4,5,13,11
11,4,15,1,6,1,4,5,65,8
11,4,11,1,1,0,4,5,111,11
11,4,7,1,4,0,4,5,18,11
11,4,16,1,5,1,4,5,100,11
11,4,3,0,6,1,4,5,75,8
11,4,8,1,6,1,4,5,75,11
11,4,10,1,6,1,4,5,100,11
11,4,12,1,6,1,4,5,89,11
11,4,13,1,6,1,4,5,34,11
11,4,16,1,6,1,4,5,89,11
11,4,9,1,2,0,4,5,89,11
11,4,11,1,2,0,4,5,89,11
11,4,17,1,2,0,4,5,89,11
11,4,11,1,3,0,4,5,89,11
11,4,15,1,3,0,4,5,89,11
11,4,15,1,3,0,4,5,89,11
11,4,19,1,5,1,4,5,89,11
11,4,18,1,6,1,4,5,18,11
11,4,9,1,0,0,4,5,89,11
11,4,19,1,0,0,4,5,89,11
11,4,10,1,1,0,4,5,89,11
11,4,12,1,2,0,4,5,89,9
11,4,12,1,3,0,4,5,89,11
11,4,4,0,6,1,4,5,87,11
11,4,9,1,6,1,4,5,89,11
11,4,17,1,6,1,4,5,89,11
11,4,17,1,6,1,4,5,89,11
11,4,9,1,0,0,4,5,89,8
11,4,13,1,1,0,4,5,89,11
11,4,12,1,2,0,4,5,89,11
11,4,21,0,3,0,4,5,89,11
11,4,13,1,4,0,4,5,89,11
11,4,7,1,5,1,4,5,89,11
12,1,2,0,6,1,4,5,89,11
12,1,11,1,6,1,4,5,89,11
12,1,18,1,3,0,4,5,89,11
12,1,10,1,0,0,4,5,89,11
12,1,13,1,1,0,4,5,89,11
12,1,21,0,1,0,4,5,89,11
12,1,9,1,3,0,4,5,89,11
12,1,14,1,4,0,4,5,18,11
12,1,17,1,6,1,4,5,18,11
12,1,10,1,1,0,4,5,75,11
12,1,14,1,1,0,4,5,89,11
12,1,16,1,4,0,4,5,89,11
12,1,9,1,5,1,4,5,89,11
12,1,13,1,5,1,4,5,89,11
12,1,17,1,5,1,4,5,89,11
12,1,18,1,0,0,4,5,89,11
12,1,13,1,5,1,4,5,87,11
1,1,13,1,5,1,1,5,89,11
1,1,17,1,5,1,1,5,89,11
1,1,18,1,5,1,1,5,89,11
1,1,15,1,1,0,1,5,89,11
1,1,20,1,1,0,1,5,88,11
1,1,22,0,4,0,1,5,89,11
1,1,18,1,5,1,1,5,89,11
1,1,2,0,6,1,1,5,89,11
1,1,8,1,6,1,1,5,89,11
1,1,18,1,6,1,1,5,89,11
1,1,18,1,1,0,1,5,100,11
1,1,9,1,1,0,1,5,100,11
1,1,10,1,1,0,1,5,87,11
1,1,11,1,1,0,1,5,100,11
1,1,11,1,1,0,1,5,89,11
1,1,18,1,1,0,1,5,89,11
1,1,13,1,2,0,1,5,100,11
1,1,15,1,2,0,1,5,100,11
2,1,5,0,5,1,1,5,100,11
2,1,4,0,6,1,1,5,89,11
2,1,19,1,2,0,1,5,87,11
2,1,18,1,6,1,1,5,89,11
2,1,15,1,1,0,1,5,75,11
2,1,13,1,5,1,1,5,89,11
3,2,1,0,4,0,1,5,89,11
3,2,12,1,0,0,1,5,89,11
3,2,19,1,0,0,1,5,75,11
3,2,7,1,1,0,1,5,89,11
3,2,13,1,1,0,1,5,89,11
3,2,18,1,1,0,1,5,89,11
3,2,11,1,2,0,1,5,89,11
3,2,7,1,4,0,1,5,80,11
3,2,10,1,4,0,1,5,89,11
3,2,19,1,4,0,1,5,18,11
4,2,11,1,1,0,2,5,89,11
4,2,8,1,3,0,2,5,89,11
4,2,17,1,4,0,2,5,63,11
4,2,20,1,4,0,2,5,89,11
4,2,7,1,5,1,2,5,89,11
4,2,17,1,0,0,2,5,100,11
4,2,19,1,2,0,2,5,75,11
4,2,9,1,3,0,2,5,89,11
4,2,14,1,3,0,2,5,89,11
4,2,17,1,4,0,2,5,100,11
4,2,18,1,4,0,2,5,89,11
4,2,12,1,5,1,2,5,89,11
4,2,23,0,5,1,2,5,89,11
4,2,14,1,0,0,2,5,89,11
4,2,16,1,0,0,2,5,89,11
4,2,8,1,0,0,2,5,89,11
4,2,10,1,0,0,2,5,89,11
4,2,9,1,6,1,2,5,89,11
4,2,19,1,0,0,2,5,89,11
5,2,21,0,2,0,2,5,100,11
5,2,4,0,3,0,2,5,75,11
5,2,9,1,3,0,2,5,89,11
5,2,13,1,3,0,2,5,75,11
5,2,19,1,4,0,2,5,89,11
5,2,19,1,4,0,2,5,89,11
5,2,18,1,5,1,2,5,89,11
5,2,11,1,2,0,2,5,89,11
5,2,14,1,3,0,2,5,38,11
5,2,1,0,0,0,2,5,38,11
5,2,20,1,2,0,2,5,75,11
6,3,18,1,5,1,2,5,38,11
6,3,23,0,6,1,2,5,89,11
6,3,11,1,0,0,2,5,89,11
6,3,23,0,5,1,2,5,100,11
6,3,7,1,6,1,2,5,38,11
6,3,11,1,6,1,2,5,75,11
6,3,14,1,6,1,2,5,65,11
6,3,13,1,1,0,2,5,89,11
6,3,17,1,1,0,2,5,89,11
6,3,4,0,4,0,2,5,89,11
6,3,10,1,5,1,2,5,89,11
7,3,0,0,2,0,3,5,107,11
7,3,21,0,3,0,3,5,89,11
7,3,11,1,0,0,3,5,89,11
7,3,22,0,0,0,3,5,89,11
7,3,10,1,2,0,3,5,13,11
7,3,20,1,3,0,3,5,89,11
7,3,20,1,3,0,3,5,89,11
7,3,22,0,4,0,3,5,89,11
7,3,13,1,5,1,3,5,89,11
7,3,0,0,6,1,3,5,87,11
7,3,14,1,5,1,3,5,89,11
7,3,22,0,5,1,3,5,87,11
7,3,4,0,3,0,3,5,75,11
7,3,14,1,4,0,3,5,100,11
7,3,11,1,0,0,3,5,89,11
7,3,16,1,0,0,3,5,89,11
8,3,12,1,2,0,3,5,89,11
8,3,6,0,3,0,3,5,89,11
8,3,12,1,3,0,3,5,89,11
8,3,17,1,2,0,3,5,100,11
8,3,14,1,4,0,3,5,89,11
8,3,11,1,2,0,3,5,100,11
8,3,16,1,2,0,3,5,89,11
8,3,14,1,4,0,3,5,75,11
9,4,1,0,4,0,3,5,89,11
9,4,10,1,5,1,3,5,89,11
9,4,17,1,5,1,3,5,89,11
9,4,10,1,1,0,3,5,89,11
9,4,1,0,3,0,3,5,87,11
9,4,9,1,3,0,3,5,89,11
9,4,13,1,5,1,3,5,89,11
10,4,21,0,1,0,4,5,78,11
10,4,11,1,5,1,4,5,4,11
11,4,14,1,6,1,4,5,89,11
11,4,14,1,3,0,4,5,100,11
11,4,16,1,3,0,4,5,87,11
11,4,10,1,4,0,4,5,89,11
11,4,12,1,4,0,4,5,89,11
11,4,11,1,5,1,4,5,89,11
11,4,7,1,6,1,4,5,89,11
11,4,15,1,6,1,4,5,100,11
11,4,11,1,0,0,4,5,89,11
11,4,12,1,0,0,4,5,89,11
11,4,12,1,0,0,4,5,89,11
11,4,17,1,0,0,4,5,89,11
11,4,18,1,3,0,4,5,75,11
11,4,11,1,4,0,4,5,89,11
11,4,11,1,1,0,4,5,89,11
11,4,13,1,3,0,4,5,89,11
11,4,22,0,3,0,4,5,22,11
11,4,15,1,6,1,4,5,89,11
11,4,12,1,2,0,4,5,89,11
11,4,13,1,4,0,4,5,75,11
11,4,18,1,5,1,4,5,89,11
12,1,14,1,0,0,4,5,110,11
12,1,0,0,1,0,4,5,75,11
12,1,17,1,1,0,4,5,89,11
12,1,10,1,2,0,4,5,89,11
12,1,19,1,2,0,4,5,87,11
12,1,11,1,3,0,4,5,75,11
12,1,9,1,0,0,4,5,89,11
12,1,19,1,0,0,4,5,89,11
12,1,14,1,1,0,4,5,100,11
12,1,15,1,5,1,4,5,89,11
12,1,0,0,6,1,4,5,89,11
12,1,13,1,3,0,4,5,89,11
12,1,14,1,3,0,4,5,100,11
12,1,12,1,6,1,4,5,89,11
12,1,13,1,0,0,4,5,89,11
12,1,10,1,1,0,4,5,100,11
12,1,20,1,3,0,4,5,75,11
1,1,14,1,3,0,1,42,65,11
1,1,17,1,3,0,1,42,89,11
1,1,18,1,3,0,1,42,65,11
1,1,14,1,4,0,1,42,100,11
1,1,14,1,0,0,1,42,87,11
1,1,3,0,3,0,1,42,87,11
1,1,12,1,1,0,1,42,87,11
1,1,2,0,5,1,1,42,100,11
1,1,23,0,5,1,1,42,89,11
1,1,11,1,0,0,1,42,87,11
1,1,18,1,2,0,1,42,87,11
2,1,12,1,6,1,1,42,89,11
2,1,17,1,2,0,1,42,13,11
2,1,20,1,2,0,1,42,87,11
2,1,10,1,5,1,1,42,87,11
2,1,13,1,5,1,1,42,100,11
2,1,5,0,6,1,1,42,13,9
3,2,13,1,0,0,1,42,87,11
3,2,19,1,6,1,1,42,75,11
3,2,6,0,1,0,1,42,87,11
3,2,3,0,5,1,1,42,87,11
3,2,19,1,6,1,1,42,65,11
3,2,17,1,1,0,1,42,100,11
4,2,23,0,5,1,2,42,95,11
4,2,15,1,2,0,2,42,100,11
4,2,13,1,2,0,2,42,100,11
5,2,21,0,2,0,2,42,87,11
5,2,5,0,3,0,2,42,87,11
5,2,12,1,6,1,2,42,89,9
5,2,22,0,0,0,2,42,125,11
5,2,21,0,5,1,2,42,100,11
5,2,0,0,6,1,2,42,65,11
5,2,17,1,4,0,2,42,87,11
6,3,13,1,6,1,2,42,46,11
6,3,9,1,1,0,2,42,58,11
6,3,9,1,1,0,2,42,125,11
6,3,11,1,1,0,2,42,87,11
6,3,13,1,2,0,2,42,100,11
6,3,19,1,4,0,2,42,89,11
6,3,17,1,5,1,2,42,87,11
6,3,9,1,6,1,2,42,100,11
6,3,17,1,1,0,2,42,36,11
6,3,17,1,1,0,2,42,4,11
6,3,0,0,0,0,2,42,100,11
6,3,20,1,5,1,2,42,100,11
6,3,12,1,0,0,2,42,89,11
6,3,13,1,3,0,2,42,89,11
7,3,15,1,3,0,3,42,87,11
7,3,19,1,3,0,3,42,89,11
7,3,21,0,4,0,3,42,100,11
7,3,9,1,5,1,3,42,87,11
7,3,18,1,5,1,3,42,100,11
7,3,18,1,5,1,3,42,100,11
7,3,17,1,6,1,3,42,100,11
7,3,7,1,1,0,3,42,100,11
7,3,15,1,1,0,3,42,100,11
7,3,16,1,4,0,3,42,4,11
7,3,13,1,0,0,3,42,125,11
7,3,2,0,1,0,3,42,13,11
7,3,0,0,3,0,3,42,89,11
7,3,18,1,5,1,3,42,89,11
7,3,11,1,0,0,3,42,100,11
8,3,0,0,4,0,3,42,87,11
8,3,14,1,5,1,3,42,100,11
8,3,6,0,6,1,3,42,75,9
8,3,15,1,2,0,3,42,89,11
8,3,16,1,2,0,3,42,12,9
8,3,17,1,4,0,3,42,89,11
8,3,3,0,5,1,3,42,87,11
8,3,20,1,6,1,3,42,87,11
8,3,8,1,2,0,3,42,89,11
8,3,21,0,3,0,3,42,32,11
8,3,2,0,4,0,3,42,100,11
8,3,1,0,5,1,3,42,87,11
8,3,17,1,5,1,3,42,100,11
8,3,2,0,0,0,3,42,100,11
8,3,1,0,4,0,3,42,100,11
9,4,12,1,6,1,3,42,100,11
9,4,18,1,0,0,3,42,100,11
9,4,20,1,3,0,3,42,12,11
9,4,1,0,6,1,3,42,100,11
9,4,10,1,6,1,3,42,66,11
9,4,11,1,1,0,3,42,100,11
9,4,16,1,4,0,3,42,100,11
9,4,21,0,4,0,3,42,100,11
9,4,15,1,5,1,3,42,87,11
10,4,9,1,3,0,4,42,89,11
10,4,19,1,3,0,4,42,18,11
10,4,16,1,5,1,4,42,100,11
10,4,20,1,0,0,4,42,13,11
10,4,4,0,6,1,4,42,18,9
10,4,8,1,6,1,4,42,100,11
10,4,14,1,0,0,4,42,89,11
10,4,23,0,2,0,4,42,100,11
10,4,12,1,1,0,4,42,24,11
10,4,17,1,2,0,4,42,100,11
10,4,18,1,6,1,4,42,100,11
10,4,1,0,0,0,4,42,89,11
10,4,12,1,1,0,4,42,87,11
11,4,13,1,2,0,4,42,100,11
11,4,18,1,4,0,4,42,100,11
11,4,9,1,5,1,4,42,100,11
11,4,17,1,0,0,4,42,75,11
11,4,15,1,3,0,4,42,100,11
11,4,21,0,5,1,4,42,89,11
11,4,19,1,6,1,4,42,87,11
11,4,15,1,2,0,4,42,87,11
11,4,15,1,1,0,4,42,13,11
11,4,22,0,4,0,4,42,87,11
12,1,12,1,6,1,4,42,65,9
12,1,4,0,5,1,4,42,18,11
12,1,13,1,3,0,4,42,87,11
12,1,2,0,1,0,4,42,38,9
12,1,8,1,5,1,4,42,75,11
12,1,15,1,5,1,4,42,87,11
12,1,13,1,1,0,4,42,65,11
1,1,9,1,2,0,1,42,12,11
1,1,19,1,0,0,1,42,75,11
1,1,1,0,6,1,1,42,75,11
1,1,22,0,2,0,1,42,87,11
2,1,13,1,0,0,1,42,100,11
3,2,1,0,1,0,1,42,75,11
4,2,12,1,2,0,2,42,100,11
4,2,18,1,3,0,2,42,89,11
5,2,14,1,6,1,2,42,109,11
5,2,10,1,0,0,2,42,12,11
5,2,20,1,2,0,2,42,100,11
5,2,13,1,0,0,2,42,108,11
6,3,11,1,3,0,2,42,89,11
7,3,4,0,0,0,3,42,89,11
7,3,6,0,2,0,3,42,89,11
8,3,15,1,3,0,3,42,100,11
8,3,14,1,1,0,3,42,89,11
8,3,21,0,0,0,3,42,100,11
8,3,0,0,4,0,3,42,100,11
8,3,15,1,0,0,3,42,89,11
8,3,11,1,2,0,3,42,75,11
8,3,9,1,5,1,3,42,87,11
9,4,16,1,6,1,3,42,89,11
9,4,11,1,3,0,3,42,89,11
10,4,16,1,2,0,4,42,100,11
11,4,15,1,0,0,4,42,100,11
11,4,17,1,4,0,4,42,108,11
12,1,17,1,6,1,4,42,110,11
12,1,12,1,2,0,4,42,75,11
12,1,3,0,1,0,4,42,75,11
2,1,14,1,2,0,1,42,13,11
3,2,10,1,3,0,1,42,75,11
3,2,21,0,6,1,1,42,72,8
4,2,21,0,5,1,2,42,121,11
5,2,14,1,2,0,2,42,100,11
6,3,10,1,4,0,2,42,18,8
6,3,4,0,1,0,2,42,18,9
6,3,20,1,4,0,2,42,100,11
7,3,19,1,3,0,3,42,100,11
7,3,12,1,6,1,3,42,100,11
7,3,20,1,1,0,3,42,100,11
8,3,22,0,4,0,3,42,100,11
8,3,18,1,5,1,3,42,100,11
8,3,22,0,1,0,3,42,100,11
10,4,19,1,4,0,4,42,100,11
11,4,19,1,1,0,4,42,75,9
11,4,20,1,5,1,4,42,75,11
12,1,4,0,1,0,4,42,18,9
2,1,3,0,0,0,1,42,110,11
2,1,10,1,4,0,1,42,4,11
2,1,20,1,4,0,1,42,75,11
6,3,8,1,5,1,2,42,100,11
6,3,19,1,0,0,2,42,100,11
6,3,17,1,2,0,2,42,89,11
7,3,11,1,3,0,3,42,18,11
7,3,18,1,1,0,3,42,89,11
7,3,16,1,2,0,3,42,75,8
7,3,19,1,2,0,3,42,89,11
8,3,18,1,6,1,3,42,100,11
8,3,11,1,4,0,3,42,100,11
10,4,13,1,2,0,4,42,100,11
10,4,6,0,0,0,4,42,72,11
10,4,22,0,2,0,4,42,100,11
10,4,5,0,5,1,4,42,100,11
10,4,12,1,6,1,4,42,24,11
10,4,15,1,0,0,4,42,24,11
11,4,1,0,6,1,4,42,72,11
1,1,15,1,1,0,1,21,100,11
1,1,16,1,6,1,1,21,89,11
1,1,18,1,0,0,1,21,65,11
2,1,3,0,4,0,1,21,38,11
2,1,18,1,4,0,1,21,89,11
2,1,19,1,4,0,1,21,4,11
2,1,20,1,4,0,1,21,4,11
2,1,8,1,5,1,1,21,128,11
2,1,18,1,5,1,1,21,100,11
2,1,6,0,0,0,1,21,22,9
2,1,17,1,0,0,1,21,100,11
2,1,18,1,1,0,1,21,100,11
2,1,19,1,4,0,1,21,75,11
2,1,19,1,4,0,1,21,100,11
3,2,21,0,3,0,1,21,75,11
3,2,19,1,1,0,1,21,22,11
3,2,21,0,2,0,1,21,65,11
3,2,18,1,3,0,1,21,65,11
4,2,23,0,0,0,2,21,100,11
4,2,9,1,4,0,2,21,89,11
4,2,20,1,5,1,2,21,100,11
4,2,22,0,0,0,2,21,89,11
4,2,12,1,2,0,2,21,89,11
4,2,13,1,1,0,2,21,83,11
5,2,18,1,2,0,2,21,46,11
5,2,20,1,1,0,2,21,79,11
5,2,21,0,5,1,2,21,110,11
5,2,15,1,6,1,2,21,89,11
5,2,15,1,5,1,2,21,89,11
6,3,6,0,5,1,2,21,72,8
6,3,6,0,5,1,2,21,87,11
6,3,16,1,4,0,2,21,18,11
6,3,2,0,4,0,2,21,65,11
7,3,12,1,0,0,3,21,72,11
7,3,7,1,1,0,3,21,72,11
7,3,16,1,5,1,3,21,89,11
7,3,14,1,0,0,3,21,72,11
7,3,14,1,1,0,3,21,100,11
7,3,13,1,0,0,3,21,100,11
7,3,10,1,1,0,3,21,38,11
7,3,16,1,2,0,3,21,72,11
7,3,6,0,3,0,3,21,110,11
7,3,13,1,0,0,3,21,72,11
8,3,15,1,3,0,3,21,100,11
8,3,16,1,3,0,3,21,100,11
8,3,14,1,4,0,3,21,65,11
8,3,17,1,4,0,3,21,100,11
8,3,13,1,3,0,3,21,100,11
8,3,17,1,3,0,3,21,89,11
8,3,9,1,6,1,3,21,89,11
8,3,15,1,0,0,3,21,118,11
8,3,9,1,1,0,3,21,89,11
8,3,9,1,2,0,3,21,18,11
8,3,14,1,5,1,3,21,100,11
8,3,14,1,5,1,3,21,100,11
9,4,18,1,2,0,3,21,14,11
9,4,8,1,5,1,3,21,100,11
9,4,10,1,6,1,3,21,18,11
10,4,18,1,3,0,4,21,14,9
10,4,22,0,6,1,4,21,65,11
10,4,20,1,5,1,4,21,65,11
10,4,0,0,0,0,4,21,13,9
10,4,14,1,0,0,4,21,89,11
11,4,12,1,6,1,4,21,89,11
11,4,20,1,6,1,4,21,75,11
11,4,10,1,1,0,4,21,100,11
11,4,13,1,1,0,4,21,100,11
11,4,17,1,1,0,4,21,65,11
11,4,18,1,1,0,4,21,100,11
11,4,14,1,4,0,4,21,100,11
11,4,17,1,5,1,4,21,128,11
11,4,14,1,6,1,4,21,38,11
11,4,19,1,6,1,4,21,38,11
11,4,13,1,0,0,4,21,89,11
11,4,10,1,4,0,4,21,110,11
11,4,13,1,5,1,4,21,89,11
11,4,20,1,5,1,4,21,128,11
11,4,1,0,5,1,4,21,30,11
11,4,18,1,5,1,4,21,100,11
12,1,3,0,4,0,4,21,75,9
12,1,12,1,2,0,4,21,79,11
12,1,18,1,5,1,4,21,65,9
12,1,23,0,0,0,4,21,128,11
12,1,12,1,1,0,4,21,100,11
12,1,15,1,1,0,4,21,128,11
2,1,5,0,0,0,1,21,100,11
2,1,17,1,2,0,1,21,128,11
3,2,9,1,4,0,1,21,89,11
3,2,21,0,4,0,1,21,89,11
3,2,15,1,3,0,1,21,65,11
3,2,10,1,6,1,1,21,89,11
3,2,12,1,5,1,1,21,89,11
4,2,14,1,5,1,2,21,89,11
4,2,15,1,0,0,2,21,89,11
4,2,17,1,6,1,2,21,89,11
4,2,19,1,6,1,2,21,100,11
6,3,20,1,5,1,2,21,89,11
6,3,15,1,4,0,2,21,89,11
6,3,9,1,4,0,2,21,89,11
6,3,17,1,0,0,2,21,87,11
6,3,10,1,3,0,2,21,100,11
7,3,19,1,6,1,3,21,89,11
7,3,19,1,0,0,3,21,100,11
7,3,17,1,3,0,3,21,110,11
7,3,23,0,0,0,3,21,18,11
7,3,11,1,3,0,3,21,18,11
7,3,16,1,1,0,3,21,89,11
8,3,19,1,0,0,3,21,17,11
10,4,13,1,2,0,4,21,89,11
11,4,11,1,3,0,4,21,100,11
11,4,18,1,5,1,4,21,87,11
11,4,14,1,0,0,4,21,89,11
11,4,15,1,0,0,4,21,100,11
11,4,19,1,0,0,4,21,100,11
12,1,17,1,4,0,4,21,100,11
1,1,10,1,3,0,1,21,65,11
1,1,19,1,0,0,1,21,128,11
1,1,21,0,4,0,1,21,100,11
1,1,8,1,0,0,1,21,128,11
1,1,2,0,2,0,1,21,75,11
1,1,15,1,5,1,1,21,89,11
1,1,17,1,5,1,1,21,75,11
2,1,8,1,3,0,1,21,65,11
2,1,19,1,5,1,1,21,75,11
2,1,5,0,6,1,1,21,12,11
2,1,15,1,1,0,1,21,13,9
2,1,15,1,2,0,1,21,100,11
2,1,18,1,4,0,1,21,100,11
2,1,16,1,0,0,1,21,13,11
2,1,9,1,5,1,1,21,75,11
3,2,9,1,4,0,1,21,72,11
4,2,7,1,3,0,2,21,18,11
4,2,18,1,3,0,2,21,100,11
4,2,4,0,6,1,2,21,58,8
4,2,18,1,5,1,2,21,59,11
4,2,12,1,4,0,2,21,75,11
4,2,13,1,1,0,2,21,18,11
4,2,22,0,1,0,2,21,18,11
5,2,9,1,6,1,2,21,89,11
5,2,10,1,2,0,2,21,89,11
5,2,14,1,2,0,2,21,75,11
5,2,20,1,4,0,2,21,89,11
5,2,15,1,5,1,2,21,100,11
6,3,19,1,6,1,2,21,89,11
6,3,21,0,6,1,2,21,100,11
6,3,14,1,0,0,2,21,12,11
6,3,0,0,4,0,2,21,100,11
6,3,1,0,4,0,2,21,110,11
6,3,15,1,4,0,2,21,100,11
6,3,22,0,1,0,2,21,89,11
6,3,19,1,4,0,2,21,89,11
7,3,0,0,0,0,3,21,13,9
7,3,21,0,1,0,3,21,110,11
7,3,13,1,2,0,3,21,100,11
7,3,14,1,2,0,3,21,18,11
7,3,5,0,3,0,3,21,110,11
7,3,8,1,3,0,3,21,89,11
7,3,12,1,2,0,3,21,18,11
7,3,22,0,5,1,3,21,128,11
7,3,13,1,1,0,3,21,89,11
7,3,20,1,6,1,3,21,75,11
7,3,19,1,1,0,3,21,100,11
8,3,14,1,4,0,3,21,18,11
8,3,10,1,6,1,3,21,89,11
8,3,3,0,3,0,3,21,65,11
8,3,15,1,2,0,3,21,18,11
9,4,21,0,2,0,3,21,100,11
9,4,10,1,3,0,3,21,18,11
9,4,9,1,2,0,3,21,18,11
10,4,9,1,1,0,4,21,87,11
10,4,1,0,2,0,4,21,18,11
11,4,1,0,5,1,4,21,100,11
11,4,18,1,5,1,4,21,89,11
11,4,20,1,5,1,4,21,75,11
11,4,9,1,6,1,4,21,25,11
11,4,14,1,6,1,4,21,89,11
11,4,4,0,1,0,4,21,48,9
11,4,8,1,1,0,4,21,100,11
11,4,18,1,1,0,4,21,76,11
11,4,10,1,2,0,4,21,89,11
11,4,15,1,2,0,4,21,89,11
11,4,16,1,2,0,4,21,100,11
11,4,13,1,3,0,4,21,72,11
11,4,11,1,6,1,4,21,89,11
11,4,8,1,5,1,4,21,100,11
12,1,21,0,1,0,4,21,75,11
12,1,19,1,1,0,4,21,75,11
12,1,13,1,3,0,4,21,100,11
12,1,11,1,4,0,4,21,100,11
12,1,22,0,0,0,4,21,110,11
12,1,10,1,5,1,4,21,128,11
1,1,13,1,3,0,1,21,87,11
1,1,20,1,6,1,1,21,87,11
1,1,21,0,6,1,1,21,18,11
1,1,14,1,1,0,1,21,87,11
1,1,12,1,2,0,1,21,24,11
2,1,13,1,4,0,1,21,22,9
2,1,13,1,1,0,1,21,26,9
2,1,23,0,1,0,1,21,89,11
2,1,17,1,0,0,1,21,110,11
2,1,23,0,0,0,1,21,4,11
2,1,19,1,3,0,1,21,75,11
3,2,11,1,5,1,1,21,75,11
3,2,14,1,3,0,1,21,75,11
3,2,8,1,5,1,1,21,87,11
3,2,8,1,6,1,1,21,84,11
3,2,0,0,5,1,1,21,87,11
3,2,2,0,5,1,1,21,87,11
3,2,17,1,0,0,1,21,87,11
4,2,22,0,4,0,2,21,87,9
4,2,9,1,1,0,2,21,75,11
5,2,21,0,3,0,2,21,110,11
5,2,19,1,3,0,2,21,78,9
5,2,14,1,2,0,2,21,24,9
6,3,16,1,0,0,2,21,125,11
6,3,1,0,4,0,2,21,89,11
6,3,13,1,2,0,2,21,100,11
7,3,18,1,2,0,3,21,72,11
7,3,13,1,6,1,3,21,89,11
8,3,15,1,0,0,3,21,89,11
8,3,14,1,3,0,3,21,75,11
8,3,17,1,4,0,3,21,12,11
8,3,12,1,4,0,3,21,100,11
9,4,15,1,3,0,3,21,89,9
9,4,12,1,6,1,3,21,46,11
9,4,16,1,6,1,3,21,100,11
9,4,18,1,0,0,3,21,87,11
9,4,17,1,5,1,3,21,89,8
10,4,13,1,3,0,4,21,100,11
10,4,14,1,1,0,4,21,89,11
10,4,23,0,2,0,4,21,89,11
10,4,16,1,3,0,4,21,89,11
10,4,19,1,5,1,4,21,89,11
10,4,0,0,0,0,4,21,87,11
10,4,18,1,0,0,4,21,87,11
10,4,16,1,3,0,4,21,89,11
11,4,16,1,1,0,4,21,89,11
11,4,8,1,3,0,4,21,110,11
11,4,9,1,1,0,4,21,18,11
11,4,13,1,3,0,4,21,89,11
11,4,17,1,3,0,4,21,100,11
11,4,13,1,4,0,4,21,89,11
12,1,18,1,5,1,4,21,18,11
12,1,13,1,2,0,4,21,18,9
12,1,20,1,5,1,4,21,109,11
1,1,15,1,5,1,1,9,65,11
1,1,8,1,6,1,1,9,100,11
1,1,19,1,6,1,1,9,100,11
1,1,1,0,2,0,1,9,100,11
1,1,7,1,0,0,1,9,75,11
1,1,2,0,1,0,1,9,100,11
1,1,12,1,1,0,1,9,100,11
1,1,12,1,1,0,1,9,89,11
1,1,11,1,3,0,1,9,87,9
1,1,11,1,3,0,1,9,87,9
1,1,7,1,4,0,1,9,75,11
1,1,13,1,5,1,1,9,100,11
1,1,15,1,5,1,1,9,100,11
1,1,15,1,5,1,1,9,18,11
1,1,16,1,5,1,1,9,100,11
1,1,13,1,6,1,1,9,100,11
1,1,13,1,6,1,1,9,100,11
1,1,11,1,0,0,1,9,75,11
1,1,4,0,1,0,1,9,100,11
1,1,11,1,2,0,1,9,100,11
2,1,2,0,3,0,1,9,109,11
2,1,5,0,3,0,1,9,18,11
2,1,11,1,4,0,1,9,89,11
2,1,15,1,4,0,1,9,100,11
2,1,14,1,5,1,1,9,100,11
2,1,22,0,5,1,1,9,75,9
2,1,6,0,6,1,1,9,38,11
2,1,8,1,6,1,1,9,75,11
2,1,12,1,0,0,1,9,87,11
2,1,17,1,0,0,1,9,100,11
2,1,14,1,2,0,1,9,75,11
2,1,20,1,2,0,1,9,100,11
2,1,15,1,4,0,1,9,89,11
2,1,19,1,4,0,1,9,75,11
2,1,18,1,5,1,1,9,100,11
2,1,4,0,6,1,1,9,16,11
2,1,9,1,2,0,1,9,100,11
2,1,11,1,3,0,1,9,13,11
2,1,18,1,3,0,1,9,100,11
2,1,14,1,4,0,1,9,75,11
2,1,18,1,5,1,1,9,95,11
2,1,20,1,5,1,1,9,65,11
2,1,18,1,6,1,1,9,100,11
2,1,13,1,2,0,1,9,100,11
2,1,16,1,2,0,1,9,100,11
2,1,19,1,2,0,1,9,100,11
2,1,17,1,3,0,1,9,87,11
2,1,10,1,4,0,1,9,100,11
2,1,22,0,5,1,1,9,65,11
2,1,7,1,6,1,1,9,100,11
2,1,15,1,6,1,1,9,100,11
2,1,16,1,6,1,1,9,100,11
2,1,19,1,1,0,1,9,75,9
2,1,13,1,2,0,1,9,100,11
2,1,15,1,2,0,1,9,100,11
2,1,19,1,2,0,1,9,100,11
2,1,11,1,3,0,1,9,100,11
3,2,17,1,6,1,1,9,79,11
3,2,23,0,1,0,1,9,46,11
3,2,10,1,4,0,1,9,87,11
3,2,18,1,6,1,1,9,100,11
3,2,21,0,6,1,1,9,75,11
3,2,18,1,2,0,1,9,110,11
3,2,21,0,6,1,1,9,38,11
3,2,19,1,2,0,1,9,38,11
3,2,19,1,3,0,1,9,100,11
3,2,17,1,4,0,1,9,100,11
3,2,13,1,6,1,1,9,100,11
4,2,13,1,2,0,2,9,100,11
4,2,13,1,4,0,2,9,100,11
4,2,8,1,0,0,2,9,100,11
4,2,15,1,0,0,2,9,100,11
4,2,20,1,5,1,2,9,100,11
4,2,12,1,1,0,2,9,100,11
4,2,18,1,1,0,2,9,100,11
4,2,13,1,2,0,2,9,18,11
4,2,14,1,3,0,2,9,13,11
4,2,18,1,3,0,2,9,100,11
4,2,20,1,5,1,2,9,100,11
4,2,2,0,4,0,2,9,128,11
4,2,21,0,4,0,2,9,128,11
4,2,18,1,5,1,2,9,4,11
4,2,20,1,6,1,2,9,100,11
4,2,21,0,1,0,2,9,100,11
4,2,22,0,1,0,2,9,100,11
5,2,2,0,3,0,2,9,18,11
5,2,12,1,3,0,2,9,128,11
5,2,16,1,3,0,2,9,100,11
5,2,19,1,5,1,2,9,7,11
5,2,9,1,6,1,2,9,100,11
5,2,19,1,6,1,2,9,65,11
5,2,19,1,0,0,2,9,65,11
5,2,4,0,1,0,2,9,100,11
5,2,12,1,1,0,2,9,65,11
5,2,13,1,3,0,2,9,24,11
5,2,13,1,3,0,2,9,110,11
5,2,14,1,5,1,2,9,128,11
5,2,11,1,0,0,2,9,81,11
5,2,13,1,0,0,2,9,100,11
5,2,22,0,2,0,2,9,100,11
5,2,10,1,4,0,2,9,100,11
6,3,15,1,1,0,2,9,100,11
6,3,16,1,4,0,2,9,26,11
6,3,20,1,0,0,2,9,89,11
6,3,13,1,2,0,2,9,124,11
6,3,19,1,0,0,2,9,12,11
6,3,17,1,4,0,2,9,100,11
6,3,19,1,0,0,2,9,89,11
6,3,20,1,4,0,2,9,100,11
6,3,11,1,5,1,2,9,89,11
6,3,13,1,5,1,2,9,100,11
6,3,21,0,6,1,2,9,89,11
7,3,8,1,0,0,3,9,100,11
7,3,23,0,0,0,3,9,100,11
7,3,6,0,2,0,3,9,110,11
7,3,8,1,3,0,3,9,13,11
7,3,18,1,4,0,3,9,89,11
7,3,16,1,0,0,3,9,100,11
7,3,17,1,0,0,3,9,89,11
7,3,22,0,0,0,3,9,63,9
7,3,22,0,4,0,3,9,100,11
7,3,23,0,4,0,3,9,128,11
7,3,9,1,0,0,3,9,18,11
7,3,18,1,1,0,3,9,89,11
7,3,13,1,2,0,3,9,83,9
7,3,14,1,3,0,3,9,12,11
7,3,13,1,1,0,3,9,30,11
7,3,6,0,2,0,3,9,128,11
7,3,11,1,2,0,3,9,128,11
7,3,17,1,2,0,3,9,89,11
7,3,6,0,3,0,3,9,128,11
7,3,11,1,5,1,3,9,79,11
7,3,4,0,0,0,3,9,65,11
7,3,12,1,0,0,3,9,100,11
7,3,20,1,1,0,3,9,100,11
7,3,13,1,2,0,3,9,65,11
8,3,17,1,3,0,3,9,100,11
8,3,14,1,6,1,3,9,100,11
8,3,12,1,3,0,3,9,89,11
8,3,19,1,6,1,3,9,26,11
8,3,13,1,1,0,3,9,100,11
8,3,18,1,3,0,3,9,110,11
8,3,16,1,2,0,3,9,110,11
8,3,21,0,3,0,3,9,128,11
8,3,18,1,4,0,3,9,86,11
8,3,10,1,1,0,3,9,100,11
8,3,12,1,3,0,3,9,65,11
8,3,16,1,3,0,3,9,110,11
9,4,17,1,0,0,3,9,24,11
9,4,16,1,3,0,3,9,100,11
9,4,17,1,4,0,3,9,13,11
9,4,22,0,5,1,3,9,60,11
9,4,16,1,4,0,3,9,75,11
9,4,20,1,0,0,3,9,100,11
9,4,23,0,1,0,3,9,65,11
9,4,20,1,3,0,3,9,100,11
9,4,4,0,4,0,3,9,7,11
9,4,8,1,6,1,3,9,100,11
9,4,11,1,0,0,3,9,24,11
10,4,18,1,3,0,4,9,89,11
10,4,19,1,3,0,4,9,65,11
10,4,16,1,5,1,4,9,100,11
10,4,16,1,6,1,4,9,100,11
10,4,12,1,3,0,4,9,75,11
10,4,0,0,4,0,4,9,124,11
10,4,9,1,4,0,4,9,44,11
10,4,11,1,4,0,4,9,89,11
10,4,21,0,4,0,4,9,75,11
10,4,11,1,1,0,4,9,18,11
10,4,10,1,3,0,4,9,100,11
10,4,19,1,5,1,4,9,128,11
10,4,16,1,0,0,4,9,89,11
10,4,11,1,1,0,4,9,100,11
11,4,14,1,5,1,4,9,100,11
11,4,18,1,0,0,4,9,89,11
11,4,10,1,1,0,4,9,100,11
11,4,15,1,4,0,4,9,89,11
11,4,0,0,5,1,4,9,100,11
11,4,13,1,6,1,4,9,100,11
11,4,17,1,0,0,4,9,18,11
11,4,11,1,1,0,4,9,24,11
11,4,2,0,1,0,4,9,75,11
11,4,15,1,4,0,4,9,100,11
11,4,17,1,3,0,4,9,100,11
11,4,0,0,4,0,4,9,128,11
12,1,0,0,0,0,4,9,100,11
12,1,18,1,3,0,4,9,128,11
12,1,10,1,4,0,4,9,75,11
12,1,17,1,1,0,4,9,75,11
12,1,10,1,4,0,4,9,58,11
12,1,20,1,6,1,4,9,44,11
12,1,13,1,3,0,4,9,100,11
12,1,12,1,4,0,4,9,100,11
12,1,17,1,6,1,4,9,128,11
12,1,2,0,2,0,4,9,110,11
12,1,9,1,5,1,4,9,12,11
1,1,6,0,5,1,1,9,75,11
2,1,9,1,1,0,1,9,75,11
2,1,14,1,2,0,1,9,89,11
3,2,20,1,1,0,1,9,38,11
3,2,15,1,6,1,1,9,89,11
4,2,11,1,1,0,2,9,110,11
4,2,18,1,2,0,2,9,100,11
5,2,20,1,3,0,2,9,100,11
6,3,11,1,2,0,2,9,40,11
6,3,17,1,2,0,2,9,100,11
7,3,15,1,5,1,3,9,100,11
8,3,13,1,4,0,3,9,100,11
10,4,13,1,6,1,4,9,89,11
10,4,13,1,6,1,4,9,89,11
11,4,11,1,0,0,4,9,89,11
11,4,14,1,4,0,4,9,126,11
12,1,10,1,5,1,4,9,18,11
2,1,13,1,6,1,1,9,100,11
2,1,22,0,6,1,1,9,110,11
12,1,13,1,2,0,4,9,123,11
1,1,21,0,1,0,1,37,100,11
1,1,13,1,4,0,1,37,100,11
1,1,21,0,4,0,1,37,100,11
1,1,17,1,5,1,1,37,100,11
1,1,16,1,0,0,1,37,95,11
1,1,12,1,2,0,1,37,128,11
1,1,15,1,2,0,1,37,128,11
1,1,20,1,2,0,1,37,100,11
1,1,17,1,6,1,1,37,100,11
1,1,16,1,0,0,1,37,100,11
1,1,22,0,0,0,1,37,100,11
1,1,15,1,1,0,1,37,89,11
1,1,17,1,1,0,1,37,100,11
1,1,16,1,2,0,1,37,100,11
1,1,20,1,4,0,1,37,100,11
1,1,9,1,5,1,1,37,128,11
1,1,13,1,1,0,1,37,100,11
1,1,18,1,1,0,1,37,65,11
1,1,0,0,2,0,1,37,100,11
1,1,21,0,2,0,1,37,117,11
2,1,10,1,4,0,1,37,100,11
2,1,17,1,4,0,1,37,100,11
2,1,14,1,5,1,1,37,100,11
2,1,17,1,0,0,1,37,100,11
2,1,17,1,0,0,1,37,100,11
2,1,22,0,3,0,1,37,100,11
2,1,16,1,4,0,1,37,100,11
2,1,20,1,2,0,1,37,128,11
2,1,9,1,3,0,1,37,18,11
2,1,22,0,4,0,1,37,75,11
2,1,2,0,5,1,1,37,75,11
2,1,10,1,2,0,1,37,95,11
2,1,21,0,2,0,1,37,58,11
2,1,0,0,3,0,1,37,95,11
2,1,11,1,6,1,1,37,89,11
2,1,12,1,6,1,1,37,89,11
2,1,17,1,6,1,1,37,65,11
2,1,14,1,0,0,1,37,128,11
2,1,19,1,0,0,1,37,128,11
2,1,14,1,3,0,1,37,100,11
2,1,16,1,3,0,1,37,100,11
3,2,5,0,0,0,1,37,18,11
3,2,18,1,0,0,1,37,18,11
3,2,19,1,6,1,1,37,100,11
3,2,18,1,2,0,1,37,100,11
3,2,4,0,1,0,1,37,12,11
3,2,4,0,3,0,1,37,75,11
4,2,0,0,3,0,2,37,18,11
4,2,13,1,4,0,2,37,100,11
4,2,16,1,4,0,2,37,89,11
4,2,23,0,5,1,2,37,100,11
4,2,11,1,2,0,2,37,89,11
4,2,15,1,2,0,2,37,100,11
4,2,9,1,3,0,2,37,100,11
4,2,14,1,3,0,2,37,63,11
4,2,3,0,6,1,2,37,128,11
4,2,3,0,6,1,2,37,128,11
4,2,16,1,6,1,2,37,89,11
4,2,14,1,0,0,2,37,75,11
4,2,20,1,1,0,2,37,100,11
4,2,14,1,4,0,2,37,100,11
4,2,1,0,6,1,2,37,110,11
4,2,14,1,0,0,2,37,65,11
4,2,8,1,2,0,2,37,100,11
4,2,13,1,0,0,2,37,18,11
4,2,19,1,0,0,2,37,100,11
4,2,20,1,1,0,2,37,89,11
5,2,7,1,2,0,2,37,75,11
5,2,2,0,3,0,2,37,18,11
5,2,19,1,3,0,2,37,110,11
5,2,14,1,3,0,2,37,100,11
5,2,22,0,3,0,2,37,100,11
5,2,16,1,4,0,2,37,75,11
5,2,13,1,1,0,2,37,89,11
5,2,2,0,2,0,2,37,108,11
5,2,17,1,2,0,2,37,100,11
5,2,2,0,4,0,2,37,110,11
5,2,2,0,6,1,2,37,100,11
5,2,14,1,0,0,2,37,100,11
5,2,3,0,2,0,2,37,18,11
5,2,4,0,2,0,2,37,18,11
5,2,16,1,2,0,2,37,100,11
5,2,13,1,5,1,2,37,100,11
5,2,17,1,5,1,2,37,100,11
5,2,15,1,6,1,2,37,89,11
5,2,13,1,0,0,2,37,100,11
5,2,21,0,0,0,2,37,18,11
5,2,8,1,1,0,2,37,100,11
6,3,13,1,2,0,2,37,100,11
6,3,19,1,3,0,2,37,100,11
6,3,21,0,3,0,2,37,100,11
6,3,14,1,4,0,2,37,100,11
6,3,8,1,5,1,2,37,100,11
6,3,23,0,6,1,2,37,100,11
6,3,19,1,3,0,2,37,100,11
6,3,21,0,3,0,2,37,100,11
6,3,6,0,4,0,2,37,100,11
6,3,17,1,4,0,2,37,100,11
6,3,17,1,4,0,2,37,89,11
6,3,22,0,4,0,2,37,89,11
6,3,22,0,5,1,2,37,100,11
6,3,18,1,0,0,2,37,126,11
6,3,9,1,2,0,2,37,100,11
6,3,12,1,2,0,2,37,65,11
6,3,19,1,2,0,2,37,100,11
6,3,20,1,2,0,2,37,100,11
6,3,11,1,3,0,2,37,100,11
6,3,22,0,3,0,2,37,18,11
6,3,15,1,4,0,2,37,89,11
6,3,21,0,4,0,2,37,100,11
6,3,16,1,1,0,2,37,100,11
6,3,23,0,1,0,2,37,65,11
6,3,20,1,2,0,2,37,65,11
6,3,22,0,2,0,2,37,100,11
6,3,17,1,5,1,2,37,100,11
6,3,17,1,5,1,2,37,100,11
6,3,21,0,5,1,2,37,100,11
6,3,11,1,6,1,2,37,89,11
6,3,22,0,6,1,2,37,100,11
7,3,11,1,0,0,3,37,65,11
7,3,16,1,0,0,3,37,89,11
7,3,18,1,0,0,3,37,100,11
7,3,5,0,2,0,3,37,75,11
7,3,14,1,3,0,3,37,110,11
7,3,19,1,4,0,3,37,108,11
7,3,18,1,5,1,3,37,89,11
7,3,21,0,1,0,3,37,100,11
7,3,17,1,2,0,3,37,100,11
7,3,18,1,3,0,3,37,100,11
7,3,18,1,4,0,3,37,100,11
7,3,17,1,5,1,3,37,100,11
7,3,22,0,0,0,3,37,100,11
7,3,1,0,1,0,3,37,89,11
7,3,14,1,1,0,3,37,100,11
7,3,17,1,1,0,3,37,100,11
7,3,21,0,1,0,3,37,18,11
7,3,18,1,2,0,3,37,89,11
7,3,11,1,3,0,3,37,89,11
7,3,18,1,3,0,3,37,89,11
7,3,22,0,3,0,3,37,100,11
7,3,8,1,4,0,3,37,89,11
7,3,10,1,4,0,3,37,65,11
7,3,19,1,4,0,3,37,89,11
7,3,21,0,4,0,3,37,100,11
7,3,21,0,4,0,3,37,100,11
7,3,21,0,4,0,3,37,100,11
7,3,1,0,0,0,3,37,100,11
7,3,7,1,0,0,3,37,18,11
7,3,17,1,0,0,3,37,128,11
7,3,23,0,0,0,3,37,100,11
7,3,1,0,1,0,3,37,100,11
7,3,14,1,1,0,3,37,12,11
7,3,16,1,1,0,3,37,100,11
7,3,20,1,3,0,3,37,100,11
7,3,21,0,6,1,3,37,100,11
7,3,18,1,1,0,3,37,97,11
7,3,19,1,1,0,3,37,18,11
7,3,0,0,2,0,3,37,12,11
7,3,16,1,2,0,3,37,89,11
8,3,7,1,3,0,3,37,100,11
8,3,11,1,3,0,3,37,18,11
8,3,21,0,4,0,3,37,126,11
8,3,11,1,5,1,3,37,100,11
8,3,20,1,0,0,3,37,100,11
8,3,17,1,1,0,3,37,89,11
8,3,7,1,2,0,3,37,100,11
8,3,10,1,2,0,3,37,100,11
8,3,22,0,3,0,3,37,100,11
8,3,6,0,4,0,3,37,100,11
8,3,2,0,0,0,3,37,100,11
8,3,12,1,0,0,3,37,100,11
8,3,20,1,0,0,3,37,100,11
8,3,22,0,0,0,3,37,100,11
8,3,18,1,3,0,3,37,128,11
8,3,19,1,3,0,3,37,100,11
8,3,1,0,4,0,3,37,100,11
8,3,2,0,4,0,3,37,4,11
8,3,12,1,4,0,3,37,100,11
8,3,3,0,5,1,3,37,18,11
8,3,9,1,6,1,3,37,100,11
8,3,14,1,6,1,3,37,100,11
8,3,14,1,6,1,3,37,100,11
8,3,16,1,1,0,3,37,100,11
8,3,20,1,1,0,3,37,100,11
8,3,0,0,4,0,3,37,18,11
8,3,8,1,4,0,3,37,128,11
8,3,9,1,4,0,3,37,18,11
8,3,2,0,5,1,3,37,75,11
8,3,16,1,5,1,3,37,100,11
8,3,21,0,5,1,3,37,100,11
8,3,21,0,5,1,3,37,100,11
8,3,14,1,6,1,3,37,100,11
8,3,18,1,6,1,3,37,100,11
8,3,2,0,1,0,3,37,128,11
8,3,20,1,1,0,3,37,100,11
8,3,17,1,2,0,3,37,89,11
8,3,20,1,2,0,3,37,89,11
8,3,22,0,3,0,3,37,100,11
8,3,14,1,4,0,3,37,89,11
8,3,6,0,5,1,3,37,18,11
8,3,19,1,5,1,3,37,100,11
9,4,20,1,0,0,3,37,100,11
9,4,0,0,1,0,3,37,100,11
9,4,16,1,1,0,3,37,100,11
9,4,21,0,1,0,3,37,100,11
9,4,10,1,3,0,3,37,100,11
9,4,23,0,3,0,3,37,100,11
9,4,2,0,4,0,3,37,100,11
9,4,14,1,4,0,3,37,100,11
9,4,18,1,4,0,3,37,89,11
9,4,17,1,5,1,3,37,128,11
9,4,14,1,6,1,3,37,89,11
9,4,19,1,0,0,3,37,89,11
9,4,19,1,1,0,3,37,63,9
9,4,8,1,3,0,3,37,16,11
9,4,13,1,6,1,3,37,100,11
9,4,18,1,0,0,3,37,100,11
9,4,17,1,1,0,3,37,100,11
9,4,23,0,1,0,3,37,100,11
9,4,17,1,2,0,3,37,100,11
9,4,20,1,3,0,3,37,100,11
9,4,16,1,1,0,3,37,18,11
9,4,1,0,3,0,3,37,65,11
9,4,19,1,4,0,3,37,100,11
10,4,16,1,1,0,4,37,100,11
10,4,19,1,2,0,4,37,100,11
10,4,16,1,0,0,4,37,100,11
10,4,17,1,1,0,4,37,100,11
10,4,12,1,1,0,4,37,100,11
10,4,20,1,1,0,4,37,89,11
10,4,11,1,2,0,4,37,89,11
10,4,17,1,2,0,4,37,100,11
10,4,17,1,3,0,4,37,100,11
10,4,2,0,6,1,4,37,65,11
10,4,18,1,0,0,4,37,100,11
10,4,1,0,2,0,4,37,100,11
10,4,11,1,2,0,4,37,100,11
10,4,11,1,2,0,4,37,100,11
10,4,19,1,2,0,4,37,100,11
10,4,21,0,2,0,4,37,100,11
10,4,2,0,3,0,4,37,46,11
10,4,13,1,6,1,4,37,18,11
10,4,17,1,6,1,4,37,89,11
10,4,17,1,6,1,4,37,89,11
10,4,11,1,2,0,4,37,100,11
11,4,18,1,5,1,4,37,95,11
11,4,9,1,1,0,4,37,13,11
11,4,21,0,2,0,4,37,65,11
11,4,12,1,6,1,4,37,100,11
11,4,12,1,4,0,4,37,100,11
11,4,11,1,6,1,4,37,75,11
11,4,15,1,6,1,4,37,100,11
11,4,8,1,1,0,4,37,100,11
11,4,11,1,1,0,4,37,100,11
11,4,17,1,4,0,4,37,100,11
11,4,20,1,5,1,4,37,100,11
11,4,18,1,6,1,4,37,128,11
11,4,19,1,6,1,4,37,87,11
11,4,14,1,0,0,4,37,100,11
11,4,16,1,0,0,4,37,100,11
11,4,17,1,3,0,4,37,100,11
11,4,20,1,3,0,4,37,89,11
11,4,19,1,4,0,4,37,100,11
11,4,8,1,5,1,4,37,75,11
11,4,21,0,5,1,4,37,75,11
12,1,10,1,2,0,4,37,100,11
12,1,16,1,3,0,4,37,100,11
12,1,22,0,4,0,4,37,100,11
12,1,12,1,2,0,4,37,18,11
12,1,16,1,4,0,4,37,100,11
12,1,13,1,6,1,4,37,100,11
12,1,17,1,2,0,4,37,100,11
12,1,13,1,3,0,4,37,100,11
12,1,20,1,3,0,4,37,75,11
12,1,2,0,4,0,4,37,89,11
12,1,16,1,2,0,4,37,75,11
12,1,14,1,3,0,4,37,75,11
12,1,11,1,4,0,4,37,128,11
12,1,17,1,0,0,4,37,100,11
12,1,17,1,0,0,4,37,100,11
2,1,15,1,4,0,1,37,100,11
3,2,17,1,3,0,1,37,100,11
7,3,9,1,4,0,3,37,89,11
11,4,17,1,4,0,4,37,110,11
11,4,7,1,6,1,4,37,46,11
12,1,6,0,5,1,4,37,110,11
1,1,18,1,6,1,1,37,100,11
2,1,18,1,2,0,1,37,87,11
3,2,13,1,0,0,1,37,87,11
3,2,14,1,1,0,1,37,87,11
3,2,19,1,4,0,1,37,128,11
3,2,14,1,0,0,1,37,87,11
3,2,17,1,3,0,1,37,100,11
4,2,13,1,6,1,2,37,89,11
4,2,22,0,1,0,2,37,87,11
5,2,13,1,0,0,2,37,89,11
5,2,0,0,1,0,2,37,87,8
6,3,16,1,0,0,2,37,89,11
6,3,11,1,3,0,2,37,89,11
7,3,0,0,1,0,3,37,87,9
7,3,17,1,6,1,3,37,94,11
7,3,15,1,1,0,3,37,44,11
7,3,14,1,1,0,3,37,128,11
8,3,18,1,5,1,3,37,128,11
8,3,19,1,3,0,3,37,87,11
8,3,17,1,1,0,3,37,87,11
8,3,16,1,3,0,3,37,87,11
8,3,12,1,3,0,3,37,87,11
9,4,17,1,1,0,3,37,87,11
9,4,14,1,6,1,3,37,125,11
10,4,13,1,1,0,4,37,75,11
10,4,2,0,2,0,4,37,128,11
10,4,16,1,3,0,4,37,57,11
10,4,17,1,3,0,4,37,44,11
10,4,14,1,5,1,4,37,26,11
10,4,16,1,6,1,4,37,125,11
10,4,11,1,1,0,4,37,128,11
10,4,17,1,2,0,4,37,128,11
10,4,10,1,6,1,4,37,89,11
10,4,15,1,1,0,4,37,128,11
10,4,18,1,1,0,4,37,110,11
11,4,11,1,6,1,4,37,89,11
11,4,17,1,0,0,4,37,100,11
11,4,16,1,1,0,4,37,26,11
11,4,14,1,3,0,4,37,109,11
11,4,8,1,0,0,4,37,128,11
11,4,11,1,0,0,4,37,87,11
11,4,18,1,2,0,4,37,100,11
11,4,11,1,3,0,4,37,100,11
12,1,12,1,3,0,4,37,125,11
12,1,14,1,3,0,4,37,128,11
12,1,20,1,3,0,4,37,128,11
12,1,16,1,4,0,4,37,128,11
1,1,17,1,0,0,1,11,87,11
1,1,10,1,1,0,1,11,87,11
1,1,17,1,1,0,1,11,87,11
1,1,0,0,2,0,1,11,18,11
1,1,18,1,1,0,1,11,110,11
1,1,20,1,1,0,1,11,95,11
1,1,12,1,2,0,1,11,95,11
1,1,14,1,3,0,1,11,75,11
1,1,19,1,5,1,1,11,65,11
1,1,10,1,6,1,1,11,18,9
1,1,16,1,6,1,1,11,95,11
1,1,14,1,1,0,1,11,59,11
1,1,20,1,2,0,1,11,38,9
1,1,21,0,4,0,1,11,87,11
2,1,16,1,6,1,1,11,128,11
2,1,18,1,0,0,1,11,89,11
2,1,19,1,6,1,1,11,95,11
2,1,5,0,0,0,1,11,110,11
2,1,14,1,4,0,1,11,4,11
2,1,18,1,1,0,1,11,87,11
2,1,9,1,3,0,1,11,87,11
2,1,0,0,4,0,1,11,72,11
2,1,20,1,4,0,1,11,4,11
2,1,21,0,6,1,1,11,4,11
3,2,17,1,4,0,1,11,72,11
3,2,18,1,4,0,1,11,125,11
3,2,10,1,1,0,1,11,100,11
3,2,14,1,3,0,1,11,89,11
3,2,23,0,0,0,1,11,4,11
3,2,18,1,2,0,1,11,89,11
3,2,15,1,3,0,1,11,4,11
3,2,0,0,0,0,1,11,87,11
3,2,9,1,6,1,1,11,44,11
4,2,15,1,4,0,2,11,75,11
4,2,12,1,6,1,2,11,75,11
4,2,20,1,6,1,2,11,110,11
4,2,14,1,1,0,2,11,75,11
4,2,13,1,4,0,2,11,89,11
4,2,20,1,1,0,2,11,65,11
4,2,20,1,1,0,2,11,65,11
4,2,15,1,2,0,2,11,72,11
4,2,1,0,3,0,2,11,72,11
4,2,8,1,4,0,2,11,72,11
4,2,1,0,5,1,2,11,87,11
4,2,10,1,0,0,2,11,75,11
4,2,9,1,6,1,2,11,89,11
4,2,15,1,6,1,2,11,89,11
4,2,21,0,6,1,2,11,89,11
4,2,14,1,1,0,2,11,89,11
5,2,18,1,0,0,2,11,66,11
5,2,14,1,3,0,2,11,100,11
5,2,8,1,4,0,2,11,65,11
5,2,17,1,6,1,2,11,89,11
5,2,15,1,2,0,2,11,4,11
5,2,11,1,6,1,2,11,128,11
5,2,14,1,0,0,2,11,65,11
5,2,19,1,0,0,2,11,87,11
5,2,17,1,2,0,2,11,89,11
5,2,9,1,4,0,2,11,89,11
5,2,9,1,4,0,2,11,66,11
5,2,20,1,5,1,2,11,100,11
5,2,9,1,6,1,2,11,100,11
5,2,15,1,6,1,2,11,89,11
5,2,13,1,1,0,2,11,87,11
5,2,13,1,1,0,2,11,66,11
5,2,0,0,2,0,2,11,58,11
5,2,13,1,4,0,2,11,44,9
5,2,16,1,4,0,2,11,100,11
6,3,11,1,1,0,2,11,4,11
6,3,11,1,6,1,2,11,89,11
6,3,14,1,4,0,2,11,89,11
6,3,10,1,3,0,2,11,87,11
6,3,2,0,5,1,2,11,22,11
6,3,18,1,3,0,2,11,13,11
6,3,14,1,4,0,2,11,65,8
6,3,19,1,5,1,2,11,4,11
7,3,17,1,1,0,3,11,26,11
7,3,23,0,1,0,3,11,100,11
7,3,22,0,4,0,3,11,89,11
7,3,13,1,5,1,3,11,87,11
7,3,13,1,0,0,3,11,89,11
7,3,12,1,5,1,3,11,89,11
7,3,11,1,0,0,3,11,87,11
7,3,21,0,3,0,3,11,87,11
7,3,13,1,4,0,3,11,18,9
8,3,10,1,5,1,3,11,72,11
8,3,20,1,0,0,3,11,110,11
8,3,17,1,1,0,3,11,4,11
8,3,13,1,4,0,3,11,28,9
8,3,20,1,4,0,3,11,100,11
8,3,21,0,4,0,3,11,100,11
8,3,13,1,6,1,3,11,12,9
8,3,14,1,6,1,3,11,100,11
8,3,10,1,0,0,3,11,65,11
8,3,10,1,0,0,3,11,100,11
8,3,1,0,1,0,3,11,65,11
8,3,14,1,2,0,3,11,4,11
9,4,14,1,6,1,3,11,128,9
9,4,18,1,6,1,3,11,100,11
9,4,17,1,1,0,3,11,125,11
9,4,20,1,5,1,3,11,4,9
9,4,15,1,5,1,3,11,128,11
9,4,20,1,6,1,3,11,100,11
9,4,4,0,1,0,3,11,65,11
9,4,17,1,6,1,3,11,128,11
10,4,15,1,0,0,4,11,128,11
10,4,13,1,3,0,4,11,100,11
10,4,12,1,0,0,4,11,13,9
10,4,18,1,1,0,4,11,100,11
10,4,13,1,4,0,4,11,63,11
10,4,0,0,5,1,4,11,97,11
10,4,20,1,5,1,4,11,65,11
10,4,23,0,6,1,4,11,1,11
10,4,17,1,1,0,4,11,128,11
10,4,23,0,4,0,4,11,128,11
10,4,0,0,6,1,4,11,100,11
10,4,7,1,6,1,4,11,128,11
10,4,12,1,0,0,4,11,65,11
10,4,21,0,0,0,4,11,100,11
10,4,23,0,1,0,4,11,128,11
10,4,0,0,2,0,4,11,128,11
10,4,9,1,3,0,4,11,100,11
10,4,19,1,3,0,4,11,100,11
11,4,0,0,5,1,4,11,65,11
11,4,10,1,5,1,4,11,65,11
11,4,12,1,5,1,4,11,100,11
11,4,19,1,5,1,4,11,100,11
11,4,17,1,0,0,4,11,26,11
11,4,7,1,2,0,4,11,128,11
11,4,12,1,2,0,4,11,65,11
11,4,21,0,5,1,4,11,100,11
11,4,16,1,0,0,4,11,89,8
11,4,15,1,1,0,4,11,128,11
11,4,6,0,5,1,4,11,110,11
11,4,12,1,5,1,4,11,84,11
11,4,9,1,6,1,4,11,75,8
11,4,12,1,4,0,4,11,100,11
12,1,22,0,0,0,4,11,87,11
12,1,15,1,5,1,4,11,95,11
12,1,17,1,0,0,4,11,4,11
12,1,18,1,0,0,4,11,65,11
3,2,17,1,6,1,1,11,100,11
4,2,13,1,4,0,2,11,4,11
9,4,14,1,1,0,3,11,110,9
9,4,14,1,4,0,3,11,89,11
10,4,11,1,4,0,4,11,89,11
11,4,12,1,3,0,4,11,110,11
1,1,11,1,2,0,1,11,89,11
2,1,11,1,3,0,1,11,100,11
2,1,17,1,2,0,1,11,64,8
3,2,11,1,2,0,1,11,75,11
3,2,22,0,4,0,1,11,87,11
4,2,11,1,3,0,2,11,100,11
5,2,17,1,0,0,2,11,100,11
6,3,14,1,5,1,2,11,75,11
6,3,11,1,0,0,2,11,89,11
6,3,21,0,0,0,2,11,87,11
10,4,13,1,5,1,4,11,4,11
10,4,0,0,5,1,4,11,100,11
10,4,23,0,5,1,4,11,100,11
10,4,12,1,6,1,4,11,12,11
1,1,13,1,0,0,1,11,87,11
1,1,0,0,1,0,1,11,87,11
1,1,13,1,1,0,1,11,38,11
1,1,12,1,2,0,1,11,128,11
1,1,16,1,6,1,1,11,7,9
2,1,9,1,3,0,1,11,128,11
2,1,8,1,4,0,1,11,18,11
2,1,12,1,5,1,1,11,100,9
2,1,3,0,1,0,1,11,7,11
2,1,20,1,1,0,1,11,18,9
2,1,0,0,6,1,1,11,128,11
2,1,18,1,6,1,1,11,128,11
2,1,21,0,2,0,1,11,100,11
2,1,3,0,3,0,1,11,89,8
2,1,13,1,6,1,1,11,100,11
2,1,20,1,3,0,1,11,38,11
2,1,21,0,3,0,1,11,128,11
3,2,8,1,5,1,1,11,100,11
3,2,13,1,6,1,1,11,65,11
3,2,8,1,0,0,1,11,128,11
3,2,8,1,0,0,1,11,13,11
3,2,15,1,6,1,1,11,128,11
3,2,13,1,4,0,1,11,110,11
4,2,9,1,4,0,2,11,72,11
4,2,23,0,5,1,2,11,128,11
4,2,13,1,4,0,2,11,100,11
4,2,20,1,1,0,2,11,100,11
5,2,2,0,6,1,2,11,38,8
5,2,0,0,6,1,2,11,128,11
5,2,21,0,6,1,2,11,128,11
5,2,23,0,3,0,2,11,128,11
6,3,11,1,5,1,2,11,89,11
6,3,15,1,2,0,2,11,65,11
6,3,15,1,1,0,2,11,24,11
6,3,10,1,0,0,2,11,89,11
6,3,14,1,3,0,2,11,100,11
6,3,15,1,5,1,2,11,81,11
6,3,15,1,6,1,2,11,89,9
7,3,14,1,4,0,3,11,18,11
7,3,17,1,4,0,3,11,18,11
7,3,9,1,6,1,3,11,89,11
8,3,10,1,6,1,3,11,100,11
8,3,11,1,6,1,3,11,100,11
9,4,14,1,6,1,3,11,89,11
10,4,15,1,3,0,4,11,24,9
10,4,2,0,5,1,4,11,75,9
10,4,14,1,0,0,4,11,72,11
10,4,9,1,2,0,4,11,65,11
10,4,16,1,3,0,4,11,89,11
10,4,19,1,5,1,4,11,13,9
10,4,15,1,3,0,4,11,24,9
10,4,15,1,2,0,4,11,100,11
10,4,17,1,2,0,4,11,24,9
11,4,15,1,6,1,4,11,128,11
11,4,17,1,3,0,4,11,18,11
11,4,17,1,0,0,4,11,128,11
11,4,9,1,3,0,4,11,18,11
11,4,15,1,3,0,4,11,128,11
11,4,19,1,4,0,4,11,89,11
12,1,17,1,4,0,4,11,75,11
12,1,18,1,4,0,4,11,91,11
12,1,14,1,4,0,4,11,128,11
12,1,11,1,5,1,4,11,28,11
12,1,15,1,6,1,4,11,128,11
2,1,16,1,1,0,1,11,110,11
2,1,13,1,1,0,1,11,40,11
6,3,15,1,4,0,2,11,110,11
6,3,22,0,1,0,2,11,24,9
9,4,13,1,6,1,3,11,24,9
11,4,9,1,2,0,4,11,18,11
1,1,18,1,0,0,1,11,38,11
1,1,17,1,4,0,1,11,128,11
2,1,18,1,0,0,1,11,38,9
2,1,20,1,0,0,1,11,110,11
2,1,11,1,0,0,1,11,89,11
3,2,20,1,0,0,1,11,89,11
3,2,17,1,4,0,1,11,75,8
3,2,15,1,6,1,1,11,18,11
4,2,14,1,2,0,2,11,100,11
4,2,11,1,5,1,2,11,38,9
4,2,17,1,2,0,2,11,100,11
5,2,22,0,2,0,2,11,100,11
6,3,6,0,4,0,2,11,100,11
6,3,13,1,2,0,2,11,24,11
6,3,15,1,2,0,2,11,100,11
6,3,1,0,3,0,2,11,100,11
6,3,20,1,3,0,2,11,4,11
7,3,21,0,2,0,3,11,100,11
7,3,21,0,6,1,3,11,100,11
7,3,19,1,1,0,3,11,100,11
8,3,20,1,5,1,3,11,100,11
8,3,18,1,0,0,3,11,100,11
8,3,13,1,1,0,3,11,100,11
8,3,15,1,1,0,3,11,100,11
8,3,20,1,6,1,3,11,100,11
8,3,17,1,3,0,3,11,100,11
8,3,17,1,3,0,3,11,89,11
9,4,21,0,4,0,3,11,72,11
10,4,16,1,3,0,4,11,75,11
11,4,18,1,1,0,4,11,75,11
11,4,2,0,0,0,4,11,100,11
11,4,15,1,0,0,4,11,87,11
12,1,7,1,6,1,4,11,18,11
1,1,10,1,4,0,1,11,24,11
2,1,18,1,5,1,1,11,100,11
3,2,6,0,6,1,1,11,75,11
4,2,20,1,5,1,2,11,38,11
6,3,23,0,0,0,2,11,100,11
6,3,14,1,2,0,2,11,100,11
6,3,11,1,5,1,2,11,12,11
7,3,16,1,0,0,3,11,63,11
7,3,10,1,5,1,3,11,19,11
7,3,17,1,1,0,3,11,110,11
7,3,3,0,5,1,3,11,18,11
8,3,16,1,5,1,3,11,100,11
8,3,21,0,4,0,3,11,75,9
9,4,17,1,0,0,3,11,100,11
10,4,11,1,6,1,4,11,75,11
10,4,19,1,6,1,4,11,87,11
11,4,22,0,2,0,4,11,38,11
11,4,13,1,6,1,4,11,100,11
11,4,12,1,4,0,4,11,100,11
12,1,12,1,2,0,4,11,12,9
1,1,21,0,4,0,1,19,128,11
1,1,9,1,1,0,1,19,65,11
1,1,20,1,2,0,1,19,75,11
1,1,6,0,6,1,1,19,102,11
1,1,17,1,6,1,1,19,128,11
1,1,19,1,6,1,1,19,65,11
1,1,20,1,1,0,1,19,65,11
1,1,22,0,1,0,1,19,65,11
1,1,22,0,1,0,1,19,65,11
1,1,19,1,5,1,1,19,65,11
1,1,2,0,6,1,1,19,65,11
1,1,8,1,0,0,1,19,67,11
1,1,13,1,0,0,1,19,65,11
1,1,3,0,1,0,1,19,128,11
1,1,4,0,1,0,1,19,128,11
1,1,14,1,1,0,1,19,64,11
1,1,2,0,2,0,1,19,128,11
1,1,19,1,4,0,1,19,128,11
1,1,23,0,4,0,1,19,128,11
1,1,11,1,6,1,1,19,128,11
1,1,19,1,6,1,1,19,65,11
2,1,21,0,3,0,1,19,128,11
2,1,15,1,0,0,1,19,65,11
2,1,2,0,1,0,1,19,128,11
2,1,19,1,1,0,1,19,95,11
2,1,2,0,4,0,1,19,65,11
2,1,11,1,4,0,1,19,65,11
2,1,3,0,6,1,1,19,128,11
2,1,19,1,6,1,1,19,95,11
2,1,15,1,0,0,1,19,58,11
2,1,15,1,1,0,1,19,65,9
2,1,1,0,3,0,1,19,38,8
2,1,14,1,3,0,1,19,128,11
2,1,14,1,5,1,1,19,88,11
2,1,19,1,6,1,1,19,127,11
2,1,23,0,6,1,1,19,128,11
2,1,3,0,0,0,1,19,128,11
2,1,3,0,0,0,1,19,128,11
2,1,2,0,1,0,1,19,128,11
2,1,3,0,2,0,1,19,128,11
2,1,4,0,2,0,1,19,128,11
2,1,14,1,3,0,1,19,128,11
2,1,20,1,3,0,1,19,128,11
2,1,1,0,6,1,1,19,87,9
2,1,17,1,6,1,1,19,95,11
2,1,11,1,2,0,1,19,95,11
3,2,13,1,5,1,1,19,65,11
3,2,6,0,6,1,1,19,128,11
3,2,7,1,0,0,1,19,87,11
3,2,7,1,0,0,1,19,87,11
3,2,16,1,0,0,1,19,87,11
3,2,8,1,5,1,1,19,65,11
3,2,12,1,5,1,1,19,75,11
3,2,23,0,4,0,1,19,58,11
3,2,0,0,0,0,1,19,128,11
3,2,0,0,5,1,1,19,65,11
3,2,6,0,6,1,1,19,95,11
3,2,15,1,5,1,1,19,65,11
4,2,7,1,0,0,2,19,65,11
4,2,20,1,3,0,2,19,64,11
4,2,4,0,6,1,2,19,128,11
4,2,4,0,6,1,2,19,128,11
4,2,7,1,6,1,2,19,75,11
4,2,13,1,6,1,2,19,84,11
4,2,14,1,6,1,2,19,75,11
4,2,14,1,0,0,2,19,65,9
4,2,9,1,1,0,2,19,87,11
4,2,6,0,2,0,2,19,72,11
4,2,16,1,0,0,2,19,65,11
4,2,14,1,1,0,2,19,65,11
4,2,14,1,3,0,2,19,79,11
4,2,11,1,5,1,2,19,65,11
4,2,0,0,3,0,2,19,75,11
4,2,23,0,4,0,2,19,65,11
4,2,3,0,5,1,2,19,128,11
4,2,21,0,0,0,2,19,108,11
5,2,1,0,1,0,2,19,128,11
5,2,16,1,5,1,2,19,72,11
5,2,22,0,6,1,2,19,128,11
5,2,15,1,5,1,2,19,65,11
5,2,3,0,0,0,2,19,95,11
6,3,13,1,5,1,2,19,128,11
6,3,14,1,5,1,2,19,18,11
6,3,14,1,1,0,2,19,65,11
6,3,18,1,4,0,2,19,65,11
6,3,18,1,5,1,2,19,65,11
6,3,5,0,0,0,2,19,38,9
6,3,4,0,5,1,2,19,128,11
6,3,4,0,0,0,2,19,128,11
6,3,22,0,5,1,2,19,65,11
6,3,12,1,6,1,2,19,1,11
6,3,11,1,1,0,2,19,8,11
6,3,17,1,1,0,2,19,100,11
6,3,9,1,3,0,2,19,72,11
6,3,4,0,5,1,2,19,128,11
7,3,12,1,0,0,3,19,65,11
7,3,17,1,0,0,3,19,128,11
7,3,20,1,0,0,3,19,128,11
7,3,21,0,1,0,3,19,128,11
7,3,12,1,3,0,3,19,65,11
7,3,17,1,3,0,3,19,65,11
7,3,14,1,0,0,3,19,58,11
7,3,23,0,1,0,3,19,65,11
7,3,11,1,3,0,3,19,87,11
7,3,9,1,0,0,3,19,108,11
7,3,21,0,3,0,3,19,65,11
7,3,15,1,4,0,3,19,65,11
7,3,18,1,6,1,3,19,128,11
7,3,17,1,2,0,3,19,65,11
8,3,12,1,5,1,3,19,58,11
8,3,19,1,5,1,3,19,65,11
8,3,14,1,6,1,3,19,65,11
8,3,20,1,0,0,3,19,95,11
8,3,17,1,1,0,3,19,100,11
8,3,12,1,6,1,3,19,89,11
8,3,16,1,0,0,3,19,46,11
8,3,3,0,1,0,3,19,128,11
9,4,2,0,0,0,3,19,65,11
9,4,13,1,1,0,3,19,87,11
9,4,3,0,4,0,3,19,1,11
9,4,12,1,5,1,3,19,65,11
9,4,9,1,4,0,3,19,65,11
9,4,9,1,5,1,3,19,64,11
9,4,11,1,5,1,3,19,65,11
9,4,16,1,5,1,3,19,65,11
9,4,10,1,6,1,3,19,87,11
9,4,20,1,3,0,3,19,65,11
9,4,23,0,3,0,3,19,87,11
9,4,8,1,6,1,3,19,97,11
9,4,14,1,6,1,3,19,83,11
9,4,15,1,2,0,3,19,58,11
9,4,23,0,2,0,3,19,65,11
9,4,1,0,4,0,3,19,72,9
9,4,3,0,5,1,3,19,128,11
9,4,19,1,5,1,3,19,95,11
10,4,15,1,5,1,4,19,65,11
10,4,17,1,0,0,4,19,65,9
10,4,18,1,1,0,4,19,128,11
10,4,0,0,2,0,4,19,128,11
10,4,22,0,5,1,4,19,4,11
10,4,23,0,5,1,4,19,128,11
10,4,6,0,6,1,4,19,128,11
10,4,7,1,6,1,4,19,72,11
10,4,2,0,0,0,4,19,128,11
10,4,7,1,0,0,4,19,58,11
10,4,6,0,1,0,4,19,13,11
10,4,13,1,1,0,4,19,95,11
10,4,8,1,2,0,4,19,95,11
10,4,3,0,3,0,4,19,128,11
10,4,5,0,3,0,4,19,95,11
10,4,3,0,4,0,4,19,72,9
10,4,17,1,2,0,4,19,65,11
10,4,11,1,3,0,4,19,72,11
11,4,3,0,5,1,4,19,14,9
11,4,1,0,1,0,4,19,95,11
11,4,21,0,3,0,4,19,65,11
11,4,20,1,6,1,4,19,95,11
11,4,18,1,3,0,4,19,72,11
11,4,3,0,6,1,4,19,128,11
11,4,21,0,1,0,4,19,65,11
11,4,19,1,5,1,4,19,65,11
12,1,5,0,2,0,4,19,72,9
12,1,9,1,0,0,4,19,128,11
12,1,19,1,4,0,4,19,65,11
12,1,14,1,0,0,4,19,128,11
12,1,14,1,2,0,4,19,38,11
12,1,20,1,5,1,4,19,58,11
1,1,23,0,0,0,1,19,95,11
1,1,14,1,1,0,1,19,100,11
1,1,0,0,2,0,1,19,100,11
1,1,16,1,2,0,1,19,65,8
1,1,17,1,2,0,1,19,18,11
1,1,17,1,3,0,1,19,89,11
1,1,14,1,4,0,1,19,89,11
1,1,13,1,5,1,1,19,38,11
1,1,19,1,5,1,1,19,75,11
1,1,17,1,6,1,1,19,65,11
1,1,21,0,6,1,1,19,18,11
1,1,2,0,0,0,1,19,100,11
1,1,17,1,2,0,1,19,7,8
1,1,21,0,4,0,1,19,4,11
1,1,23,0,4,0,1,19,38,8
1,1,14,1,5,1,1,19,65,11
1,1,15,1,5,1,1,19,100,11
1,1,17,1,5,1,1,19,128,11
1,1,20,1,5,1,1,19,128,11
1,1,21,0,5,1,1,19,100,11
1,1,0,0,0,0,1,19,38,11
1,1,1,0,2,0,1,19,95,11
1,1,13,1,3,0,1,19,128,11
1,1,0,0,4,0,1,19,100,11
1,1,18,1,5,1,1,19,18,11
1,1,16,1,6,1,1,19,65,11
1,1,20,1,0,0,1,19,38,11
1,1,16,1,1,0,1,19,65,11
1,1,17,1,1,0,1,19,95,11
1,1,8,1,2,0,1,19,46,11
1,1,22,0,2,0,1,19,89,11
1,1,12,1,3,0,1,19,22,11
1,1,22,0,3,0,1,19,89,11
1,1,22,0,4,0,1,19,95,11
1,1,1,0,5,1,1,19,100,11
1,1,8,1,6,1,1,19,58,11
1,1,21,0,0,0,1,19,95,11
1,1,18,1,1,0,1,19,18,11
1,1,18,1,1,0,1,19,65,11
1,1,13,1,2,0,1,19,64,11
1,1,21,0,2,0,1,19,95,11
2,1,22,0,4,0,1,19,18,11
2,1,11,1,5,1,1,19,65,11
2,1,21,0,5,1,1,19,75,11
2,1,18,1,6,1,1,19,100,11
2,1,5,0,0,0,1,19,18,11
2,1,12,1,0,0,1,19,100,11
2,1,16,1,1,0,1,19,7,11
2,1,18,1,1,0,1,19,100,11
2,1,1,0,3,0,1,19,65,11
2,1,11,1,3,0,1,19,89,11
2,1,18,1,3,0,1,19,18,11
2,1,21,0,3,0,1,19,95,11
2,1,8,1,4,0,1,19,112,11
2,1,15,1,4,0,1,19,100,11
2,1,20,1,4,0,1,19,100,11
2,1,1,0,5,1,1,19,100,11
2,1,11,1,5,1,1,19,95,11
2,1,13,1,5,1,1,19,100,11
2,1,8,1,6,1,1,19,89,11
2,1,14,1,6,1,1,19,95,11
2,1,15,1,6,1,1,19,38,11
2,1,14,1,0,0,1,19,100,11
2,1,7,1,1,0,1,19,100,11
2,1,14,1,2,0,1,19,100,11
2,1,23,0,2,0,1,19,89,11
2,1,23,0,2,0,1,19,95,11
2,1,0,0,3,0,1,19,95,11
2,1,18,1,3,0,1,19,100,11
2,1,21,0,3,0,1,19,100,11
2,1,7,1,5,1,1,19,38,11
2,1,15,1,5,1,1,19,89,11
2,1,21,0,6,1,1,19,128,11
2,1,12,1,0,0,1,19,89,11
2,1,19,1,0,0,1,19,75,11
2,1,18,1,3,0,1,19,89,9
2,1,13,1,4,0,1,19,75,11
2,1,6,0,5,1,1,19,18,11
2,1,16,1,5,1,1,19,65,11
2,1,16,1,5,1,1,19,100,11
2,1,4,0,6,1,1,19,38,11
2,1,12,1,6,1,1,19,128,11
2,1,12,1,6,1,1,19,65,11
2,1,15,1,2,0,1,19,95,11
2,1,18,1,2,0,1,19,75,11
2,1,23,0,2,0,1,19,100,11
2,1,17,1,3,0,1,19,22,11
3,2,4,0,0,0,1,19,122,11
3,2,19,1,0,0,1,19,38,11
3,2,11,1,2,0,1,19,65,11
3,2,13,1,2,0,1,19,65,11
3,2,16,1,4,0,1,19,95,11
3,2,5,0,1,0,1,19,18,11
3,2,11,1,1,0,1,19,58,11
3,2,21,0,1,0,1,19,22,11
3,2,12,1,3,0,1,19,18,11
3,2,8,1,4,0,1,19,18,11
3,2,2,0,5,1,1,19,18,11
3,2,8,1,5,1,1,19,18,11
3,2,22,0,6,1,1,19,18,11
3,2,18,1,1,0,1,19,79,11
3,2,5,0,2,0,1,19,18,11
3,2,14,1,2,0,1,19,89,11
3,2,22,0,4,0,1,19,100,11
3,2,15,1,5,1,1,19,100,11
3,2,20,1,5,1,1,19,65,11
3,2,6,0,6,1,1,19,100,11
3,2,10,1,6,1,1,19,100,11
3,2,12,1,6,1,1,19,65,11
3,2,14,1,6,1,1,19,18,11
3,2,15,1,6,1,1,19,89,11
3,2,20,1,6,1,1,19,100,11
3,2,22,0,6,1,1,19,95,11
3,2,2,0,0,0,1,19,95,11
3,2,7,1,0,0,1,19,89,11
3,2,20,1,0,0,1,19,100,11
3,2,10,1,1,0,1,19,89,11
3,2,11,1,1,0,1,19,65,11
3,2,17,1,1,0,1,19,20,11
3,2,16,1,2,0,1,19,46,11
3,2,10,1,3,0,1,19,89,11
3,2,14,1,3,0,1,19,89,11
3,2,1,0,4,0,1,19,76,11
3,2,2,0,4,0,1,19,100,11
3,2,23,0,4,0,1,19,95,11
3,2,0,0,5,1,1,19,95,11
3,2,2,0,5,1,1,19,7,11
3,2,10,1,5,1,1,19,8,11
4,2,2,0,0,0,2,19,89,11
4,2,15,1,0,0,2,19,100,11
4,2,14,1,1,0,2,19,100,11
4,2,9,1,2,0,2,19,18,11
4,2,12,1,2,0,2,19,100,11
4,2,13,1,2,0,2,19,18,11
4,2,17,1,2,0,2,19,75,11
4,2,19,1,2,0,2,19,89,11
4,2,8,1,3,0,2,19,38,11
4,2,12,1,3,0,2,19,95,11
4,2,20,1,3,0,2,19,89,11
4,2,15,1,4,0,2,19,89,11
4,2,23,0,4,0,2,19,75,11
4,2,10,1,5,1,2,19,100,11
4,2,19,1,5,1,2,19,100,11
4,2,19,1,6,1,2,19,100,11
4,2,10,1,0,0,2,19,89,11
4,2,12,1,0,0,2,19,100,11
4,2,18,1,0,0,2,19,18,11
4,2,23,0,0,0,2,19,89,11
4,2,7,1,1,0,2,19,18,11
4,2,19,1,1,0,2,19,95,11
4,2,21,0,1,0,2,19,89,11
4,2,1,0,2,0,2,19,18,11
4,2,9,1,2,0,2,19,128,11
4,2,10,1,2,0,2,19,128,11
4,2,23,0,2,0,2,19,95,11
4,2,11,1,4,0,2,19,100,11
4,2,14,1,4,0,2,19,58,11
4,2,5,0,5,1,2,19,7,11
4,2,6,0,5,1,2,19,7,11
4,2,9,1,5,1,2,19,89,11
4,2,12,1,5,1,2,19,89,11
4,2,21,0,5,1,2,19,100,11
4,2,10,1,6,1,2,19,95,11
4,2,14,1,6,1,2,19,95,11
4,2,11,1,0,0,2,19,100,11
4,2,8,1,1,0,2,19,65,11
4,2,13,1,4,0,2,19,65,9
4,2,17,1,5,1,2,19,65,11
4,2,19,1,5,1,2,19,13,11
4,2,15,1,6,1,2,19,65,11
4,2,19,1,6,1,2,19,89,11
4,2,20,1,6,1,2,19,38,11
4,2,13,1,0,0,2,19,89,11
4,2,19,1,2,0,2,19,100,11
4,2,20,1,2,0,2,19,100,11
4,2,21,0,3,0,2,19,58,11
4,2,0,0,5,1,2,19,89,11
4,2,7,1,6,1,2,19,60,8
4,2,14,1,6,1,2,19,65,11
4,2,13,1,0,0,2,19,65,11
4,2,9,1,1,0,2,19,58,11
4,2,15,1,1,0,2,19,65,11
4,2,18,1,1,0,2,19,89,11
5,2,0,0,2,0,2,19,18,11
5,2,7,1,2,0,2,19,38,11
5,2,16,1,2,0,2,19,7,11
5,2,12,1,3,0,2,19,65,11
5,2,16,1,3,0,2,19,89,11
5,2,8,1,4,0,2,19,95,11
5,2,12,1,5,1,2,19,75,11
5,2,14,1,5,1,2,19,66,11
5,2,23,0,5,1,2,19,95,11
5,2,2,0,6,1,2,19,64,11
5,2,22,0,6,1,2,19,75,11
5,2,16,1,1,0,2,19,18,11
5,2,10,1,2,0,2,19,100,11
5,2,17,1,2,0,2,19,4,11
5,2,21,0,2,0,2,19,95,11
5,2,21,0,2,0,2,19,95,11
5,2,15,1,3,0,2,19,128,11
5,2,20,1,3,0,2,19,128,11
5,2,23,0,3,0,2,19,128,11
5,2,6,0,6,1,2,19,4,11
5,2,16,1,6,1,2,19,95,11
5,2,1,0,0,0,2,19,18,11
5,2,18,1,0,0,2,19,18,11
5,2,19,1,0,0,2,19,46,11
5,2,20,1,0,0,2,19,89,11
5,2,5,0,2,0,2,19,18,8
5,2,15,1,2,0,2,19,58,11
5,2,15,1,2,0,2,19,75,11
5,2,15,1,5,1,2,19,89,11
5,2,16,1,5,1,2,19,65,11
5,2,2,0,6,1,2,19,18,11
5,2,19,1,0,0,2,19,89,11
5,2,20,1,0,0,2,19,100,11
5,2,15,1,1,0,2,19,4,11
5,2,20,1,1,0,2,19,65,11
5,2,0,0,2,0,2,19,100,11
5,2,8,1,2,0,2,19,18,11
5,2,14,1,3,0,2,19,75,11
5,2,21,0,3,0,2,19,75,11
5,2,14,1,4,0,2,19,18,11
5,2,16,1,4,0,2,19,100,11
5,2,13,1,5,1,2,19,95,11
5,2,17,1,5,1,2,19,65,11
5,2,20,1,6,1,2,19,89,11
5,2,12,1,0,0,2,19,126,11
5,2,6,0,1,0,2,19,75,11
5,2,20,1,1,0,2,19,100,11
5,2,4,0,2,0,2,19,18,8
5,2,0,0,3,0,2,19,89,11
5,2,18,1,3,0,2,19,100,11
5,2,23,0,3,0,2,19,97,11
6,3,2,0,5,1,2,19,22,11
6,3,7,1,5,1,2,19,65,11
6,3,11,1,5,1,2,19,18,11
6,3,20,1,6,1,2,19,58,11
6,3,20,1,6,1,2,19,95,11
6,3,2,0,0,0,2,19,89,11
6,3,0,0,1,0,2,19,100,11
6,3,12,1,1,0,2,19,89,11
6,3,10,1,2,0,2,19,75,11
6,3,10,1,2,0,2,19,89,11
6,3,11,1,2,0,2,19,110,11
6,3,15,1,2,0,2,19,89,11
6,3,19,1,2,0,2,19,89,11
6,3,1,0,3,0,2,19,95,11
6,3,3,0,3,0,2,19,89,11
6,3,12,1,3,0,2,19,89,11
6,3,17,1,3,0,2,19,100,11
6,3,8,1,4,0,2,19,89,9
6,3,12,1,4,0,2,19,18,11
6,3,4,0,5,1,2,19,100,11
6,3,0,0,0,0,2,19,95,11
6,3,2,0,0,0,2,19,95,11
6,3,12,1,0,0,2,19,18,11
6,3,12,1,1,0,2,19,65,11
6,3,13,1,1,0,2,19,18,11
6,3,17,1,1,0,2,19,100,11
6,3,18,1,1,0,2,19,100,11
6,3,23,0,1,0,2,19,100,11
6,3,21,0,2,0,2,19,100,11
6,3,22,0,2,0,2,19,7,11
6,3,17,1,3,0,2,19,89,11
6,3,21,0,4,0,2,19,18,11
6,3,22,0,4,0,2,19,100,11
6,3,12,1,5,1,2,19,65,11
6,3,8,1,6,1,2,19,100,11
6,3,16,1,6,1,2,19,100,11
6,3,16,1,6,1,2,19,89,11
6,3,12,1,0,0,2,19,14,11
6,3,23,0,0,0,2,19,95,11
6,3,17,1,1,0,2,19,100,11
6,3,21,0,1,0,2,19,100,11
6,3,4,0,2,0,2,19,65,11
6,3,21,0,2,0,2,19,65,11
6,3,18,1,3,0,2,19,100,11
6,3,22,0,3,0,2,19,95,11
6,3,2,0,4,0,2,19,100,11
6,3,7,1,4,0,2,19,89,11
6,3,13,1,4,0,2,19,100,11
6,3,19,1,4,0,2,19,65,11
6,3,17,1,5,1,2,19,18,11
6,3,19,1,5,1,2,19,8,11
6,3,9,1,0,0,2,19,100,11
6,3,17,1,0,0,2,19,100,11
6,3,21,0,0,0,2,19,95,11
6,3,20,1,1,0,2,19,100,11
6,3,21,0,1,0,2,19,64,11
6,3,13,1,2,0,2,19,111,11
6,3,21,0,2,0,2,19,100,11
6,3,4,0,3,0,2,19,79,11
6,3,7,1,3,0,2,19,100,11
6,3,23,0,3,0,2,19,110,11
6,3,10,1,5,1,2,19,58,11
6,3,11,1,5,1,2,19,18,11
6,3,20,1,5,1,2,19,89,11
6,3,5,0,6,1,2,19,7,11
6,3,14,1,6,1,2,19,28,11
6,3,15,1,6,1,2,19,95,11
7,3,16,1,0,0,3,19,89,11
7,3,1,0,1,0,3,19,18,11
7,3,7,1,1,0,3,19,100,11
7,3,20,1,1,0,3,19,65,11
7,3,1,0,3,0,3,19,65,11
7,3,7,1,3,0,3,19,65,11
7,3,13,1,3,0,3,19,100,11
7,3,21,0,3,0,3,19,100,11
7,3,0,0,4,0,3,19,44,11
7,3,13,1,5,1,3,19,89,11
7,3,18,1,5,1,3,19,131,11
7,3,4,0,6,1,3,19,4,11
7,3,22,0,1,0,3,19,100,11
7,3,22,0,1,0,3,19,100,11
7,3,0,0,2,0,3,19,100,11
7,3,22,0,2,0,3,19,89,11
7,3,2,0,3,0,3,19,100,11
7,3,17,1,3,0,3,19,100,11
7,3,23,0,3,0,3,19,110,11
7,3,3,0,4,0,3,19,46,11
7,3,13,1,4,0,3,19,100,11
7,3,18,1,4,0,3,19,89,11
7,3,14,1,5,1,3,19,65,11
7,3,19,1,5,1,3,19,76,11
7,3,9,1,6,1,3,19,100,11
7,3,12,1,6,1,3,19,100,11
7,3,15,1,6,1,3,19,100,11
7,3,18,1,6,1,3,19,65,11
7,3,18,1,6,1,3,19,100,11
7,3,18,1,6,1,3,19,18,11
7,3,19,1,6,1,3,19,95,11
7,3,3,0,0,0,3,19,18,11
7,3,14,1,0,0,3,19,100,11
7,3,1,0,1,0,3,19,100,11
7,3,12,1,1,0,3,19,100,11
7,3,14,1,2,0,3,19,100,11
7,3,22,0,2,0,3,19,65,11
7,3,1,0,3,0,3,19,100,11
7,3,15,1,3,0,3,19,75,11
7,3,0,0,4,0,3,19,95,11
7,3,1,0,4,0,3,19,100,11
7,3,4,0,4,0,3,19,100,11
7,3,17,1,4,0,3,19,110,11
7,3,18,1,4,0,3,19,18,11
7,3,6,0,5,1,3,19,18,11
7,3,12,1,5,1,3,19,100,11
7,3,20,1,5,1,3,19,65,11
7,3,11,1,6,1,3,19,89,11
7,3,19,1,6,1,3,19,128,11
7,3,15,1,1,0,3,19,89,11
7,3,18,1,1,0,3,19,100,11
7,3,20,1,1,0,3,19,100,11
7,3,23,0,1,0,3,19,89,11
7,3,23,0,1,0,3,19,4,11
7,3,11,1,2,0,3,19,100,11
7,3,15,1,2,0,3,19,100,11
7,3,7,1,3,0,3,19,89,11
7,3,17,1,3,0,3,19,100,11
7,3,21,0,4,0,3,19,100,11
7,3,3,0,6,1,3,19,100,11
7,3,18,1,6,1,3,19,100,11
7,3,13,1,2,0,3,19,100,11
7,3,23,0,2,0,3,19,128,11
8,3,10,1,3,0,3,19,58,11
8,3,4,0,6,1,3,19,18,11
8,3,10,1,6,1,3,19,100,11
8,3,8,1,1,0,3,19,89,11
8,3,21,0,4,0,3,19,89,11
8,3,2,0,5,1,3,19,58,11
8,3,18,1,5,1,3,19,100,11
8,3,19,1,5,1,3,19,100,11
8,3,21,0,5,1,3,19,89,11
8,3,10,1,6,1,3,19,89,11
8,3,23,0,0,0,3,19,111,11
8,3,7,1,1,0,3,19,100,11
8,3,7,1,2,0,3,19,100,11
8,3,15,1,2,0,3,19,72,11
8,3,3,0,3,0,3,19,13,11
8,3,16,1,5,1,3,19,100,11
8,3,22,0,6,1,3,19,110,11
8,3,0,0,0,0,3,19,100,8
8,3,15,1,0,0,3,19,75,11
8,3,20,1,0,0,3,19,18,11
8,3,17,1,1,0,3,19,4,11
8,3,3,0,2,0,3,19,128,11
8,3,1,0,3,0,3,19,89,8
8,3,20,1,3,0,3,19,22,8
8,3,17,1,5,1,3,19,38,8
8,3,21,0,5,1,3,19,44,11
8,3,20,1,6,1,3,19,65,11
8,3,21,0,6,1,3,19,100,11
8,3,22,0,6,1,3,19,100,8
8,3,7,1,0,0,3,19,22,11
8,3,20,1,0,0,3,19,100,11
8,3,11,1,1,0,3,19,18,11
8,3,23,0,1,0,3,19,95,11
8,3,0,0,2,0,3,19,100,11
8,3,0,0,2,0,3,19,100,11
8,3,16,1,2,0,3,19,100,11
8,3,13,1,4,0,3,19,100,11
8,3,23,0,4,0,3,19,95,11
8,3,3,0,5,1,3,19,18,11
8,3,17,1,5,1,3,19,100,11
9,4,20,1,6,1,3,19,89,11
9,4,21,0,6,1,3,19,89,11
9,4,10,1,1,0,3,19,128,11
9,4,16,1,2,0,3,19,75,11
9,4,15,1,3,0,3,19,100,11
9,4,14,1,4,0,3,19,100,11
9,4,15,1,5,1,3,19,100,11
9,4,0,0,6,1,3,19,100,11
9,4,12,1,6,1,3,19,65,11
9,4,15,1,6,1,3,19,100,11
9,4,11,1,0,0,3,19,100,11
9,4,16,1,1,0,3,19,89,11
9,4,22,0,2,0,3,19,100,11
9,4,20,1,3,0,3,19,65,11
9,4,15,1,4,0,3,19,95,11
9,4,18,1,4,0,3,19,100,11
9,4,1,0,0,0,3,19,89,11
9,4,12,1,1,0,3,19,18,11
9,4,19,1,1,0,3,19,58,11
9,4,8,1,3,0,3,19,75,11
9,4,14,1,3,0,3,19,100,11
9,4,22,0,3,0,3,19,128,11
9,4,18,1,4,0,3,19,33,11
9,4,20,1,4,0,3,19,100,11
9,4,3,0,5,1,3,19,100,11
9,4,19,1,6,1,3,19,100,11
9,4,0,0,0,0,3,19,95,11
9,4,2,0,0,0,3,19,95,11
9,4,22,0,2,0,3,19,64,11
9,4,15,1,4,0,3,19,65,11
9,4,20,1,4,0,3,19,100,11
9,4,22,0,6,1,3,19,100,11
9,4,21,0,0,0,3,19,100,11
10,4,1,0,3,0,4,19,38,11
10,4,12,1,3,0,4,19,100,11
10,4,19,1,3,0,4,19,65,11
10,4,19,1,4,0,4,19,100,11
10,4,22,0,6,1,4,19,100,11
10,4,21,0,0,0,4,19,64,11
10,4,12,1,2,0,4,19,65,11
10,4,8,1,4,0,4,19,79,11
10,4,23,0,6,1,4,19,100,11
10,4,9,1,0,0,4,19,65,11
10,4,1,0,3,0,4,19,38,11
10,4,1,0,3,0,4,19,100,11
10,4,4,0,3,0,4,19,75,11
10,4,15,1,3,0,4,19,75,11
10,4,20,1,3,0,4,19,95,11
10,4,12,1,6,1,4,19,18,11
10,4,17,1,0,0,4,19,65,11
10,4,18,1,0,0,4,19,100,11
10,4,20,1,1,0,4,19,75,11
10,4,1,0,4,0,4,19,128,11
10,4,15,1,4,0,4,19,58,11
10,4,9,1,0,0,4,19,100,11
10,4,12,1,0,0,4,19,100,11
10,4,18,1,0,0,4,19,100,11
10,4,14,1,2,0,4,19,95,11
10,4,10,1,3,0,4,19,100,11
10,4,17,1,3,0,4,19,18,11
10,4,22,0,3,0,4,19,100,11
11,4,20,1,4,0,4,19,95,11
11,4,11,1,5,1,4,19,95,11
11,4,21,0,5,1,4,19,95,11
11,4,9,1,6,1,4,19,89,11
11,4,15,1,6,1,4,19,65,11
11,4,19,1,6,1,4,19,100,11
11,4,9,1,0,0,4,19,89,11
11,4,9,1,1,0,4,19,38,11
11,4,20,1,1,0,4,19,100,11
11,4,21,0,1,0,4,19,100,11
11,4,0,0,2,0,4,19,100,11
11,4,12,1,2,0,4,19,89,11
11,4,14,1,3,0,4,19,65,11
11,4,19,1,3,0,4,19,65,11
11,4,6,0,4,0,4,19,89,11
11,4,11,1,5,1,4,19,100,9
11,4,15,1,5,1,4,19,4,11
11,4,9,1,6,1,4,19,100,11
11,4,14,1,6,1,4,19,128,11
11,4,23,0,6,1,4,19,111,11
11,4,9,1,1,0,4,19,100,11
11,4,11,1,1,0,4,19,65,11
11,4,10,1,2,0,4,19,18,11
11,4,12,1,2,0,4,19,95,11
11,4,1,0,3,0,4,19,110,11
11,4,4,0,3,0,4,19,100,11
11,4,18,1,3,0,4,19,128,11
11,4,6,0,4,0,4,19,65,11
11,4,12,1,4,0,4,19,46,11
11,4,22,0,4,0,4,19,128,11
11,4,7,1,5,1,4,19,18,11
11,4,18,1,5,1,4,19,89,11
11,4,23,0,6,1,4,19,89,11
11,4,7,1,0,0,4,19,75,11
11,4,20,1,2,0,4,19,89,11
11,4,14,1,3,0,4,19,89,11
11,4,22,0,3,0,4,19,100,11
11,4,2,0,5,1,4,19,75,11
11,4,13,1,5,1,4,19,95,11
11,4,12,1,6,1,4,19,100,11
11,4,16,1,6,1,4,19,89,11
11,4,18,1,6,1,4,19,95,11
11,4,0,0,0,0,4,19,95,11
11,4,14,1,0,0,4,19,64,11
11,4,15,1,0,0,4,19,89,8
11,4,23,0,0,0,4,19,100,11
11,4,10,1,1,0,4,19,65,11
11,4,13,1,1,0,4,19,18,11
11,4,16,1,2,0,4,19,22,11
11,4,20,1,2,0,4,19,65,11
11,4,7,1,3,0,4,19,89,11
11,4,9,1,3,0,4,19,100,11
11,4,15,1,3,0,4,19,100,9
11,4,0,0,4,0,4,19,95,11
11,4,2,0,4,0,4,19,4,11
11,4,16,1,4,0,4,19,65,11
12,1,16,1,6,1,4,19,100,11
12,1,18,1,6,1,4,19,38,11
12,1,11,1,0,0,4,19,65,11
12,1,1,0,2,0,4,19,100,11
12,1,22,0,3,0,4,19,115,11
12,1,16,1,4,0,4,19,65,11
12,1,17,1,4,0,4,19,65,11
12,1,19,1,4,0,4,19,89,11
12,1,20,1,4,0,4,19,18,11
12,1,11,1,5,1,4,19,38,11
12,1,12,1,5,1,4,19,38,11
12,1,13,1,6,1,4,19,89,11
12,1,19,1,2,0,4,19,95,11
12,1,23,0,2,0,4,19,128,11
12,1,5,0,3,0,4,19,75,11
12,1,14,1,3,0,4,19,100,11
12,1,4,0,5,1,4,19,18,11
12,1,5,0,5,1,4,19,18,11
12,1,20,1,5,1,4,19,65,11
12,1,20,1,5,1,4,19,128,11
12,1,7,1,0,0,4,19,18,11
12,1,1,0,1,0,4,19,18,11
12,1,10,1,3,0,4,19,100,11
12,1,17,1,3,0,4,19,38,11
12,1,22,0,3,0,4,19,100,11
12,1,18,1,4,0,4,19,7,11
12,1,18,1,5,1,4,19,38,11
12,1,17,1,6,1,4,19,4,11
12,1,18,1,6,1,4,19,18,11
12,1,11,1,0,0,4,19,67,11
12,1,17,1,0,0,4,19,65,11
12,1,10,1,1,0,4,19,65,11
12,1,12,1,2,0,4,19,38,11
12,1,22,0,3,0,4,19,75,11
12,1,13,1,4,0,4,19,100,11
12,1,16,1,4,0,4,19,95,11
12,1,19,1,4,0,4,19,65,11
12,1,15,1,5,1,4,19,18,11
12,1,16,1,5,1,4,19,75,9
12,1,17,1,5,1,4,19,100,11
12,1,1,0,6,1,4,19,100,11
12,1,6,0,0,0,4,19,65,11
12,1,17,1,1,0,4,19,95,11
1,1,11,1,4,0,1,19,100,11
1,1,16,1,5,1,1,19,38,11
1,1,16,1,3,0,1,19,100,11
1,1,17,1,6,1,1,19,100,11
1,1,21,0,0,0,1,19,100,11
1,1,13,1,1,0,1,19,89,11
1,1,13,1,2,0,1,19,65,11
1,1,19,1,2,0,1,19,100,11
2,1,11,1,3,0,1,19,100,11
2,1,17,1,3,0,1,19,100,11
2,1,11,1,4,0,1,19,75,11
2,1,19,1,2,0,1,19,100,11
2,1,11,1,5,1,1,19,100,11
2,1,13,1,5,1,1,19,100,11
2,1,10,1,6,1,1,19,100,11
2,1,12,1,2,0,1,19,95,11
2,1,10,1,6,1,1,19,100,11
3,2,11,1,4,0,1,19,88,11
3,2,23,0,3,0,1,19,75,11
3,2,10,1,4,0,1,19,100,11
4,2,13,1,4,0,2,19,75,11
4,2,12,1,0,0,2,19,100,11
4,2,10,1,1,0,2,19,84,11
5,2,21,0,6,1,2,19,38,11
5,2,13,1,1,0,2,19,100,11
5,2,9,1,4,0,2,19,18,11
6,3,19,1,2,0,2,19,100,11
6,3,20,1,4,0,2,19,75,9
6,3,23,0,6,1,2,19,89,11
6,3,13,1,2,0,2,19,100,11
6,3,15,1,1,0,2,19,72,11
6,3,20,1,3,0,2,19,100,11
6,3,12,1,5,1,2,19,100,11
7,3,20,1,3,0,3,19,4,11
7,3,22,0,3,0,3,19,100,11
7,3,18,1,4,0,3,19,100,11
7,3,3,0,0,0,3,19,95,11
7,3,16,1,0,0,3,19,95,11
7,3,12,1,1,0,3,19,100,11
7,3,18,1,4,0,3,19,100,11
7,3,8,1,2,0,3,19,100,11
8,3,18,1,1,0,3,19,100,11
8,3,0,0,3,0,3,19,100,11
8,3,17,1,4,0,3,19,11,11
8,3,11,1,5,1,3,19,84,11
10,4,12,1,6,1,4,19,100,11
10,4,10,1,5,1,4,19,100,11
10,4,14,1,6,1,4,19,100,11
10,4,19,1,2,0,4,19,38,11
10,4,19,1,0,0,4,19,75,11
10,4,19,1,1,0,4,19,100,11
11,4,17,1,4,0,4,19,100,11
11,4,11,1,6,1,4,19,89,11
11,4,18,1,6,1,4,19,38,11
11,4,17,1,2,0,4,19,100,11
11,4,17,1,2,0,4,19,75,11
11,4,14,1,4,0,4,19,100,11
11,4,17,1,6,1,4,19,100,11
11,4,8,1,0,0,4,19,13,9
11,4,16,1,0,0,4,19,100,11
11,4,18,1,3,0,4,19,18,11
11,4,11,1,1,0,4,19,128,11
11,4,17,1,2,0,4,19,100,11
12,1,0,0,6,1,4,19,100,11
12,1,6,0,6,1,4,19,89,11
12,1,12,1,5,1,4,19,100,11
12,1,16,1,6,1,4,19,89,11
12,1,10,1,6,1,4,19,75,11
1,1,16,1,0,0,1,19,100,11
1,1,16,1,3,0,1,19,100,11
1,1,19,1,3,0,1,19,18,11
1,1,17,1,5,1,1,19,89,11
1,1,19,1,5,1,1,19,100,11
1,1,22,0,1,0,1,19,100,11
1,1,18,1,6,1,1,19,75,11
1,1,18,1,2,0,1,19,109,11
1,1,20,1,3,0,1,19,65,11
1,1,20,1,5,1,1,19,75,11
1,1,17,1,1,0,1,19,128,11
1,1,18,1,2,0,1,19,75,11
1,1,15,1,4,0,1,19,100,11
1,1,12,1,5,1,1,19,18,11
1,1,19,1,5,1,1,19,130,9
1,1,15,1,1,0,1,19,100,11
1,1,19,1,1,0,1,19,67,11
1,1,10,1,2,0,1,19,38,11
2,1,9,1,3,0,1,19,128,11
2,1,11,1,5,1,1,19,100,11
2,1,19,1,6,1,1,19,75,11
2,1,14,1,1,0,1,19,89,11
2,1,14,1,2,0,1,19,100,11
2,1,20,1,3,0,1,19,128,11
2,1,14,1,4,0,1,19,100,11
2,1,19,1,4,0,1,19,100,11
2,1,19,1,4,0,1,19,100,11
2,1,11,1,5,1,1,19,100,11
2,1,11,1,5,1,1,19,13,11
2,1,9,1,6,1,1,19,100,11
2,1,13,1,0,0,1,19,75,11
2,1,20,1,1,0,1,19,18,11
2,1,14,1,2,0,1,19,100,11
2,1,13,1,3,0,1,19,100,11
2,1,17,1,3,0,1,19,100,11
2,1,13,1,5,1,1,19,100,11
2,1,14,1,5,1,1,19,100,11
2,1,16,1,5,1,1,19,100,11
2,1,18,1,5,1,1,19,100,11
2,1,0,0,2,0,1,19,75,11
2,1,16,1,4,0,1,19,100,11
2,1,12,1,5,1,1,19,100,11
2,1,13,1,5,1,1,19,100,11
2,1,15,1,5,1,1,19,4,11
2,1,19,1,5,1,1,19,100,11
2,1,20,1,5,1,1,19,100,11
2,1,16,1,0,0,1,19,100,11
3,2,20,1,5,1,1,19,100,11
3,2,4,0,6,1,1,19,75,11
3,2,13,1,1,0,1,19,75,11
3,2,22,0,3,0,1,19,75,11
3,2,9,1,4,0,1,19,18,11
3,2,19,1,5,1,1,19,100,11
3,2,14,1,2,0,1,19,100,11
3,2,18,1,3,0,1,19,100,11
3,2,18,1,0,0,1,19,100,11
3,2,19,1,2,0,1,19,100,11
3,2,17,1,4,0,1,19,89,11
3,2,19,1,5,1,1,19,100,11
4,2,21,0,1,0,2,19,128,11
4,2,18,1,5,1,2,19,100,11
4,2,10,1,0,0,2,19,100,11
4,2,20,1,0,0,2,19,100,11
4,2,20,1,0,0,2,19,100,11
4,2,13,1,2,0,2,19,100,11
4,2,17,1,3,0,2,19,100,11
4,2,11,1,4,0,2,19,128,11
4,2,17,1,5,1,2,19,57,11
4,2,19,1,1,0,2,19,100,11
4,2,22,0,2,0,2,19,128,11
4,2,0,0,3,0,2,19,100,11
4,2,12,1,4,0,2,19,89,11
4,2,15,1,6,1,2,19,100,11
4,2,19,1,6,1,2,19,110,11
4,2,10,1,3,0,2,19,100,11
4,2,11,1,0,0,2,19,100,11
4,2,23,0,0,0,2,19,128,11
5,2,23,0,5,1,2,19,64,11
5,2,17,1,0,0,2,19,89,11
5,2,2,0,3,0,2,19,18,11
5,2,2,0,3,0,2,19,18,11
5,2,3,0,3,0,2,19,18,11
5,2,3,0,3,0,2,19,7,11
5,2,18,1,4,0,2,19,110,11
5,2,20,1,4,0,2,19,100,11
5,2,15,1,2,0,2,19,64,11
5,2,9,1,3,0,2,19,100,11
5,2,12,1,3,0,2,19,110,11
5,2,11,1,4,0,2,19,100,11
5,2,17,1,4,0,2,19,4,11
5,2,15,1,5,1,2,19,100,11
5,2,17,1,6,1,2,19,100,11
5,2,11,1,2,0,2,19,89,11
6,3,10,1,5,1,2,19,44,11
6,3,11,1,6,1,2,19,100,11
6,3,6,0,4,0,2,19,100,11
6,3,20,1,4,0,2,19,100,11
6,3,12,1,5,1,2,19,100,11
6,3,20,1,5,1,2,19,7,11
6,3,11,1,6,1,2,19,100,11
6,3,12,1,1,0,2,19,4,11
6,3,12,1,2,0,2,19,100,11
6,3,18,1,2,0,2,19,100,11
6,3,0,0,4,0,2,19,65,11
6,3,10,1,4,0,2,19,100,11
6,3,19,1,4,0,2,19,76,11
6,3,15,1,5,1,2,19,100,11
6,3,17,1,0,0,2,19,100,11
6,3,10,1,1,0,2,19,24,11
6,3,16,1,3,0,2,19,128,11
6,3,11,1,0,0,2,19,100,11
6,3,13,1,0,0,2,19,100,11
6,3,14,1,1,0,2,19,100,11
6,3,1,0,2,0,2,19,100,11
6,3,12,1,2,0,2,19,89,11
6,3,16,1,4,0,2,19,108,11
6,3,19,1,5,1,2,19,100,11
6,3,7,1,6,1,2,19,72,8
7,3,23,0,1,0,3,19,128,11
7,3,7,1,3,0,3,19,100,11
7,3,17,1,4,0,3,19,100,11
7,3,14,1,6,1,3,19,75,11
7,3,8,1,2,0,3,19,89,11
7,3,15,1,3,0,3,19,128,11
7,3,12,1,4,0,3,19,100,11
7,3,16,1,4,0,3,19,89,11
7,3,19,1,4,0,3,19,4,11
7,3,12,1,5,1,3,19,89,11
7,3,12,1,4,0,3,19,110,11
7,3,15,1,4,0,3,19,100,11
7,3,12,1,5,1,3,19,72,11
7,3,16,1,1,0,3,19,110,11
7,3,9,1,5,1,3,19,100,11
7,3,14,1,2,0,3,19,100,11
8,3,15,1,3,0,3,19,100,11
8,3,17,1,3,0,3,19,100,11
8,3,16,1,5,1,3,19,126,11
8,3,16,1,5,1,3,19,100,11
8,3,8,1,6,1,3,19,100,11
8,3,17,1,4,0,3,19,89,11
8,3,16,1,0,0,3,19,100,11
8,3,18,1,1,0,3,19,100,8
8,3,23,0,6,1,3,19,75,11
8,3,20,1,4,0,3,19,109,11
8,3,14,1,6,1,3,19,18,11
8,3,9,1,0,0,3,19,100,11
8,3,13,1,3,0,3,19,89,11
9,4,15,1,0,0,3,19,18,11
9,4,10,1,1,0,3,19,89,11
9,4,20,1,3,0,3,19,128,11
9,4,14,1,5,1,3,19,100,11
9,4,18,1,6,1,3,19,100,11
9,4,12,1,2,0,3,19,100,11
9,4,15,1,2,0,3,19,100,11
9,4,15,1,2,0,3,19,89,11
9,4,16,1,2,0,3,19,75,11
9,4,10,1,5,1,3,19,100,11
9,4,10,1,0,0,3,19,89,11
9,4,18,1,0,0,3,19,26,11
9,4,18,1,1,0,3,19,100,11
9,4,18,1,1,0,3,19,100,11
9,4,22,0,1,0,3,19,75,11
9,4,14,1,4,0,3,19,100,11
9,4,11,1,6,1,3,19,89,11
9,4,16,1,6,1,3,19,100,11
9,4,9,1,0,0,3,19,18,11
9,4,13,1,0,0,3,19,100,11
10,4,8,1,2,0,4,19,18,11
10,4,21,0,3,0,4,19,100,11
10,4,0,0,6,1,4,19,100,11
10,4,13,1,1,0,4,19,100,11
10,4,18,1,3,0,4,19,100,11
10,4,12,1,4,0,4,19,100,11
10,4,15,1,0,0,4,19,18,11
10,4,16,1,3,0,4,19,100,11
10,4,18,1,3,0,4,19,100,11
10,4,11,1,6,1,4,19,100,11
10,4,17,1,0,0,4,19,128,11
10,4,17,1,2,0,4,19,100,11
10,4,16,1,3,0,4,19,100,11
10,4,14,1,5,1,4,19,89,11
10,4,16,1,6,1,4,19,128,11
10,4,16,1,1,0,4,19,100,11
10,4,10,1,2,0,4,19,18,11
11,4,17,1,4,0,4,19,18,11
11,4,21,0,4,0,4,19,75,11
11,4,8,1,0,0,4,19,89,11
11,4,13,1,1,0,4,19,111,11
11,4,15,1,1,0,4,19,100,11
11,4,13,1,3,0,4,19,100,11
11,4,17,1,3,0,4,19,100,11
11,4,18,1,3,0,4,19,100,11
11,4,13,1,4,0,4,19,100,11
11,4,13,1,4,0,4,19,100,11
11,4,15,1,4,0,4,19,89,11
11,4,15,1,4,0,4,19,128,11
11,4,17,1,4,0,4,19,75,11
11,4,17,1,4,0,4,19,100,11
11,4,9,1,6,1,4,19,100,11
11,4,10,1,1,0,4,19,100,11
11,4,9,1,2,0,4,19,110,11
11,4,18,1,3,0,4,19,38,11
11,4,15,1,1,0,4,19,100,11
11,4,5,0,2,0,4,19,100,11
11,4,13,1,0,0,4,19,44,11
11,4,17,1,0,0,4,19,100,11
11,4,16,1,3,0,4,19,57,11
11,4,22,0,3,0,4,19,75,11
11,4,22,0,5,1,4,19,110,11
12,1,19,1,2,0,4,19,38,11
12,1,15,1,4,0,4,19,100,11
12,1,18,1,4,0,4,19,89,11
12,1,6,0,6,1,4,19,18,11
12,1,15,1,0,0,4,19,100,11
12,1,19,1,6,1,4,19,100,11
12,1,4,0,1,0,4,19,128,11
12,1,21,0,1,0,4,19,129,11
1,1,5,0,0,0,1,19,65,11
1,1,14,1,0,0,1,19,72,11
1,1,18,1,0,0,1,19,95,11
1,1,11,1,3,0,1,19,89,11
1,1,23,0,4,0,1,19,67,11
1,1,21,0,0,0,1,19,89,11
1,1,17,1,1,0,1,19,76,11
1,1,20,1,2,0,1,19,95,11
1,1,11,1,5,1,1,19,75,11
1,1,16,1,5,1,1,19,65,11
1,1,21,0,5,1,1,19,87,11
1,1,0,0,6,1,1,19,95,11
1,1,13,1,6,1,1,19,65,11
1,1,20,1,5,1,1,19,56,11
1,1,21,0,5,1,1,19,65,11
1,1,22,0,5,1,1,19,38,11
1,1,13,1,0,0,1,19,65,11
1,1,13,1,2,0,1,19,65,9
1,1,14,1,2,0,1,19,95,11
1,1,21,0,3,0,1,19,95,11
1,1,10,1,5,1,1,19,65,11
1,1,20,1,5,1,1,19,65,11
1,1,21,0,6,1,1,19,89,11
1,1,21,0,0,0,1,19,95,11
1,1,11,1,1,0,1,19,95,11
1,1,14,1,1,0,1,19,72,9
2,1,15,1,3,0,1,19,4,11
2,1,20,1,3,0,1,19,72,11
2,1,9,1,4,0,1,19,65,9
2,1,19,1,5,1,1,19,65,11
2,1,20,1,6,1,1,19,46,11
2,1,21,0,6,1,1,19,65,11
2,1,21,0,4,0,1,19,65,11
2,1,7,1,0,0,1,19,68,11
2,1,8,1,0,0,1,19,95,11
2,1,17,1,0,0,1,19,95,11
2,1,11,1,2,0,1,19,72,11
2,1,17,1,3,0,1,19,95,11
2,1,20,1,3,0,1,19,65,11
2,1,16,1,4,0,1,19,65,11
2,1,21,0,4,0,1,19,75,11
2,1,0,0,5,1,1,19,89,11
2,1,14,1,6,1,1,19,26,11
2,1,21,0,6,1,1,19,65,11
2,1,7,1,0,0,1,19,89,11
2,1,19,1,3,0,1,19,95,11
2,1,12,1,0,0,1,19,65,11
3,2,7,1,6,1,1,19,72,11
3,2,18,1,6,1,1,19,65,11
3,2,21,0,6,1,1,19,72,11
3,2,4,0,0,0,1,19,72,11
3,2,4,0,0,0,1,19,65,11
3,2,5,0,0,0,1,19,30,11
3,2,22,0,0,0,1,19,65,11
3,2,23,0,0,0,1,19,65,11
3,2,14,1,1,0,1,19,95,11
3,2,23,0,1,0,1,19,65,11
3,2,13,1,2,0,1,19,72,11
3,2,18,1,2,0,1,19,65,11
3,2,1,0,4,0,1,19,95,11
3,2,20,1,5,1,1,19,65,11
3,2,14,1,0,0,1,19,65,11
3,2,1,0,2,0,1,19,95,11
3,2,14,1,3,0,1,19,65,11
3,2,19,1,3,0,1,19,100,11
3,2,20,1,3,0,1,19,65,11
3,2,15,1,5,1,1,19,89,11
3,2,11,1,0,0,1,19,72,11
3,2,13,1,0,0,1,19,95,11
3,2,19,1,3,0,1,19,41,11
3,2,22,0,5,1,1,19,95,11
3,2,15,1,1,0,1,19,100,11
3,2,16,1,1,0,1,19,100,11
3,2,9,1,5,1,1,19,100,11
3,2,19,1,5,1,1,19,95,11
4,2,3,0,1,0,2,19,72,11
4,2,8,1,3,0,2,19,72,11
4,2,10,1,5,1,2,19,89,11
4,2,22,0,0,0,2,19,95,11
4,2,21,0,2,0,2,19,95,11
4,2,21,0,2,0,2,19,95,11
4,2,23,0,2,0,2,19,95,11
4,2,0,0,3,0,2,19,95,11
4,2,14,1,4,0,2,19,89,11
4,2,18,1,4,0,2,19,65,11
4,2,20,1,4,0,2,19,89,11
4,2,23,0,4,0,2,19,95,11
4,2,19,1,6,1,2,19,100,11
4,2,9,1,0,0,2,19,108,11
4,2,14,1,0,0,2,19,65,11
4,2,15,1,0,0,2,19,89,11
4,2,11,1,1,0,2,19,65,11
4,2,13,1,3,0,2,19,72,11
4,2,17,1,3,0,2,19,100,11
4,2,18,1,3,0,2,19,89,11
4,2,10,1,4,0,2,19,95,11
4,2,18,1,4,0,2,19,88,11
4,2,21,0,4,0,2,19,88,11
4,2,14,1,6,1,2,19,65,11
4,2,14,1,0,0,2,19,88,11
4,2,18,1,1,0,2,19,89,11
5,2,16,1,2,0,2,19,65,11
5,2,22,0,3,0,2,19,65,11
5,2,20,1,4,0,2,19,65,11
5,2,3,0,5,1,2,19,65,11
5,2,21,0,5,1,2,19,38,11
5,2,22,0,5,1,2,19,79,11
5,2,0,0,6,1,2,19,4,11
5,2,1,0,6,1,2,19,65,11
5,2,4,0,6,1,2,19,65,11
5,2,9,1,6,1,2,19,65,11
5,2,13,1,0,0,2,19,100,11
5,2,9,1,1,0,2,19,72,11
5,2,15,1,5,1,2,19,65,11
5,2,18,1,5,1,2,19,88,11
5,2,20,1,5,1,2,19,87,11
5,2,12,1,6,1,2,19,65,11
5,2,8,1,0,0,2,19,65,11
5,2,20,1,0,0,2,19,65,11
5,2,0,0,0,0,2,19,65,11
5,2,1,0,0,0,2,19,65,11
5,2,12,1,1,0,2,19,72,11
5,2,15,1,1,0,2,19,65,11
5,2,15,1,1,0,2,19,72,11
5,2,14,1,2,0,2,19,65,11
5,2,17,1,2,0,2,19,65,11
5,2,16,1,3,0,2,19,65,11
5,2,2,0,4,0,2,19,13,11
5,2,14,1,4,0,2,19,65,11
5,2,19,1,5,1,2,19,65,11
5,2,23,0,5,1,2,19,95,11
5,2,3,0,6,1,2,19,126,11
6,3,23,0,5,1,2,19,88,9
6,3,4,0,6,1,2,19,88,9
6,3,14,1,0,0,2,19,11,11
6,3,15,1,0,0,2,19,65,11
6,3,20,1,2,0,2,19,100,11
6,3,0,0,3,0,2,19,89,11
6,3,2,0,3,0,2,19,65,11
6,3,20,1,3,0,2,19,38,11
6,3,23,0,4,0,2,19,65,11
6,3,20,1,5,1,2,19,100,11
6,3,9,1,1,0,2,19,4,11
6,3,9,1,1,0,2,19,89,11
6,3,12,1,1,0,2,19,4,11
6,3,1,0,2,0,2,19,79,11
6,3,14,1,3,0,2,19,95,11
6,3,8,1,5,1,2,19,65,11
6,3,19,1,5,1,2,19,4,11
6,3,11,1,0,0,2,19,72,11
6,3,13,1,1,0,2,19,65,11
6,3,5,0,3,0,2,19,72,11
6,3,17,1,3,0,2,19,95,11
6,3,18,1,3,0,2,19,89,11
6,3,14,1,2,0,2,19,4,11
6,3,20,1,2,0,2,19,65,9
6,3,2,0,3,0,2,19,95,11
6,3,17,1,4,0,2,19,100,11
6,3,10,1,5,1,2,19,89,11
7,3,14,1,0,0,3,19,72,11
7,3,5,0,0,0,3,19,72,11
7,3,21,0,1,0,3,19,100,11
7,3,1,0,5,1,3,19,44,11
7,3,20,1,5,1,3,19,65,11
7,3,21,0,0,0,3,19,87,11
7,3,21,0,1,0,3,19,95,11
7,3,14,1,2,0,3,19,79,11
7,3,22,0,2,0,3,19,87,11
7,3,6,0,3,0,3,19,75,11
7,3,17,1,4,0,3,19,79,11
7,3,13,1,5,1,3,19,68,11
7,3,17,1,0,0,3,19,95,9
7,3,14,1,1,0,3,19,100,11
7,3,16,1,1,0,3,19,72,11
7,3,13,1,3,0,3,19,65,11
7,3,17,1,6,1,3,19,65,9
7,3,8,1,0,0,3,19,65,11
7,3,15,1,0,0,3,19,18,11
7,3,19,1,1,0,3,19,65,11
7,3,13,1,2,0,3,19,95,11
8,3,14,1,3,0,3,19,95,11
8,3,12,1,6,1,3,19,65,11
8,3,15,1,6,1,3,19,87,11
8,3,22,0,6,1,3,19,65,11
8,3,18,1,1,0,3,19,72,11
8,3,19,1,1,0,3,19,65,11
8,3,12,1,5,1,3,19,87,11
8,3,14,1,6,1,3,19,65,11
8,3,22,0,6,1,3,19,72,11
8,3,15,1,2,0,3,19,100,11
8,3,23,0,5,1,3,19,65,11
8,3,23,0,5,1,3,19,75,11
8,3,4,0,6,1,3,19,58,11
8,3,18,1,0,0,3,19,64,11
8,3,13,1,2,0,3,19,65,9
8,3,14,1,2,0,3,19,65,11
8,3,1,0,5,1,3,19,75,11
8,3,2,0,0,0,3,19,65,11
8,3,17,1,1,0,3,19,64,11
8,3,10,1,2,0,3,19,4,11
9,4,23,0,6,1,3,19,100,11
9,4,0,0,0,0,3,19,4,11
9,4,8,1,0,0,3,19,100,11
9,4,11,1,0,0,3,19,89,11
9,4,13,1,0,0,3,19,100,11
9,4,12,1,4,0,3,19,18,11
9,4,18,1,4,0,3,19,4,11
9,4,11,1,5,1,3,19,107,11
9,4,5,0,6,1,3,19,95,11
9,4,23,0,6,1,3,19,89,11
9,4,12,1,0,0,3,19,4,11
9,4,9,1,1,0,3,19,65,11
9,4,16,1,1,0,3,19,65,11
9,4,5,0,3,0,3,19,87,11
9,4,14,1,4,0,3,19,126,11
9,4,22,0,4,0,3,19,95,11
9,4,18,1,5,1,3,19,65,11
9,4,19,1,5,1,3,19,79,11
9,4,17,1,3,0,3,19,18,11
9,4,22,0,5,1,3,19,65,11
9,4,18,1,4,0,3,19,89,11
9,4,19,1,4,0,3,19,65,11
9,4,8,1,0,0,3,19,100,11
9,4,23,0,0,0,3,19,79,9
10,4,2,0,1,0,4,19,64,11
10,4,14,1,1,0,4,19,65,11
10,4,21,0,1,0,4,19,100,11
10,4,14,1,2,0,4,19,100,11
10,4,14,1,4,0,4,19,89,11
10,4,12,1,0,0,4,19,100,11
10,4,2,0,2,0,4,19,65,11
10,4,16,1,2,0,4,19,89,11
10,4,16,1,0,0,4,19,65,11
10,4,5,0,2,0,4,19,4,11
10,4,9,1,2,0,4,19,65,11
10,4,13,1,4,0,4,19,65,11
10,4,20,1,5,1,4,19,89,11
10,4,5,0,6,1,4,19,65,11
10,4,13,1,0,0,4,19,95,11
11,4,19,1,5,1,4,19,8,11
11,4,8,1,0,0,4,19,89,11
11,4,18,1,0,0,4,19,128,11
11,4,1,0,1,0,4,19,29,11
11,4,9,1,2,0,4,19,89,11
11,4,16,1,3,0,4,19,65,11
11,4,15,1,4,0,4,19,65,11
11,4,17,1,4,0,4,19,89,11
11,4,23,0,4,0,4,19,89,11
11,4,19,1,5,1,4,19,4,11
11,4,10,1,6,1,4,19,87,11
11,4,10,1,0,0,4,19,65,11
11,4,0,0,1,0,4,19,65,11
11,4,18,1,1,0,4,19,72,11
11,4,18,1,2,0,4,19,65,11
11,4,15,1,3,0,4,19,87,11
11,4,15,1,4,0,4,19,65,11
11,4,10,1,5,1,4,19,75,11
11,4,21,0,5,1,4,19,95,11
11,4,6,0,6,1,4,19,95,11
11,4,7,1,0,0,4,19,75,11
11,4,22,0,1,0,4,19,72,11
11,4,3,0,2,0,4,19,87,11
11,4,9,1,2,0,4,19,72,11
11,4,16,1,2,0,4,19,95,11
11,4,10,1,3,0,4,19,74,11
11,4,14,1,3,0,4,19,65,11
11,4,23,0,3,0,4,19,95,11
11,4,10,1,5,1,4,19,87,11
11,4,18,1,5,1,4,19,65,11
11,4,18,1,5,1,4,19,65,11
11,4,20,1,6,1,4,19,38,11
11,4,23,0,6,1,4,19,87,11
11,4,18,1,0,0,4,19,127,11
11,4,21,0,0,0,4,19,11,11
11,4,20,1,3,0,4,19,88,11
11,4,13,1,5,1,4,19,65,11
11,4,14,1,5,1,4,19,95,11
11,4,23,0,5,1,4,19,65,11
12,1,2,0,6,1,4,19,95,11
12,1,10,1,6,1,4,19,65,11
12,1,21,0,6,1,4,19,75,11
12,1,20,1,0,0,4,19,53,11
12,1,16,1,1,0,4,19,75,11
12,1,20,1,3,0,4,19,65,11
12,1,10,1,5,1,4,19,45,11
12,1,12,1,5,1,4,19,65,11
12,1,19,1,3,0,4,19,89,11
12,1,5,0,5,1,4,19,65,11
12,1,15,1,5,1,4,19,100,11
12,1,15,1,5,1,4,19,102,11
12,1,19,1,6,1,4,19,65,11
12,1,20,1,6,1,4,19,65,11
12,1,15,1,0,0,4,19,89,11
12,1,22,0,1,0,4,19,89,11
12,1,16,1,3,0,4,19,65,11
12,1,14,1,4,0,4,19,87,11
12,1,3,0,5,1,4,19,87,11
12,1,12,1,5,1,4,19,4,11
12,1,17,1,2,0,4,19,95,11
12,1,22,0,3,0,4,19,75,11
12,1,16,1,4,0,4,19,65,11
12,1,23,0,6,1,4,19,75,9
12,1,20,1,1,0,4,19,87,11
7,3,7,1,6,1,3,19,100,11
12,1,11,1,4,0,4,19,13,11
1,1,14,1,1,0,1,19,100,11
1,1,13,1,4,0,1,19,128,9
1,1,17,1,4,0,1,19,100,11
1,1,18,1,5,1,1,19,100,11
1,1,15,1,3,0,1,19,89,11
1,1,19,1,3,0,1,19,128,11
1,1,12,1,4,0,1,19,100,11
1,1,18,1,4,0,1,19,75,11
1,1,15,1,5,1,1,19,20,11
1,1,17,1,2,0,1,19,100,11
1,1,20,1,2,0,1,19,100,11
1,1,16,1,4,0,1,19,100,11
1,1,22,0,4,0,1,19,100,11
1,1,17,1,1,0,1,19,100,11
1,1,18,1,1,0,1,19,89,11
1,1,5,0,2,0,1,19,72,11
1,1,16,1,2,0,1,19,100,11
1,1,21,0,2,0,1,19,100,11
1,1,17,1,0,0,1,19,87,11
1,1,19,1,0,0,1,19,100,11
1,1,14,1,1,0,1,19,100,11
1,1,15,1,1,0,1,19,128,11
1,1,17,1,1,0,1,19,75,11
2,1,12,1,5,1,1,19,100,11
2,1,22,0,5,1,1,19,100,11
2,1,13,1,6,1,1,19,100,11
2,1,14,1,0,0,1,19,100,11
2,1,15,1,0,0,1,19,100,11
2,1,13,1,1,0,1,19,100,11
2,1,15,1,2,0,1,19,100,11
2,1,19,1,3,0,1,19,100,11
2,1,18,1,5,1,1,19,89,11
2,1,12,1,0,0,1,19,128,11
2,1,20,1,1,0,1,19,100,11
2,1,22,0,1,0,1,19,89,11
2,1,17,1,2,0,1,19,128,11
2,1,14,1,4,0,1,19,100,11
2,1,18,1,5,1,1,19,100,11
2,1,15,1,0,0,1,19,128,11
2,1,19,1,0,0,1,19,100,11
2,1,20,1,0,0,1,19,100,9
2,1,17,1,2,0,1,19,89,11
2,1,14,1,3,0,1,19,100,11
2,1,20,1,3,0,1,19,38,11
2,1,17,1,5,1,1,19,100,11
2,1,20,1,5,1,1,19,100,11
2,1,3,0,6,1,1,19,75,8
2,1,12,1,6,1,1,19,100,11
2,1,0,0,0,0,1,19,18,9
2,1,13,1,1,0,1,19,44,9
2,1,13,1,2,0,1,19,75,11
2,1,17,1,2,0,1,19,89,9
2,1,18,1,2,0,1,19,89,11
2,1,15,1,3,0,1,19,75,11
2,1,18,1,3,0,1,19,110,11
2,1,21,0,3,0,1,19,100,11
3,2,19,1,5,1,1,19,100,11
3,2,23,0,1,0,1,19,89,11
3,2,23,0,2,0,1,19,100,11
3,2,19,1,4,0,1,19,89,11
3,2,2,0,5,1,1,19,89,11
3,2,19,1,0,0,1,19,87,11
3,2,17,1,2,0,1,19,89,9
3,2,11,1,4,0,1,19,100,11
3,2,13,1,0,0,1,19,100,11
3,2,19,1,0,0,1,19,100,11
3,2,14,1,1,0,1,19,100,11
3,2,2,0,2,0,1,19,38,11
3,2,14,1,5,1,1,19,89,9
3,2,20,1,5,1,1,19,89,11
3,2,14,1,6,1,1,19,4,11
3,2,16,1,6,1,1,19,100,11
3,2,16,1,6,1,1,19,89,11
3,2,23,0,2,0,1,19,89,11
3,2,14,1,3,0,1,19,100,11
3,2,21,0,3,0,1,19,128,9
3,2,14,1,4,0,1,19,4,11
3,2,16,1,4,0,1,19,100,11
3,2,17,1,4,0,1,19,4,8
3,2,12,1,5,1,1,19,100,11
3,2,12,1,5,1,1,19,100,11
3,2,13,1,5,1,1,19,89,11
3,2,16,1,5,1,1,19,100,11
4,2,10,1,1,0,2,19,128,11
4,2,12,1,3,0,2,19,100,11
4,2,18,1,3,0,2,19,4,11
4,2,6,0,5,1,2,19,89,9
4,2,0,0,6,1,2,19,89,11
4,2,21,0,0,0,2,19,128,11
4,2,12,1,1,0,2,19,4,11
4,2,15,1,2,0,2,19,18,11
4,2,16,1,2,0,2,19,89,11
4,2,18,1,2,0,2,19,87,11
4,2,20,1,2,0,2,19,89,9
4,2,14,1,3,0,2,19,128,9
4,2,20,1,3,0,2,19,128,11
4,2,4,0,4,0,2,19,128,11
4,2,10,1,4,0,2,19,100,9
4,2,17,1,4,0,2,19,89,11
4,2,17,1,4,0,2,19,100,11
4,2,15,1,5,1,2,19,89,9
4,2,20,1,5,1,2,19,75,11
4,2,15,1,6,1,2,19,100,11
4,2,20,1,6,1,2,19,100,11
4,2,22,0,6,1,2,19,128,9
4,2,8,1,0,0,2,19,89,8
4,2,12,1,3,0,2,19,100,11
4,2,14,1,4,0,2,19,100,11
4,2,13,1,5,1,2,19,100,11
4,2,12,1,0,0,2,19,100,11
4,2,21,0,0,0,2,19,100,11
4,2,11,1,5,1,2,19,18,11
4,2,13,1,6,1,2,19,4,9
4,2,15,1,6,1,2,19,89,11
4,2,15,1,6,1,2,19,100,11
4,2,16,1,0,0,2,19,89,11
4,2,13,1,1,0,2,19,128,11
5,2,0,0,2,0,2,19,89,11
5,2,3,0,2,0,2,19,18,11
5,2,12,1,2,0,2,19,128,11
5,2,15,1,2,0,2,19,89,11
5,2,12,1,4,0,2,19,89,11
5,2,17,1,5,1,2,19,100,11
5,2,0,0,0,0,2,19,100,11
5,2,12,1,1,0,2,19,13,8
5,2,15,1,1,0,2,19,100,9
5,2,15,1,1,0,2,19,100,11
5,2,11,1,2,0,2,19,100,11
5,2,16,1,2,0,2,19,30,11
5,2,21,0,2,0,2,19,100,11
5,2,19,1,4,0,2,19,75,9
5,2,12,1,6,1,2,19,100,11
5,2,10,1,1,0,2,19,18,11
5,2,21,0,4,0,2,19,100,11
5,2,21,0,5,1,2,19,89,11
5,2,23,0,5,1,2,19,100,11
5,2,8,1,6,1,2,19,22,11
5,2,11,1,0,0,2,19,100,11
5,2,10,1,3,0,2,19,4,11
5,2,20,1,3,0,2,19,100,11
5,2,21,0,3,0,2,19,75,11
5,2,13,1,5,1,2,19,100,11
5,2,20,1,5,1,2,19,100,11
5,2,12,1,6,1,2,19,100,11
5,2,11,1,4,0,2,19,42,11
5,2,20,1,4,0,2,19,100,11
6,3,17,1,5,1,2,19,4,11
6,3,14,1,0,0,2,19,100,11
6,3,14,1,0,0,2,19,100,11
6,3,18,1,0,0,2,19,100,11
6,3,15,1,2,0,2,19,100,11
6,3,6,0,3,0,2,19,100,11
6,3,11,1,3,0,2,19,100,11
6,3,14,1,3,0,2,19,89,9
6,3,19,1,3,0,2,19,100,11
6,3,20,1,4,0,2,19,100,11
6,3,1,0,5,1,2,19,128,11
6,3,8,1,5,1,2,19,100,11
6,3,11,1,6,1,2,19,128,11
6,3,12,1,6,1,2,19,100,11
6,3,13,1,6,1,2,19,72,9
6,3,1,0,0,0,2,19,128,11
6,3,13,1,2,0,2,19,100,11
6,3,12,1,3,0,2,19,100,11
6,3,20,1,4,0,2,19,100,11
6,3,14,1,6,1,2,19,100,11
6,3,18,1,6,1,2,19,100,11
6,3,16,1,0,0,2,19,100,11
6,3,5,0,2,0,2,19,100,11
6,3,9,1,2,0,2,19,100,11
6,3,19,1,2,0,2,19,100,11
6,3,13,1,3,0,2,19,100,11
6,3,15,1,4,0,2,19,4,9
6,3,22,0,4,0,2,19,89,9
6,3,23,0,4,0,2,19,89,11
6,3,1,0,5,1,2,19,18,9
6,3,3,0,5,1,2,19,18,9
6,3,20,1,5,1,2,19,100,11
6,3,18,1,6,1,2,19,89,11
6,3,23,0,6,1,2,19,100,11
6,3,12,1,1,0,2,19,18,11
6,3,1,0,2,0,2,19,89,11
6,3,10,1,3,0,2,19,18,11
6,3,8,1,6,1,2,19,89,11
7,3,22,0,3,0,3,19,128,11
7,3,1,0,6,1,3,19,89,11
7,3,15,1,6,1,3,19,100,8
7,3,18,1,6,1,3,19,100,11
7,3,10,1,0,0,3,19,128,11
7,3,12,1,0,0,3,19,100,9
7,3,17,1,0,0,3,19,89,11
7,3,19,1,1,0,3,19,18,11
7,3,7,1,2,0,3,19,18,11
7,3,14,1,3,0,3,19,100,11
7,3,10,1,4,0,3,19,128,11
7,3,14,1,4,0,3,19,128,11
7,3,11,1,5,1,3,19,18,11
7,3,3,0,0,0,3,19,4,9
7,3,15,1,0,0,3,19,128,11
7,3,16,1,0,0,3,19,72,11
7,3,12,1,1,0,3,19,100,11
7,3,16,1,1,0,3,19,100,11
7,3,16,1,1,0,3,19,128,11
7,3,15,1,2,0,3,19,89,11
7,3,16,1,2,0,3,19,100,9
7,3,18,1,3,0,3,19,100,9
7,3,19,1,3,0,3,19,100,11
7,3,2,0,4,0,3,19,100,11
7,3,9,1,4,0,3,19,89,11
7,3,14,1,4,0,3,19,100,9
7,3,22,0,4,0,3,19,4,11
7,3,12,1,5,1,3,19,100,11
7,3,5,0,6,1,3,19,89,9
7,3,3,0,2,0,3,19,75,11
7,3,17,1,2,0,3,19,100,11
7,3,19,1,5,1,3,19,100,11
7,3,11,1,6,1,3,19,100,11
7,3,13,1,0,0,3,19,89,11
7,3,10,1,1,0,3,19,100,11
7,3,17,1,2,0,3,19,109,11
7,3,21,0,2,0,3,19,100,11
8,3,13,1,4,0,3,19,100,11
8,3,16,1,4,0,3,19,100,11
8,3,8,1,5,1,3,19,100,11
8,3,10,1,5,1,3,19,81,11
8,3,11,1,6,1,3,19,65,11
8,3,21,0,6,1,3,19,100,11
8,3,12,1,0,0,3,19,100,11
8,3,18,1,0,0,3,19,100,11
8,3,11,1,2,0,3,19,100,11
8,3,12,1,2,0,3,19,128,9
8,3,21,0,4,0,3,19,100,11
8,3,13,1,5,1,3,19,4,9
8,3,22,0,6,1,3,19,100,9
8,3,3,0,0,0,3,19,18,9
8,3,18,1,0,0,3,19,100,11
8,3,23,0,0,0,3,19,100,11
8,3,6,0,1,0,3,19,128,11
8,3,8,1,4,0,3,19,128,11
8,3,12,1,5,1,3,19,128,11
8,3,14,1,6,1,3,19,100,11
8,3,18,1,6,1,3,19,89,11
8,3,20,1,0,0,3,19,128,11
8,3,22,0,0,0,3,19,128,11
8,3,8,1,1,0,3,19,89,11
8,3,12,1,3,0,3,19,89,11
8,3,23,0,4,0,3,19,100,9
8,3,14,1,6,1,3,19,4,11
8,3,15,1,6,1,3,19,128,11
8,3,20,1,6,1,3,19,89,11
8,3,8,1,1,0,3,19,18,11
8,3,3,0,2,0,3,19,64,11
8,3,7,1,4,0,3,19,18,11
8,3,10,1,4,0,3,19,100,11
8,3,17,1,4,0,3,19,89,11
9,4,14,1,6,1,3,19,81,11
9,4,19,1,6,1,3,19,100,11
9,4,0,0,0,0,3,19,95,11
9,4,3,0,0,0,3,19,100,11
9,4,18,1,0,0,3,19,100,11
9,4,17,1,1,0,3,19,22,9
9,4,23,0,2,0,3,19,89,11
9,4,1,0,4,0,3,19,100,11
9,4,4,0,4,0,3,19,22,11
9,4,1,0,2,0,3,19,13,11
9,4,3,0,2,0,3,19,13,11
9,4,13,1,2,0,3,19,100,9
9,4,16,1,2,0,3,19,100,11
9,4,21,0,2,0,3,19,100,11
9,4,20,1,3,0,3,19,89,11
9,4,1,0,5,1,3,19,100,11
9,4,8,1,0,0,3,19,100,11
9,4,14,1,0,0,3,19,8,9
9,4,16,1,0,0,3,19,100,11
9,4,17,1,0,0,3,19,89,11
9,4,22,0,0,0,3,19,89,11
9,4,5,0,2,0,3,19,100,11
9,4,17,1,0,0,3,19,18,9
9,4,13,1,1,0,3,19,128,9
9,4,13,1,2,0,3,19,100,11
9,4,11,1,4,0,3,19,128,11
9,4,9,1,5,1,3,19,100,11
9,4,13,1,5,1,3,19,100,11
9,4,16,1,5,1,3,19,18,11
9,4,17,1,5,1,3,19,110,11
9,4,17,1,5,1,3,19,100,11
9,4,14,1,6,1,3,19,100,11
9,4,15,1,6,1,3,19,100,11
9,4,18,1,6,1,3,19,100,11
9,4,10,1,0,0,3,19,100,11
10,4,14,1,5,1,4,19,100,11
10,4,3,0,6,1,4,19,100,11
10,4,18,1,0,0,4,19,100,11
10,4,15,1,1,0,4,19,89,11
10,4,19,1,1,0,4,19,100,9
10,4,10,1,3,0,4,19,100,11
10,4,8,1,5,1,4,19,18,9
10,4,16,1,5,1,4,19,4,11
10,4,8,1,6,1,4,19,100,11
10,4,17,1,6,1,4,19,100,11
10,4,21,0,6,1,4,19,100,11
10,4,16,1,0,0,4,19,100,11
10,4,16,1,0,0,4,19,89,9
10,4,20,1,0,0,4,19,58,11
10,4,11,1,2,0,4,19,89,9
10,4,14,1,2,0,4,19,18,11
10,4,10,1,5,1,4,19,89,11
10,4,16,1,5,1,4,19,100,9
10,4,21,0,5,1,4,19,100,9
10,4,0,0,6,1,4,19,100,11
10,4,17,1,6,1,4,19,89,11
10,4,19,1,6,1,4,19,89,11
10,4,20,1,6,1,4,19,89,11
10,4,20,1,2,0,4,19,128,9
11,4,12,1,4,0,4,19,100,11
11,4,2,0,5,1,4,19,89,11
11,4,17,1,5,1,4,19,89,11
11,4,0,0,6,1,4,19,100,11
11,4,15,1,6,1,4,19,100,11
11,4,21,0,2,0,4,19,46,11
11,4,11,1,6,1,4,19,75,11
11,4,13,1,6,1,4,19,89,11
11,4,15,1,6,1,4,19,100,11
11,4,23,0,6,1,4,19,89,11
11,4,14,1,1,0,4,19,22,11
11,4,9,1,2,0,4,19,12,11
11,4,16,1,3,0,4,19,72,11
11,4,3,0,6,1,4,19,89,11
11,4,17,1,0,0,4,19,89,11
11,4,19,1,2,0,4,19,18,9
11,4,18,1,3,0,4,19,100,11
11,4,9,1,0,0,4,19,28,11
11,4,12,1,0,0,4,19,128,11
11,4,13,1,0,0,4,19,100,9
11,4,14,1,1,0,4,19,128,9
11,4,17,1,2,0,4,19,4,11
11,4,15,1,3,0,4,19,4,11
11,4,5,0,4,0,4,19,75,11
11,4,17,1,4,0,4,19,75,9
12,1,11,1,6,1,4,19,102,11
12,1,19,1,2,0,4,19,72,11
12,1,14,1,4,0,4,19,22,11
12,1,21,0,2,0,4,19,89,11
12,1,10,1,5,1,4,19,128,11
12,1,22,0,5,1,4,19,128,11
12,1,14,1,0,0,4,19,128,11
12,1,20,1,1,0,4,19,72,11
12,1,5,0,2,0,4,19,72,11
12,1,11,1,3,0,4,19,128,11
12,1,16,1,3,0,4,19,75,11
12,1,13,1,6,1,4,19,65,11
12,1,17,1,0,0,4,19,100,11
12,1,5,0,1,0,4,19,100,11
1,1,11,1,0,0,1,19,89,11
1,1,12,1,3,0,1,19,128,11
1,1,15,1,6,1,1,19,75,9
1,1,19,1,6,1,1,19,41,11
1,1,15,1,1,0,1,19,100,11
1,1,18,1,2,0,1,19,128,11
1,1,0,0,3,0,1,19,89,11
1,1,20,1,3,0,1,19,87,11
1,1,11,1,5,1,1,19,72,11
1,1,11,1,6,1,1,19,75,11
1,1,14,1,3,0,1,19,89,11
1,1,17,1,3,0,1,19,100,11
1,1,13,1,4,0,1,19,4,11
1,1,15,1,4,0,1,19,125,11
1,1,17,1,4,0,1,19,100,11
1,1,10,1,5,1,1,19,89,11
1,1,18,1,5,1,1,19,72,11
1,1,14,1,1,0,1,19,89,11
2,1,14,1,3,0,1,19,100,9
2,1,14,1,4,0,1,19,4,11
2,1,18,1,4,0,1,19,4,11
2,1,18,1,4,0,1,19,89,11
2,1,9,1,5,1,1,19,89,11
2,1,22,0,0,0,1,19,4,11
2,1,15,1,2,0,1,19,4,11
2,1,18,1,3,0,1,19,4,11
2,1,19,1,3,0,1,19,75,11
2,1,19,1,5,1,1,19,100,11
2,1,18,1,6,1,1,19,100,11
2,1,17,1,2,0,1,19,100,11
2,1,15,1,3,0,1,19,4,11
2,1,18,1,4,0,1,19,65,11
2,1,19,1,4,0,1,19,100,11
2,1,12,1,5,1,1,19,75,11
2,1,15,1,5,1,1,19,100,11
2,1,19,1,0,0,1,19,100,11
2,1,23,0,0,0,1,19,4,11
2,1,10,1,3,0,1,19,89,11
2,1,22,0,3,0,1,19,75,11
2,1,0,0,4,0,1,19,4,11
2,1,10,1,4,0,1,19,100,11
2,1,0,0,0,0,1,19,89,11
2,1,20,1,2,0,1,19,89,11
2,1,15,1,3,0,1,19,4,11
3,2,1,0,4,0,1,19,89,11
3,2,11,1,4,0,1,19,75,11
3,2,20,1,0,0,1,19,100,11
3,2,22,0,0,0,1,19,89,11
3,2,10,1,1,0,1,19,110,11
3,2,12,1,2,0,1,19,100,11
3,2,22,0,5,1,1,19,100,11
3,2,14,1,6,1,1,19,89,11
3,2,12,1,4,0,1,19,100,11
3,2,19,1,4,0,1,19,100,11
3,2,21,0,1,0,1,19,46,11
3,2,22,0,2,0,1,19,89,11
3,2,19,1,3,0,1,19,4,11
3,2,19,1,5,1,1,19,4,11
3,2,12,1,6,1,1,19,89,11
3,2,7,1,1,0,1,19,89,11
3,2,14,1,5,1,1,19,75,11
3,2,20,1,6,1,1,19,4,11
4,2,10,1,2,0,2,19,89,11
4,2,19,1,2,0,2,19,100,11
4,2,20,1,2,0,2,19,100,11
4,2,21,0,2,0,2,19,75,11
4,2,18,1,3,0,2,19,89,11
4,2,13,1,1,0,2,19,125,11
4,2,15,1,1,0,2,19,128,11
4,2,2,0,6,1,2,19,89,11
4,2,20,1,1,0,2,19,128,11
4,2,22,0,1,0,2,19,75,11
4,2,12,1,3,0,2,19,4,11
4,2,11,1,4,0,2,19,89,11
4,2,20,1,4,0,2,19,100,11
4,2,19,1,0,0,2,19,75,11
4,2,13,1,1,0,2,19,89,11
4,2,8,1,2,0,2,19,72,11
4,2,10,1,3,0,2,19,89,11
4,2,22,0,3,0,2,19,4,11
4,2,12,1,4,0,2,19,4,11
4,2,16,1,4,0,2,19,4,11
4,2,15,1,5,1,2,19,89,11
4,2,7,1,0,0,2,19,89,11
4,2,18,1,0,0,2,19,100,11
5,2,20,1,0,0,2,19,72,11
5,2,6,0,1,0,2,19,75,9
5,2,13,1,1,0,2,19,4,11
5,2,17,1,5,1,2,19,22,11
5,2,2,0,0,0,2,19,100,11
5,2,17,1,1,0,2,19,89,11
5,2,21,0,4,0,2,19,4,11
5,2,20,1,0,0,2,19,100,11
5,2,23,0,1,0,2,19,128,11
5,2,14,1,3,0,2,19,100,11
5,2,16,1,3,0,2,19,89,11
6,3,4,0,6,1,2,19,72,11
6,3,13,1,6,1,2,19,100,11
6,3,1,0,0,0,2,19,110,11
6,3,21,0,1,0,2,19,72,11
6,3,16,1,2,0,2,19,89,11
6,3,17,1,2,0,2,19,100,11
6,3,17,1,3,0,2,19,100,11
6,3,8,1,1,0,2,19,100,11
6,3,12,1,1,0,2,19,4,11
6,3,19,1,1,0,2,19,89,11
6,3,17,1,3,0,2,19,100,11
6,3,2,0,5,1,2,19,100,11
6,3,13,1,1,0,2,19,100,11
6,3,16,1,1,0,2,19,89,11
6,3,18,1,3,0,2,19,72,11
6,3,21,0,4,0,2,19,100,11
6,3,12,1,6,1,2,19,89,11
6,3,7,1,3,0,2,19,89,11
6,3,8,1,4,0,2,19,4,11
7,3,4,0,0,0,3,19,100,11
7,3,17,1,0,0,3,19,89,8
7,3,12,1,1,0,3,19,100,11
7,3,20,1,1,0,3,19,89,11
7,3,2,0,3,0,3,19,4,11
7,3,22,0,3,0,3,19,100,11
7,3,16,1,5,1,3,19,89,11
7,3,16,1,5,1,3,19,4,11
7,3,18,1,5,1,3,19,4,11
7,3,5,0,6,1,3,19,100,11
7,3,14,1,6,1,3,19,100,11
7,3,14,1,6,1,3,19,89,11
7,3,18,1,6,1,3,19,4,11
7,3,12,1,0,0,3,19,100,11
7,3,18,1,0,0,3,19,100,11
7,3,13,1,1,0,3,19,89,11
7,3,20,1,1,0,3,19,100,11
7,3,22,0,1,0,3,19,89,11
7,3,16,1,2,0,3,19,100,11
7,3,8,1,2,0,3,19,4,11
7,3,6,0,3,0,3,19,4,11
7,3,7,1,3,0,3,19,100,11
7,3,19,1,0,0,3,19,4,11
7,3,17,1,2,0,3,19,4,11
7,3,20,1,5,1,3,19,89,11
7,3,18,1,6,1,3,19,89,11
7,3,16,1,0,0,3,19,89,11
7,3,17,1,0,0,3,19,100,11
7,3,16,1,1,0,3,19,100,11
7,3,17,1,1,0,3,19,89,11
7,3,19,1,1,0,3,19,100,11
7,3,11,1,2,0,3,19,72,11
7,3,14,1,2,0,3,19,4,11
7,3,21,0,2,0,3,19,4,11
8,3,18,1,4,0,3,19,89,11
8,3,14,1,5,1,3,19,100,11
8,3,16,1,6,1,3,19,89,11
8,3,16,1,6,1,3,19,100,11
8,3,16,1,0,0,3,19,89,11
8,3,10,1,1,0,3,19,89,11
8,3,9,1,2,0,3,19,100,11
8,3,13,1,2,0,3,19,89,11
8,3,20,1,5,1,3,19,4,11
8,3,19,1,6,1,3,19,4,11
8,3,7,1,0,0,3,19,4,11
8,3,17,1,0,0,3,19,4,11
8,3,4,0,1,0,3,19,89,11
8,3,19,1,1,0,3,19,4,11
8,3,18,1,3,0,3,19,89,11
8,3,4,0,4,0,3,19,100,11
8,3,7,1,4,0,3,19,100,11
8,3,20,1,6,1,3,19,72,11
8,3,2,0,0,0,3,19,100,11
8,3,1,0,1,0,3,19,89,11
8,3,14,1,1,0,3,19,89,11
8,3,17,1,1,0,3,19,89,11
8,3,20,1,2,0,3,19,100,11
8,3,0,0,4,0,3,19,89,11
8,3,18,1,4,0,3,19,4,11
8,3,19,1,4,0,3,19,75,11
8,3,22,0,4,0,3,19,128,11
8,3,1,0,5,1,3,19,89,11
8,3,18,1,5,1,3,19,89,11
8,3,19,1,6,1,3,19,72,11
8,3,21,0,0,0,3,19,100,11
8,3,9,1,2,0,3,19,75,11
8,3,20,1,3,0,3,19,110,11
8,3,19,1,4,0,3,19,75,11
9,4,8,1,6,1,3,19,89,11
9,4,10,1,6,1,3,19,89,11
9,4,20,1,6,1,3,19,89,11
9,4,8,1,0,0,3,19,89,11
9,4,8,1,0,0,3,19,89,11
9,4,8,1,2,0,3,19,89,11
9,4,8,1,3,0,3,19,4,11
9,4,13,1,3,0,3,19,75,11
9,4,19,1,0,0,3,19,18,11
9,4,13,1,5,1,3,19,100,11
9,4,19,1,6,1,3,19,4,11
9,4,19,1,0,0,3,19,89,11
9,4,13,1,1,0,3,19,100,11
9,4,9,1,0,0,3,19,75,11
10,4,19,1,4,0,4,19,89,11
10,4,23,0,4,0,4,19,72,11
10,4,12,1,6,1,4,19,4,11
10,4,13,1,1,0,4,19,89,11
10,4,20,1,1,0,4,19,89,11
10,4,12,1,4,0,4,19,100,11
10,4,19,1,5,1,4,19,100,11
10,4,7,1,6,1,4,19,89,11
10,4,10,1,3,0,4,19,89,11
10,4,9,1,6,1,4,19,89,11
10,4,16,1,6,1,4,19,89,11
10,4,12,1,0,0,4,19,89,11
10,4,17,1,1,0,4,19,4,11
10,4,18,1,3,0,4,19,4,11
10,4,15,1,4,0,4,19,89,11
10,4,16,1,5,1,4,19,89,11
10,4,16,1,0,0,4,19,72,11
10,4,10,1,2,0,4,19,100,11
10,4,12,1,2,0,4,19,100,11
10,4,16,1,2,0,4,19,72,11
10,4,18,1,2,0,4,19,100,11
10,4,19,1,2,0,4,19,4,11
11,4,15,1,4,0,4,19,89,11
11,4,2,0,6,1,4,19,100,11
11,4,12,1,6,1,4,19,89,11
11,4,13,1,6,1,4,19,89,11
11,4,21,0,6,1,4,19,75,11
11,4,17,1,0,0,4,19,100,11
11,4,19,1,0,0,4,19,89,11
11,4,20,1,0,0,4,19,65,11
11,4,16,1,1,0,4,19,4,11
11,4,17,1,1,0,4,19,100,11
11,4,4,0,2,0,4,19,72,11
11,4,18,1,2,0,4,19,4,11
11,4,12,1,3,0,4,19,89,11
11,4,11,1,4,0,4,19,100,11
11,4,12,1,4,0,4,19,89,11
11,4,11,1,5,1,4,19,89,11
11,4,12,1,6,1,4,19,4,11
11,4,7,1,0,0,4,19,100,11
11,4,8,1,0,0,4,19,89,11
11,4,12,1,0,0,4,19,100,11
11,4,7,1,1,0,4,19,89,11
11,4,8,1,2,0,4,19,72,11
11,4,16,1,2,0,4,19,100,11
11,4,3,0,6,1,4,19,89,11
11,4,11,1,0,0,4,19,72,11
11,4,23,0,0,0,4,19,89,11
11,4,13,1,1,0,4,19,128,11
11,4,15,1,1,0,4,19,100,9
11,4,16,1,1,0,4,19,4,11
11,4,14,1,2,0,4,19,100,11
11,4,20,1,2,0,4,19,89,11
11,4,5,0,3,0,4,19,89,11
11,4,19,1,4,0,4,19,65,11
11,4,19,1,4,0,4,19,89,11
12,1,23,0,3,0,4,19,87,11
12,1,11,1,1,0,4,19,72,11
12,1,11,1,2,0,4,19,87,11
1,1,7,1,0,0,1,44,95,11
1,1,16,1,5,1,1,44,87,11
1,1,20,1,5,1,1,44,87,11
1,1,17,1,4,0,1,44,87,11
1,1,1,0,5,1,1,44,87,11
1,1,9,1,6,1,1,44,75,11
1,1,3,0,2,0,1,44,65,11
1,1,12,1,2,0,1,44,87,11
1,1,15,1,2,0,1,44,87,11
1,1,18,1,3,0,1,44,58,9
1,1,10,1,4,0,1,44,87,11
1,1,18,1,4,0,1,44,100,11
1,1,2,0,5,1,1,44,75,11
1,1,10,1,6,1,1,44,95,11
1,1,11,1,6,1,1,44,100,11
1,1,18,1,1,0,1,44,100,11
1,1,18,1,1,0,1,44,100,11
2,1,13,1,4,0,1,44,100,11
2,1,18,1,4,0,1,44,100,11
2,1,12,1,5,1,1,44,100,11
2,1,15,1,6,1,1,44,100,11
2,1,18,1,0,0,1,44,100,11
2,1,4,0,1,0,1,44,85,11
2,1,13,1,1,0,1,44,89,9
2,1,14,1,1,0,1,44,100,11
2,1,15,1,1,0,1,44,100,11
2,1,10,1,2,0,1,44,100,11
2,1,17,1,2,0,1,44,100,11
2,1,12,1,3,0,1,44,100,11
2,1,18,1,3,0,1,44,100,11
2,1,20,1,6,1,1,44,100,11
2,1,15,1,1,0,1,44,100,11
2,1,20,1,2,0,1,44,100,11
2,1,14,1,4,0,1,44,100,11
2,1,20,1,4,0,1,44,100,11
2,1,18,1,5,1,1,44,100,11
2,1,19,1,5,1,1,44,100,11
2,1,14,1,6,1,1,44,100,11
2,1,14,1,6,1,1,44,100,11
2,1,16,1,3,0,1,44,100,11
2,1,18,1,4,0,1,44,100,11
2,1,18,1,0,0,1,44,100,11
2,1,21,0,0,0,1,44,100,11
2,1,17,1,1,0,1,44,100,11
2,1,16,1,2,0,1,44,100,11
3,2,18,1,6,1,1,44,100,11
3,2,17,1,0,0,1,44,64,11
3,2,23,0,2,0,1,44,87,11
3,2,14,1,3,0,1,44,49,11
3,2,14,1,0,0,1,44,100,11
3,2,18,1,2,0,1,44,100,11
3,2,12,1,3,0,1,44,46,11
3,2,12,1,5,1,1,44,87,11
3,2,18,1,5,1,1,44,100,11
3,2,20,1,6,1,1,44,85,11
3,2,19,1,0,0,1,44,87,11
3,2,18,1,2,0,1,44,100,11
3,2,19,1,3,0,1,44,24,11
3,2,12,1,5,1,1,44,89,11
3,2,14,1,5,1,1,44,100,11
3,2,17,1,5,1,1,44,4,11
4,2,16,1,3,0,2,44,22,11
4,2,17,1,3,0,2,44,87,11
4,2,15,1,5,1,2,44,100,11
4,2,15,1,0,0,2,44,100,11
4,2,14,1,1,0,2,44,100,11
4,2,14,1,1,0,2,44,100,11
4,2,16,1,1,0,2,44,100,11
4,2,18,1,1,0,2,44,100,11
4,2,20,1,1,0,2,44,100,11
4,2,15,1,2,0,2,44,100,11
4,2,10,1,5,1,2,44,110,11
4,2,16,1,5,1,2,44,12,11
4,2,23,0,5,1,2,44,21,11
4,2,15,1,6,1,2,44,89,11
4,2,19,1,6,1,2,44,100,11
4,2,14,1,1,0,2,44,100,11
4,2,18,1,1,0,2,44,65,11
4,2,9,1,2,0,2,44,87,11
4,2,17,1,2,0,2,44,110,11
4,2,5,0,4,0,2,44,22,11
4,2,18,1,4,0,2,44,89,11
4,2,14,1,1,0,2,44,100,11
5,2,14,1,5,1,2,44,65,11
5,2,4,0,6,1,2,44,65,11
5,2,14,1,6,1,2,44,87,11
5,2,15,1,0,0,2,44,100,11
5,2,10,1,1,0,2,44,89,11
5,2,16,1,2,0,2,44,100,11
5,2,17,1,5,1,2,44,100,11
5,2,12,1,6,1,2,44,100,11
5,2,18,1,6,1,2,44,87,11
5,2,2,0,4,0,2,44,87,11
5,2,13,1,1,0,2,44,100,11
5,2,11,1,3,0,2,44,100,11
5,2,13,1,3,0,2,44,4,11
5,2,15,1,6,1,2,44,89,11
5,2,20,1,6,1,2,44,100,11
5,2,16,1,3,0,2,44,89,11
6,3,9,1,6,1,2,44,100,11
6,3,9,1,3,0,2,44,100,11
6,3,9,1,5,1,2,44,100,11
6,3,18,1,5,1,2,44,100,11
6,3,16,1,6,1,2,44,100,11
6,3,2,0,0,0,2,44,87,11
6,3,12,1,1,0,2,44,100,11
6,3,4,0,4,0,2,44,58,11
6,3,4,0,5,1,2,44,100,11
6,3,12,1,5,1,2,44,100,11
6,3,22,0,5,1,2,44,100,11
6,3,13,1,0,0,2,44,100,11
6,3,20,1,4,0,2,44,100,11
6,3,13,1,5,1,2,44,100,11
6,3,14,1,5,1,2,44,100,11
6,3,23,0,5,1,2,44,72,11
6,3,13,1,1,0,2,44,65,11
6,3,14,1,1,0,2,44,100,11
6,3,16,1,1,0,2,44,100,11
6,3,17,1,4,0,2,44,87,11
6,3,14,1,5,1,2,44,89,11
7,3,12,1,1,0,3,44,100,11
7,3,20,1,2,0,3,44,100,11
7,3,20,1,2,0,3,44,100,11
7,3,16,1,4,0,3,44,65,11
7,3,17,1,6,1,3,44,100,11
7,3,17,1,6,1,3,44,100,11
7,3,15,1,0,0,3,44,100,11
7,3,7,1,1,0,3,44,26,11
7,3,17,1,1,0,3,44,100,11
7,3,19,1,1,0,3,44,26,11
7,3,9,1,2,0,3,44,100,11
7,3,17,1,2,0,3,44,100,11
7,3,11,1,5,1,3,44,100,11
7,3,10,1,6,1,3,44,100,11
7,3,17,1,2,0,3,44,100,11
7,3,18,1,2,0,3,44,100,11
7,3,18,1,3,0,3,44,100,11
7,3,21,0,3,0,3,44,87,11
7,3,15,1,4,0,3,44,100,11
7,3,16,1,4,0,3,44,100,11
7,3,17,1,5,1,3,44,110,11
7,3,19,1,5,1,3,44,100,11
7,3,13,1,6,1,3,44,87,11
7,3,9,1,0,0,3,44,100,11
7,3,10,1,0,0,3,44,100,11
7,3,22,0,3,0,3,44,100,11
7,3,3,0,4,0,3,44,89,11
7,3,11,1,5,1,3,44,100,11
7,3,16,1,6,1,3,44,100,11
7,3,20,1,6,1,3,44,89,11
7,3,18,1,2,0,3,44,87,9
8,3,0,0,5,1,3,44,100,11
8,3,1,0,5,1,3,44,100,11
8,3,16,1,6,1,3,44,100,11
8,3,20,1,6,1,3,44,100,11
8,3,15,1,0,0,3,44,87,11
8,3,16,1,4,0,3,44,106,11
8,3,16,1,4,0,3,44,100,11
8,3,6,0,2,0,3,44,75,9
8,3,7,1,1,0,3,44,100,11
8,3,17,1,2,0,3,44,100,11
8,3,15,1,3,0,3,44,100,11
8,3,16,1,3,0,3,44,100,11
8,3,2,0,4,0,3,44,4,11
8,3,4,0,4,0,3,44,30,11
8,3,19,1,5,1,3,44,100,11
8,3,21,0,6,1,3,44,64,9
8,3,11,1,0,0,3,44,100,11
8,3,19,1,0,0,3,44,87,11
8,3,20,1,0,0,3,44,100,11
8,3,8,1,2,0,3,44,100,11
9,4,19,1,0,0,3,44,100,11
9,4,13,1,1,0,3,44,13,9
9,4,5,0,4,0,3,44,100,11
9,4,18,1,4,0,3,44,4,11
9,4,12,1,4,0,3,44,26,11
9,4,20,1,6,1,3,44,89,11
9,4,0,0,5,1,3,44,18,11
9,4,12,1,1,0,3,44,65,11
9,4,18,1,1,0,3,44,100,11
9,4,15,1,3,0,3,44,4,11
9,4,0,0,4,0,3,44,4,11
9,4,16,1,5,1,3,44,100,11
9,4,17,1,6,1,3,44,89,11
9,4,18,1,0,0,3,44,79,11
10,4,12,1,2,0,4,44,100,11
10,4,13,1,2,0,4,44,100,11
10,4,15,1,3,0,4,44,100,11
10,4,9,1,6,1,4,44,100,11
10,4,13,1,6,1,4,44,100,11
10,4,17,1,6,1,4,44,100,11
10,4,18,1,6,1,4,44,100,11
10,4,7,1,0,0,4,44,65,11
10,4,14,1,0,0,4,44,4,11
10,4,15,1,0,0,4,44,89,11
10,4,12,1,1,0,4,44,89,11
10,4,15,1,1,0,4,44,46,11
10,4,19,1,1,0,4,44,50,11
10,4,18,1,5,1,4,44,100,11
10,4,19,1,5,1,4,44,12,11
10,4,11,1,6,1,4,44,89,11
10,4,13,1,6,1,4,44,89,11
10,4,16,1,0,0,4,44,100,11
10,4,11,1,1,0,4,44,100,11
10,4,16,1,1,0,4,44,100,11
10,4,17,1,4,0,4,44,4,11
10,4,16,1,5,1,4,44,89,11
10,4,14,1,6,1,4,44,4,11
10,4,17,1,3,0,4,44,100,11
10,4,20,1,5,1,4,44,100,11
10,4,18,1,0,0,4,44,13,11
10,4,23,0,1,0,4,44,4,11
10,4,8,1,2,0,4,44,18,11
10,4,7,1,3,0,4,44,18,11
11,4,12,1,4,0,4,44,100,11
11,4,18,1,5,1,4,44,4,11
11,4,21,0,5,1,4,44,4,11
11,4,21,0,5,1,4,44,100,11
11,4,15,1,6,1,4,44,100,11
11,4,10,1,0,0,4,44,85,11
11,4,11,1,0,0,4,44,100,11
11,4,15,1,0,0,4,44,100,11
11,4,13,1,3,0,4,44,100,11
11,4,15,1,4,0,4,44,4,11
11,4,23,0,4,0,4,44,75,11
11,4,12,1,5,1,4,44,100,11
11,4,15,1,5,1,4,44,100,11
11,4,19,1,5,1,4,44,72,11
11,4,16,1,6,1,4,44,13,11
11,4,17,1,0,0,4,44,89,11
11,4,19,1,0,0,4,44,75,11
11,4,20,1,0,0,4,44,89,11
11,4,1,0,1,0,4,44,4,11
11,4,14,1,1,0,4,44,65,11
11,4,19,1,1,0,4,44,24,9
11,4,13,1,0,0,4,44,65,11
11,4,13,1,1,0,4,44,65,11
11,4,17,1,1,0,4,44,4,11
11,4,13,1,2,0,4,44,4,11
11,4,14,1,3,0,4,44,4,11
11,4,12,1,6,1,4,44,75,11
11,4,17,1,1,0,4,44,4,11
11,4,14,1,2,0,4,44,100,11
11,4,20,1,2,0,4,44,110,11
11,4,15,1,4,0,4,44,100,11
12,1,18,1,0,0,4,44,4,11
12,1,18,1,5,1,4,44,75,8
12,1,17,1,1,0,4,44,18,11
12,1,11,1,2,0,4,44,87,11
12,1,3,0,3,0,4,44,38,11
12,1,18,1,5,1,4,44,75,11
12,1,21,0,5,1,4,44,100,11
12,1,16,1,1,0,4,44,100,11
1,1,4,0,6,1,1,44,12,8
1,1,21,0,6,1,1,44,75,11
1,1,14,1,4,0,1,44,12,9
1,1,17,1,4,0,1,44,40,11
2,1,12,1,6,1,1,44,4,9
2,1,10,1,0,0,1,44,4,11
2,1,12,1,0,0,1,44,4,11
2,1,18,1,0,0,1,44,4,11
2,1,17,1,6,1,1,44,100,11
2,1,17,1,6,1,1,44,100,11
2,1,15,1,2,0,1,44,100,11
2,1,18,1,2,0,1,44,100,11
2,1,21,0,1,0,1,44,75,9
2,1,22,0,0,0,1,44,100,11
3,2,13,1,0,0,1,44,4,9
4,2,10,1,0,0,2,44,13,11
4,2,20,1,2,0,2,44,100,11
4,2,15,1,4,0,2,44,4,11
4,2,16,1,0,0,2,44,100,11
4,2,17,1,0,0,2,44,4,11
4,2,21,0,1,0,2,44,100,11
4,2,14,1,0,0,2,44,24,11
4,2,0,0,3,0,2,44,110,11
5,2,18,1,2,0,2,44,100,11
5,2,19,1,3,0,2,44,100,11
5,2,11,1,6,1,2,44,100,11
6,3,15,1,2,0,2,44,100,11
6,3,23,0,2,0,2,44,19,11
6,3,9,1,3,0,2,44,100,11
6,3,9,1,6,1,2,44,100,11
6,3,11,1,6,1,2,44,100,11
6,3,7,1,2,0,2,44,100,11
6,3,13,1,4,0,2,44,100,11
6,3,10,1,2,0,2,44,4,11
6,3,19,1,5,1,2,44,100,11
6,3,13,1,0,0,2,44,100,11
6,3,18,1,3,0,2,44,4,11
7,3,18,1,3,0,3,44,58,11
7,3,19,1,4,0,3,44,4,11
7,3,20,1,4,0,3,44,4,11
7,3,18,1,6,1,3,44,4,11
7,3,19,1,6,1,3,44,22,11
7,3,9,1,0,0,3,44,100,11
7,3,11,1,6,1,3,44,24,11
7,3,19,1,6,1,3,44,75,11
7,3,10,1,0,0,3,44,89,11
8,3,15,1,4,0,3,44,100,11
8,3,18,1,5,1,3,44,100,11
8,3,11,1,1,0,3,44,100,11
8,3,14,1,2,0,3,44,100,11
8,3,16,1,2,0,3,44,4,11
8,3,9,1,0,0,3,44,4,11
8,3,18,1,0,0,3,44,4,11
8,3,19,1,0,0,3,44,100,11
8,3,18,1,3,0,3,44,4,11
9,4,18,1,6,1,3,44,4,11
9,4,12,1,5,1,3,44,34,11
9,4,13,1,6,1,3,44,34,11
9,4,12,1,1,0,3,44,100,11
9,4,10,1,2,0,3,44,4,11
9,4,18,1,2,0,3,44,4,11
10,4,17,1,3,0,4,44,4,11
10,4,14,1,1,0,4,44,100,11
10,4,9,1,3,0,4,44,100,11
10,4,12,1,3,0,4,44,4,11
10,4,17,1,4,0,4,44,100,11
10,4,20,1,0,0,4,44,4,11
10,4,14,1,1,0,4,44,100,11
10,4,21,0,1,0,4,44,100,11
10,4,9,1,2,0,4,44,100,11
10,4,19,1,4,0,4,44,4,11
10,4,16,1,6,1,4,44,4,11
10,4,11,1,0,0,4,44,4,11
11,4,18,1,5,1,4,44,75,11
11,4,15,1,4,0,4,44,100,11
11,4,11,1,0,0,4,44,4,11
11,4,9,1,1,0,4,44,4,11
11,4,11,1,1,0,4,44,4,11
11,4,17,1,2,0,4,44,4,11
11,4,13,1,3,0,4,44,4,11
1,1,15,1,5,1,1,44,100,11
1,1,18,1,1,0,1,44,100,11
1,1,11,1,3,0,1,44,75,11
1,1,18,1,4,0,1,44,100,11
1,1,16,1,5,1,1,44,100,11
1,1,17,1,5,1,1,44,100,11
1,1,20,1,5,1,1,44,100,11
1,1,23,0,5,1,1,44,100,11
1,1,16,1,6,1,1,44,100,11
1,1,10,1,1,0,1,44,100,11
1,1,20,1,1,0,1,44,100,11
1,1,17,1,2,0,1,44,100,11
2,1,17,1,4,0,1,44,100,11
2,1,12,1,0,0,1,44,100,11
2,1,13,1,0,0,1,44,100,11
2,1,11,1,2,0,1,44,100,11
2,1,11,1,4,0,1,44,100,11
2,1,12,1,3,0,1,44,75,11
2,1,14,1,5,1,1,44,100,11
2,1,18,1,1,0,1,44,100,11
2,1,17,1,4,0,1,44,100,11
2,1,19,1,1,0,1,44,100,11
2,1,20,1,2,0,1,44,100,11
2,1,11,1,3,0,1,44,100,11
2,1,19,1,3,0,1,44,100,11
3,2,21,0,5,1,1,44,38,11
3,2,18,1,3,0,1,44,100,11
3,2,19,1,3,0,1,44,100,11
3,2,13,1,6,1,1,44,100,11
3,2,21,0,0,0,1,44,100,11
3,2,13,1,1,0,1,44,100,11
3,2,23,0,3,0,1,44,100,11
3,2,12,1,5,1,1,44,100,11
3,2,13,1,6,1,1,44,100,11
4,2,16,1,0,0,2,44,100,11
4,2,13,1,1,0,2,44,100,11
4,2,20,1,1,0,2,44,100,11
4,2,8,1,3,0,2,44,100,11
4,2,12,1,3,0,2,44,100,11
4,2,16,1,4,0,2,44,89,11
4,2,19,1,6,1,2,44,87,11
4,2,20,1,2,0,2,44,100,11
4,2,16,1,4,0,2,44,100,11
4,2,16,1,4,0,2,44,100,11
4,2,2,0,1,0,2,44,24,11
4,2,18,1,5,1,2,44,100,11
4,2,21,0,5,1,2,44,97,11
4,2,13,1,0,0,2,44,87,11
4,2,21,0,0,0,2,44,100,11
5,2,13,1,4,0,2,44,100,11
5,2,13,1,4,0,2,44,100,11
5,2,10,1,1,0,2,44,75,11
5,2,13,1,1,0,2,44,12,9
5,2,19,1,6,1,2,44,100,11
5,2,12,1,3,0,2,44,4,11
5,2,17,1,3,0,2,44,100,11
5,2,18,1,3,0,2,44,100,11
5,2,18,1,6,1,2,44,4,11
5,2,16,1,1,0,2,44,100,11
5,2,15,1,4,0,2,44,4,11
6,3,12,1,5,1,2,44,100,11
6,3,14,1,5,1,2,44,89,11
6,3,19,1,5,1,2,44,100,11
6,3,21,0,6,1,2,44,100,11
6,3,21,0,0,0,2,44,87,11
6,3,9,1,3,0,2,44,57,11
6,3,14,1,3,0,2,44,100,11
6,3,13,1,4,0,2,44,100,11
6,3,13,1,1,0,2,44,100,11
6,3,17,1,1,0,2,44,100,11
6,3,13,1,2,0,2,44,65,11
6,3,14,1,2,0,2,44,4,11
6,3,14,1,5,1,2,44,100,11
6,3,17,1,1,0,2,44,100,11
6,3,12,1,2,0,2,44,100,11
6,3,18,1,2,0,2,44,100,11
6,3,22,0,3,0,2,44,100,11
6,3,17,1,5,1,2,44,100,11
6,3,21,0,5,1,2,44,128,11
6,3,17,1,6,1,2,44,100,11
6,3,19,1,2,0,2,44,100,11
6,3,17,1,3,0,2,44,100,11
7,3,13,1,0,0,3,44,100,11
7,3,20,1,4,0,3,44,110,11
7,3,14,1,5,1,3,44,100,11
7,3,22,0,5,1,3,44,100,11
7,3,12,1,0,0,3,44,100,11
7,3,18,1,5,1,3,44,100,11
7,3,21,0,5,1,3,44,4,11
7,3,0,0,6,1,3,44,100,11
7,3,8,1,3,0,3,44,87,11
7,3,10,1,3,0,3,44,100,11
7,3,19,1,4,0,3,44,100,11
7,3,19,1,4,0,3,44,100,11
7,3,10,1,5,1,3,44,100,11
8,3,15,1,1,0,3,44,100,11
8,3,16,1,2,0,3,44,100,11
8,3,19,1,4,0,3,44,72,11
8,3,9,1,0,0,3,44,100,11
8,3,15,1,3,0,3,44,100,11
8,3,11,1,0,0,3,44,100,11
8,3,8,1,1,0,3,44,100,11
9,4,12,1,0,0,3,44,100,11
9,4,17,1,0,0,3,44,89,11
9,4,13,1,6,1,3,44,4,11
9,4,19,1,6,1,3,44,4,11
9,4,20,1,6,1,3,44,4,11
9,4,13,1,2,0,3,44,4,11
9,4,19,1,3,0,3,44,4,11
9,4,16,1,6,1,3,44,100,11
10,4,15,1,2,0,4,44,100,11
10,4,13,1,3,0,4,44,4,11
10,4,23,0,3,0,4,44,100,11
10,4,17,1,4,0,4,44,89,11
10,4,17,1,3,0,4,44,100,11
10,4,17,1,4,0,4,44,100,11
10,4,14,1,5,1,4,44,100,11
10,4,15,1,0,0,4,44,100,11
10,4,0,0,2,0,4,44,63,9
10,4,18,1,2,0,4,44,100,11
10,4,10,1,3,0,4,44,4,11
10,4,14,1,4,0,4,44,4,11
10,4,0,0,6,1,4,44,75,11
10,4,16,1,6,1,4,44,100,11
10,4,18,1,6,1,4,44,4,11
10,4,18,1,1,0,4,44,100,11
10,4,15,1,3,0,4,44,100,11
10,4,18,1,5,1,4,44,100,11
10,4,9,1,0,0,4,44,100,11
10,4,14,1,0,0,4,44,100,11
10,4,16,1,1,0,4,44,100,11
10,4,11,1,2,0,4,44,4,11
10,4,16,1,2,0,4,44,4,11
11,4,23,0,6,1,4,44,100,11
11,4,17,1,1,0,4,44,100,11
11,4,17,1,3,0,4,44,110,11
11,4,13,1,5,1,4,44,100,11
11,4,10,1,6,1,4,44,24,11
11,4,13,1,0,0,4,44,100,11
11,4,18,1,1,0,4,44,4,11
11,4,16,1,2,0,4,44,100,11
11,4,17,1,0,0,4,44,100,11
11,4,13,1,2,0,4,44,4,11
12,1,6,0,2,0,4,44,18,11
12,1,17,1,2,0,4,44,110,11
12,1,13,1,0,0,4,44,12,11
1,1,14,1,3,0,1,44,58,11
1,1,22,0,5,1,1,44,110,11
1,1,23,0,4,0,1,44,100,11
1,1,14,1,1,0,1,44,100,11
2,1,16,1,6,1,1,44,100,11
2,1,16,1,5,1,1,44,100,11
2,1,10,1,5,1,1,44,26,11
2,1,16,1,1,0,1,44,100,11
2,1,22,0,3,0,1,44,72,11
3,2,11,1,3,0,1,44,75,11
3,2,7,1,4,0,1,44,75,11
3,2,19,1,6,1,1,44,100,11
4,2,23,0,4,0,2,44,18,11
4,2,13,1,3,0,2,44,100,11
4,2,15,1,6,1,2,44,100,11
5,2,17,1,4,0,2,44,110,11
6,3,7,1,5,1,2,44,100,11
6,3,13,1,4,0,2,44,26,11
6,3,12,1,6,1,2,44,100,11
8,3,18,1,1,0,3,44,110,11
9,4,18,1,4,0,3,44,4,11
9,4,16,1,6,1,3,44,4,11
10,4,9,1,3,0,4,44,72,11
11,4,16,1,6,1,4,44,100,11
11,4,13,1,1,0,4,44,4,11
11,4,14,1,1,0,4,44,4,11
11,4,11,1,2,0,4,44,4,11
11,4,13,1,2,0,4,44,4,11
11,4,14,1,3,0,4,44,100,11
11,4,13,1,6,1,4,44,100,11
1,1,20,1,2,0,1,44,87,11
1,1,16,1,0,0,1,44,87,11
1,1,15,1,5,1,1,44,100,11
1,1,21,0,5,1,1,44,100,11
2,1,19,1,1,0,1,44,100,11
2,1,14,1,3,0,1,44,100,11
2,1,13,1,6,1,1,44,75,11
2,1,15,1,2,0,1,44,87,11
2,1,22,0,3,0,1,44,100,11
4,2,16,1,1,0,2,44,12,11
4,2,7,1,4,0,2,44,100,11
4,2,16,1,4,0,2,44,100,11
4,2,12,1,6,1,2,44,97,11
4,2,15,1,0,0,2,44,100,11
5,2,17,1,0,0,2,44,100,11
5,2,21,0,1,0,2,44,100,11
5,2,14,1,2,0,2,44,100,11
5,2,16,1,5,1,2,44,87,9
5,2,14,1,5,1,2,44,100,11
6,3,14,1,3,0,2,44,72,9
6,3,5,0,5,1,2,44,100,11
6,3,16,1,1,0,2,44,87,11
6,3,18,1,2,0,2,44,100,11
6,3,21,0,5,1,2,44,18,11
6,3,9,1,3,0,2,44,89,11
6,3,22,0,5,1,2,44,100,11
6,3,9,1,6,1,2,44,100,11
7,3,17,1,6,1,3,44,128,11
7,3,10,1,1,0,3,44,75,11
7,3,11,1,3,0,3,44,100,11
7,3,14,1,5,1,3,44,100,11
8,3,17,1,4,0,3,44,100,11
8,3,17,1,4,0,3,44,100,11
8,3,10,1,3,0,3,44,100,11
8,3,21,0,4,0,3,44,110,11
9,4,13,1,6,1,3,44,100,11
9,4,14,1,4,0,3,44,4,11
9,4,15,1,6,1,3,44,4,11
10,4,4,0,1,0,4,44,100,11
10,4,18,1,1,0,4,44,100,11
10,4,17,1,1,0,4,44,100,11
10,4,21,0,6,1,4,44,75,9
10,4,23,0,1,0,4,44,4,11
10,4,20,1,4,0,4,44,100,11
10,4,21,0,2,0,4,44,13,11
11,4,10,1,4,0,4,44,100,11
11,4,12,1,4,0,4,44,100,11
11,4,16,1,2,0,4,44,4,11
11,4,18,1,6,1,4,44,100,11
12,1,12,1,0,0,4,44,75,9
1,1,20,1,6,1,1,44,38,11
1,1,13,1,5,1,1,44,100,11
2,1,21,0,1,0,1,44,100,11
2,1,15,1,3,0,1,44,100,11
2,1,4,0,6,1,1,44,100,11
2,1,15,1,2,0,1,44,100,11
3,2,15,1,6,1,1,44,100,11
4,2,21,0,4,0,2,44,128,11
4,2,21,0,4,0,2,44,100,11
4,2,14,1,3,0,2,44,100,11
4,2,17,1,5,1,2,44,100,11
5,2,7,1,3,0,2,44,87,11
5,2,16,1,4,0,2,44,100,11
5,2,10,1,6,1,2,44,100,11
6,3,19,1,3,0,2,44,87,11
6,3,22,0,2,0,2,44,100,11
6,3,18,1,5,1,2,44,100,11
7,3,14,1,1,0,3,44,100,11
8,3,14,1,3,0,3,44,100,11
8,3,19,1,0,0,3,44,100,11
8,3,11,1,0,0,3,44,100,11
8,3,18,1,3,0,3,44,72,11
8,3,12,1,4,0,3,44,38,11
8,3,10,1,6,1,3,44,100,11
8,3,20,1,3,0,3,44,110,11
9,4,15,1,1,0,3,44,87,11
9,4,7,1,3,0,3,44,4,11
10,4,16,1,3,0,4,44,4,11
10,4,13,1,6,1,4,44,100,11
10,4,16,1,4,0,4,44,100,11
10,4,9,1,0,0,4,44,4,11
10,4,11,1,6,1,4,44,100,11
10,4,11,1,1,0,4,44,4,11
10,4,13,1,2,0,4,44,100,11
11,4,12,1,1,0,4,44,26,11
11,4,20,1,1,0,4,44,75,11
11,4,11,1,5,1,4,44,4,11
11,4,1,0,1,0,4,44,4,11
11,4,10,1,2,0,4,44,4,11
11,4,14,1,2,0,4,44,100,11
12,1,4,0,6,1,4,44,38,8
12,1,18,1,1,0,4,44,46,11
12,1,22,0,0,0,4,44,87,11
12,1,19,1,0,0,4,44,100,11
12,1,14,1,1,0,4,44,100,11
1,1,18,1,0,0,1,49,18,11
1,1,4,0,4,0,1,49,38,11
1,1,12,1,6,1,1,49,38,11
1,1,15,1,6,1,1,49,100,11
2,1,17,1,1,0,1,49,100,11
2,1,18,1,2,0,1,49,100,11
2,1,13,1,3,0,1,49,75,11
2,1,17,1,4,0,1,49,100,11
3,2,10,1,0,0,1,49,128,11
3,2,18,1,5,1,1,49,95,11
3,2,10,1,0,0,1,49,4,11
4,2,20,1,0,0,2,49,26,11
4,2,15,1,2,0,2,49,75,11
4,2,13,1,3,0,2,49,95,11
4,2,18,1,5,1,2,49,87,11
4,2,14,1,3,0,2,49,75,11
4,2,15,1,1,0,2,49,89,11
4,2,15,1,4,0,2,49,128,11
4,2,5,0,4,0,2,49,8,11
4,2,22,0,5,1,2,49,89,11
4,2,17,1,6,1,2,49,97,11
5,2,18,1,2,0,2,49,128,11
5,2,19,1,2,0,2,49,128,11
5,2,6,0,1,0,2,49,79,11
5,2,13,1,6,1,2,49,95,11
5,2,11,1,0,0,2,49,89,11
5,2,15,1,3,0,2,49,89,11
6,3,9,1,0,0,2,49,26,11
6,3,10,1,0,0,2,49,29,11
6,3,17,1,0,0,2,49,125,11
6,3,19,1,6,1,2,49,46,11
6,3,11,1,2,0,2,49,89,11
6,3,20,1,2,0,2,49,25,11
6,3,17,1,3,0,2,49,108,11
6,3,11,1,4,0,2,49,38,11
7,3,3,0,0,0,3,49,24,11
7,3,9,1,1,0,3,49,26,11
7,3,13,1,3,0,3,49,125,11
7,3,19,1,2,0,3,49,4,9
7,3,10,1,4,0,3,49,128,11
7,3,20,1,6,1,3,49,76,11
8,3,13,1,2,0,3,49,89,11
8,3,19,1,2,0,3,49,26,11
8,3,13,1,5,1,3,49,18,11
8,3,18,1,6,1,3,49,8,11
8,3,22,0,1,0,3,49,75,11
8,3,18,1,2,0,3,49,46,11
9,4,19,1,5,1,3,49,107,11
9,4,21,0,2,0,3,49,18,11
9,4,18,1,6,1,3,49,89,11
9,4,23,0,0,0,3,49,38,11
10,4,1,0,1,0,4,49,38,11
10,4,0,0,6,1,4,49,87,11
10,4,14,1,6,1,4,49,89,11
10,4,9,1,3,0,4,49,4,11
11,4,9,1,1,0,4,49,128,11
11,4,3,0,0,0,4,49,95,11
11,4,10,1,1,0,4,49,89,11
11,4,23,0,1,0,4,49,92,11
11,4,23,0,5,1,4,49,87,11
12,1,3,0,5,1,4,49,12,11
12,1,20,1,1,0,4,49,38,11
12,1,17,1,4,0,4,49,75,11
1,1,16,1,0,0,1,49,75,9
1,1,4,0,1,0,1,49,75,11
3,2,9,1,6,1,1,49,65,9
1,1,21,0,5,1,1,49,13,9
1,1,6,0,1,0,1,49,13,11
1,1,16,1,1,0,1,49,109,9
1,1,14,1,2,0,1,49,89,11
1,1,22,0,5,1,1,49,117,11
1,1,13,1,5,1,1,49,88,11
1,1,15,1,1,0,1,49,100,11
2,1,13,1,6,1,1,49,100,11
2,1,16,1,6,1,1,49,89,11
2,1,11,1,1,0,1,49,75,11
3,2,14,1,0,0,1,49,4,11
3,2,17,1,1,0,1,49,4,11
4,2,23,0,2,0,2,49,72,11
4,2,13,1,5,1,2,49,57,11
4,2,11,1,6,1,2,49,89,11
5,2,23,0,5,1,2,49,100,11
5,2,18,1,6,1,2,49,100,11
5,2,3,0,3,0,2,49,100,11
6,3,10,1,5,1,2,49,40,11
6,3,11,1,2,0,2,49,89,11
6,3,1,0,3,0,2,49,110,11
6,3,17,1,5,1,2,49,89,11
7,3,19,1,2,0,3,49,128,11
8,3,16,1,6,1,3,49,100,11
8,3,11,1,2,0,3,49,89,11
8,3,17,1,5,1,3,49,18,11
8,3,9,1,3,0,3,49,13,11
9,4,12,1,1,0,3,49,100,11
9,4,10,1,4,0,3,49,89,11
9,4,14,1,3,0,3,49,89,11
10,4,17,1,3,0,4,49,84,11
10,4,7,1,4,0,4,49,72,11
10,4,16,1,1,0,4,49,89,11
10,4,13,1,1,0,4,49,89,11
10,4,11,1,4,0,4,49,72,11
10,4,9,1,2,0,4,49,100,11
11,4,17,1,6,1,4,49,38,11
11,4,2,0,5,1,4,49,71,9
11,4,23,0,4,0,4,49,110,11
12,1,22,0,1,0,4,49,110,11
12,1,9,1,5,1,4,49,18,11
1,1,17,1,2,0,1,49,12,11
1,1,0,0,4,0,1,49,75,9
1,1,20,1,6,1,1,49,100,11
1,1,5,0,2,0,1,49,75,11
2,1,13,1,4,0,1,49,128,11
2,1,11,1,6,1,1,49,89,9
2,1,19,1,6,1,1,49,72,9
2,1,12,1,5,1,1,49,75,9
2,1,12,1,6,1,1,49,100,11
2,1,17,1,4,0,1,49,25,11
2,1,0,0,2,0,1,49,38,9
2,1,3,0,2,0,1,49,87,11
2,1,21,0,2,0,1,49,89,11
3,2,18,1,1,0,1,49,75,11
3,2,6,0,4,0,1,49,78,8
3,2,14,1,3,0,1,49,128,11
3,2,17,1,6,1,1,49,89,11
3,2,19,1,5,1,1,49,100,11
3,2,16,1,2,0,1,49,75,11
4,2,20,1,5,1,2,49,75,9
4,2,13,1,6,1,2,49,4,11
5,2,20,1,5,1,2,49,110,11
5,2,10,1,6,1,2,49,89,11
5,2,0,0,0,0,2,49,128,11
5,2,3,0,6,1,2,49,72,11
5,2,13,1,3,0,2,49,100,11
5,2,23,0,3,0,2,49,87,9
5,2,12,1,2,0,2,49,89,9
5,2,15,1,4,0,2,49,89,11
6,3,17,1,0,0,2,49,26,11
6,3,16,1,2,0,2,49,128,9
6,3,19,1,3,0,2,49,26,11
6,3,23,0,5,1,2,49,100,11
6,3,20,1,3,0,2,49,26,11
6,3,9,1,4,0,2,49,72,11
6,3,9,1,4,0,2,49,65,11
6,3,0,0,5,1,2,49,89,11
6,3,10,1,0,0,2,49,72,11
6,3,9,1,3,0,2,49,100,11
6,3,11,1,4,0,2,49,89,11
7,3,15,1,6,1,3,49,100,11
7,3,0,0,1,0,3,49,75,11
7,3,13,1,5,1,3,49,75,11
7,3,11,1,6,1,3,49,18,9
7,3,1,0,0,0,3,49,12,9
7,3,15,1,1,0,3,49,4,11
8,3,0,0,3,0,3,49,128,9
8,3,23,0,1,0,3,49,110,11
8,3,23,0,1,0,3,49,110,11
8,3,11,1,3,0,3,49,4,11
9,4,17,1,0,0,3,49,100,11
9,4,19,1,0,0,3,49,89,11
10,4,10,1,2,0,4,49,89,11
10,4,0,0,5,1,4,49,110,11
10,4,9,1,6,1,4,49,40,11
10,4,13,1,0,0,4,49,26,11
10,4,21,0,0,0,4,49,128,11
10,4,9,1,3,0,4,49,89,11
10,4,18,1,6,1,4,49,38,11
11,4,14,1,6,1,4,49,68,9
11,4,10,1,0,0,4,49,89,11
11,4,9,1,5,1,4,49,89,11
11,4,19,1,6,1,4,49,38,11
11,4,5,0,5,1,4,49,75,11
11,4,12,1,5,1,4,49,72,9
12,1,11,1,2,0,4,49,110,11
12,1,16,1,5,1,4,49,26,11
12,1,19,1,3,0,4,49,72,9
12,1,21,0,6,1,4,49,4,11
12,1,18,1,1,0,4,49,75,11
12,1,8,1,3,0,4,49,110,11
12,1,1,0,5,1,4,49,58,9
1,1,13,1,1,0,1,49,84,11
1,1,11,1,0,0,1,49,89,11
2,1,16,1,2,0,1,49,89,11
3,2,20,1,4,0,1,49,34,11
3,2,16,1,5,1,1,49,34,11
5,2,21,0,6,1,2,49,100,11
8,3,11,1,0,0,3,49,89,11
8,3,8,1,2,0,3,49,4,11
8,3,17,1,4,0,3,49,100,11
8,3,14,1,3,0,3,49,33,11
9,4,1,0,6,1,3,49,97,11
9,4,16,1,4,0,3,49,117,9
9,4,16,1,4,0,3,49,18,11
9,4,13,1,0,0,3,49,34,9
10,4,14,1,5,1,4,49,4,11
11,4,17,1,4,0,4,49,75,9
11,4,14,1,6,1,4,49,128,11
12,1,20,1,6,1,4,49,65,11
12,1,0,0,4,0,4,49,89,11
12,1,4,0,4,0,4,49,95,11
1,1,4,0,2,0,1,49,110,11
1,1,13,1,5,1,1,49,100,11
2,1,0,0,5,1,1,49,67,11
2,1,15,1,3,0,1,49,100,11
2,1,17,1,4,0,1,49,125,11
3,2,13,1,3,0,1,49,100,11
6,3,18,1,0,0,2,49,75,11
10,4,13,1,2,0,4,49,75,11
11,4,13,1,3,0,4,49,100,11
1,1,19,1,3,0,1,26,100,11
1,1,16,1,4,0,1,26,100,11
1,1,13,1,5,1,1,26,100,11
1,1,16,1,4,0,1,26,100,11
1,1,20,1,4,0,1,26,72,8
1,1,13,1,0,0,1,26,75,11
1,1,18,1,5,1,1,26,100,11
1,1,1,0,2,0,1,26,75,11
2,1,13,1,5,1,1,26,100,11
2,1,15,1,6,1,1,26,100,11
2,1,18,1,3,0,1,26,100,11
2,1,11,1,1,0,1,26,89,11
2,1,14,1,1,0,1,26,65,11
2,1,21,0,3,0,1,26,65,11
3,2,7,1,2,0,1,26,75,8
3,2,19,1,2,0,1,26,65,11
3,2,11,1,0,0,1,26,87,11
3,2,11,1,6,1,1,26,58,11
4,2,4,0,0,0,2,26,18,11
4,2,11,1,2,0,2,26,95,11
4,2,20,1,4,0,2,26,100,11
4,2,13,1,5,1,2,26,67,11
4,2,22,0,6,1,2,26,89,11
4,2,11,1,1,0,2,26,100,11
4,2,21,0,2,0,2,26,100,11
4,2,2,0,5,1,2,26,100,11
4,2,0,0,6,1,2,26,117,11
4,2,17,1,3,0,2,26,75,11
4,2,18,1,6,1,2,26,100,11
4,2,9,1,5,1,2,26,4,11
4,2,15,1,5,1,2,26,4,11
4,2,2,0,1,0,2,26,89,11
5,2,14,1,2,0,2,26,65,11
5,2,8,1,4,0,2,26,13,11
5,2,18,1,0,0,2,26,13,8
5,2,9,1,3,0,2,26,100,11
5,2,12,1,6,1,2,26,13,11
5,2,23,0,6,1,2,26,75,11
5,2,8,1,1,0,2,26,38,11
5,2,22,0,1,0,2,26,110,11
5,2,1,0,4,0,2,26,30,11
6,3,11,1,0,0,2,26,65,11
6,3,10,1,6,1,2,26,75,11
6,3,11,1,6,1,2,26,89,11
6,3,11,1,1,0,2,26,100,11
6,3,21,0,2,0,2,26,100,11
6,3,12,1,4,0,2,26,89,11
6,3,17,1,4,0,2,26,100,11
6,3,21,0,5,1,2,26,22,11
6,3,0,0,1,0,2,26,75,9
6,3,21,0,3,0,2,26,110,11
6,3,11,1,5,1,2,26,95,11
7,3,19,1,1,0,3,26,110,11
7,3,3,0,6,1,3,26,100,11
7,3,11,1,0,0,3,26,89,11
7,3,21,0,6,1,3,26,18,11
7,3,15,1,0,0,3,26,89,11
7,3,5,0,4,0,3,26,100,11
7,3,17,1,4,0,3,26,100,11
7,3,17,1,5,1,3,26,18,11
7,3,17,1,0,0,3,26,100,11
7,3,17,1,2,0,3,26,89,11
7,3,9,1,5,1,3,26,89,11
7,3,13,1,5,1,3,26,4,11
7,3,10,1,0,0,3,26,75,11
8,3,10,1,0,0,3,26,18,8
8,3,11,1,1,0,3,26,4,11
8,3,20,1,1,0,3,26,89,11
8,3,8,1,4,0,3,26,38,11
8,3,19,1,6,1,3,26,4,11
9,4,7,1,0,0,3,26,89,11
9,4,11,1,0,0,3,26,89,11
9,4,9,1,1,0,3,26,62,11
9,4,10,1,3,0,3,26,100,11
9,4,16,1,0,0,3,26,4,11
9,4,11,1,2,0,3,26,38,11
9,4,16,1,5,1,3,26,100,11
9,4,16,1,6,1,3,26,89,11
10,4,9,1,1,0,4,26,13,11
10,4,23,0,1,0,4,26,22,11
10,4,12,1,2,0,4,26,89,11
10,4,16,1,6,1,4,26,100,11
10,4,19,1,6,1,4,26,100,11
10,4,10,1,0,0,4,26,13,11
10,4,6,0,5,1,4,26,109,11
10,4,20,1,1,0,4,26,100,11
10,4,13,1,3,0,4,26,128,11
10,4,19,1,3,0,4,26,100,11
10,4,9,1,4,0,4,26,100,11
10,4,12,1,1,0,4,26,89,11
10,4,1,0,3,0,4,26,72,11
10,4,10,1,3,0,4,26,100,11
10,4,12,1,5,1,4,26,89,11
10,4,15,1,5,1,4,26,72,11
10,4,17,1,0,0,4,26,100,11
10,4,10,1,1,0,4,26,100,11
10,4,18,1,1,0,4,26,100,11
11,4,17,1,4,0,4,26,100,11
11,4,21,0,5,1,4,26,89,11
11,4,7,1,1,0,4,26,100,11
11,4,12,1,2,0,4,26,100,11
11,4,13,1,2,0,4,26,65,11
11,4,23,0,2,0,4,26,18,11
11,4,15,1,5,1,4,26,100,11
11,4,6,0,0,0,4,26,100,11
11,4,16,1,0,0,4,26,100,11
11,4,17,1,0,0,4,26,100,11
11,4,14,1,2,0,4,26,100,11
11,4,15,1,2,0,4,26,100,11
11,4,6,0,3,0,4,26,65,11
11,4,14,1,3,0,4,26,100,11
12,1,11,1,6,1,4,26,110,11
12,1,16,1,2,0,4,26,65,11
12,1,19,1,3,0,4,26,18,11
12,1,18,1,5,1,4,26,100,11
12,1,20,1,4,0,4,26,100,11
12,1,14,1,5,1,4,26,75,11
12,1,15,1,1,0,4,26,128,11
12,1,6,0,4,0,4,26,95,11
4,2,12,1,3,0,2,26,13,11
4,2,18,1,1,0,2,26,100,11
5,2,15,1,0,0,2,26,100,11
5,2,15,1,5,1,2,26,89,11
6,3,19,1,6,1,2,26,100,11
6,3,22,0,6,1,2,26,64,11
6,3,12,1,0,0,2,26,100,11
8,3,17,1,3,0,3,26,100,11
8,3,16,1,0,0,3,26,4,9
9,4,6,0,6,1,3,26,12,8
9,4,11,1,0,0,3,26,100,11
9,4,19,1,5,1,3,26,75,11
9,4,16,1,6,1,3,26,100,11
10,4,13,1,6,1,4,26,100,11
10,4,10,1,0,0,4,26,89,11
12,1,12,1,6,1,4,26,75,11
12,1,8,1,4,0,4,26,75,11
3,2,15,1,4,0,1,26,110,11
3,2,19,1,3,0,1,26,100,11
4,2,18,1,1,0,2,26,110,11
5,2,9,1,4,0,2,26,12,8
5,2,17,1,0,0,2,26,4,11
6,3,12,1,0,0,2,26,4,11
6,3,18,1,0,0,2,26,128,11
6,3,14,1,4,0,2,26,110,11
7,3,20,1,1,0,3,26,110,11
7,3,8,1,4,0,3,26,110,11
7,3,3,0,6,1,3,26,18,11
7,3,13,1,2,0,3,26,4,11
8,3,7,1,5,1,3,26,100,11
9,4,14,1,2,0,3,26,18,11
9,4,23,0,2,0,3,26,22,11
10,4,22,0,3,0,4,26,13,11
10,4,16,1,2,0,4,26,100,11
10,4,20,1,2,0,4,26,100,11
11,4,16,1,1,0,4,26,100,11
1,1,13,1,6,1,1,26,13,11
1,1,1,0,3,0,1,26,100,11
1,1,10,1,5,1,1,26,38,8
2,1,11,1,3,0,1,26,95,11
2,1,17,1,6,1,1,26,89,9
5,2,1,0,3,0,2,26,75,9
6,3,18,1,1,0,2,26,100,11
6,3,13,1,5,1,2,26,100,11
6,3,22,0,6,1,2,26,18,11
6,3,18,1,2,0,2,26,100,11
9,4,0,0,3,0,3,26,75,8
9,4,18,1,4,0,3,26,75,11
9,4,19,1,3,0,3,26,89,11
9,4,19,1,6,1,3,26,95,11
10,4,20,1,2,0,4,26,86,11
10,4,11,1,6,1,4,26,100,11
10,4,11,1,0,0,4,26,100,11
10,4,15,1,1,0,4,26,4,11
12,1,12,1,1,0,4,26,38,11
1,1,19,1,5,1,1,38,4,11
1,1,23,0,6,1,1,38,24,9
1,1,1,0,0,0,1,38,128,11
1,1,8,1,1,0,1,38,110,11
1,1,14,1,6,1,1,38,128,11
1,1,19,1,3,0,1,38,75,9
1,1,17,1,5,1,1,38,128,11
1,1,13,1,2,0,1,38,100,11
1,1,14,1,5,1,1,38,100,11
1,1,13,1,0,0,1,38,100,11
1,1,18,1,0,0,1,38,100,11
1,1,15,1,1,0,1,38,100,11
1,1,17,1,2,0,1,38,100,11
2,1,8,1,4,0,1,38,100,11
2,1,18,1,4,0,1,38,100,11
2,1,12,1,5,1,1,38,100,11
2,1,15,1,6,1,1,38,89,11
2,1,17,1,6,1,1,38,100,11
2,1,20,1,2,0,1,38,100,11
2,1,0,0,3,0,1,38,100,11
2,1,13,1,4,0,1,38,100,11
2,1,0,0,5,1,1,38,100,11
2,1,14,1,5,1,1,38,100,11
2,1,17,1,5,1,1,38,100,11
2,1,0,0,2,0,1,38,100,11
2,1,12,1,2,0,1,38,100,11
2,1,14,1,2,0,1,38,89,11
2,1,14,1,2,0,1,38,128,11
2,1,11,1,4,0,1,38,100,11
2,1,10,1,5,1,1,38,100,11
2,1,14,1,5,1,1,38,100,11
2,1,15,1,5,1,1,38,100,11
2,1,18,1,6,1,1,38,100,11
2,1,19,1,6,1,1,38,100,11
2,1,12,1,1,0,1,38,128,11
2,1,10,1,2,0,1,38,100,11
2,1,18,1,2,0,1,38,100,11
2,1,18,1,3,0,1,38,100,11
2,1,9,1,4,0,1,38,100,11
2,1,22,0,5,1,1,38,128,11
3,2,18,1,5,1,1,38,30,11
3,2,12,1,0,0,1,38,128,11
3,2,17,1,4,0,1,38,100,11
3,2,19,1,5,1,1,38,100,11
3,2,1,0,6,1,1,38,100,11
3,2,1,0,6,1,1,38,128,11
3,2,13,1,6,1,1,38,100,11
3,2,19,1,6,1,1,38,75,11
3,2,19,1,6,1,1,38,100,11
3,2,19,1,3,0,1,38,100,11
4,2,20,1,1,0,2,38,100,11
4,2,19,1,2,0,2,38,12,11
4,2,22,0,2,0,2,38,128,11
4,2,8,1,3,0,2,38,128,11
4,2,20,1,4,0,2,38,100,11
4,2,18,1,5,1,2,38,100,11
4,2,22,0,5,1,2,38,38,9
4,2,17,1,6,1,2,38,100,11
4,2,10,1,4,0,2,38,100,11
4,2,20,1,5,1,2,38,100,11
4,2,22,0,1,0,2,38,128,11
5,2,21,0,2,0,2,38,100,11
5,2,22,0,2,0,2,38,63,9
5,2,19,1,1,0,2,38,128,11
5,2,9,1,5,1,2,38,38,11
5,2,12,1,2,0,2,38,100,11
5,2,13,1,6,1,2,38,100,11
5,2,18,1,1,0,2,38,109,9
5,2,21,0,4,0,2,38,12,9
6,3,12,1,3,0,2,38,100,11
6,3,21,0,3,0,2,38,100,11
6,3,23,0,4,0,2,38,100,11
6,3,13,1,0,0,2,38,100,11
6,3,12,1,1,0,2,38,128,11
6,3,20,1,5,1,2,38,100,11
6,3,23,0,0,0,2,38,100,11
6,3,16,1,4,0,2,38,100,11
6,3,17,1,4,0,2,38,81,11
6,3,20,1,4,0,2,38,11,11
6,3,21,0,5,1,2,38,100,11
6,3,23,0,6,1,2,38,18,11
6,3,18,1,0,0,2,38,100,11
6,3,0,0,2,0,2,38,100,11
6,3,15,1,6,1,2,38,89,11
7,3,12,1,1,0,3,38,100,9
7,3,22,0,5,1,3,38,128,11
7,3,5,0,6,1,3,38,18,11
7,3,10,1,1,0,3,38,128,11
7,3,20,1,5,1,3,38,100,11
7,3,20,1,0,0,3,38,128,11
7,3,22,0,1,0,3,38,100,11
7,3,8,1,2,0,3,38,18,11
8,3,13,1,0,0,3,38,100,11
8,3,14,1,1,0,3,38,100,11
8,3,12,1,2,0,3,38,89,11
8,3,20,1,4,0,3,38,100,11
8,3,14,1,6,1,3,38,100,11
8,3,22,0,1,0,3,38,100,11
8,3,18,1,2,0,3,38,65,11
8,3,18,1,5,1,3,38,100,11
8,3,20,1,6,1,3,38,100,11
8,3,22,0,2,0,3,38,100,11
8,3,17,1,0,0,3,38,89,11
8,3,18,1,2,0,3,38,100,11
8,3,16,1,3,0,3,38,100,11
9,4,17,1,0,0,3,38,100,11
9,4,12,1,2,0,3,38,128,11
9,4,19,1,1,0,3,38,128,11
9,4,16,1,4,0,3,38,128,11
9,4,22,0,3,0,3,38,100,11
9,4,15,1,6,1,3,38,114,11
9,4,9,1,0,0,3,38,38,11
10,4,12,1,2,0,4,38,100,11
10,4,19,1,2,0,4,38,100,11
10,4,19,1,4,0,4,38,100,11
10,4,3,0,5,1,4,38,110,11
10,4,13,1,6,1,4,38,100,11
10,4,14,1,1,0,4,38,100,11
10,4,20,1,2,0,4,38,100,11
10,4,10,1,4,0,4,38,128,11
10,4,20,1,4,0,4,38,100,11
10,4,15,1,5,1,4,38,89,11
10,4,11,1,1,0,4,38,65,11
10,4,20,1,2,0,4,38,100,11
10,4,23,0,3,0,4,38,100,11
10,4,1,0,4,0,4,38,100,11
10,4,1,0,4,0,4,38,100,11
10,4,10,1,5,1,4,38,38,11
10,4,18,1,5,1,4,38,100,11
10,4,19,1,5,1,4,38,100,11
10,4,3,0,1,0,4,38,100,11
10,4,21,0,3,0,4,38,128,11
10,4,23,0,3,0,4,38,128,11
10,4,19,1,4,0,4,38,100,11
10,4,12,1,6,1,4,38,128,11
10,4,10,1,0,0,4,38,100,11
10,4,8,1,2,0,4,38,108,11
11,4,16,1,4,0,4,38,100,11
11,4,11,1,5,1,4,38,100,11
11,4,16,1,6,1,4,38,100,11
11,4,10,1,1,0,4,38,100,11
11,4,23,0,1,0,4,38,18,11
11,4,16,1,2,0,4,38,100,11
11,4,19,1,4,0,4,38,13,11
11,4,19,1,5,1,4,38,100,11
11,4,12,1,6,1,4,38,100,11
11,4,16,1,6,1,4,38,100,11
11,4,16,1,1,0,4,38,13,11
11,4,14,1,4,0,4,38,100,11
11,4,16,1,5,1,4,38,100,11
11,4,17,1,0,0,4,38,100,11
11,4,21,0,1,0,4,38,100,11
12,1,12,1,6,1,4,38,128,11
12,1,19,1,1,0,4,38,128,11
12,1,18,1,5,1,4,38,75,11
12,1,12,1,5,1,4,38,100,11
12,1,15,1,5,1,4,38,75,11
12,1,14,1,3,0,4,38,128,11
12,1,15,1,3,0,4,38,128,11
12,1,19,1,4,0,4,38,128,11
12,1,21,0,4,0,4,38,128,11
12,1,17,1,6,1,4,38,100,11
12,1,17,1,1,0,4,38,100,11
1,1,19,1,0,0,1,38,24,11
1,1,2,0,5,1,1,38,13,9
1,1,18,1,3,0,1,38,95,11
1,1,0,0,4,0,1,19,67,8
1,1,10,1,4,0,1,38,75,11
1,1,13,1,4,0,1,38,89,11
1,1,15,1,5,1,1,38,110,11
1,1,17,1,0,0,1,38,95,11
1,1,19,1,0,0,1,19,100,11
2,1,15,1,3,0,1,38,100,11
2,1,13,1,4,0,1,38,100,11
2,1,18,1,4,0,1,38,3,11
2,1,17,1,5,1,1,38,100,11
2,1,11,1,1,0,1,19,89,11
2,1,19,1,1,0,1,38,18,11
2,1,14,1,2,0,1,38,100,11
2,1,13,1,2,0,1,38,100,11
2,1,20,1,3,0,1,38,100,11
2,1,16,1,4,0,1,38,75,11
2,1,20,1,4,0,1,38,100,11
2,1,23,0,5,1,1,38,72,11
2,1,19,1,0,0,1,38,100,11
2,1,21,0,2,0,1,38,95,11
2,1,12,1,3,0,1,38,100,11
2,1,16,1,3,0,1,38,100,11
2,1,17,1,3,0,1,38,100,11
2,1,21,0,0,0,1,38,18,11
2,1,11,1,3,0,1,38,72,11
3,2,12,1,4,0,1,38,22,11
3,2,0,0,3,0,1,38,60,11
3,2,2,0,0,0,1,38,7,11
3,2,13,1,2,0,1,19,100,11
3,2,14,1,2,0,1,19,100,11
3,2,15,1,3,0,1,38,125,11
3,2,19,1,3,0,1,19,26,9
3,2,21,0,4,0,1,19,100,11
3,2,14,1,6,1,1,38,95,11
4,2,13,1,4,0,2,38,89,11
4,2,21,0,4,0,2,38,109,11
4,2,7,1,5,1,2,38,65,11
4,2,13,1,5,1,2,19,38,11
4,2,13,1,1,0,2,38,12,8
4,2,12,1,2,0,2,38,22,11
4,2,14,1,2,0,2,38,63,11
4,2,15,1,3,0,2,38,100,11
4,2,0,0,4,0,2,38,95,11
4,2,17,1,4,0,2,38,72,11
4,2,16,1,1,0,2,38,100,11
4,2,17,1,1,0,2,38,100,11
4,2,14,1,2,0,2,38,4,11
4,2,21,0,5,1,2,38,89,8
4,2,23,0,5,1,2,38,100,11
4,2,10,1,0,0,2,19,126,11
4,2,22,0,0,0,2,38,100,11
4,2,16,1,2,0,2,38,100,11
4,2,21,0,5,1,2,38,100,11
4,2,5,0,6,1,2,19,18,11
4,2,14,1,1,0,2,38,89,11
5,2,19,1,3,0,2,38,75,11
5,2,13,1,0,0,2,38,100,11
5,2,8,1,1,0,2,38,100,11
5,2,14,1,2,0,2,38,100,11
5,2,15,1,2,0,2,19,100,11
5,2,15,1,3,0,2,38,100,11
5,2,21,0,5,1,2,38,100,11
5,2,10,1,1,0,2,19,100,11
5,2,12,1,0,0,2,19,100,11
5,2,16,1,3,0,2,38,75,11
5,2,16,1,3,0,2,38,38,11
5,2,17,1,3,0,2,19,100,11
5,2,19,1,3,0,2,38,100,11
5,2,19,1,3,0,2,38,100,11
5,2,14,1,4,0,2,38,75,11
5,2,10,1,5,1,2,38,100,11
5,2,16,1,5,1,2,38,100,11
5,2,14,1,6,1,2,19,100,11
5,2,15,1,6,1,2,38,100,11
5,2,20,1,2,0,2,38,125,11
6,3,10,1,6,1,2,38,100,11
6,3,15,1,6,1,2,38,63,8
6,3,16,1,6,1,2,38,100,11
6,3,11,1,1,0,2,19,126,11
6,3,15,1,1,0,2,38,100,11
6,3,17,1,1,0,2,38,100,11
6,3,12,1,2,0,2,38,100,11
6,3,18,1,2,0,2,38,100,11
6,3,5,0,2,0,2,38,100,11
6,3,14,1,2,0,2,19,100,11
6,3,19,1,2,0,2,38,75,11
6,3,0,0,3,0,2,19,100,11
6,3,22,0,4,0,2,38,100,11
6,3,12,1,5,1,2,38,100,11
6,3,19,1,5,1,2,38,100,11
6,3,1,0,1,0,2,19,100,11
6,3,17,1,1,0,2,38,100,11
6,3,18,1,3,0,2,38,100,11
6,3,18,1,4,0,2,38,65,11
6,3,20,1,4,0,2,38,89,11
6,3,15,1,5,1,2,38,100,11
6,3,18,1,0,0,2,38,112,11
6,3,17,1,3,0,2,38,100,11
7,3,21,0,0,0,3,19,100,11
7,3,21,0,2,0,3,38,100,11
7,3,18,1,5,1,3,38,100,11
7,3,8,1,0,0,3,38,100,11
7,3,11,1,0,0,3,38,79,11
7,3,21,0,1,0,3,38,100,11
7,3,22,0,1,0,3,38,18,11
7,3,15,1,5,1,3,19,100,11
7,3,17,1,5,1,3,38,89,11
7,3,18,1,5,1,3,38,18,11
7,3,19,1,5,1,3,38,100,11
7,3,10,1,1,0,3,38,89,11
7,3,12,1,1,0,3,38,100,11
7,3,15,1,1,0,3,38,125,11
7,3,22,0,1,0,3,19,100,11
7,3,11,1,2,0,3,38,100,11
7,3,17,1,2,0,3,38,100,11
7,3,22,0,2,0,3,38,100,11
7,3,14,1,3,0,3,38,100,11
7,3,11,1,5,1,3,38,46,11
7,3,14,1,6,1,3,38,100,11
7,3,6,0,1,0,3,38,89,11
7,3,17,1,1,0,3,38,100,11
7,3,13,1,3,0,3,19,100,11
7,3,21,0,3,0,3,19,100,11
7,3,15,1,4,0,3,38,100,11
7,3,18,1,0,0,3,19,100,11
7,3,12,1,1,0,3,38,100,11
7,3,13,1,2,0,3,38,100,11
8,3,21,0,5,1,3,19,100,11
8,3,19,1,6,1,3,38,100,11
8,3,0,0,3,0,3,38,18,11
8,3,8,1,3,0,3,38,100,11
8,3,12,1,4,0,3,38,100,11
8,3,21,0,4,0,3,38,100,11
8,3,14,1,5,1,3,38,100,11
8,3,10,1,6,1,3,38,100,11
8,3,19,1,6,1,3,38,100,11
8,3,21,0,6,1,3,38,100,11
8,3,21,0,0,0,3,38,100,11
8,3,11,1,1,0,3,38,100,11
8,3,14,1,2,0,3,38,100,11
8,3,23,0,2,0,3,38,100,11
8,3,9,1,3,0,3,19,29,11
8,3,7,1,1,0,3,38,100,11
8,3,16,1,3,0,3,19,72,11
8,3,20,1,4,0,3,38,100,11
8,3,6,0,6,1,3,38,100,11
8,3,16,1,3,0,3,19,100,11
9,4,19,1,6,1,3,38,100,11
9,4,21,0,0,0,3,38,100,11
9,4,13,1,2,0,3,38,100,11
9,4,16,1,2,0,3,38,18,11
9,4,17,1,2,0,3,19,100,11
9,4,12,1,4,0,3,38,100,11
9,4,20,1,6,1,3,38,100,11
9,4,10,1,0,0,3,38,95,11
9,4,13,1,4,0,3,38,100,11
9,4,18,1,6,1,3,19,100,11
9,4,10,1,0,0,3,38,100,11
9,4,18,1,2,0,3,38,125,11
9,4,17,1,6,1,3,38,100,11
9,4,23,0,6,1,3,38,100,11
9,4,18,1,0,0,3,19,100,11
9,4,7,1,1,0,3,19,100,11
9,4,16,1,1,0,3,38,100,11
9,4,17,1,1,0,3,19,100,11
9,4,17,1,4,0,3,38,100,11
9,4,6,0,5,1,3,38,100,11
9,4,14,1,5,1,3,19,89,11
9,4,17,1,6,1,3,38,100,11
9,4,17,1,0,0,3,38,89,11
9,4,18,1,0,0,3,38,100,11
9,4,23,0,0,0,3,38,4,11
10,4,7,1,1,0,4,38,100,11
10,4,7,1,1,0,4,38,100,11
10,4,18,1,1,0,4,38,100,11
10,4,21,0,1,0,4,38,57,11
10,4,16,1,2,0,4,38,100,11
10,4,14,1,4,0,4,38,89,11
10,4,19,1,4,0,4,38,100,11
10,4,20,1,4,0,4,38,100,11
10,4,10,1,0,0,4,38,4,11
10,4,13,1,1,0,4,38,100,11
10,4,15,1,4,0,4,38,75,11
10,4,18,1,5,1,4,38,100,11
10,4,19,1,6,1,4,38,100,11
10,4,8,1,0,0,4,38,100,11
10,4,14,1,0,0,4,19,100,11
10,4,12,1,2,0,4,38,24,11
10,4,13,1,2,0,4,38,100,11
10,4,18,1,3,0,4,38,100,11
10,4,18,1,5,1,4,38,100,11
10,4,21,0,6,1,4,38,111,11
10,4,14,1,0,0,4,38,100,11
10,4,14,1,2,0,4,38,100,11
10,4,17,1,2,0,4,19,100,11
10,4,15,1,5,1,4,19,100,11
10,4,16,1,5,1,4,38,100,11
10,4,17,1,0,0,4,38,95,11
10,4,21,0,0,0,4,38,100,11
10,4,17,1,1,0,4,38,125,11
10,4,18,1,1,0,4,38,89,11
10,4,11,1,2,0,4,38,100,11
11,4,6,0,4,0,4,38,100,11
11,4,16,1,4,0,4,38,100,11
11,4,12,1,5,1,4,38,100,11
11,4,19,1,5,1,4,38,100,11
11,4,0,0,6,1,4,38,38,11
11,4,7,1,6,1,4,38,95,11
11,4,17,1,6,1,4,38,100,11
11,4,14,1,0,0,4,38,100,11
11,4,18,1,0,0,4,38,100,11
11,4,16,1,1,0,4,38,100,11
11,4,20,1,1,0,4,38,100,11
11,4,9,1,2,0,4,38,125,11
11,4,17,1,2,0,4,38,100,11
11,4,14,1,3,0,4,19,100,11
11,4,10,1,4,0,4,38,65,11
11,4,13,1,4,0,4,38,100,11
11,4,3,0,5,1,4,38,95,11
11,4,9,1,5,1,4,38,100,11
11,4,15,1,5,1,4,38,100,11
11,4,12,1,6,1,4,19,100,11
11,4,16,1,6,1,4,38,100,11
11,4,21,0,6,1,4,38,100,11
11,4,17,1,0,0,4,19,100,11
11,4,19,1,1,0,4,38,100,11
11,4,23,0,4,0,4,38,95,11
11,4,2,0,6,1,4,19,100,11
11,4,11,1,6,1,4,38,100,11
11,4,10,1,0,0,4,19,38,11
11,4,11,1,1,0,4,38,1,11
11,4,20,1,1,0,4,38,65,11
12,1,8,1,2,0,4,38,64,11
12,1,14,1,3,0,4,38,89,11
12,1,21,0,5,1,4,38,95,11
2,1,20,1,5,1,1,19,100,11
4,2,2,0,3,0,2,19,15,11
9,4,10,1,5,1,3,19,100,11
11,4,18,1,6,1,4,19,100,11
1,1,17,1,4,0,1,38,87,11
1,1,9,1,5,1,1,38,87,11
1,1,9,1,5,1,1,38,75,11
1,1,10,1,5,1,1,38,87,11
1,1,12,1,5,1,1,38,75,11
1,1,13,1,3,0,1,38,100,11
1,1,14,1,3,0,1,38,100,11
1,1,23,0,1,0,1,38,75,11
1,1,3,0,2,0,1,38,87,11
2,1,14,1,3,0,1,38,100,11
2,1,18,1,4,0,1,38,100,11
2,1,14,1,5,1,1,38,100,11
2,1,14,1,6,1,1,38,100,11
2,1,15,1,6,1,1,38,100,11
2,1,19,1,6,1,1,38,100,11
2,1,18,1,0,0,1,38,100,11
2,1,20,1,1,0,1,38,100,11
2,1,19,1,3,0,1,38,100,11
2,1,10,1,0,0,1,38,87,11
2,1,18,1,4,0,1,38,75,11
2,1,18,1,4,0,1,38,100,11
2,1,13,1,5,1,1,38,100,11
2,1,16,1,6,1,1,38,100,11
2,1,18,1,6,1,1,38,57,11
2,1,18,1,0,0,1,38,87,11
2,1,17,1,1,0,1,38,100,11
3,2,18,1,6,1,1,38,65,11
3,2,12,1,4,0,1,38,100,11
3,2,18,1,1,0,1,38,100,11
3,2,8,1,4,0,1,38,87,11
3,2,9,1,0,0,1,38,87,11
3,2,14,1,0,0,1,38,65,11
3,2,12,1,1,0,1,38,100,11
3,2,5,0,4,0,1,38,75,9
3,2,15,1,6,1,1,38,87,11
4,2,20,1,0,0,2,38,87,11
4,2,20,1,3,0,2,38,87,11
4,2,17,1,1,0,2,38,100,11
4,2,16,1,2,0,2,38,100,11
4,2,19,1,2,0,2,38,100,11
4,2,20,1,2,0,2,38,100,11
4,2,16,1,3,0,2,38,87,11
4,2,0,0,6,1,2,38,87,11
4,2,14,1,1,0,2,38,100,11
5,2,18,1,2,0,2,38,100,11
5,2,17,1,2,0,2,38,87,11
6,3,23,0,6,1,2,38,38,11
6,3,18,1,3,0,2,38,100,11
6,3,11,1,0,0,2,38,100,11
6,3,15,1,3,0,2,38,87,11
6,3,18,1,3,0,2,38,87,11
6,3,12,1,6,1,2,38,87,11
6,3,16,1,0,0,2,38,87,11
6,3,19,1,0,0,2,38,89,11
6,3,13,1,5,1,2,38,87,11
6,3,19,1,6,1,2,38,87,11
6,3,14,1,0,0,2,38,75,8
6,3,3,0,2,0,2,38,87,11
6,3,15,1,2,0,2,38,87,9
6,3,18,1,5,1,2,38,87,11
7,3,16,1,1,0,3,38,100,11
7,3,11,1,3,0,3,38,87,11
7,3,21,0,4,0,3,38,87,11
7,3,21,0,6,1,3,38,100,11
7,3,18,1,3,0,3,38,89,11
7,3,12,1,5,1,3,38,100,11
7,3,20,1,0,0,3,38,100,11
7,3,15,1,2,0,3,38,100,11
7,3,19,1,2,0,3,38,100,11
7,3,17,1,6,1,3,38,87,11
8,3,19,1,0,0,3,38,87,11
8,3,10,1,5,1,3,38,87,11
8,3,10,1,6,1,3,38,87,11
8,3,15,1,0,0,3,38,89,11
8,3,0,0,3,0,3,38,100,11
8,3,9,1,3,0,3,38,100,11
8,3,16,1,6,1,3,38,87,11
8,3,21,0,1,0,3,38,63,11
8,3,14,1,2,0,3,38,87,11
8,3,20,1,3,0,3,38,89,11
8,3,22,0,4,0,3,38,100,11
8,3,13,1,6,1,3,38,100,11
8,3,19,1,1,0,3,38,100,11
8,3,18,1,2,0,3,38,100,11
8,3,11,1,4,0,3,38,26,11
9,4,16,1,0,0,3,38,89,11
9,4,20,1,4,0,3,38,87,11
9,4,7,1,0,0,3,38,87,11
9,4,21,0,0,0,3,38,100,11
9,4,20,1,6,1,3,38,100,11
9,4,1,0,0,0,3,38,87,11
9,4,17,1,1,0,3,38,87,11
9,4,7,1,3,0,3,38,87,11
9,4,15,1,3,0,3,38,57,11
9,4,17,1,6,1,3,38,100,11
10,4,14,1,2,0,4,38,87,11
10,4,13,1,1,0,4,38,100,11
10,4,20,1,1,0,4,38,100,11
10,4,11,1,3,0,4,38,100,11
10,4,16,1,3,0,4,38,100,11
10,4,18,1,3,0,4,38,100,11
10,4,18,1,4,0,4,38,100,11
10,4,16,1,6,1,4,38,100,11
10,4,17,1,2,0,4,38,100,11
10,4,20,1,3,0,4,38,87,11
11,4,17,1,6,1,4,38,87,11
11,4,14,1,4,0,4,38,100,11
11,4,6,0,6,1,4,38,87,11
11,4,17,1,0,0,4,38,100,11
11,4,19,1,2,0,4,38,100,11
11,4,15,1,0,0,4,38,100,11
11,4,22,0,1,0,4,38,87,11
11,4,18,1,3,0,4,38,87,11
11,4,12,1,6,1,4,38,87,11
11,4,13,1,1,0,4,38,18,11
11,4,12,1,2,0,4,38,87,11
11,4,19,1,2,0,4,38,87,11
12,1,8,1,6,1,4,38,18,11
12,1,17,1,0,0,4,38,87,11
12,1,16,1,5,1,4,38,87,11
12,1,17,1,1,0,4,38,100,11
12,1,21,0,1,0,4,38,126,11
1,1,11,1,6,1,1,16,18,11
1,1,22,0,0,0,1,16,65,11
1,1,13,1,4,0,1,16,65,11
1,1,20,1,0,0,1,16,100,11
1,1,1,0,2,0,1,16,75,11
1,1,8,1,5,1,1,16,88,11
1,1,16,1,1,0,1,16,87,11
1,1,18,1,4,0,1,16,127,11
1,1,14,1,5,1,1,16,75,11
1,1,23,0,5,1,1,16,84,11
1,1,14,1,6,1,1,16,87,11
1,1,23,0,0,0,1,16,18,11
1,1,23,0,1,0,1,16,76,11
1,1,16,1,2,0,1,16,12,11
2,1,13,1,6,1,1,16,89,11
2,1,19,1,1,0,1,16,100,11
2,1,17,1,3,0,1,16,100,11
2,1,1,0,3,0,1,16,89,11
2,1,2,0,4,0,1,16,75,9
2,1,16,1,5,1,1,16,100,11
2,1,15,1,6,1,1,16,100,11
2,1,12,1,0,0,1,16,24,11
2,1,14,1,0,0,1,16,100,11
2,1,15,1,0,0,1,16,100,11
2,1,1,0,3,0,1,16,87,11
2,1,15,1,3,0,1,16,81,11
2,1,12,1,5,1,1,16,100,11
2,1,22,0,5,1,1,16,18,11
2,1,6,0,6,1,1,16,75,11
3,2,19,1,3,0,1,16,88,11
3,2,13,1,6,1,1,16,100,11
3,2,16,1,0,0,1,16,100,11
3,2,22,0,1,0,1,16,110,11
3,2,19,1,3,0,1,16,100,11
3,2,15,1,6,1,1,16,87,11
3,2,1,0,3,0,1,16,110,11
3,2,16,1,6,1,1,16,100,11
4,2,22,0,2,0,2,16,89,11
4,2,13,1,3,0,2,16,100,11
4,2,15,1,4,0,2,16,100,11
4,2,16,1,5,1,2,16,100,11
4,2,20,1,0,0,2,16,100,11
4,2,20,1,2,0,2,16,100,11
4,2,7,1,4,0,2,16,18,11
4,2,20,1,5,1,2,16,100,11
4,2,20,1,5,1,2,16,100,11
4,2,17,1,0,0,2,16,100,11
4,2,21,0,1,0,2,16,100,11
5,2,18,1,2,0,2,16,100,11
5,2,4,0,6,1,2,16,79,11
5,2,17,1,0,0,2,16,100,11
5,2,2,0,3,0,2,16,109,8
5,2,10,1,1,0,2,16,75,11
5,2,16,1,3,0,2,16,26,11
6,3,12,1,5,1,2,16,100,11
6,3,17,1,5,1,2,16,109,9
6,3,11,1,1,0,2,16,87,11
6,3,21,0,1,0,2,16,100,11
6,3,15,1,5,1,2,16,100,11
6,3,16,1,5,1,2,16,100,11
6,3,2,0,3,0,2,16,100,11
6,3,12,1,4,0,2,16,100,11
6,3,17,1,1,0,2,16,100,11
6,3,19,1,3,0,2,16,95,11
6,3,19,1,5,1,2,16,13,9
7,3,13,1,1,0,3,16,18,11
7,3,21,0,2,0,3,16,100,11
7,3,15,1,3,0,3,16,18,11
7,3,8,1,5,1,3,16,18,11
7,3,19,1,1,0,3,16,100,11
7,3,13,1,1,0,3,16,89,9
7,3,13,1,2,0,3,16,100,11
7,3,18,1,2,0,3,16,100,11
7,3,15,1,0,0,3,16,100,11
7,3,10,1,1,0,3,16,89,11
7,3,20,1,2,0,3,16,18,11
7,3,20,1,3,0,3,16,100,11
8,3,10,1,2,0,3,16,100,11
8,3,21,0,5,1,3,16,100,11
8,3,12,1,0,0,3,16,57,11
8,3,14,1,0,0,3,16,100,11
8,3,7,1,4,0,3,16,100,11
8,3,21,0,6,1,3,16,12,8
8,3,15,1,4,0,3,16,18,11
8,3,17,1,6,1,3,16,100,11
8,3,12,1,3,0,3,16,88,9
8,3,15,1,5,1,3,16,4,11
9,4,7,1,2,0,3,16,75,11
9,4,12,1,6,1,3,16,18,11
9,4,19,1,1,0,3,16,100,11
9,4,20,1,3,0,3,16,100,11
10,4,19,1,1,0,4,16,110,11
10,4,11,1,2,0,4,16,88,11
10,4,13,1,2,0,4,16,100,11
10,4,22,0,6,1,4,16,75,9
10,4,14,1,1,0,4,16,100,11
10,4,17,1,1,0,4,16,100,11
10,4,18,1,2,0,4,16,109,11
10,4,20,1,5,1,4,16,4,11
10,4,19,1,5,1,4,16,100,11
10,4,18,1,3,0,4,16,100,11
11,4,1,0,4,0,4,16,75,11
11,4,15,1,0,0,4,16,100,11
11,4,15,1,1,0,4,16,63,9
11,4,18,1,3,0,4,16,100,11
11,4,13,1,6,1,4,16,89,11
11,4,20,1,0,0,4,16,89,9
11,4,19,1,2,0,4,16,12,11
11,4,19,1,6,1,4,16,18,11
11,4,19,1,3,0,4,16,75,11
11,4,9,1,4,0,4,16,75,11
11,4,18,1,4,0,4,16,100,11
12,1,14,1,6,1,4,16,58,11
12,1,12,1,1,0,4,16,18,11
12,1,6,0,6,1,4,16,75,9
12,1,10,1,6,1,4,16,87,11
12,1,18,1,1,0,4,16,95,11
12,1,15,1,6,1,4,16,100,11
2,1,10,1,5,1,1,16,1,11
1,1,5,0,1,0,1,16,38,9
2,1,18,1,6,1,1,16,100,11
2,1,20,1,2,0,1,16,65,11
4,2,21,0,4,0,2,16,95,11
4,2,16,1,0,0,2,16,100,11
5,2,3,0,5,1,2,16,75,11
5,2,13,1,1,0,2,16,13,9
5,2,14,1,2,0,2,16,89,11
5,2,17,1,4,0,2,16,38,8
6,3,21,0,3,0,2,16,89,11
6,3,1,0,1,0,2,16,104,9
7,3,1,0,2,0,3,16,95,11
8,3,14,1,0,0,3,16,22,11
8,3,19,1,2,0,3,16,18,11
8,3,14,1,3,0,3,16,100,11
8,3,18,1,0,0,3,16,124,11
9,4,10,1,6,1,3,16,38,8
9,4,18,1,3,0,3,16,100,11
10,4,16,1,1,0,4,16,89,11
11,4,17,1,5,1,4,16,12,9
11,4,9,1,6,1,4,16,44,9
11,4,20,1,3,0,4,16,100,11
12,1,1,0,4,0,4,16,95,11
12,1,22,0,1,0,4,16,13,9
12,1,8,1,2,0,4,16,38,11
12,1,13,1,5,1,4,16,65,11
1,1,14,1,3,0,1,16,22,11
1,1,13,1,4,0,1,16,100,11
1,1,15,1,2,0,1,16,65,11
2,1,17,1,3,0,1,16,89,11
2,1,14,1,6,1,1,16,89,11
2,1,8,1,6,1,1,16,18,11
2,1,14,1,0,0,1,16,4,11
2,1,1,0,5,1,1,16,89,11
3,2,12,1,3,0,1,16,18,11
3,2,16,1,4,0,1,16,18,11
4,2,17,1,3,0,2,16,89,11
4,2,22,0,6,1,2,16,57,11
5,2,15,1,2,0,2,19,100,11
5,2,14,1,4,0,2,16,44,11
5,2,17,1,4,0,2,16,100,11
5,2,10,1,5,1,2,16,65,11
5,2,9,1,6,1,2,16,121,11
5,2,23,0,6,1,2,19,100,11
5,2,17,1,4,0,2,16,89,11
6,3,9,1,5,1,2,16,89,11
6,3,15,1,5,1,2,16,100,11
6,3,17,1,1,0,2,16,89,11
6,3,20,1,1,0,2,16,100,11
6,3,5,0,4,0,2,16,14,11
6,3,20,1,6,1,2,16,18,11
7,3,12,1,0,0,3,16,102,9
7,3,16,1,2,0,3,16,89,11
7,3,14,1,5,1,3,16,89,11
7,3,11,1,6,1,3,16,18,11
7,3,16,1,6,1,3,16,89,11
8,3,16,1,3,0,3,16,24,11
8,3,17,1,6,1,3,16,128,11
8,3,11,1,2,0,3,16,128,11
8,3,14,1,6,1,3,16,65,11
9,4,20,1,6,1,3,16,128,11
9,4,9,1,3,0,3,16,44,9
9,4,20,1,5,1,3,16,89,9
9,4,22,0,6,1,3,16,72,11
9,4,20,1,1,0,3,16,72,11
9,4,16,1,2,0,3,16,109,11
9,4,12,1,4,0,3,16,128,11
10,4,13,1,3,0,4,16,24,11
10,4,11,1,4,0,4,16,24,11
10,4,17,1,5,1,4,16,75,11
10,4,16,1,3,0,4,16,24,11
10,4,23,0,3,0,4,16,18,11
11,4,16,1,5,1,4,16,89,11
11,4,21,0,5,1,4,19,57,11
11,4,18,1,6,1,4,19,128,9
11,4,4,0,1,0,4,16,75,11
12,1,22,0,6,1,4,16,65,11
12,1,0,0,5,1,4,16,75,8
12,1,23,0,1,0,4,16,72,11
1,1,1,0,0,0,1,39,75,11
1,1,16,1,2,0,1,39,65,11
1,1,12,1,3,0,1,39,67,11
1,1,19,1,4,0,1,39,100,9
1,1,20,1,6,1,1,39,65,11
1,1,14,1,3,0,1,39,65,11
1,1,15,1,4,0,1,39,65,11
1,1,18,1,4,0,1,39,65,11
1,1,18,1,4,0,1,39,65,11
1,1,3,0,6,1,1,39,87,11
1,1,15,1,6,1,1,39,65,11
1,1,14,1,0,0,1,39,65,11
1,1,17,1,6,1,1,39,38,11
1,1,16,1,4,0,1,39,100,11
1,1,18,1,4,0,1,39,65,11
1,1,22,0,4,0,1,39,65,8
1,1,20,1,6,1,1,39,73,11
1,1,23,0,6,1,1,39,65,11
1,1,10,1,0,0,1,39,100,11
1,1,11,1,0,0,1,39,100,11
1,1,11,1,0,0,1,39,89,11
1,1,17,1,2,0,1,39,89,11
2,1,13,1,4,0,1,39,89,11
2,1,15,1,4,0,1,39,75,11
2,1,19,1,4,0,1,39,100,11
2,1,7,1,5,1,1,39,75,11
2,1,17,1,5,1,1,39,100,11
2,1,2,0,6,1,1,39,38,11
2,1,11,1,6,1,1,39,100,11
2,1,14,1,6,1,1,39,100,11
2,1,16,1,6,1,1,39,57,9
2,1,10,1,1,0,1,39,100,11
2,1,13,1,1,0,1,39,89,11
2,1,15,1,2,0,1,39,100,11
2,1,21,0,2,0,1,39,100,11
2,1,17,1,4,0,1,39,100,11
2,1,23,0,4,0,1,39,100,11
2,1,13,1,5,1,1,39,65,11
2,1,14,1,4,0,1,39,100,11
2,1,11,1,5,1,1,39,100,11
2,1,15,1,5,1,1,39,89,11
2,1,16,1,5,1,1,39,100,11
2,1,12,1,6,1,1,39,65,11
2,1,10,1,0,0,1,39,100,11
2,1,13,1,0,0,1,39,100,11
2,1,15,1,1,0,1,39,65,11
2,1,20,1,3,0,1,39,65,11
3,2,0,0,0,0,1,39,65,11
3,2,1,0,5,1,1,39,75,11
3,2,11,1,6,1,1,39,100,11
3,2,15,1,6,1,1,39,100,11
3,2,11,1,5,1,1,39,38,8
3,2,19,1,5,1,1,39,100,11
3,2,1,0,6,1,1,39,38,11
3,2,12,1,0,0,1,39,38,11
3,2,13,1,4,0,1,39,100,11
3,2,19,1,5,1,1,39,89,11
3,2,13,1,6,1,1,39,100,11
3,2,13,1,6,1,1,39,65,11
4,2,12,1,0,0,2,39,100,11
4,2,15,1,2,0,2,39,89,11
4,2,14,1,5,1,2,39,23,9
4,2,18,1,5,1,2,39,100,11
4,2,19,1,5,1,2,39,89,11
4,2,8,1,3,0,2,39,89,11
4,2,15,1,3,0,2,39,89,11
4,2,20,1,4,0,2,39,76,11
4,2,16,1,5,1,2,39,100,11
4,2,12,1,6,1,2,39,18,11
4,2,18,1,6,1,2,39,89,11
4,2,19,1,3,0,2,39,100,11
4,2,20,1,4,0,2,39,75,11
4,2,13,1,6,1,2,39,104,11
4,2,23,0,2,0,2,39,38,11
4,2,12,1,6,1,2,39,38,11
5,2,7,1,5,1,2,39,100,11
5,2,0,0,6,1,2,39,100,11
5,2,20,1,0,0,2,39,38,11
5,2,19,1,1,0,2,39,100,11
5,2,10,1,4,0,2,39,87,11
5,2,11,1,1,0,2,39,100,11
5,2,16,1,1,0,2,39,100,11
5,2,17,1,2,0,2,39,100,11
5,2,21,0,3,0,2,39,100,11
5,2,19,1,4,0,2,39,126,11
5,2,17,1,6,1,2,39,100,11
5,2,18,1,6,1,2,39,89,11
6,3,8,1,5,1,2,39,100,11
6,3,12,1,5,1,2,39,100,11
6,3,16,1,6,1,2,39,100,11
6,3,17,1,0,0,2,39,100,11
6,3,17,1,1,0,2,39,89,11
6,3,12,1,0,0,2,39,100,11
6,3,13,1,0,0,2,39,100,11
6,3,19,1,1,0,2,39,100,11
6,3,12,1,2,0,2,39,87,11
6,3,14,1,3,0,2,39,100,11
6,3,11,1,4,0,2,39,38,11
6,3,22,0,6,1,2,39,100,11
6,3,15,1,2,0,2,39,100,11
6,3,13,1,3,0,2,39,100,11
6,3,12,1,4,0,2,39,89,9
6,3,18,1,6,1,2,39,100,11
6,3,11,1,0,0,2,39,65,9
6,3,22,0,0,0,2,39,100,11
6,3,5,0,1,0,2,39,65,11
6,3,7,1,3,0,2,39,65,11
6,3,11,1,5,1,2,39,108,11
6,3,13,1,5,1,2,39,100,11
6,3,10,1,6,1,2,39,18,11
6,3,18,1,6,1,2,39,38,11
7,3,2,0,1,0,3,39,18,8
7,3,9,1,4,0,3,39,100,11
7,3,10,1,4,0,3,39,100,11
7,3,9,1,5,1,3,39,100,11
7,3,21,0,6,1,3,39,100,11
7,3,20,1,0,0,3,39,58,11
7,3,14,1,1,0,3,39,100,11
7,3,17,1,2,0,3,39,89,9
7,3,14,1,3,0,3,39,18,11
7,3,21,0,0,0,3,39,72,11
7,3,18,1,1,0,3,39,100,11
7,3,19,1,1,0,3,39,30,11
7,3,20,1,2,0,3,39,110,11
7,3,13,1,3,0,3,39,110,11
7,3,20,1,3,0,3,39,100,11
7,3,22,0,3,0,3,39,89,11
7,3,19,1,5,1,3,39,100,11
7,3,19,1,0,0,3,39,75,11
7,3,20,1,0,0,3,39,100,11
7,3,2,0,1,0,3,39,115,11
7,3,2,0,1,0,3,39,100,11
7,3,12,1,2,0,3,39,89,11
7,3,14,1,3,0,3,39,100,11
7,3,1,0,4,0,3,39,18,11
7,3,11,1,5,1,3,39,75,11
7,3,12,1,6,1,3,39,100,11
8,3,11,1,3,0,3,39,100,11
8,3,2,0,4,0,3,39,89,11
8,3,22,0,5,1,3,39,38,11
8,3,15,1,1,0,3,39,81,11
8,3,12,1,4,0,3,39,4,9
8,3,15,1,4,0,3,39,100,11
8,3,16,1,4,0,3,39,100,11
8,3,8,1,1,0,3,39,89,11
8,3,12,1,3,0,3,39,65,9
8,3,13,1,5,1,3,39,65,11
8,3,17,1,6,1,3,39,89,11
8,3,14,1,0,0,3,39,18,11
8,3,18,1,3,0,3,39,100,11
8,3,13,1,4,0,3,39,100,11
8,3,10,1,6,1,3,39,89,11
8,3,8,1,0,0,3,39,89,11
9,4,9,1,2,0,3,39,89,11
9,4,14,1,2,0,3,39,38,11
9,4,11,1,3,0,3,39,75,11
9,4,15,1,5,1,3,39,38,11
9,4,13,1,0,0,3,39,18,11
9,4,14,1,0,0,3,39,89,11
9,4,19,1,0,0,3,39,100,11
9,4,11,1,0,0,3,39,100,11
9,4,13,1,0,0,3,39,100,11
9,4,18,1,1,0,3,39,128,11
9,4,19,1,1,0,3,39,100,11
9,4,19,1,5,1,3,39,100,11
10,4,14,1,1,0,4,39,100,11
10,4,10,1,3,0,4,39,100,11
10,4,20,1,3,0,4,39,100,11
10,4,12,1,5,1,4,39,100,11
10,4,17,1,5,1,4,39,75,11
10,4,22,0,6,1,4,39,18,11
10,4,15,1,6,1,4,39,112,11
10,4,19,1,6,1,4,39,75,11
10,4,19,1,6,1,4,39,100,11
10,4,15,1,1,0,4,39,65,11
10,4,13,1,4,0,4,39,89,11
10,4,17,1,6,1,4,39,22,11
10,4,14,1,1,0,4,39,100,11
10,4,19,1,4,0,4,39,103,11
10,4,11,1,5,1,4,39,100,11
10,4,11,1,6,1,4,39,89,11
10,4,12,1,6,1,4,39,89,11
10,4,15,1,6,1,4,39,100,11
10,4,16,1,1,0,4,39,100,11
11,4,13,1,1,0,4,39,89,11
11,4,15,1,3,0,4,39,100,11
11,4,19,1,4,0,4,39,38,11
11,4,22,0,4,0,4,39,106,11
11,4,15,1,0,0,4,39,38,11
11,4,16,1,4,0,4,39,131,11
11,4,9,1,3,0,4,39,100,11
11,4,11,1,6,1,4,39,65,11
11,4,12,1,6,1,4,39,100,11
11,4,14,1,6,1,4,39,100,11
11,4,19,1,0,0,4,39,100,11
11,4,15,1,1,0,4,39,100,11
11,4,18,1,1,0,4,39,65,11
11,4,8,1,3,0,4,39,100,11
12,1,16,1,6,1,4,39,65,11
12,1,19,1,0,0,4,39,100,11
12,1,11,1,2,0,4,39,89,11
12,1,19,1,0,0,4,39,38,11
12,1,14,1,1,0,4,39,109,11
12,1,0,0,5,1,4,39,128,11
12,1,12,1,5,1,4,39,75,11
12,1,21,0,0,0,4,39,65,11
12,1,0,0,1,0,4,39,100,9
12,1,14,1,1,0,4,39,89,11
12,1,12,1,2,0,4,39,38,11
12,1,9,1,4,0,4,39,38,11
12,1,11,1,0,0,4,39,65,11
1,1,8,1,2,0,1,39,65,8
2,1,11,1,3,0,1,39,38,11
3,2,20,1,6,1,1,39,110,11
3,2,14,1,2,0,1,39,87,11
3,2,9,1,0,0,1,39,12,11
4,2,21,0,3,0,2,39,100,11
5,2,19,1,3,0,2,39,59,11
5,2,19,1,2,0,2,39,100,11
7,3,12,1,2,0,3,39,72,9
8,3,17,1,5,1,3,39,100,11
9,4,18,1,6,1,3,39,100,11
10,4,18,1,4,0,4,39,100,11
10,4,13,1,1,0,4,39,100,11
10,4,9,1,2,0,4,39,100,11
10,4,21,0,0,0,4,39,38,11
1,1,21,0,3,0,1,39,46,11
1,1,20,1,2,0,1,39,75,11
1,1,18,1,4,0,1,39,128,11
1,1,11,1,0,0,1,39,1,11
1,1,17,1,0,0,1,39,1,11
1,1,18,1,0,0,1,39,1,11
1,1,18,1,0,0,1,39,89,11
1,1,18,1,1,0,1,39,1,11
2,1,13,1,5,1,1,39,89,11
2,1,14,1,6,1,1,39,100,11
2,1,11,1,0,0,1,39,89,11
2,1,12,1,1,0,1,39,100,11
2,1,10,1,6,1,1,39,100,11
2,1,14,1,6,1,1,39,75,11
2,1,17,1,0,0,1,39,4,11
2,1,10,1,5,1,1,39,89,11
3,2,18,1,4,0,1,39,100,11
3,2,19,1,5,1,1,39,4,11
3,2,14,1,3,0,1,39,11,11
3,2,20,1,4,0,1,39,89,11
4,2,14,1,2,0,2,39,26,11
4,2,14,1,4,0,2,39,4,9
4,2,18,1,5,1,2,39,89,11
4,2,20,1,2,0,2,39,4,11
4,2,13,1,4,0,2,39,89,11
5,2,21,0,4,0,2,39,100,11
5,2,12,1,1,0,2,39,84,11
6,3,10,1,6,1,2,39,65,11
6,3,16,1,5,1,2,39,89,11
6,3,13,1,1,0,2,39,128,11
6,3,1,0,3,0,2,39,128,11
6,3,14,1,3,0,2,39,100,11
6,3,7,1,6,1,2,39,89,11
6,3,16,1,1,0,2,39,89,11
7,3,14,1,0,0,3,39,89,11
7,3,5,0,6,1,3,39,65,11
7,3,13,1,0,0,3,39,89,11
7,3,9,1,5,1,3,39,72,11
7,3,16,1,5,1,3,39,89,11
7,3,13,1,6,1,3,39,100,11
7,3,17,1,0,0,3,39,125,9
7,3,12,1,1,0,3,39,26,11
7,3,20,1,1,0,3,39,89,11
8,3,14,1,6,1,3,39,72,11
8,3,23,0,4,0,3,39,111,9
8,3,15,1,5,1,3,39,110,11
8,3,9,1,5,1,3,39,126,11
8,3,0,0,5,1,3,39,89,11
9,4,14,1,3,0,3,39,72,11
10,4,13,1,1,0,4,39,89,11
10,4,12,1,5,1,4,39,58,11
10,4,17,1,6,1,4,39,100,11
10,4,22,0,6,1,4,39,75,11
10,4,17,1,2,0,4,39,26,11
10,4,16,1,5,1,4,39,100,11
10,4,17,1,4,0,4,39,100,11
10,4,15,1,6,1,4,39,89,11
11,4,16,1,4,0,4,39,12,9
11,4,10,1,1,0,4,39,38,11
11,4,19,1,1,0,4,39,75,11
11,4,23,0,1,0,4,39,38,11
11,4,16,1,5,1,4,39,100,11
11,4,12,1,2,0,4,39,75,9
11,4,20,1,1,0,4,39,65,11
11,4,15,1,4,0,4,39,128,11
12,1,14,1,2,0,4,39,1,11
12,1,1,0,1,0,4,39,110,11
1,1,12,1,1,0,1,39,100,9
2,1,11,1,0,0,1,39,18,11
2,1,16,1,3,0,1,39,100,11
2,1,11,1,3,0,1,39,100,11
4,2,15,1,6,1,2,39,72,11
6,3,17,1,6,1,2,39,18,11
6,3,12,1,4,0,2,39,18,11
7,3,14,1,4,0,3,39,72,11
7,3,12,1,4,0,3,39,100,11
8,3,8,1,4,0,3,39,72,11
8,3,7,1,1,0,3,39,72,11
8,3,23,0,2,0,3,39,72,11
9,4,12,1,5,1,3,39,100,11
10,4,11,1,5,1,4,39,72,11
1,1,13,1,4,0,1,27,100,11
1,1,16,1,4,0,1,27,100,11
1,1,19,1,5,1,1,27,75,11
1,1,15,1,1,0,1,27,38,8
1,1,14,1,2,0,1,27,65,11
1,1,18,1,3,0,1,27,100,11
1,1,6,0,4,0,1,27,75,11
1,1,9,1,2,0,1,27,87,11
1,1,13,1,3,0,1,27,65,11
1,1,14,1,4,0,1,27,87,11
1,1,17,1,6,1,1,27,38,11
1,1,15,1,1,0,1,27,75,11
1,1,18,1,1,0,1,27,75,11
2,1,15,1,0,0,1,27,100,11
2,1,16,1,0,0,1,27,13,11
2,1,16,1,0,0,1,27,13,11
2,1,12,1,1,0,1,27,100,11
2,1,13,1,2,0,1,27,13,8
2,1,14,1,2,0,1,27,12,11
2,1,17,1,2,0,1,27,65,11
2,1,15,1,3,0,1,27,79,11
3,2,20,1,0,0,1,27,95,11
3,2,10,1,6,1,1,27,58,11
3,2,13,1,0,0,1,27,100,11
3,2,14,1,1,0,1,27,13,11
3,2,13,1,4,0,1,27,88,11
3,2,19,1,5,1,1,27,87,11
4,2,9,1,0,0,2,27,4,11
4,2,19,1,0,0,2,27,100,11
4,2,15,1,1,0,2,27,100,11
4,2,16,1,1,0,2,27,100,11
4,2,10,1,5,1,2,27,100,11
4,2,14,1,0,0,2,27,18,11
4,2,12,1,1,0,2,27,125,11
5,2,19,1,3,0,2,27,87,11
5,2,15,1,2,0,2,27,110,11
5,2,11,1,4,0,2,27,18,11
5,2,21,0,1,0,2,27,87,8
6,3,3,0,5,1,2,27,58,11
6,3,13,1,6,1,2,27,88,11
6,3,21,0,0,0,2,27,65,11
6,3,18,1,2,0,2,27,110,11
6,3,21,0,3,0,2,27,34,11
6,3,11,1,5,1,2,27,88,11
6,3,13,1,5,1,2,27,100,11
6,3,15,1,5,1,2,27,65,11
6,3,18,1,6,1,2,27,100,11
6,3,21,0,3,0,2,27,100,11
6,3,8,1,0,0,2,27,72,8
6,3,10,1,0,0,2,27,18,11
6,3,11,1,4,0,2,27,100,11
6,3,17,1,5,1,2,27,125,9
6,3,0,0,6,1,2,27,100,11
6,3,1,0,6,1,2,27,100,11
6,3,14,1,6,1,2,27,89,11
7,3,17,1,0,0,3,27,87,11
7,3,15,1,1,0,3,27,88,11
7,3,19,1,1,0,3,27,87,11
7,3,15,1,4,0,3,27,100,11
7,3,16,1,1,0,3,27,100,11
7,3,13,1,4,0,3,27,18,8
7,3,12,1,4,0,3,27,100,11
7,3,15,1,4,0,3,27,12,11
7,3,10,1,5,1,3,27,88,11
7,3,15,1,5,1,3,27,88,11
7,3,20,1,0,0,3,27,83,11
7,3,22,0,1,0,3,27,100,11
7,3,1,0,2,0,3,27,100,11
8,3,18,1,3,0,3,27,12,11
8,3,17,1,0,0,3,27,13,11
8,3,11,1,1,0,3,27,89,11
8,3,0,0,4,0,3,27,89,11
8,3,15,1,5,1,3,27,100,11
8,3,18,1,2,0,3,27,65,11
8,3,11,1,4,0,3,27,87,11
8,3,16,1,6,1,3,27,100,11
8,3,8,1,2,0,3,27,100,11
9,4,13,1,0,0,3,27,65,11
9,4,13,1,5,1,3,27,65,11
9,4,0,0,0,0,3,27,38,11
9,4,10,1,1,0,3,27,100,11
9,4,14,1,0,0,3,27,100,11
10,4,14,1,3,0,4,27,100,11
10,4,9,1,6,1,4,27,100,11
10,4,13,1,6,1,4,27,100,11
10,4,17,1,0,0,4,27,100,11
10,4,14,1,2,0,4,27,100,11
10,4,12,1,3,0,4,27,100,11
11,4,8,1,4,0,4,27,72,11
11,4,15,1,5,1,4,27,100,11
11,4,22,0,6,1,4,27,65,11
11,4,16,1,0,0,4,27,75,11
11,4,15,1,2,0,4,27,100,11
11,4,10,1,3,0,4,27,100,11
11,4,8,1,3,0,4,27,87,11
12,1,18,1,1,0,4,27,100,11
12,1,18,1,4,0,4,27,75,11
12,1,18,1,2,0,4,27,38,11
12,1,15,1,5,1,4,27,89,11
12,1,19,1,5,1,4,27,87,11
12,1,14,1,1,0,4,27,87,11
1,1,18,1,3,0,1,27,65,11
1,1,12,1,4,0,1,27,75,11
1,1,11,1,5,1,1,27,46,11
1,1,19,1,6,1,1,27,89,11
1,1,14,1,0,0,1,27,38,11
2,1,16,1,3,0,1,27,100,11
2,1,14,1,2,0,1,27,12,11
2,1,12,1,4,0,1,27,88,11
2,1,17,1,4,0,1,27,75,8
2,1,18,1,1,0,1,27,95,11
2,1,10,1,2,0,1,27,75,11
3,2,17,1,4,0,1,27,75,11
4,2,3,0,3,0,2,27,88,11
5,2,22,0,4,0,2,27,38,11
5,2,6,0,2,0,2,27,79,11
5,2,17,1,4,0,2,27,38,11
6,3,20,1,3,0,2,27,110,11
6,3,22,0,3,0,2,27,100,11
8,3,15,1,6,1,3,27,109,11
9,4,16,1,6,1,3,27,100,11
10,4,14,1,0,0,4,27,4,11
10,4,14,1,0,0,4,27,89,11
11,4,11,1,6,1,4,27,100,11
11,4,16,1,3,0,4,27,100,11
11,4,8,1,0,0,4,27,4,11
11,4,9,1,0,0,4,27,100,11
11,4,11,1,0,0,4,27,65,8
11,4,14,1,4,0,4,27,100,11
11,4,9,1,6,1,4,27,65,11
1,1,14,1,0,0,1,27,95,11
1,1,9,1,5,1,1,27,100,11
2,1,16,1,3,0,1,27,75,11
3,2,3,0,1,0,1,27,75,11
3,2,3,0,3,0,1,27,100,11
4,2,20,1,1,0,2,27,100,11
5,2,10,1,3,0,2,27,100,11
6,3,19,1,3,0,2,27,100,11
7,3,19,1,5,1,3,27,87,11
8,3,13,1,3,0,3,27,18,11
8,3,18,1,3,0,3,27,100,11
8,3,17,1,4,0,3,27,100,11
10,4,0,0,2,0,4,27,89,11
10,4,16,1,2,0,4,27,100,11
11,4,18,1,2,0,4,27,100,11
11,4,12,1,0,0,4,27,106,11
12,1,19,1,1,0,4,27,75,11
12,1,21,0,4,0,4,27,75,11
12,1,11,1,6,1,4,27,38,11
12,1,18,1,1,0,4,27,75,11
1,1,1,0,0,0,1,27,87,11
1,1,21,0,5,1,1,27,95,11
1,1,7,1,4,0,1,27,100,11
1,1,22,0,4,0,1,27,128,11
2,1,10,1,5,1,1,27,75,11
2,1,11,1,5,1,1,27,100,11
2,1,12,1,5,1,1,27,100,11
2,1,16,1,5,1,1,27,100,11
2,1,15,1,4,0,1,27,100,11
2,1,23,0,0,0,1,27,38,11
2,1,11,1,4,0,1,27,100,11
2,1,17,1,6,1,1,27,100,11
2,1,9,1,0,0,1,27,38,8
2,1,0,0,3,0,1,27,75,11
2,1,18,1,5,1,1,27,100,11
2,1,15,1,1,0,1,27,65,8
3,2,0,0,1,0,1,27,87,11
3,2,0,0,2,0,1,27,87,11
3,2,17,1,5,1,1,27,100,11
3,2,17,1,3,0,1,27,128,11
3,2,16,1,4,0,1,27,87,11
3,2,16,1,5,1,1,27,89,11
4,2,15,1,2,0,2,27,100,11
4,2,16,1,2,0,2,27,100,11
4,2,20,1,5,1,2,27,100,11
4,2,13,1,4,0,2,27,100,11
4,2,13,1,5,1,2,27,13,11
4,2,20,1,0,0,2,27,100,11
4,2,17,1,1,0,2,27,100,11
4,2,17,1,5,1,2,27,100,11
5,2,20,1,3,0,2,27,89,11
5,2,20,1,3,0,2,27,128,11
6,3,17,1,6,1,2,27,100,11
6,3,13,1,3,0,2,27,128,11
6,3,12,1,3,0,2,27,128,11
6,3,18,1,5,1,2,27,89,11
7,3,18,1,1,0,3,27,100,11
7,3,8,1,4,0,3,27,100,11
7,3,12,1,5,1,3,27,18,8
7,3,17,1,0,0,3,27,89,11
7,3,23,0,6,1,3,27,13,8
7,3,5,0,2,0,3,27,12,11
7,3,2,0,3,0,3,27,87,11
7,3,12,1,6,1,3,27,12,9
7,3,17,1,6,1,3,27,75,11
7,3,19,1,6,1,3,27,100,11
7,3,9,1,0,0,3,27,100,11
7,3,3,0,1,0,3,27,100,11
8,3,19,1,5,1,3,27,100,11
8,3,17,1,3,0,3,27,18,8
9,4,0,0,0,0,3,27,108,8
10,4,18,1,1,0,4,27,81,11
10,4,16,1,1,0,4,27,100,11
10,4,16,1,2,0,4,27,128,11
10,4,17,1,2,0,4,27,100,11
10,4,13,1,2,0,4,27,89,11
10,4,11,1,3,0,4,27,22,11
11,4,22,0,6,1,4,27,13,11
11,4,17,1,0,0,4,27,100,11
11,4,14,1,2,0,4,27,100,11
11,4,14,1,3,0,4,27,13,11
12,1,13,1,0,0,4,27,75,11
12,1,13,1,1,0,4,27,75,11
12,1,19,1,2,0,4,27,100,11
1,1,21,0,1,0,1,47,95,11
1,1,21,0,2,0,1,47,65,11
1,1,7,1,3,0,1,47,75,8
1,1,18,1,3,0,1,47,100,11
1,1,14,1,4,0,1,47,65,11
1,1,13,1,5,1,1,47,75,11
1,1,20,1,6,1,1,47,95,11
1,1,7,1,1,0,1,47,95,11
1,1,23,0,4,0,1,47,87,11
1,1,22,0,0,0,1,47,75,11
1,1,17,1,1,0,1,47,75,11
1,1,18,1,2,0,1,47,75,11
2,1,12,1,0,0,1,47,75,11
2,1,18,1,4,0,1,47,75,11
2,1,0,0,6,1,1,47,100,11
2,1,21,0,0,0,1,47,87,11
2,1,22,0,4,0,1,47,75,11
2,1,14,1,5,1,1,47,75,11
2,1,20,1,5,1,1,47,100,11
2,1,21,0,5,1,1,47,75,11
2,1,21,0,5,1,1,47,100,11
2,1,17,1,6,1,1,47,100,11
2,1,14,1,0,0,1,47,87,11
2,1,18,1,0,0,1,47,100,11
2,1,13,1,1,0,1,47,75,11
2,1,20,1,1,0,1,47,87,11
2,1,0,0,4,0,1,47,87,11
2,1,15,1,4,0,1,47,100,11
2,1,20,1,4,0,1,47,87,11
3,2,14,1,6,1,1,47,100,11
3,2,14,1,0,0,1,47,87,11
3,2,12,1,1,0,1,47,75,11
3,2,13,1,3,0,1,47,100,11
3,2,9,1,5,1,1,47,95,11
3,2,11,1,0,0,1,47,100,11
3,2,17,1,4,0,1,47,100,11
3,2,2,0,5,1,1,47,95,11
3,2,8,1,5,1,1,47,75,9
3,2,16,1,5,1,1,47,100,11
3,2,19,1,5,1,1,47,65,11
3,2,2,0,0,0,1,47,100,11
3,2,7,1,3,0,1,47,87,11
3,2,19,1,6,1,1,47,100,11
4,2,22,0,2,0,2,47,87,11
4,2,20,1,4,0,2,47,95,11
4,2,18,1,6,1,2,47,100,11
4,2,17,1,0,0,2,47,89,11
4,2,8,1,1,0,2,47,75,11
4,2,12,1,1,0,2,47,100,11
4,2,21,0,5,1,2,47,75,11
5,2,21,0,6,1,2,47,65,11
5,2,15,1,2,0,2,47,75,11
5,2,15,1,6,1,2,47,100,11
5,2,15,1,1,0,2,47,100,11
5,2,8,1,1,0,2,47,100,11
5,2,15,1,4,0,2,47,100,11
5,2,21,0,5,1,2,47,100,11
6,3,11,1,0,0,2,47,100,11
6,3,17,1,0,0,2,47,100,11
6,3,13,1,1,0,2,47,100,11
6,3,15,1,3,0,2,47,100,11
6,3,21,0,3,0,2,47,100,11
6,3,18,1,3,0,2,47,75,8
6,3,10,1,1,0,2,47,87,11
6,3,9,1,3,0,2,47,87,11
6,3,19,1,4,0,2,47,2,11
7,3,20,1,6,1,3,47,100,11
7,3,19,1,4,0,3,47,100,11
7,3,16,1,5,1,3,47,97,11
7,3,19,1,0,0,3,47,75,8
7,3,10,1,0,0,3,47,89,11
8,3,11,1,5,1,3,47,100,11
8,3,11,1,5,1,3,47,100,11
8,3,19,1,5,1,3,47,100,11
8,3,15,1,3,0,3,47,89,11
8,3,11,1,4,0,3,47,100,11
8,3,20,1,5,1,3,47,89,11
8,3,16,1,1,0,3,47,100,11
8,3,0,0,3,0,3,47,100,11
8,3,1,0,3,0,3,47,100,11
8,3,19,1,6,1,3,47,100,11
8,3,10,1,3,0,3,47,87,11
8,3,22,0,6,1,3,47,22,8
8,3,13,1,4,0,3,47,89,11
9,4,17,1,1,0,3,47,1,11
9,4,17,1,1,0,3,47,89,11
9,4,12,1,5,1,3,47,87,11
9,4,23,0,6,1,3,47,38,11
9,4,3,0,3,0,3,47,38,8
9,4,18,1,4,0,3,47,110,11
9,4,13,1,6,1,3,47,95,11
10,4,8,1,3,0,4,47,75,11
10,4,18,1,6,1,4,47,87,11
10,4,20,1,1,0,4,47,100,11
10,4,19,1,4,0,4,47,100,11
10,4,21,0,5,1,4,47,128,11
10,4,22,0,6,1,4,47,67,11
10,4,18,1,0,0,4,47,95,11
10,4,18,1,2,0,4,47,100,11
10,4,2,0,5,1,4,47,13,11
10,4,22,0,2,0,4,47,87,11
11,4,17,1,3,0,4,47,75,11
11,4,12,1,6,1,4,47,100,11
11,4,15,1,6,1,4,47,100,11
11,4,9,1,0,0,4,47,100,11
11,4,19,1,0,0,4,47,100,11
11,4,15,1,2,0,4,47,95,11
11,4,17,1,3,0,4,47,100,11
11,4,0,0,4,0,4,47,18,11
11,4,12,1,6,1,4,47,79,11
11,4,6,0,1,0,4,47,95,11
11,4,2,0,4,0,4,47,95,11
11,4,13,1,4,0,4,47,100,11
11,4,5,0,5,1,4,47,75,11
12,1,20,1,6,1,4,47,87,11
12,1,16,1,5,1,4,47,75,11
12,1,18,1,5,1,4,47,75,11
12,1,13,1,4,0,4,47,65,11
12,1,9,1,1,0,4,47,65,11
12,1,19,1,5,1,4,47,95,11
12,1,14,1,1,0,4,47,95,11
12,1,15,1,1,0,4,47,100,11
1,1,20,1,4,0,1,23,1,11
1,1,1,0,5,1,1,23,12,9
1,1,19,1,6,1,1,23,1,11
1,1,20,1,6,1,1,23,97,11
1,1,16,1,0,0,1,23,38,11
1,1,16,1,2,0,1,23,100,11
1,1,19,1,5,1,1,23,4,11
2,1,14,1,3,0,1,23,89,11
2,1,14,1,5,1,1,23,100,11
2,1,17,1,5,1,1,23,18,11
2,1,16,1,1,0,1,23,100,11
2,1,7,1,4,0,1,23,100,11
2,1,13,1,4,0,1,23,100,11
2,1,13,1,4,0,1,23,100,11
2,1,4,0,6,1,1,23,1,11
2,1,14,1,3,0,1,23,38,11
2,1,16,1,3,0,1,23,65,11
2,1,16,1,3,0,1,23,1,11
2,1,18,1,4,0,1,23,100,11
2,1,14,1,5,1,1,23,100,11
2,1,9,1,6,1,1,23,60,11
2,1,15,1,0,0,1,23,100,11
2,1,17,1,0,0,1,23,100,11
2,1,19,1,2,0,1,23,1,11
2,1,14,1,5,1,1,23,100,11
2,1,21,0,0,0,1,23,38,11
2,1,10,1,2,0,1,23,1,11
3,2,13,1,1,0,1,23,65,11
3,2,19,1,4,0,1,23,100,11
3,2,8,1,5,1,1,23,75,11
3,2,21,0,6,1,1,23,65,11
3,2,13,1,0,0,1,23,38,11
3,2,20,1,5,1,1,23,38,11
3,2,22,0,5,1,1,23,1,11
3,2,16,1,0,0,1,23,100,11
3,2,15,1,3,0,1,23,100,11
3,2,13,1,5,1,1,23,100,11
3,2,15,1,6,1,1,23,100,11
3,2,19,1,0,0,1,23,100,11
3,2,10,1,3,0,1,23,75,11
4,2,17,1,0,0,2,23,100,11
4,2,14,1,1,0,2,23,100,11
4,2,16,1,1,0,2,23,79,11
4,2,17,1,1,0,2,23,100,11
4,2,20,1,1,0,2,23,38,11
4,2,4,0,2,0,2,23,18,9
4,2,19,1,2,0,2,23,100,11
4,2,20,1,2,0,2,23,100,11
4,2,17,1,4,0,2,23,100,11
4,2,6,0,6,1,2,23,110,11
4,2,13,1,6,1,2,23,100,11
4,2,17,1,6,1,2,23,100,11
4,2,3,0,0,0,2,23,100,11
4,2,21,0,2,0,2,23,100,11
4,2,11,1,4,0,2,23,109,11
4,2,15,1,0,0,2,23,100,11
4,2,9,1,3,0,2,23,18,9
4,2,1,0,5,1,2,23,110,11
4,2,5,0,6,1,2,23,18,11
5,2,21,0,2,0,2,23,100,11
5,2,13,1,4,0,2,23,100,11
5,2,11,1,5,1,2,23,75,11
5,2,19,1,2,0,2,23,100,11
5,2,18,1,5,1,2,23,1,11
5,2,18,1,3,0,2,23,75,11
5,2,9,1,4,0,2,23,72,11
6,3,14,1,2,0,2,23,100,11
6,3,17,1,1,0,2,23,96,9
6,3,0,0,3,0,2,23,100,11
6,3,1,0,3,0,2,23,100,11
6,3,21,0,3,0,2,23,100,11
6,3,17,1,4,0,2,23,100,11
7,3,13,1,1,0,3,23,100,11
7,3,19,1,5,1,3,23,100,11
7,3,7,1,2,0,3,23,100,11
7,3,14,1,5,1,3,23,100,11
8,3,23,0,4,0,3,23,100,11
8,3,22,0,3,0,3,23,100,11
8,3,8,1,0,0,3,23,100,11
8,3,15,1,3,0,3,23,81,11
8,3,9,1,4,0,3,23,100,11
9,4,19,1,5,1,3,23,100,11
9,4,10,1,0,0,3,23,100,11
9,4,19,1,3,0,3,23,18,8
9,4,11,1,5,1,3,23,18,11
9,4,19,1,5,1,3,23,100,11
10,4,13,1,4,0,4,23,100,11
10,4,18,1,5,1,4,23,100,11
10,4,19,1,3,0,4,23,38,11
10,4,22,0,3,0,4,23,100,11
10,4,19,1,6,1,4,23,89,11
11,4,14,1,0,0,4,23,65,11
11,4,19,1,1,0,4,23,100,11
11,4,16,1,4,0,4,23,100,11
11,4,0,0,0,0,4,23,67,9
11,4,19,1,0,0,4,23,1,11
11,4,16,1,0,0,4,23,75,11
11,4,19,1,1,0,4,23,38,11
12,1,17,1,6,1,4,23,75,11
12,1,15,1,1,0,4,23,1,11
12,1,18,1,2,0,4,23,38,11
12,1,2,0,6,1,4,23,75,9
12,1,22,0,6,1,4,23,65,11
12,1,15,1,2,0,4,23,1,11
12,1,23,0,2,0,4,23,38,11
12,1,22,0,3,0,4,23,65,11
12,1,13,1,4,0,4,23,1,11
12,1,15,1,4,0,4,23,75,11
12,1,12,1,5,1,4,23,18,11
12,1,22,0,1,0,4,23,75,11
3,2,16,1,5,1,1,23,100,11
4,2,21,0,2,0,2,23,100,11
4,2,14,1,3,0,2,23,100,11
10,4,15,1,6,1,4,23,100,11
12,1,16,1,1,0,4,23,38,11
1,1,5,0,1,0,1,23,75,11
1,1,15,1,5,1,1,23,100,11
1,1,20,1,2,0,1,23,75,11
1,1,14,1,1,0,1,23,100,11
2,1,14,1,3,0,1,23,75,11
2,1,13,1,5,1,1,23,100,11
2,1,18,1,1,0,1,23,100,11
2,1,16,1,4,0,1,23,100,11
2,1,18,1,5,1,1,23,100,11
2,1,19,1,4,0,1,23,38,11
2,1,16,1,6,1,1,23,100,11
2,1,18,1,6,1,1,23,89,11
3,2,21,0,3,0,1,23,75,11
3,2,1,0,4,0,1,23,65,11
3,2,16,1,3,0,1,23,100,11
3,2,13,1,5,1,1,23,100,11
3,2,17,1,1,0,1,23,100,11
3,2,19,1,5,1,1,23,100,11
4,2,9,1,2,0,2,23,38,8
4,2,16,1,1,0,2,23,100,11
4,2,12,1,4,0,2,23,100,11
4,2,11,1,0,0,2,23,100,11
4,2,18,1,1,0,2,23,1,11
5,2,15,1,2,0,2,23,100,11
5,2,6,0,1,0,2,23,12,11
5,2,14,1,5,1,2,23,103,11
5,2,8,1,2,0,2,23,1,11
5,2,21,0,3,0,2,23,1,11
5,2,18,1,5,1,2,23,100,11
6,3,16,1,1,0,2,23,100,11
6,3,21,0,0,0,2,23,24,11
6,3,13,1,3,0,2,23,110,11
7,3,4,0,6,1,3,23,100,11
7,3,18,1,5,1,3,23,26,11
7,3,20,1,4,0,3,23,125,11
7,3,19,1,2,0,3,23,75,11
7,3,20,1,2,0,3,23,1,11
8,3,22,0,1,0,3,23,64,11
8,3,13,1,0,0,3,23,87,11
11,4,12,1,3,0,4,23,100,11
12,1,19,1,3,0,4,23,1,11
12,1,22,0,4,0,4,23,38,11
12,1,17,1,2,0,4,23,75,8
12,1,21,0,2,0,4,23,75,11
12,1,13,1,5,1,4,23,1,11
12,1,14,1,5,1,4,23,100,11
12,1,12,1,6,1,4,23,100,11
1,1,18,1,3,0,1,8,87,11
2,1,8,1,5,1,1,8,95,11
2,1,13,1,0,0,1,8,89,11
2,1,20,1,0,0,1,8,100,11
2,1,10,1,3,0,1,8,100,11
2,1,17,1,3,0,1,8,100,11
2,1,14,1,4,0,1,8,100,11
2,1,11,1,5,1,1,8,95,11
2,1,11,1,3,0,1,8,95,11
2,1,18,1,3,0,1,8,100,11
2,1,17,1,6,1,1,8,100,11
2,1,18,1,6,1,1,8,100,11
2,1,18,1,3,0,1,8,100,11
3,2,19,1,4,0,1,8,65,11
3,2,8,1,6,1,1,8,75,11
3,2,18,1,6,1,1,8,100,11
3,2,22,0,2,0,1,8,18,11
3,2,11,1,6,1,1,8,89,11
3,2,21,0,6,1,1,8,75,11
3,2,16,1,5,1,1,8,100,11
3,2,17,1,5,1,1,8,89,11
3,2,14,1,6,1,1,8,100,11
3,2,21,0,6,1,1,8,100,11
4,2,11,1,0,0,2,8,75,11
4,2,16,1,1,0,2,8,100,11
4,2,12,1,5,1,2,8,18,9
4,2,16,1,5,1,2,8,100,11
4,2,18,1,5,1,2,8,100,11
4,2,1,0,2,0,2,8,100,11
4,2,7,1,1,0,2,8,72,11
4,2,22,0,0,0,2,8,100,11
5,2,19,1,3,0,2,8,72,9
5,2,1,0,5,1,2,8,38,11
5,2,22,0,4,0,2,8,18,11
5,2,13,1,0,0,2,8,22,9
6,3,18,1,6,1,2,8,100,11
6,3,9,1,0,0,2,8,100,11
6,3,11,1,5,1,2,8,100,11
6,3,1,0,0,0,2,8,89,11
7,3,18,1,3,0,3,8,8,11
7,3,22,0,3,0,3,8,100,11
8,3,18,1,0,0,3,8,76,11
8,3,15,1,2,0,3,8,65,11
8,3,9,1,4,0,3,8,72,9
9,4,7,1,2,0,3,8,110,11
9,4,10,1,1,0,3,8,59,11
9,4,0,0,4,0,3,8,18,9
10,4,18,1,1,0,4,8,100,11
10,4,20,1,1,0,4,8,100,11
10,4,20,1,3,0,4,8,100,11
10,4,7,1,3,0,4,8,65,11
10,4,11,1,5,1,4,8,100,11
11,4,16,1,1,0,4,8,95,11
11,4,15,1,3,0,4,8,100,11
11,4,16,1,3,0,4,8,75,9
11,4,10,1,4,0,4,8,38,8
11,4,14,1,4,0,4,8,89,11
11,4,16,1,5,1,4,8,100,11
11,4,17,1,6,1,4,8,100,11
11,4,12,1,2,0,4,8,100,11
11,4,15,1,4,0,4,8,100,11
11,4,17,1,5,1,4,8,100,11
11,4,12,1,1,0,4,8,89,11
11,4,17,1,1,0,4,8,100,11
12,1,21,0,4,0,4,8,62,11
12,1,12,1,5,1,4,8,75,11
12,1,9,1,2,0,4,8,67,11
12,1,14,1,4,0,4,8,75,11
12,1,16,1,4,0,4,8,95,11
12,1,15,1,1,0,4,8,38,11
12,1,21,0,0,0,4,8,65,11
1,1,6,0,3,0,1,8,38,9
1,1,17,1,2,0,1,8,100,11
2,1,12,1,3,0,1,8,19,11
2,1,20,1,3,0,1,8,100,11
3,2,7,1,6,1,1,8,75,11
3,2,14,1,0,0,1,8,100,11
4,2,20,1,6,1,2,8,38,9
5,2,11,1,1,0,2,8,100,11
6,3,15,1,5,1,2,8,75,11
6,3,16,1,2,0,2,8,100,11
8,3,18,1,5,1,3,8,100,11
8,3,12,1,4,0,3,8,100,11
10,4,19,1,4,0,4,8,18,11
11,4,3,0,6,1,4,8,75,11
1,1,13,1,0,0,1,20,65,11
1,1,20,1,0,0,1,20,128,11
1,1,13,1,3,0,1,20,128,11
1,1,15,1,5,1,1,20,46,11
1,1,20,1,5,1,1,20,128,11
1,1,18,1,0,0,1,20,128,11
1,1,20,1,2,0,1,20,128,11
1,1,20,1,2,0,1,20,128,11
1,1,12,1,4,0,1,20,128,11
1,1,11,1,6,1,1,20,128,11
1,1,17,1,3,0,1,20,89,11
1,1,2,0,5,1,1,20,128,11
1,1,11,1,0,0,1,20,38,11
1,1,12,1,4,0,1,20,65,11
1,1,13,1,4,0,1,20,75,11
1,1,16,1,0,0,1,20,100,11
1,1,20,1,1,0,1,20,65,11
2,1,10,1,3,0,1,20,100,11
2,1,23,0,3,0,1,20,18,9
2,1,10,1,4,0,1,20,128,11
2,1,14,1,0,0,1,20,128,11
2,1,16,1,1,0,1,20,89,11
2,1,18,1,4,0,1,20,13,11
2,1,18,1,4,0,1,20,128,11
2,1,11,1,6,1,1,20,100,11
2,1,15,1,6,1,1,20,100,11
2,1,12,1,2,0,1,20,90,11
2,1,13,1,4,0,1,20,128,11
2,1,17,1,2,0,1,20,128,11
2,1,9,1,3,0,1,20,128,11
3,2,23,0,4,0,1,20,128,11
3,2,18,1,6,1,1,20,38,11
3,2,8,1,2,0,1,20,12,11
3,2,21,0,2,0,1,20,13,8
3,2,19,1,6,1,1,20,75,11
3,2,19,1,6,1,1,20,100,11
3,2,12,1,1,0,1,20,89,11
3,2,13,1,5,1,1,20,128,11
3,2,12,1,6,1,1,20,100,11
3,2,19,1,6,1,1,20,128,11
3,2,3,0,0,0,1,20,97,11
3,2,20,1,4,0,1,20,64,11
3,2,14,1,5,1,1,20,38,11
3,2,18,1,5,1,1,20,65,11
3,2,23,0,3,0,1,20,60,11
3,2,14,1,5,1,1,20,128,11
4,2,10,1,0,0,2,20,89,9
4,2,0,0,2,0,2,20,87,11
4,2,3,0,2,0,2,20,65,8
4,2,17,1,4,0,2,20,128,11
4,2,17,1,5,1,2,20,18,9
4,2,18,1,0,0,2,20,100,11
4,2,19,1,1,0,2,20,100,11
4,2,11,1,2,0,2,20,1,9
4,2,18,1,2,0,2,20,46,11
4,2,1,0,3,0,2,20,65,11
4,2,20,1,4,0,2,20,100,11
4,2,22,0,6,1,2,20,100,11
4,2,22,0,2,0,2,20,65,11
4,2,16,1,6,1,2,20,65,9
4,2,20,1,0,0,2,20,38,11
5,2,13,1,2,0,2,20,18,11
5,2,20,1,6,1,2,20,38,11
5,2,9,1,1,0,2,20,43,11
5,2,16,1,3,0,2,20,72,11
5,2,17,1,5,1,2,20,64,11
5,2,5,0,6,1,2,20,128,11
5,2,0,0,1,0,2,20,128,11
5,2,12,1,1,0,2,20,100,11
5,2,15,1,5,1,2,20,100,11
5,2,1,0,1,0,2,20,128,11
5,2,1,0,2,0,2,20,128,11
6,3,11,1,6,1,2,20,100,11
6,3,12,1,6,1,2,20,89,11
6,3,23,0,0,0,2,20,128,11
6,3,10,1,4,0,2,20,100,11
6,3,14,1,4,0,2,20,18,11
6,3,19,1,5,1,2,20,128,11
6,3,16,1,1,0,2,20,100,11
6,3,12,1,3,0,2,20,89,11
6,3,2,0,5,1,2,20,127,11
6,3,4,0,5,1,2,20,65,9
6,3,11,1,6,1,2,20,100,11
6,3,23,0,4,0,2,20,128,11
6,3,22,0,2,0,2,20,128,9
6,3,3,0,5,1,2,20,128,11
6,3,12,1,5,1,2,20,89,9
7,3,11,1,1,0,3,20,100,11
7,3,16,1,0,0,3,20,18,11
7,3,16,1,2,0,3,20,65,11
7,3,18,1,6,1,3,20,89,11
8,3,18,1,0,0,3,20,128,11
8,3,21,0,2,0,3,20,100,11
8,3,15,1,3,0,3,20,89,11
8,3,18,1,3,0,3,20,100,11
8,3,15,1,5,1,3,20,72,9
8,3,14,1,2,0,3,20,89,9
8,3,21,0,2,0,3,20,89,8
8,3,16,1,3,0,3,20,12,9
9,4,4,0,1,0,3,20,128,11
9,4,3,0,3,0,3,20,128,11
9,4,11,1,4,0,3,20,38,9
9,4,15,1,1,0,3,20,65,11
9,4,7,1,4,0,3,20,116,11
9,4,12,1,6,1,3,20,65,11
9,4,15,1,6,1,3,20,38,11
9,4,2,0,4,0,3,20,128,11
9,4,5,0,6,1,3,20,128,11
9,4,11,1,0,0,3,20,18,11
10,4,20,1,6,1,4,20,65,11
10,4,18,1,6,1,4,20,100,11
10,4,6,0,3,0,4,20,87,11
10,4,15,1,3,0,4,20,100,11
10,4,19,1,3,0,4,20,128,11
10,4,13,1,6,1,4,20,89,11
10,4,22,0,0,0,4,20,87,11
10,4,15,1,1,0,4,20,13,8
10,4,19,1,1,0,4,20,4,11
10,4,16,1,2,0,4,20,100,11
10,4,21,0,5,1,4,20,38,11
10,4,4,0,6,1,4,20,128,11
10,4,13,1,1,0,4,20,100,11
10,4,19,1,1,0,4,20,100,11
10,4,11,1,2,0,4,20,100,11
11,4,12,1,1,0,4,20,89,11
11,4,17,1,2,0,4,20,12,9
11,4,20,1,6,1,4,20,38,11
11,4,16,1,0,0,4,20,128,11
11,4,17,1,0,0,4,20,100,11
11,4,4,0,5,1,4,20,46,11
11,4,18,1,5,1,4,20,128,11
11,4,21,0,5,1,4,20,75,11
11,4,15,1,0,0,4,20,128,11
11,4,15,1,4,0,4,20,128,11
12,1,13,1,6,1,4,20,65,11
12,1,14,1,6,1,4,20,128,11
12,1,17,1,0,0,4,20,128,11
12,1,19,1,0,0,4,20,128,11
12,1,19,1,2,0,4,20,128,11
12,1,7,1,3,0,4,20,18,11
12,1,22,0,4,0,4,20,38,11
12,1,18,1,4,0,4,20,128,11
12,1,7,1,5,1,4,20,128,11
12,1,8,1,5,1,4,20,128,11
12,1,16,1,6,1,4,20,128,11
12,1,15,1,0,0,4,20,128,11
12,1,18,1,2,0,4,20,100,11
12,1,0,0,4,0,4,20,128,11
12,1,10,1,5,1,4,20,128,11
12,1,11,1,5,1,4,20,75,11
12,1,13,1,6,1,4,20,128,11
12,1,10,1,1,0,4,20,128,11
12,1,12,1,2,0,4,20,38,11
12,1,16,1,2,0,4,20,128,11
12,1,1,0,6,1,4,20,100,11
12,1,14,1,6,1,4,20,128,11
12,1,21,0,1,0,4,20,75,11
1,1,12,1,0,0,1,20,87,9
4,2,21,0,4,0,2,20,75,11
4,2,12,1,5,1,2,20,59,11
9,4,16,1,5,1,3,20,87,11
10,4,7,1,0,0,4,20,87,11
11,4,14,1,1,0,4,20,18,11
5,2,8,1,5,1,2,20,100,11
4,2,23,0,5,1,2,20,75,8
4,2,12,1,2,0,2,20,100,11
6,3,7,1,1,0,2,20,100,11
9,4,18,1,0,0,3,20,128,11
10,4,19,1,0,0,4,20,128,11
11,4,19,1,1,0,4,20,46,11
1,1,17,1,2,0,1,20,100,11
1,1,19,1,3,0,1,20,95,11
1,1,11,1,6,1,1,20,38,11
1,1,23,0,0,0,1,20,95,11
1,1,15,1,2,0,1,20,95,11
1,1,23,0,2,0,1,20,103,9
1,1,14,1,6,1,1,20,95,11
1,1,15,1,6,1,1,20,38,11
1,1,18,1,6,1,1,20,75,11
1,1,6,0,0,0,1,20,95,11
1,1,13,1,4,0,1,20,89,11
1,1,17,1,4,0,1,20,95,11
1,1,20,1,0,0,1,20,95,11
1,1,16,1,1,0,1,20,100,11
1,1,12,1,2,0,1,20,100,11
2,1,16,1,3,0,1,20,89,11
2,1,18,1,3,0,1,20,100,11
2,1,16,1,4,0,1,20,100,11
2,1,17,1,4,0,1,20,38,11
2,1,14,1,5,1,1,20,100,11
2,1,15,1,5,1,1,20,100,11
2,1,16,1,5,1,1,20,95,11
2,1,1,0,6,1,1,20,65,11
2,1,7,1,6,1,1,20,95,11
2,1,8,1,6,1,1,20,128,11
2,1,17,1,6,1,1,20,100,11
2,1,1,0,0,0,1,20,128,11
2,1,14,1,1,0,1,20,100,11
2,1,18,1,1,0,1,20,100,11
2,1,12,1,3,0,1,20,95,11
2,1,20,1,5,1,1,20,100,11
2,1,17,1,6,1,1,20,95,11
2,1,8,1,3,0,1,20,95,11
2,1,17,1,5,1,1,20,95,11
2,1,11,1,0,0,1,20,100,11
2,1,16,1,5,1,1,20,75,11
2,1,15,1,3,0,1,20,65,11
3,2,19,1,1,0,1,20,65,11
3,2,18,1,4,0,1,20,65,11
3,2,18,1,5,1,1,20,100,11
3,2,19,1,0,0,1,20,75,11
3,2,15,1,2,0,1,20,95,11
3,2,14,1,6,1,1,20,95,11
3,2,19,1,6,1,1,20,100,11
4,2,19,1,3,0,2,20,4,11
4,2,19,1,4,0,2,20,1,11
4,2,15,1,5,1,2,20,87,11
4,2,13,1,6,1,2,20,89,11
4,2,18,1,6,1,2,20,1,11
4,2,19,1,0,0,2,20,65,11
4,2,20,1,0,0,2,20,75,11
4,2,10,1,2,0,2,20,87,11
4,2,16,1,2,0,2,20,100,11
5,2,20,1,0,0,2,20,1,11
5,2,16,1,1,0,2,20,89,11
5,2,20,1,3,0,2,20,89,9
5,2,19,1,3,0,2,20,89,11
5,2,16,1,1,0,2,20,89,11
5,2,22,0,4,0,2,20,1,11
5,2,21,0,4,0,2,20,87,11
6,3,21,0,5,1,2,20,100,11
6,3,23,0,0,0,2,20,65,11
6,3,17,1,2,0,2,20,18,11
6,3,9,1,2,0,2,20,22,11
6,3,13,1,3,0,2,20,89,11
6,3,21,0,4,0,2,20,65,9
6,3,19,1,5,1,2,20,89,11
7,3,13,1,2,0,3,20,100,11
7,3,12,1,1,0,3,20,100,11
7,3,6,0,5,1,3,20,100,11
7,3,15,1,6,1,3,20,100,11
7,3,11,1,0,0,3,20,65,11
7,3,13,1,2,0,3,20,75,11
8,3,17,1,3,0,3,20,89,11
8,3,1,0,4,0,3,20,100,11
8,3,15,1,3,0,3,20,18,11
8,3,17,1,6,1,3,20,1,11
8,3,17,1,0,0,3,20,100,11
8,3,7,1,0,0,3,20,100,11
8,3,11,1,0,0,3,20,12,9
9,4,18,1,2,0,3,20,1,11
9,4,11,1,0,0,3,20,95,11
9,4,11,1,0,0,3,20,95,11
9,4,12,1,0,0,3,20,89,11
9,4,14,1,0,0,3,20,95,11
10,4,14,1,3,0,4,20,100,11
10,4,22,0,4,0,4,20,109,11
10,4,0,0,3,0,4,20,18,11
10,4,18,1,3,0,4,20,100,11
10,4,10,1,5,1,4,20,100,11
10,4,15,1,5,1,4,20,89,11
10,4,13,1,0,0,4,20,18,11
10,4,19,1,1,0,4,20,89,11
10,4,19,1,3,0,4,20,100,11
10,4,13,1,4,0,4,20,13,11
10,4,15,1,0,0,4,20,95,11
10,4,19,1,0,0,4,20,95,11
11,4,13,1,4,0,4,20,65,11
11,4,19,1,5,1,4,20,75,9
11,4,18,1,2,0,4,20,95,11
11,4,13,1,5,1,4,20,100,11
11,4,14,1,5,1,4,20,95,11
11,4,23,0,6,1,4,20,65,11
11,4,17,1,4,0,4,20,75,9
11,4,10,1,0,0,4,20,18,9
11,4,20,1,0,0,4,20,95,11
11,4,3,0,1,0,4,20,12,9
11,4,12,1,1,0,4,20,95,11
11,4,23,0,3,0,4,20,75,11
11,4,6,0,2,0,4,20,38,11
11,4,2,0,3,0,4,20,100,11
11,4,22,0,3,0,4,20,95,11
12,1,17,1,6,1,4,20,95,11
12,1,19,1,2,0,4,20,65,11
12,1,16,1,3,0,4,20,95,11
12,1,23,0,3,0,4,20,95,11
12,1,14,1,4,0,4,20,38,11
12,1,0,0,1,0,4,20,75,11
12,1,19,1,1,0,4,20,95,11
12,1,19,1,4,0,4,20,95,11
12,1,20,1,6,1,4,20,75,11
12,1,11,1,0,0,4,20,95,11
12,1,18,1,1,0,4,20,100,11
12,1,13,1,3,0,4,20,95,11
12,1,16,1,2,0,4,20,65,11
12,1,16,1,2,0,4,20,95,11
12,1,21,0,4,0,4,20,75,11
12,1,18,1,6,1,4,20,95,11
12,1,13,1,0,0,4,20,18,11
12,1,19,1,1,0,4,20,87,11
12,1,20,1,1,0,4,20,95,11
1,1,13,1,3,0,1,20,75,11
1,1,16,1,3,0,1,20,89,11
2,1,14,1,0,0,1,20,89,11
4,2,11,1,6,1,2,20,92,8
5,2,13,1,0,0,2,20,13,8
6,3,14,1,5,1,2,20,100,11
8,3,10,1,0,0,3,20,18,9
8,3,2,0,2,0,3,20,18,11
10,4,13,1,0,0,4,20,100,11
10,4,16,1,2,0,4,20,100,11
11,4,7,1,3,0,4,20,128,11
11,4,17,1,2,0,4,20,100,9
4,2,14,1,1,0,2,20,100,11
10,4,12,1,0,0,4,20,87,11
11,4,12,1,5,1,4,20,100,11
11,4,18,1,0,0,4,20,75,11
12,1,10,1,1,0,4,20,75,11
12,1,19,1,3,0,4,20,100,11
2,1,18,1,3,0,1,20,100,11
2,1,18,1,5,1,1,20,75,11
4,2,1,0,0,0,2,20,128,11
6,3,17,1,4,0,2,20,100,11
6,3,12,1,4,0,2,20,125,11
7,3,15,1,6,1,3,20,89,11
7,3,9,1,2,0,3,20,89,11
8,3,12,1,0,0,3,20,100,11
11,4,21,0,0,0,4,20,87,11
1,1,16,1,2,0,1,20,128,11
2,1,12,1,5,1,1,20,100,11
2,1,9,1,5,1,1,20,38,11
2,1,17,1,1,0,1,20,75,11
3,2,17,1,4,0,1,20,75,11
4,2,18,1,4,0,2,20,100,11
5,2,10,1,3,0,2,20,100,11
6,3,17,1,6,1,2,20,100,11
6,3,14,1,5,1,2,20,84,11
9,4,16,1,4,0,3,20,12,8
10,4,14,1,0,0,4,20,100,11
10,4,14,1,3,0,4,20,100,11
11,4,15,1,3,0,4,20,75,11
1,1,14,1,0,0,1,18,75,11
1,1,16,1,5,1,1,18,128,11
1,1,12,1,3,0,1,18,128,11
1,1,17,1,3,0,1,18,75,11
1,1,20,1,4,0,1,18,89,11
1,1,17,1,0,0,1,18,75,11
1,1,15,1,3,0,1,18,1,11
1,1,16,1,4,0,1,18,100,11
1,1,16,1,5,1,1,18,128,11
1,1,12,1,2,0,1,18,100,11
1,1,18,1,2,0,1,18,100,11
2,1,7,1,0,0,1,18,110,11
2,1,17,1,0,0,1,18,26,11
2,1,16,1,2,0,1,18,75,11
2,1,23,0,3,0,1,18,1,11
2,1,13,1,3,0,1,18,64,11
2,1,18,1,3,0,1,18,87,11
2,1,7,1,4,0,1,18,75,11
2,1,18,1,0,0,1,18,95,11
2,1,15,1,1,0,1,18,46,11
3,2,12,1,0,0,1,18,100,11
3,2,19,1,2,0,1,18,75,11
3,2,12,1,3,0,1,18,100,11
4,2,17,1,4,0,2,18,100,11
4,2,1,0,6,1,2,18,1,11
4,2,20,1,1,0,2,18,1,11
4,2,16,1,2,0,2,18,89,11
4,2,12,1,0,0,2,18,1,11
4,2,8,1,2,0,2,18,89,11
4,2,8,1,1,0,2,18,1,11
4,2,12,1,1,0,2,18,1,11
4,2,14,1,1,0,2,18,1,11
5,2,23,0,2,0,2,18,110,11
5,2,10,1,6,1,2,18,65,11
5,2,17,1,6,1,2,18,38,11
5,2,11,1,1,0,2,18,89,11
5,2,13,1,5,1,2,18,18,11
6,3,3,0,5,1,2,18,89,11
6,3,19,1,1,0,2,18,1,11
6,3,11,1,2,0,2,18,64,11
6,3,20,1,6,1,2,18,100,11
6,3,2,0,5,1,2,18,75,8
6,3,11,1,4,0,2,18,1,11
6,3,10,1,1,0,2,18,100,11
7,3,13,1,6,1,3,18,100,11
7,3,11,1,0,0,3,18,100,11
7,3,16,1,4,0,3,18,128,11
7,3,20,1,2,0,3,18,100,8
8,3,11,1,6,1,3,18,100,11
8,3,16,1,6,1,3,18,100,11
8,3,8,1,0,0,3,18,18,11
8,3,15,1,1,0,3,18,4,11
8,3,9,1,5,1,3,18,89,11
8,3,2,0,0,0,3,18,64,11
8,3,10,1,0,0,3,18,100,11
8,3,15,1,0,0,3,18,100,11
8,3,19,1,4,0,3,18,128,11
9,4,20,1,3,0,3,18,18,11
9,4,20,1,0,0,3,18,100,11
9,4,2,0,1,0,3,18,65,11
9,4,18,1,5,1,3,18,4,11
9,4,16,1,1,0,3,18,4,11
9,4,19,1,0,0,3,18,4,11
10,4,9,1,2,0,4,18,100,11
10,4,14,1,2,0,4,18,4,11
10,4,20,1,0,0,4,18,89,11
10,4,12,1,6,1,4,18,4,11
10,4,10,1,0,0,4,18,100,11
10,4,22,0,0,0,4,18,89,11
10,4,16,1,1,0,4,18,100,11
10,4,9,1,3,0,4,18,4,11
10,4,12,1,3,0,4,18,65,11
11,4,9,1,1,0,4,18,100,11
11,4,16,1,1,0,4,18,89,11
11,4,8,1,3,0,4,18,100,11
11,4,16,1,4,0,4,18,89,11
11,4,19,1,4,0,4,18,100,11
11,4,20,1,4,0,4,18,100,11
11,4,18,1,0,0,4,18,100,11
11,4,22,0,0,0,4,18,75,11
11,4,10,1,1,0,4,18,100,11
11,4,17,1,1,0,4,18,100,11
11,4,17,1,1,0,4,18,65,11
11,4,19,1,1,0,4,18,100,11
11,4,14,1,5,1,4,18,100,11
11,4,10,1,1,0,4,18,4,11
11,4,14,1,2,0,4,18,4,11
11,4,14,1,3,0,4,18,100,11
12,1,11,1,0,0,4,18,4,11
12,1,15,1,4,0,4,18,100,11
12,1,21,0,4,0,4,18,4,11
12,1,15,1,2,0,4,18,65,11
12,1,1,0,5,1,4,18,46,8
12,1,11,1,5,1,4,18,75,11
12,1,20,1,6,1,4,18,100,11
12,1,16,1,5,1,4,18,4,11
12,1,19,1,6,1,4,18,4,11
1,1,18,1,5,1,1,18,100,11
1,1,16,1,2,0,1,18,100,11
2,1,13,1,4,0,1,18,100,11
2,1,19,1,5,1,1,18,100,11
2,1,13,1,6,1,1,18,100,11
4,2,13,1,4,0,2,18,100,11
4,2,22,0,1,0,2,18,100,11
7,3,14,1,6,1,3,18,100,11
8,3,19,1,1,0,3,18,110,11
8,3,15,1,4,0,3,18,110,11
9,4,18,1,0,0,3,18,100,11
10,4,12,1,3,0,4,18,100,11
11,4,15,1,6,1,4,18,89,11
11,4,12,1,0,0,4,18,72,9
12,1,19,1,3,0,4,18,75,11
12,1,21,0,6,1,4,18,110,11
12,1,0,0,5,1,4,18,72,11
12,1,17,1,1,0,4,18,128,11
2,1,18,1,5,1,1,18,100,11
2,1,18,1,3,0,1,18,100,11
2,1,19,1,2,0,1,18,87,11
4,2,15,1,2,0,2,18,100,11
4,2,16,1,6,1,2,18,100,11
5,2,21,0,6,1,2,18,100,11
5,2,10,1,0,0,2,18,75,9
5,2,18,1,4,0,2,18,100,11
5,2,20,1,6,1,2,18,100,11
6,3,11,1,6,1,2,18,100,11
8,3,18,1,6,1,3,18,100,11
8,3,20,1,2,0,3,18,109,11
8,3,14,1,4,0,3,18,65,11
8,3,20,1,3,0,3,18,100,11
8,3,17,1,3,0,3,18,125,11
8,3,7,1,5,1,3,18,110,11
9,4,21,0,1,0,3,18,18,11
9,4,11,1,1,0,3,18,110,11
9,4,17,1,2,0,3,18,4,11
10,4,7,1,5,1,4,18,128,11
10,4,14,1,3,0,4,18,100,11
11,4,13,1,6,1,4,18,125,9
1,1,12,1,0,0,1,4,65,11
1,1,16,1,0,0,1,4,75,11
1,1,19,1,4,0,1,4,95,11
1,1,15,1,5,1,1,4,100,11
1,1,17,1,6,1,1,4,95,11
1,1,21,0,2,0,1,4,95,11
1,1,13,1,6,1,1,4,100,11
1,1,19,1,6,1,1,4,75,11
1,1,21,0,6,1,1,4,100,11
1,1,12,1,0,0,1,4,100,11
1,1,14,1,1,0,1,4,65,11
1,1,14,1,1,0,1,4,72,11
1,1,17,1,1,0,1,4,100,11
1,1,18,1,6,1,1,4,65,11
1,1,18,1,1,0,1,4,100,11
1,1,21,0,1,0,1,4,100,11
2,1,19,1,3,0,1,4,95,11
2,1,10,1,0,0,1,4,95,11
2,1,13,1,0,0,1,4,100,11
2,1,10,1,1,0,1,4,100,11
2,1,11,1,2,0,1,4,100,11
2,1,12,1,3,0,1,4,100,11
2,1,13,1,4,0,1,4,100,11
2,1,22,0,4,0,1,4,100,11
2,1,1,0,2,0,1,4,95,11
2,1,19,1,0,0,1,4,86,9
2,1,12,1,2,0,1,4,38,11
2,1,14,1,3,0,1,4,100,11
2,1,17,1,4,0,1,4,26,11
2,1,11,1,6,1,1,4,38,11
2,1,17,1,2,0,1,4,100,11
2,1,16,1,3,0,1,4,100,11
2,1,16,1,3,0,1,4,65,11
2,1,19,1,3,0,1,4,67,11
3,2,13,1,6,1,1,4,100,11
3,2,17,1,0,0,1,4,89,11
3,2,12,1,6,1,1,4,100,11
3,2,23,0,0,0,1,4,46,11
3,2,14,1,4,0,1,4,100,11
3,2,23,0,6,1,1,4,65,11
3,2,19,1,0,0,1,4,100,11
3,2,13,1,1,0,1,4,38,11
3,2,19,1,2,0,1,4,100,11
3,2,13,1,6,1,1,4,75,11
4,2,17,1,5,1,2,4,100,11
4,2,23,0,5,1,2,4,100,11
4,2,10,1,6,1,2,4,89,11
4,2,20,1,0,0,2,4,100,11
4,2,12,1,1,0,2,4,100,11
4,2,16,1,2,0,2,4,100,11
4,2,17,1,2,0,2,4,72,11
4,2,10,1,3,0,2,4,13,11
4,2,14,1,3,0,2,4,89,11
4,2,22,0,4,0,2,4,100,11
4,2,8,1,0,0,2,4,100,11
4,2,17,1,3,0,2,4,100,11
4,2,18,1,3,0,2,4,100,11
4,2,19,1,4,0,2,4,75,9
4,2,13,1,2,0,2,4,72,11
4,2,13,1,3,0,2,4,72,11
4,2,18,1,6,1,2,4,95,11
4,2,18,1,0,0,2,4,100,11
4,2,13,1,1,0,2,4,89,11
4,2,20,1,1,0,2,4,100,11
5,2,22,0,2,0,2,4,75,11
5,2,7,1,3,0,2,4,100,11
5,2,12,1,6,1,2,4,89,11
5,2,19,1,4,0,2,4,89,11
5,2,21,0,4,0,2,4,89,11
5,2,16,1,5,1,2,4,100,11
5,2,3,0,0,0,2,4,95,11
6,3,22,0,0,0,2,4,100,11
6,3,16,1,1,0,2,4,100,11
6,3,13,1,4,0,2,4,100,11
6,3,16,1,4,0,2,4,89,11
6,3,21,0,4,0,2,4,100,11
6,3,13,1,6,1,2,4,4,11
6,3,21,0,0,0,2,4,89,11
6,3,1,0,1,0,2,4,95,11
6,3,22,0,1,0,2,4,100,11
6,3,20,1,2,0,2,4,89,11
6,3,11,1,3,0,2,4,89,11
6,3,13,1,3,0,2,4,100,11
6,3,7,1,4,0,2,4,65,11
6,3,11,1,5,1,2,4,89,9
6,3,0,0,6,1,2,4,110,11
6,3,20,1,4,0,2,4,100,11
6,3,23,0,6,1,2,4,100,11
6,3,11,1,1,0,2,4,100,11
6,3,12,1,1,0,2,4,100,11
6,3,22,0,3,0,2,4,72,11
6,3,19,1,4,0,2,4,89,11
7,3,4,0,1,0,3,4,65,11
7,3,6,0,2,0,3,4,72,11
7,3,23,0,3,0,3,4,100,11
7,3,14,1,1,0,3,4,100,11
7,3,18,1,1,0,3,4,100,11
7,3,1,0,3,0,3,4,89,11
7,3,11,1,1,0,3,4,65,11
8,3,19,1,0,0,3,4,46,11
8,3,16,1,2,0,3,4,12,8
8,3,22,0,3,0,3,4,100,11
8,3,11,1,4,0,3,4,100,11
8,3,12,1,0,0,3,4,100,11
8,3,18,1,0,0,3,4,100,11
8,3,22,0,0,0,3,4,100,11
8,3,22,0,1,0,3,4,65,11
8,3,19,1,4,0,3,4,100,11
8,3,20,1,5,1,3,4,89,11
8,3,12,1,0,0,3,4,100,11
8,3,8,1,1,0,3,4,110,11
8,3,19,1,1,0,3,4,46,11
8,3,21,0,1,0,3,4,100,11
8,3,4,0,5,1,3,4,38,9
8,3,15,1,1,0,3,4,95,11
8,3,20,1,4,0,3,4,89,11
9,4,11,1,6,1,3,4,95,11
9,4,19,1,6,1,3,4,65,11
9,4,10,1,1,0,3,4,100,11
9,4,17,1,4,0,3,4,100,11
9,4,10,1,6,1,3,4,100,11
9,4,17,1,6,1,3,4,100,11
10,4,20,1,6,1,4,4,100,11
10,4,17,1,3,0,4,4,100,9
10,4,2,0,4,0,4,4,100,9
10,4,13,1,4,0,4,4,100,11
10,4,23,0,4,0,4,4,100,11
10,4,14,1,5,1,4,4,65,11
10,4,18,1,5,1,4,4,100,11
10,4,11,1,3,0,4,4,100,11
10,4,18,1,3,0,4,4,100,11
10,4,12,1,4,0,4,4,89,11
10,4,2,0,5,1,4,4,100,9
10,4,5,0,5,1,4,4,18,11
10,4,15,1,1,0,4,4,100,11
10,4,19,1,2,0,4,4,100,11
10,4,19,1,5,1,4,4,65,11
10,4,18,1,6,1,4,4,100,11
10,4,18,1,2,0,4,4,18,11
11,4,16,1,5,1,4,4,100,11
11,4,13,1,1,0,4,4,109,9
11,4,21,0,1,0,4,4,65,11
11,4,11,1,5,1,4,4,100,11
11,4,12,1,6,1,4,4,100,11
11,4,15,1,6,1,4,4,89,11
11,4,13,1,0,0,4,4,100,11
11,4,14,1,0,0,4,4,65,11
11,4,13,1,2,0,4,4,89,11
11,4,15,1,5,1,4,4,75,11
11,4,22,0,0,0,4,4,72,11
11,4,23,0,0,0,4,4,64,11
11,4,11,1,4,0,4,4,72,11
8,3,22,0,2,0,3,4,100,11
8,3,17,1,4,0,3,4,109,11
10,4,13,1,0,0,4,4,12,11
1,1,0,0,0,0,1,40,128,11
1,1,19,1,1,0,1,40,38,11
1,1,20,1,4,0,1,40,65,11
1,1,0,0,5,1,1,40,89,11
1,1,12,1,1,0,1,40,128,11
1,1,2,0,2,0,1,40,65,11
1,1,8,1,6,1,1,40,75,11
1,1,11,1,6,1,1,40,128,11
1,1,19,1,6,1,1,40,75,11
1,1,17,1,4,0,1,40,100,11
1,1,12,1,0,0,1,40,18,11
1,1,14,1,1,0,1,40,89,11
2,1,18,1,5,1,1,40,100,11
2,1,15,1,4,0,1,40,100,11
2,1,13,1,3,0,1,40,75,11
3,2,13,1,6,1,1,40,128,11
3,2,15,1,4,0,1,40,87,11
3,2,17,1,1,0,1,40,100,11
3,2,1,0,5,1,1,40,79,11
3,2,14,1,6,1,1,40,89,11
3,2,15,1,6,1,1,40,89,11
4,2,14,1,3,0,2,40,100,11
4,2,19,1,3,0,2,40,100,11
4,2,19,1,3,0,2,40,100,11
4,2,7,1,4,0,2,40,18,11
4,2,10,1,5,1,2,40,89,11
4,2,15,1,0,0,2,40,100,11
4,2,21,0,0,0,2,40,75,9
4,2,18,1,6,1,2,40,38,11
4,2,0,0,3,0,2,40,72,9
4,2,13,1,0,0,2,40,117,9
4,2,20,1,0,0,2,40,100,11
5,2,20,1,5,1,2,40,65,11
5,2,20,1,2,0,2,40,89,9
5,2,17,1,3,0,2,40,18,11
5,2,12,1,1,0,2,40,100,11
5,2,15,1,1,0,2,40,18,11
5,2,7,1,4,0,2,40,46,11
6,3,23,0,5,1,2,40,19,11
6,3,23,0,5,1,2,40,18,11
6,3,21,0,1,0,2,40,18,11
6,3,13,1,3,0,2,40,87,11
6,3,18,1,6,1,2,40,89,9
6,3,18,1,4,0,2,40,4,11
6,3,16,1,5,1,2,40,125,8
6,3,13,1,1,0,2,40,18,11
6,3,23,0,3,0,2,40,13,9
7,3,20,1,6,1,3,40,100,11
7,3,16,1,0,0,3,40,22,9
7,3,21,0,0,0,3,40,100,11
7,3,20,1,2,0,3,40,38,11
7,3,20,1,2,0,3,40,100,11
7,3,3,0,3,0,3,40,18,11
7,3,13,1,0,0,3,40,100,11
7,3,13,1,0,0,3,40,100,11
7,3,19,1,0,0,3,40,89,11
7,3,13,1,1,0,3,40,100,11
7,3,10,1,3,0,3,40,100,11
7,3,18,1,6,1,3,40,89,11
7,3,15,1,1,0,3,40,89,11
7,3,20,1,1,0,3,40,89,11
7,3,11,1,2,0,3,40,100,11
8,3,10,1,2,0,3,40,72,11
8,3,14,1,4,0,3,40,128,11
8,3,14,1,6,1,3,40,100,11
8,3,22,0,6,1,3,40,100,9
8,3,20,1,0,0,3,40,100,11
8,3,12,1,1,0,3,40,18,9
8,3,11,1,3,0,3,40,100,11
8,3,21,0,0,0,3,40,100,11
8,3,20,1,2,0,3,40,100,11
8,3,16,1,4,0,3,40,100,11
9,4,8,1,0,0,3,40,89,11
9,4,19,1,1,0,3,40,100,11
9,4,19,1,1,0,3,40,89,11
9,4,11,1,2,0,3,40,89,11
9,4,17,1,6,1,3,40,100,11
9,4,20,1,6,1,3,40,95,11
9,4,16,1,0,0,3,40,65,9
9,4,0,0,1,0,3,40,100,11
9,4,13,1,2,0,3,40,89,11
9,4,13,1,3,0,3,40,89,11
10,4,13,1,4,0,4,40,72,11
10,4,1,0,1,0,4,40,128,11
10,4,19,1,1,0,4,40,100,11
10,4,17,1,3,0,4,40,100,11
10,4,12,1,1,0,4,40,89,11
10,4,18,1,6,1,4,40,100,11
10,4,15,1,2,0,4,40,100,11
10,4,16,1,3,0,4,40,100,11
11,4,15,1,6,1,4,40,100,11
11,4,16,1,1,0,4,40,100,11
11,4,20,1,0,0,4,40,128,11
11,4,19,1,5,1,4,40,38,11
11,4,15,1,6,1,4,40,128,11
11,4,18,1,6,1,4,40,58,11
11,4,14,1,2,0,4,40,100,11
12,1,10,1,4,0,4,40,65,11
12,1,10,1,3,0,4,40,128,11
12,1,10,1,6,1,4,40,128,11
12,1,19,1,5,1,4,40,38,11
1,1,16,1,0,0,1,40,75,11
1,1,12,1,2,0,1,40,87,11
1,1,18,1,2,0,1,40,100,11
2,1,17,1,6,1,1,40,100,11
2,1,13,1,2,0,1,40,100,11
2,1,19,1,5,1,1,40,100,11
2,1,17,1,1,0,1,40,100,11
2,1,11,1,6,1,1,40,100,11
2,1,16,1,1,0,1,40,100,11
2,1,18,1,2,0,1,40,100,11
3,2,17,1,6,1,1,40,100,11
4,2,17,1,3,0,2,40,100,11
4,2,15,1,2,0,2,40,100,11
5,2,14,1,6,1,2,40,100,11
5,2,16,1,0,0,2,40,100,11
5,2,18,1,5,1,2,40,100,11
5,2,18,1,5,1,2,40,100,11
5,2,17,1,4,0,2,40,100,11
7,3,22,0,0,0,3,40,87,11
7,3,16,1,0,0,3,40,100,11
7,3,4,0,2,0,3,40,100,11
7,3,5,0,5,1,3,40,100,11
8,3,21,0,4,0,3,40,100,11
8,3,8,1,1,0,3,40,100,11
8,3,16,1,6,1,3,40,89,11
8,3,10,1,0,0,3,40,87,11
8,3,15,1,3,0,3,40,87,11
9,4,14,1,6,1,3,40,87,11
10,4,1,0,1,0,4,40,57,11
10,4,18,1,4,0,4,40,100,11
10,4,15,1,5,1,4,40,100,11
10,4,18,1,1,0,4,40,100,11
10,4,16,1,5,1,4,40,100,11
10,4,16,1,2,0,4,40,100,11
10,4,16,1,2,0,4,40,87,11
10,4,6,0,3,0,4,40,87,11
11,4,17,1,4,0,4,40,100,11
11,4,18,1,5,1,4,40,100,11
11,4,11,1,5,1,4,40,100,11
11,4,15,1,5,1,4,40,100,11
11,4,19,1,5,1,4,40,100,11
11,4,16,1,6,1,4,40,87,11
11,4,20,1,2,0,4,40,100,11
11,4,15,1,1,0,4,40,100,11
11,4,17,1,1,0,4,40,100,11
11,4,13,1,3,0,4,40,100,11
11,4,15,1,3,0,4,40,100,11
12,1,7,1,0,0,4,40,19,11
12,1,10,1,1,0,4,40,100,11
12,1,17,1,2,0,4,40,100,11
12,1,17,1,2,0,4,40,19,9
1,1,12,1,2,0,1,40,100,9
1,1,8,1,0,0,1,40,110,11
1,1,18,1,1,0,1,40,100,11
2,1,18,1,5,1,1,40,100,11
4,2,10,1,1,0,2,40,100,11
5,2,12,1,2,0,2,40,100,11
5,2,16,1,1,0,2,40,12,9
6,3,13,1,6,1,2,40,100,11
6,3,20,1,4,0,2,40,100,11
7,3,20,1,4,0,3,40,89,11
9,4,9,1,5,1,3,40,100,11
9,4,17,1,0,0,3,40,4,11
10,4,19,1,5,1,4,40,100,11
10,4,18,1,2,0,4,40,100,11
10,4,15,1,1,0,4,40,100,11
11,4,18,1,5,1,4,40,100,11
11,4,14,1,1,0,4,40,4,11
11,4,20,1,1,0,4,40,100,11
11,4,18,1,3,0,4,40,100,11
11,4,18,1,3,0,4,40,100,11
11,4,16,1,5,1,4,40,100,11
11,4,18,1,5,1,4,40,100,11
11,4,13,1,0,0,4,40,100,11
12,1,16,1,4,0,4,40,128,11
1,1,5,0,1,0,1,40,38,11
1,1,13,1,0,0,1,40,87,11
1,1,19,1,3,0,1,40,87,11
1,1,18,1,6,1,1,40,12,9
1,1,19,1,6,1,1,40,87,11
1,1,16,1,2,0,1,40,100,11
2,1,14,1,2,0,1,40,100,11
2,1,19,1,2,0,1,40,38,11
2,1,20,1,4,0,1,40,87,11
2,1,14,1,3,0,1,40,75,11
3,2,9,1,4,0,1,40,75,11
3,2,19,1,5,1,1,40,75,11
3,2,20,1,6,1,1,40,87,11
3,2,11,1,0,0,1,40,100,11
3,2,14,1,1,0,1,40,89,11
3,2,17,1,5,1,1,40,100,11
4,2,14,1,1,0,2,40,100,11
4,2,22,0,2,0,2,40,100,11
4,2,14,1,5,1,2,40,100,11
4,2,17,1,1,0,2,40,100,11
5,2,15,1,2,0,2,40,89,11
5,2,8,1,3,0,2,40,100,11
6,3,16,1,5,1,2,40,100,11
6,3,14,1,1,0,2,40,100,11
7,3,12,1,5,1,3,40,58,11
7,3,13,1,3,0,3,40,1,11
7,3,17,1,3,0,3,40,87,11
7,3,21,0,5,1,3,40,87,11
7,3,17,1,0,0,3,40,100,11
7,3,13,1,1,0,3,40,87,11
8,3,18,1,4,0,3,40,87,11
8,3,10,1,2,0,3,40,89,11
9,4,12,1,0,0,3,40,87,11
9,4,11,1,5,1,3,40,46,11
10,4,18,1,3,0,4,40,18,11
10,4,15,1,4,0,4,40,100,11
10,4,17,1,0,0,4,40,128,11
10,4,19,1,2,0,4,40,100,11
10,4,22,0,5,1,4,40,100,11
10,4,14,1,5,1,4,40,100,11
11,4,15,1,4,0,4,40,100,11
11,4,15,1,5,1,4,40,87,11
11,4,18,1,4,0,4,40,100,11
11,4,5,0,5,1,4,40,18,11
11,4,15,1,0,0,4,40,26,11
11,4,18,1,0,0,4,40,100,11
11,4,23,0,5,1,4,40,75,11
11,4,17,1,5,1,4,40,75,11
12,1,19,1,1,0,4,40,75,11
12,1,19,1,6,1,4,40,87,11
1,1,20,1,6,1,1,31,128,11
1,1,10,1,1,0,1,31,128,11
2,1,16,1,1,0,1,31,128,11
2,1,19,1,6,1,1,31,87,11
3,2,15,1,0,0,1,31,100,11
3,2,20,1,6,1,1,31,87,11
4,2,18,1,2,0,2,31,75,11
4,2,5,0,1,0,2,31,18,11
5,2,0,0,4,0,2,31,63,9
5,2,11,1,0,0,2,31,89,11
5,2,21,0,6,1,2,31,89,11
5,2,8,1,1,0,2,31,128,11
6,3,20,1,1,0,2,31,100,11
6,3,0,0,5,1,2,31,87,11
8,3,2,0,0,0,3,31,100,11
9,4,11,1,1,0,3,31,18,11
10,4,22,0,2,0,4,31,95,11
11,4,16,1,4,0,4,31,76,11
11,4,4,0,0,0,4,31,75,9
11,4,21,0,0,0,4,31,128,11
11,4,21,0,0,0,4,31,87,11
11,4,0,0,3,0,4,31,100,11
11,4,17,1,4,0,4,31,100,11
12,1,5,0,5,1,4,31,75,9
12,1,1,0,3,0,4,31,87,11
12,1,14,1,3,0,4,31,87,11
12,1,17,1,6,1,4,31,4,11
1,1,21,0,1,0,1,31,87,11
1,1,3,0,3,0,1,31,97,11
1,1,18,1,3,0,1,31,87,11
1,1,13,1,1,0,1,31,128,11
1,1,10,1,5,1,1,31,128,11
1,1,18,1,0,0,1,31,87,11
1,1,15,1,1,0,1,31,57,11
1,1,12,1,6,1,1,31,100,11
2,1,20,1,4,0,1,31,100,11
2,1,19,1,5,1,1,31,38,11
2,1,2,0,1,0,1,31,87,9
2,1,5,0,1,0,1,31,87,9
2,1,21,0,1,0,1,31,75,11
2,1,14,1,6,1,1,31,4,11
2,1,0,0,6,1,1,31,87,11
2,1,17,1,2,0,1,31,128,11
3,2,3,0,2,0,1,31,89,11
4,2,14,1,3,0,2,31,87,11
4,2,12,1,2,0,2,31,87,11
4,2,14,1,3,0,2,31,100,11
4,2,15,1,6,1,2,31,46,11
4,2,19,1,6,1,2,31,100,11
4,2,21,0,6,1,2,31,100,11
4,2,10,1,2,0,2,31,100,11
4,2,12,1,2,0,2,31,75,11
4,2,12,1,4,0,2,31,89,11
4,2,21,0,6,1,2,31,100,11
5,2,11,1,3,0,2,31,100,11
5,2,8,1,6,1,2,31,130,11
5,2,20,1,6,1,2,31,100,11
5,2,11,1,1,0,2,31,87,11
5,2,12,1,1,0,2,31,87,11
5,2,20,1,2,0,2,31,89,11
5,2,22,0,3,0,2,31,100,11
5,2,22,0,5,1,2,31,4,9
5,2,9,1,1,0,2,31,75,9
5,2,11,1,4,0,2,31,100,11
5,2,20,1,5,1,2,31,87,11
5,2,13,1,6,1,2,31,89,11
5,2,15,1,0,0,2,31,100,11
5,2,21,0,4,0,2,31,89,11
6,3,10,1,5,1,2,31,89,11
6,3,17,1,5,1,2,31,76,11
6,3,20,1,6,1,2,31,100,11
6,3,22,0,6,1,2,31,100,11
6,3,13,1,0,0,2,31,87,11
6,3,13,1,2,0,2,31,4,11
6,3,15,1,5,1,2,31,89,11
6,3,6,0,2,0,2,31,89,11
6,3,14,1,3,0,2,31,100,11
6,3,18,1,4,0,2,31,100,11
6,3,21,0,4,0,2,31,100,11
6,3,1,0,0,0,2,31,100,11
6,3,21,0,3,0,2,31,100,11
6,3,10,1,4,0,2,31,125,11
6,3,11,1,4,0,2,31,100,11
6,3,13,1,5,1,2,31,100,11
6,3,12,1,6,1,2,31,89,11
6,3,23,0,6,1,2,31,87,11
7,3,21,0,1,0,3,31,87,11
7,3,11,1,3,0,3,31,87,11
7,3,18,1,4,0,3,31,100,11
7,3,14,1,6,1,3,31,89,11
7,3,17,1,6,1,3,31,100,11
7,3,20,1,3,0,3,31,100,11
7,3,18,1,5,1,3,31,89,11
7,3,19,1,5,1,3,31,89,11
7,3,18,1,0,0,3,31,100,11
7,3,17,1,2,0,3,31,12,9
7,3,21,0,3,0,3,31,89,11
7,3,23,0,3,0,3,31,89,11
7,3,21,0,5,1,3,31,87,11
7,3,12,1,5,1,3,31,89,11
7,3,14,1,5,1,3,31,87,11
7,3,16,1,2,0,3,31,100,11
8,3,2,0,3,0,3,31,100,11
8,3,19,1,6,1,3,31,4,11
8,3,10,1,3,0,3,31,4,11
8,3,6,0,4,0,3,31,100,11
8,3,22,0,5,1,3,31,87,11
8,3,19,1,4,0,3,31,100,11
8,3,17,1,2,0,3,31,87,11
8,3,9,1,4,0,3,31,100,11
8,3,23,0,4,0,3,31,100,11
8,3,15,1,0,0,3,31,89,11
8,3,3,0,1,0,3,31,100,9
8,3,15,1,2,0,3,31,87,11
8,3,8,1,3,0,3,31,63,11
8,3,9,1,4,0,3,31,87,11
9,4,7,1,2,0,3,31,100,11
9,4,22,0,5,1,3,31,100,11
9,4,19,1,6,1,3,31,87,11
9,4,23,0,6,1,3,31,89,11
9,4,18,1,4,0,3,31,89,11
9,4,17,1,5,1,3,31,4,11
9,4,16,1,6,1,3,31,4,11
9,4,22,0,6,1,3,31,87,11
9,4,9,1,1,0,3,31,87,11
9,4,12,1,3,0,3,31,89,11
9,4,18,1,5,1,3,31,100,11
9,4,18,1,5,1,3,31,100,11
10,4,20,1,2,0,4,31,100,11
10,4,18,1,3,0,4,31,87,11
10,4,21,0,4,0,4,31,100,11
10,4,17,1,5,1,4,31,87,11
10,4,4,0,6,1,4,31,87,11
10,4,19,1,2,0,4,31,87,11
10,4,15,1,3,0,4,31,87,11
10,4,16,1,3,0,4,31,100,11
10,4,20,1,2,0,4,31,89,11
10,4,14,1,1,0,4,31,4,11
10,4,11,1,2,0,4,31,100,11
10,4,14,1,2,0,4,31,100,11
11,4,9,1,5,1,4,31,87,11
11,4,14,1,5,1,4,31,100,11
11,4,22,0,5,1,4,31,128,11
11,4,9,1,6,1,4,31,87,11
11,4,16,1,2,0,4,31,89,11
11,4,19,1,3,0,4,31,4,11
11,4,18,1,5,1,4,31,89,11
11,4,12,1,0,0,4,31,89,11
11,4,15,1,1,0,4,31,4,11
11,4,19,1,2,0,4,31,87,11
11,4,12,1,6,1,4,31,4,11
12,1,18,1,0,0,4,31,87,11
12,1,21,0,2,0,4,31,75,9
12,1,23,0,4,0,4,31,87,11
12,1,14,1,1,0,4,31,87,11
12,1,18,1,5,1,4,31,87,11
12,1,21,0,6,1,4,31,100,11
12,1,23,0,6,1,4,31,87,11
12,1,12,1,2,0,4,31,75,11
12,1,3,0,5,1,4,31,100,11
12,1,17,1,6,1,4,31,100,9
1,1,14,1,6,1,1,31,87,11
7,3,1,0,2,0,3,31,87,9
9,4,15,1,2,0,3,31,87,11
1,1,0,0,0,0,1,31,75,11
1,1,1,0,0,0,1,31,38,11
1,1,12,1,0,0,1,31,87,11
1,1,21,0,0,0,1,31,97,11
1,1,23,0,0,0,1,31,87,11
1,1,21,0,1,0,1,31,128,11
1,1,18,1,2,0,1,31,38,11
1,1,20,1,2,0,1,31,87,11
1,1,21,0,2,0,1,31,89,11
1,1,22,0,2,0,1,31,87,11
1,1,15,1,3,0,1,31,128,11
1,1,19,1,3,0,1,31,100,11
1,1,23,0,4,0,1,31,97,11
1,1,5,0,3,0,1,31,100,11
1,1,11,1,3,0,1,31,89,11
1,1,11,1,4,0,1,31,87,11
1,1,14,1,6,1,1,31,95,11
1,1,17,1,6,1,1,31,87,11
1,1,1,0,2,0,1,31,89,11
1,1,12,1,2,0,1,31,89,11
1,1,0,0,3,0,1,31,128,11
1,1,18,1,4,0,1,31,89,11
1,1,9,1,5,1,1,31,100,11
1,1,19,1,6,1,1,31,38,11
1,1,9,1,2,0,1,31,89,11
1,1,11,1,2,0,1,31,58,11
1,1,19,1,3,0,1,31,89,11
1,1,14,1,5,1,1,31,75,11
1,1,15,1,5,1,1,31,75,9
1,1,4,0,6,1,1,31,87,11
1,1,13,1,0,0,1,31,1,11
1,1,19,1,0,0,1,31,65,11
1,1,21,0,1,0,1,31,38,11
2,1,22,0,3,0,1,31,65,11
2,1,12,1,5,1,1,31,100,11
2,1,16,1,5,1,1,31,65,11
2,1,0,0,6,1,1,31,87,11
2,1,1,0,6,1,1,31,87,11
2,1,11,1,6,1,1,31,100,11
2,1,14,1,0,0,1,31,65,11
2,1,17,1,0,0,1,31,38,11
2,1,14,1,1,0,1,31,100,11
2,1,16,1,1,0,1,31,125,11
2,1,17,1,2,0,1,31,87,11
2,1,18,1,2,0,1,31,75,11
2,1,4,0,3,0,1,31,87,11
2,1,20,1,5,1,1,31,89,11
2,1,11,1,6,1,1,31,100,11
2,1,13,1,6,1,1,31,112,9
2,1,17,1,0,0,1,31,87,11
2,1,3,0,2,0,1,31,72,9
2,1,18,1,2,0,1,31,65,11
2,1,0,0,4,0,1,31,87,11
2,1,14,1,4,0,1,31,100,11
2,1,18,1,4,0,1,31,57,11
2,1,23,0,4,0,1,31,100,11
2,1,0,0,6,1,1,31,87,11
2,1,14,1,6,1,1,31,65,11
2,1,23,0,6,1,1,31,97,11
2,1,0,0,1,0,1,31,72,11
2,1,3,0,1,0,1,31,87,11
2,1,4,0,1,0,1,31,87,11
2,1,16,1,1,0,1,31,87,11
2,1,2,0,2,0,1,31,87,11
2,1,22,0,3,0,1,31,30,11
2,1,12,1,4,0,1,31,38,11
2,1,17,1,4,0,1,31,89,11
2,1,21,0,5,1,1,31,87,11
2,1,15,1,6,1,1,31,75,11
2,1,11,1,1,0,1,31,97,11
2,1,0,0,2,0,1,31,89,11
2,1,18,1,3,0,1,31,89,11
3,2,8,1,6,1,1,31,44,9
3,2,19,1,6,1,1,31,95,11
3,2,21,0,6,1,1,31,87,11
3,2,19,1,0,0,1,31,4,11
3,2,0,0,1,0,1,31,87,11
3,2,18,1,3,0,1,31,89,11
3,2,19,1,3,0,1,31,65,11
3,2,19,1,4,0,1,31,100,11
3,2,2,0,6,1,1,31,87,11
3,2,12,1,3,0,1,31,63,11
3,2,15,1,3,0,1,31,89,11
3,2,6,0,4,0,1,31,51,9
3,2,13,1,4,0,1,31,87,11
3,2,15,1,4,0,1,31,38,9
3,2,21,0,5,1,1,31,128,11
3,2,21,0,5,1,1,31,128,11
3,2,22,0,5,1,1,31,97,11
3,2,5,0,6,1,1,31,63,11
3,2,9,1,0,0,1,31,97,11
3,2,22,0,0,0,1,31,97,11
3,2,23,0,0,0,1,31,97,11
3,2,23,0,0,0,1,31,97,11
3,2,7,1,1,0,1,31,82,11
3,2,23,0,2,0,1,31,64,11
3,2,11,1,3,0,1,31,89,11
3,2,0,0,4,0,1,31,18,11
3,2,10,1,4,0,1,31,65,11
3,2,23,0,4,0,1,31,87,11
3,2,21,0,5,1,1,31,87,11
3,2,1,0,6,1,1,31,64,11
3,2,16,1,6,1,1,31,87,11
3,2,19,1,6,1,1,31,89,11
3,2,21,0,6,1,1,31,87,11
3,2,22,0,6,1,1,31,64,11
3,2,11,1,3,0,1,31,26,11
3,2,10,1,4,0,1,31,89,11
3,2,13,1,5,1,1,31,60,11
3,2,16,1,5,1,1,31,87,11
3,2,17,1,5,1,1,31,87,11
3,2,20,1,5,1,1,31,64,11
3,2,0,0,6,1,1,31,95,11
3,2,16,1,6,1,1,31,57,11
3,2,18,1,6,1,1,31,13,11
3,2,22,0,6,1,1,31,72,9
4,2,1,0,0,0,2,31,87,11
4,2,7,1,0,0,2,31,89,11
4,2,14,1,0,0,2,31,100,9
4,2,17,1,0,0,2,31,44,11
4,2,13,1,1,0,2,31,87,11
4,2,14,1,1,0,2,31,87,11
4,2,15,1,1,0,2,31,57,11
4,2,15,1,1,0,2,31,88,11
4,2,20,1,2,0,2,31,89,11
4,2,20,1,4,0,2,31,87,11
4,2,14,1,5,1,2,31,89,11
4,2,15,1,5,1,2,31,125,11
4,2,9,1,6,1,2,31,89,11
4,2,20,1,6,1,2,31,128,11
4,2,21,0,1,0,2,31,89,11
4,2,10,1,2,0,2,31,18,11
4,2,22,0,2,0,2,31,89,11
4,2,10,1,3,0,2,31,89,11
4,2,16,1,3,0,2,31,38,11
4,2,18,1,3,0,2,31,38,9
4,2,20,1,3,0,2,31,100,11
4,2,2,0,5,1,2,31,65,11
4,2,14,1,5,1,2,31,109,11
4,2,1,0,6,1,2,31,87,11
4,2,8,1,0,0,2,31,38,11
4,2,18,1,2,0,2,31,89,11
4,2,18,1,3,0,2,31,75,11
4,2,19,1,5,1,2,31,110,11
4,2,8,1,6,1,2,31,7,11
4,2,20,1,6,1,2,31,18,11
4,2,15,1,2,0,2,31,87,11
4,2,21,0,2,0,2,31,65,9
4,2,0,0,4,0,2,31,18,11
4,2,18,1,4,0,2,31,89,11
4,2,19,1,5,1,2,31,100,11
4,2,23,0,5,1,2,31,100,11
4,2,9,1,6,1,2,31,100,11
4,2,23,0,6,1,2,31,87,11
4,2,18,1,1,0,2,31,128,11
5,2,8,1,2,0,2,31,65,11
5,2,10,1,4,0,2,31,26,11
5,2,11,1,4,0,2,31,100,11
5,2,12,1,4,0,2,31,87,11
5,2,19,1,6,1,2,31,100,11
5,2,17,1,2,0,2,31,100,11
5,2,21,0,4,0,2,31,65,11
5,2,18,1,6,1,2,31,100,11
5,2,21,0,6,1,2,31,89,11
5,2,22,0,0,0,2,31,100,11
5,2,12,1,2,0,2,31,100,11
5,2,15,1,3,0,2,31,100,11
5,2,23,0,3,0,2,31,100,11
5,2,12,1,5,1,2,31,100,11
5,2,13,1,1,0,2,31,26,11
5,2,16,1,1,0,2,31,89,11
5,2,19,1,1,0,2,31,125,11
5,2,0,0,2,0,2,31,100,11
5,2,2,0,2,0,2,31,88,11
5,2,2,0,2,0,2,31,19,11
5,2,18,1,2,0,2,31,89,11
5,2,21,0,3,0,2,31,87,11
5,2,13,1,4,0,2,31,100,11
5,2,20,1,4,0,2,31,100,11
5,2,4,0,6,1,2,31,18,11
5,2,14,1,1,0,2,31,100,8
5,2,13,1,3,0,2,31,89,11
5,2,16,1,4,0,2,31,100,11
5,2,18,1,4,0,2,31,128,9
6,3,13,1,5,1,2,31,89,11
6,3,20,1,5,1,2,31,100,11
6,3,14,1,0,0,2,31,72,9
6,3,16,1,0,0,2,31,87,11
6,3,18,1,2,0,2,31,87,11
6,3,22,0,2,0,2,31,100,11
6,3,19,1,3,0,2,31,87,11
6,3,14,1,0,0,2,31,65,9
6,3,11,1,1,0,2,31,4,11
6,3,14,1,1,0,2,31,4,11
6,3,16,1,1,0,2,31,89,11
6,3,3,0,2,0,2,31,72,11
6,3,4,0,2,0,2,31,18,11
6,3,8,1,2,0,2,31,128,11
6,3,15,1,3,0,2,31,128,11
6,3,10,1,4,0,2,31,89,11
6,3,10,1,5,1,2,31,100,11
6,3,13,1,5,1,2,31,26,11
6,3,20,1,0,0,2,31,100,11
6,3,16,1,1,0,2,31,81,11
6,3,13,1,2,0,2,31,87,11
6,3,20,1,2,0,2,31,87,11
6,3,0,0,3,0,2,31,100,11
6,3,1,0,3,0,2,31,100,11
6,3,4,0,3,0,2,31,100,11
6,3,23,0,3,0,2,31,64,11
6,3,3,0,4,0,2,31,100,11
6,3,18,1,4,0,2,31,75,11
6,3,22,0,4,0,2,31,8,11
6,3,0,0,5,1,2,31,97,11
6,3,19,1,5,1,2,31,26,11
6,3,21,0,5,1,2,31,75,11
6,3,0,0,6,1,2,31,87,11
6,3,15,1,6,1,2,31,89,11
6,3,17,1,6,1,2,31,100,11
6,3,4,0,1,0,2,31,100,11
6,3,12,1,1,0,2,31,46,11
6,3,13,1,1,0,2,31,125,11
6,3,14,1,1,0,2,31,88,11
6,3,16,1,1,0,2,31,26,11
6,3,21,0,1,0,2,31,125,11
6,3,16,1,2,0,2,31,26,11
6,3,17,1,2,0,2,31,26,11
6,3,8,1,3,0,2,31,89,11
6,3,14,1,3,0,2,31,89,11
6,3,19,1,3,0,2,31,100,11
6,3,14,1,4,0,2,31,100,11
6,3,21,0,4,0,2,31,65,11
6,3,22,0,6,1,2,31,87,11
7,3,7,1,0,0,3,31,4,11
7,3,11,1,0,0,3,31,26,11
7,3,12,1,0,0,3,31,100,11
7,3,19,1,0,0,3,31,26,11
7,3,0,0,1,0,3,31,100,11
7,3,13,1,2,0,3,31,89,11
7,3,17,1,2,0,3,31,65,11
7,3,21,0,2,0,3,31,87,11
7,3,20,1,3,0,3,31,26,11
7,3,15,1,6,1,3,31,44,11
7,3,4,0,0,0,3,31,100,11
7,3,9,1,0,0,3,31,100,11
7,3,19,1,0,0,3,31,18,11
7,3,18,1,1,0,3,31,100,11
7,3,18,1,1,0,3,31,100,11
7,3,20,1,1,0,3,31,100,11
7,3,4,0,2,0,3,31,34,11
7,3,11,1,2,0,3,31,100,11
7,3,12,1,2,0,3,31,26,11
7,3,14,1,2,0,3,31,58,11
7,3,16,1,2,0,3,31,26,11
7,3,20,1,2,0,3,31,95,11
7,3,16,1,3,0,3,31,26,11
7,3,17,1,3,0,3,31,26,11
7,3,3,0,4,0,3,31,65,11
7,3,9,1,5,1,3,31,26,11
7,3,13,1,5,1,3,31,128,11
7,3,7,1,6,1,3,31,100,11
7,3,8,1,6,1,3,31,89,11
7,3,17,1,6,1,3,31,89,11
7,3,16,1,1,0,3,31,26,11
7,3,5,0,2,0,3,31,87,11
7,3,12,1,2,0,3,31,100,11
7,3,17,1,2,0,3,31,87,11
7,3,19,1,2,0,3,31,89,11
7,3,9,1,4,0,3,31,22,11
7,3,16,1,4,0,3,31,22,9
7,3,7,1,5,1,3,31,100,11
7,3,13,1,0,0,3,31,26,11
7,3,2,0,1,0,3,31,26,11
7,3,13,1,1,0,3,31,89,11
7,3,11,1,2,0,3,31,95,11
7,3,14,1,2,0,3,31,89,11
7,3,0,0,3,0,3,31,89,11
7,3,9,1,3,0,3,31,72,9
7,3,9,1,3,0,3,31,65,11
7,3,14,1,3,0,3,31,100,8
7,3,16,1,3,0,3,31,19,9
7,3,17,1,3,0,3,31,100,11
7,3,2,0,4,0,3,31,89,11
7,3,10,1,4,0,3,31,26,11
7,3,12,1,0,0,3,31,26,11
7,3,15,1,0,0,3,31,100,11
7,3,19,1,0,0,3,31,87,11
7,3,21,0,0,0,3,31,26,11
7,3,8,1,2,0,3,31,26,11
8,3,8,1,5,1,3,31,89,11
8,3,12,1,5,1,3,31,87,11
8,3,17,1,5,1,3,31,87,11
8,3,19,1,5,1,3,31,87,11
8,3,21,0,5,1,3,31,87,11
8,3,0,0,6,1,3,31,100,11
8,3,9,1,0,0,3,31,89,11
8,3,0,0,1,0,3,31,64,11
8,3,13,1,3,0,3,31,87,9
8,3,20,1,3,0,3,31,100,11
8,3,23,0,3,0,3,31,100,11
8,3,19,1,4,0,3,31,87,11
8,3,9,1,0,0,3,31,65,11
8,3,18,1,0,0,3,31,100,11
8,3,17,1,1,0,3,31,26,11
8,3,13,1,2,0,3,31,22,8
8,3,14,1,2,0,3,31,89,11
8,3,1,0,3,0,3,31,75,11
8,3,17,1,3,0,3,31,26,11
8,3,20,1,3,0,3,31,100,11
8,3,4,0,4,0,3,31,100,11
8,3,6,0,4,0,3,31,124,11
8,3,15,1,6,1,3,31,100,11
8,3,14,1,0,0,3,31,75,11
8,3,15,1,1,0,3,31,87,11
8,3,17,1,1,0,3,31,87,11
8,3,18,1,1,0,3,31,87,11
8,3,19,1,1,0,3,31,87,11
8,3,19,1,1,0,3,31,87,11
8,3,20,1,1,0,3,31,87,11
8,3,22,0,1,0,3,31,108,11
8,3,19,1,4,0,3,31,89,11
8,3,19,1,5,1,3,31,100,11
8,3,19,1,5,1,3,31,89,11
8,3,4,0,6,1,3,31,75,11
8,3,11,1,0,0,3,31,100,11
8,3,14,1,0,0,3,31,100,11
8,3,16,1,0,0,3,31,100,11
8,3,16,1,0,0,3,31,89,11
8,3,14,1,1,0,3,31,87,11
8,3,19,1,1,0,3,31,4,11
8,3,8,1,2,0,3,31,89,11
8,3,12,1,2,0,3,31,88,11
8,3,12,1,3,0,3,31,100,11
8,3,16,1,4,0,3,31,18,11
9,4,15,1,6,1,3,31,76,11
9,4,14,1,0,0,3,31,87,11
9,4,20,1,0,0,3,31,100,9
9,4,22,0,0,0,3,31,87,11
9,4,19,1,1,0,3,31,26,11
9,4,5,0,2,0,3,31,64,11
9,4,12,1,2,0,3,31,89,11
9,4,17,1,3,0,3,31,26,11
9,4,18,1,3,0,3,31,38,11
9,4,23,0,3,0,3,31,87,11
9,4,13,1,4,0,3,31,88,11
9,4,19,1,5,1,3,31,89,11
9,4,8,1,6,1,3,31,44,11
9,4,13,1,5,1,3,31,26,11
9,4,12,1,6,1,3,31,12,11
9,4,16,1,6,1,3,31,89,11
9,4,18,1,6,1,3,31,72,11
9,4,20,1,6,1,3,31,26,9
9,4,20,1,6,1,3,31,87,11
9,4,23,0,6,1,3,31,100,11
9,4,13,1,0,0,3,31,89,11
9,4,15,1,0,0,3,31,100,11
9,4,18,1,0,0,3,31,125,11
9,4,20,1,0,0,3,31,100,11
9,4,19,1,1,0,3,31,26,11
9,4,13,1,2,0,3,31,89,11
9,4,15,1,2,0,3,31,88,11
9,4,19,1,2,0,3,31,89,11
9,4,7,1,4,0,3,31,87,11
9,4,16,1,0,0,3,31,24,11
9,4,20,1,0,0,3,31,100,11
9,4,21,0,1,0,3,31,88,11
9,4,19,1,3,0,3,31,100,11
9,4,19,1,3,0,3,31,100,11
9,4,17,1,5,1,3,31,100,11
9,4,19,1,5,1,3,31,100,11
9,4,13,1,6,1,3,31,109,11
9,4,13,1,6,1,3,31,26,11
9,4,14,1,6,1,3,31,26,11
9,4,22,0,6,1,3,31,66,8
9,4,13,1,0,0,3,31,26,11
10,4,19,1,1,0,4,31,89,11
10,4,23,0,1,0,4,31,89,11
10,4,15,1,2,0,4,31,108,11
10,4,16,1,2,0,4,31,100,11
10,4,19,1,4,0,4,31,65,11
10,4,6,0,6,1,4,31,72,11
10,4,19,1,0,0,4,31,89,11
10,4,17,1,2,0,4,31,100,11
10,4,18,1,4,0,4,31,89,11
10,4,3,0,6,1,4,31,97,11
10,4,18,1,6,1,4,31,13,8
10,4,10,1,0,0,4,31,87,11
10,4,18,1,0,0,4,31,87,11
10,4,18,1,0,0,4,31,62,11
10,4,0,0,2,0,4,31,14,9
10,4,21,0,6,1,4,31,87,11
10,4,22,0,6,1,4,31,65,11
10,4,23,0,0,0,4,31,100,11
10,4,15,1,1,0,4,31,89,11
10,4,18,1,1,0,4,31,65,11
10,4,22,0,1,0,4,31,128,11
10,4,18,1,2,0,4,31,100,11
10,4,17,1,3,0,4,31,24,11
10,4,20,1,3,0,4,31,89,11
10,4,0,0,4,0,4,31,100,11
10,4,18,1,4,0,4,31,64,11
10,4,23,0,4,0,4,31,100,11
10,4,16,1,5,1,4,31,89,11
10,4,17,1,5,1,4,31,58,11
10,4,17,1,5,1,4,31,38,8
10,4,18,1,5,1,4,31,65,11
10,4,15,1,6,1,4,31,128,11
10,4,16,1,6,1,4,31,100,11
10,4,0,0,0,0,4,31,87,11
10,4,12,1,0,0,4,31,4,11
10,4,13,1,0,0,4,31,4,11
10,4,13,1,0,0,4,31,26,11
10,4,15,1,0,0,4,31,4,11
10,4,18,1,0,0,4,31,127,11
10,4,22,0,0,0,4,31,100,11
10,4,17,1,1,0,4,31,87,9
10,4,19,1,1,0,4,31,4,11
10,4,14,1,2,0,4,31,100,11
10,4,12,1,3,0,4,31,100,11
10,4,19,1,3,0,4,31,100,11
11,4,16,1,5,1,4,31,26,11
11,4,12,1,6,1,4,31,100,11
11,4,15,1,6,1,4,31,89,11
11,4,16,1,6,1,4,31,38,11
11,4,12,1,1,0,4,31,57,11
11,4,17,1,1,0,4,31,125,11
11,4,18,1,1,0,4,31,4,11
11,4,17,1,2,0,4,31,100,11
11,4,19,1,2,0,4,31,100,11
11,4,22,0,2,0,4,31,38,11
11,4,23,0,2,0,4,31,100,11
11,4,16,1,3,0,4,31,87,11
11,4,15,1,4,0,4,31,87,11
11,4,13,1,5,1,4,31,89,11
11,4,13,1,5,1,4,31,87,11
11,4,19,1,5,1,4,31,100,11
11,4,2,0,6,1,4,31,58,11
11,4,9,1,6,1,4,31,100,11
11,4,14,1,6,1,4,31,100,11
11,4,20,1,6,1,4,31,38,11
11,4,17,1,0,0,4,31,26,11
11,4,20,1,0,0,4,31,87,11
11,4,13,1,1,0,4,31,87,11
11,4,13,1,1,0,4,31,128,11
11,4,20,1,1,0,4,31,65,11
11,4,14,1,5,1,4,31,87,11
11,4,23,0,5,1,4,31,65,11
11,4,14,1,6,1,4,31,128,11
11,4,18,1,6,1,4,31,75,11
11,4,22,0,6,1,4,31,97,11
11,4,19,1,1,0,4,31,65,11
11,4,20,1,1,0,4,31,26,11
11,4,22,0,4,0,4,31,1,11
11,4,22,0,4,0,4,31,100,11
11,4,8,1,0,0,4,31,87,11
11,4,15,1,0,0,4,31,100,11
11,4,19,1,0,0,4,31,87,11
11,4,20,1,0,0,4,31,100,11
11,4,18,1,1,0,4,31,128,11
11,4,22,0,3,0,4,31,65,11
11,4,12,1,5,1,4,31,87,11
12,1,0,0,0,0,4,31,87,11
12,1,13,1,3,0,4,31,88,11
12,1,15,1,5,1,4,31,109,11
12,1,13,1,6,1,4,31,128,11
12,1,20,1,6,1,4,31,128,11
12,1,22,0,6,1,4,31,65,11
12,1,5,0,0,0,4,31,58,11
12,1,16,1,0,0,4,31,75,11
12,1,20,1,5,1,4,31,65,11
12,1,14,1,6,1,4,31,128,11
12,1,10,1,0,0,4,31,40,11
12,1,17,1,0,0,4,31,65,11
12,1,11,1,1,0,4,31,18,11
12,1,23,0,1,0,4,31,100,11
12,1,13,1,3,0,4,31,26,11
12,1,20,1,3,0,4,31,128,11
12,1,7,1,6,1,4,31,87,11
12,1,0,0,0,0,4,31,87,11
12,1,21,0,0,0,4,31,87,11
12,1,22,0,0,0,4,31,87,11
12,1,4,0,2,0,4,31,128,11
12,1,13,1,2,0,4,31,87,11
12,1,13,1,2,0,4,31,65,11
12,1,10,1,3,0,4,31,128,11
12,1,12,1,3,0,4,31,128,11
12,1,0,0,6,1,4,31,38,11
12,1,22,0,6,1,4,31,65,11
12,1,6,0,0,0,4,31,65,11
1,1,8,1,3,0,1,31,75,11
1,1,17,1,3,0,1,31,75,9
1,1,14,1,0,0,1,31,13,9
1,1,10,1,2,0,1,31,38,11
2,1,18,1,5,1,1,31,100,11
2,1,19,1,6,1,1,31,75,8
3,2,12,1,3,0,1,31,89,11
4,2,13,1,1,0,2,31,26,11
4,2,13,1,2,0,2,31,63,9
4,2,20,1,6,1,2,31,18,11
4,2,17,1,0,0,2,31,75,11
4,2,11,1,6,1,2,31,87,11
4,2,15,1,1,0,2,31,87,11
4,2,20,1,4,0,2,31,110,11
4,2,2,0,6,1,2,31,12,11
5,2,4,0,2,0,2,31,128,9
5,2,22,0,2,0,2,31,100,11
5,2,17,1,6,1,2,31,88,11
5,2,5,0,3,0,2,31,88,8
5,2,18,1,2,0,2,31,100,11
6,3,11,1,5,1,2,31,87,11
6,3,16,1,3,0,2,31,87,11
6,3,13,1,0,0,2,31,87,11
6,3,17,1,3,0,2,31,87,11
6,3,17,1,6,1,2,31,109,11
6,3,19,1,2,0,2,31,89,11
7,3,9,1,1,0,3,31,100,11
7,3,10,1,2,0,3,31,87,11
7,3,3,0,5,1,3,31,18,9
8,3,11,1,3,0,3,31,88,11
8,3,19,1,5,1,3,31,100,11
9,4,11,1,3,0,3,31,87,11
9,4,9,1,5,1,3,31,79,11
10,4,21,0,2,0,4,31,18,9
10,4,14,1,2,0,4,31,44,11
10,4,14,1,1,0,4,31,100,11
10,4,3,0,2,0,4,31,13,9
10,4,13,1,2,0,4,31,75,11
11,4,8,1,4,0,4,31,110,11
11,4,12,1,0,0,4,31,89,11
11,4,15,1,2,0,4,31,87,11
11,4,17,1,6,1,4,31,100,11
11,4,7,1,3,0,4,31,87,11
11,4,18,1,3,0,4,31,125,11
12,1,7,1,0,0,4,31,89,11
12,1,22,0,4,0,4,31,125,11
1,1,15,1,1,0,1,31,89,11
1,1,21,0,5,1,1,31,79,11
1,1,1,0,6,1,1,31,1,11
1,1,1,0,6,1,1,31,75,11
1,1,12,1,2,0,1,31,18,11
1,1,8,1,3,0,1,31,18,11
1,1,21,0,5,1,1,31,75,11
1,1,13,1,2,0,1,31,100,11
2,1,11,1,3,0,1,31,18,11
2,1,16,1,3,0,1,31,26,11
2,1,19,1,1,0,1,31,75,11
2,1,18,1,3,0,1,31,75,11
2,1,18,1,3,0,1,31,75,11
3,2,4,0,6,1,1,31,18,11
3,2,17,1,0,0,1,31,75,11
3,2,17,1,0,0,1,31,87,11
4,2,21,0,3,0,2,31,100,11
4,2,17,1,6,1,2,31,26,11
4,2,16,1,1,0,2,31,18,11
4,2,22,0,2,0,2,31,100,11
5,2,21,0,5,1,2,31,75,11
5,2,20,1,2,0,2,31,100,11
5,2,0,0,4,0,2,31,64,11
6,3,8,1,2,0,2,31,75,11
6,3,9,1,6,1,2,31,18,11
6,3,13,1,6,1,2,31,18,11
6,3,18,1,4,0,2,31,109,8
8,3,12,1,5,1,3,31,12,11
8,3,12,1,2,0,3,31,38,11
9,4,19,1,5,1,3,31,72,11
9,4,9,1,5,1,3,31,100,11
10,4,20,1,2,0,4,31,100,11
10,4,19,1,0,0,4,31,100,11
10,4,18,1,2,0,4,31,100,11
10,4,8,1,3,0,4,31,109,9
10,4,10,1,4,0,4,31,72,11
10,4,15,1,4,0,4,31,100,11
10,4,20,1,5,1,4,31,89,11
11,4,14,1,5,1,4,31,25,11
11,4,14,1,6,1,4,31,100,11
11,4,23,0,6,1,4,31,100,11
11,4,18,1,1,0,4,31,109,11
11,4,18,1,5,1,4,31,38,11
12,1,17,1,4,0,4,31,97,11
12,1,16,1,5,1,4,31,18,11
12,1,18,1,5,1,4,31,100,11
12,1,20,1,0,0,4,31,38,11
1,1,0,0,0,0,1,35,72,11
1,1,0,0,0,0,1,35,95,11
1,1,1,0,0,0,1,35,95,11
1,1,5,0,0,0,1,35,87,11
1,1,1,0,1,0,1,35,128,11
1,1,2,0,1,0,1,35,128,11
1,1,11,1,2,0,1,35,128,11
1,1,15,1,4,0,1,35,100,11
1,1,8,1,6,1,1,35,95,11
1,1,13,1,6,1,1,35,18,11
1,1,13,1,1,0,1,35,95,11
1,1,23,0,4,0,1,35,38,11
1,1,17,1,5,1,1,35,89,11
1,1,19,1,6,1,1,35,95,11
1,1,20,1,6,1,1,35,95,11
1,1,21,0,1,0,1,35,95,11
1,1,11,1,5,1,1,35,75,11
1,1,22,0,5,1,1,35,100,11
1,1,19,1,0,0,1,35,95,11
1,1,23,0,5,1,1,35,95,11
1,1,13,1,6,1,1,35,95,11
1,1,15,1,6,1,1,35,75,8
1,1,19,1,6,1,1,35,100,11
1,1,12,1,0,0,1,35,95,11
1,1,13,1,0,0,1,35,95,11
1,1,18,1,1,0,1,35,128,11
2,1,13,1,3,0,1,35,89,11
2,1,13,1,4,0,1,35,65,11
2,1,21,0,4,0,1,35,75,11
2,1,12,1,5,1,1,35,13,11
2,1,13,1,5,1,1,35,100,11
2,1,13,1,5,1,1,35,95,11
2,1,16,1,5,1,1,35,95,11
2,1,17,1,5,1,1,35,95,11
2,1,17,1,6,1,1,35,95,11
2,1,21,0,6,1,1,35,65,11
2,1,20,1,0,0,1,35,100,11
2,1,18,1,4,0,1,35,95,11
2,1,13,1,5,1,1,35,89,11
2,1,19,1,0,0,1,35,100,11
2,1,12,1,4,0,1,35,95,11
2,1,18,1,4,0,1,35,75,11
2,1,20,1,5,1,1,35,95,11
2,1,14,1,6,1,1,35,100,11
2,1,18,1,6,1,1,35,100,11
2,1,12,1,0,0,1,35,95,11
2,1,16,1,0,0,1,35,18,11
2,1,14,1,1,0,1,35,95,11
2,1,1,0,3,0,1,35,100,11
2,1,19,1,3,0,1,35,89,11
2,1,2,0,4,0,1,35,75,11
2,1,20,1,4,0,1,35,89,11
2,1,19,1,5,1,1,35,65,11
2,1,14,1,6,1,1,35,100,11
2,1,18,1,2,0,1,35,100,11
2,1,20,1,3,0,1,35,89,11
3,2,19,1,4,0,1,35,38,11
3,2,17,1,5,1,1,35,95,11
3,2,19,1,5,1,1,35,95,11
3,2,14,1,3,0,1,35,75,11
3,2,19,1,3,0,1,35,65,11
3,2,19,1,3,0,1,35,95,11
3,2,22,0,3,0,1,35,95,11
3,2,17,1,6,1,1,35,65,11
3,2,19,1,0,0,1,35,100,11
3,2,20,1,4,0,1,35,100,11
3,2,20,1,5,1,1,35,100,11
3,2,13,1,6,1,1,35,95,11
3,2,8,1,2,0,1,35,18,11
3,2,15,1,2,0,1,35,95,11
3,2,17,1,2,0,1,35,95,11
3,2,4,0,5,1,1,35,128,11
3,2,16,1,5,1,1,35,88,11
3,2,19,1,5,1,1,35,89,11
3,2,19,1,5,1,1,35,128,11
3,2,19,1,1,0,1,35,18,11
3,2,17,1,5,1,1,35,100,11
3,2,13,1,6,1,1,35,89,11
3,2,19,1,6,1,1,35,100,11
4,2,12,1,0,0,2,35,100,11
4,2,18,1,1,0,2,35,100,11
4,2,9,1,2,0,2,35,89,11
4,2,1,0,3,0,2,35,100,11
4,2,13,1,3,0,2,35,89,11
4,2,14,1,3,0,2,35,89,11
4,2,11,1,5,1,2,35,100,11
4,2,11,1,6,1,2,35,18,11
4,2,20,1,0,0,2,35,100,11
4,2,21,0,0,0,2,35,89,11
4,2,4,0,3,0,2,35,95,11
4,2,9,1,4,0,2,35,100,11
4,2,9,1,0,0,2,35,89,11
4,2,20,1,0,0,2,35,100,11
4,2,7,1,1,0,2,35,100,11
4,2,14,1,1,0,2,35,89,11
4,2,19,1,1,0,2,35,65,11
4,2,10,1,2,0,2,35,100,11
4,2,22,0,6,1,2,35,100,11
4,2,19,1,0,0,2,35,100,11
4,2,14,1,4,0,2,35,89,11
4,2,17,1,5,1,2,35,18,11
4,2,5,0,0,0,2,35,16,11
4,2,12,1,0,0,2,35,89,11
4,2,13,1,1,0,2,35,89,11
4,2,21,0,1,0,2,35,100,11
5,2,10,1,2,0,2,35,89,11
5,2,2,0,6,1,2,35,65,11
5,2,12,1,6,1,2,35,65,11
5,2,21,0,6,1,2,35,75,11
5,2,17,1,1,0,2,35,89,11
5,2,20,1,2,0,2,35,89,11
5,2,14,1,3,0,2,35,89,11
5,2,20,1,3,0,2,35,89,11
5,2,4,0,5,1,2,35,18,11
5,2,8,1,3,0,2,35,75,11
5,2,1,0,5,1,2,35,128,11
5,2,1,0,6,1,2,35,95,11
5,2,21,0,6,1,2,35,89,11
5,2,19,1,0,0,2,35,100,11
5,2,13,1,1,0,2,35,100,11
5,2,16,1,3,0,2,35,7,11
5,2,20,1,4,0,2,35,89,11
5,2,9,1,0,0,2,35,65,11
5,2,20,1,0,0,2,35,13,11
5,2,21,0,0,0,2,35,18,11
5,2,14,1,3,0,2,35,100,11
6,3,14,1,2,0,2,35,89,9
6,3,6,0,5,1,2,35,100,11
6,3,8,1,4,0,2,35,18,11
6,3,15,1,4,0,2,35,100,11
6,3,11,1,2,0,2,35,89,11
6,3,15,1,3,0,2,35,89,11
6,3,22,0,2,0,2,35,89,11
6,3,11,1,5,1,2,35,83,11
6,3,16,1,5,1,2,35,75,11
6,3,11,1,6,1,2,35,89,11
7,3,8,1,0,0,3,35,100,11
7,3,1,0,1,0,3,35,128,11
7,3,22,0,1,0,3,35,64,11
7,3,23,0,4,0,3,35,100,11
7,3,12,1,6,1,3,35,13,11
7,3,10,1,3,0,3,35,75,11
7,3,21,0,3,0,3,35,100,11
7,3,20,1,4,0,3,35,75,11
7,3,11,1,5,1,3,35,89,11
7,3,0,0,6,1,3,35,65,11
7,3,7,1,2,0,3,35,72,11
7,3,15,1,2,0,3,35,59,11
7,3,0,0,3,0,3,35,87,11
7,3,4,0,0,0,3,35,95,11
7,3,4,0,0,0,3,35,95,11
7,3,4,0,0,0,3,35,95,11
7,3,5,0,0,0,3,35,95,11
7,3,5,0,0,0,3,35,95,11
7,3,5,0,0,0,3,35,95,11
7,3,5,0,0,0,3,35,89,11
7,3,5,0,0,0,3,35,95,11
7,3,20,1,0,0,3,35,89,11
7,3,1,0,1,0,3,35,100,11
7,3,22,0,2,0,3,35,64,11
7,3,0,0,4,0,3,35,100,11
7,3,13,1,4,0,3,35,38,11
7,3,9,1,2,0,3,35,108,11
8,3,9,1,3,0,3,35,89,11
8,3,10,1,3,0,3,35,65,11
8,3,12,1,6,1,3,35,128,11
8,3,0,0,3,0,3,35,78,11
8,3,2,0,3,0,3,35,95,11
8,3,5,0,3,0,3,35,128,11
8,3,17,1,4,0,3,35,128,11
8,3,17,1,5,1,3,35,18,11
8,3,11,1,1,0,3,35,18,11
8,3,4,0,4,0,3,35,100,11
8,3,23,0,6,1,3,35,110,11
8,3,21,0,0,0,3,35,95,11
8,3,14,1,4,0,3,35,18,11
8,3,20,1,4,0,3,35,100,11
8,3,16,1,5,1,3,35,100,11
8,3,13,1,0,0,3,35,75,11
8,3,22,0,4,0,3,35,100,11
9,4,21,0,4,0,3,35,64,11
9,4,22,0,4,0,3,35,100,11
9,4,19,1,5,1,3,35,95,11
9,4,18,1,0,0,3,35,100,11
9,4,13,1,5,1,3,35,95,11
9,4,17,1,6,1,3,35,100,11
9,4,15,1,2,0,3,35,65,11
9,4,20,1,4,0,3,35,89,11
9,4,11,1,1,0,3,35,100,11
9,4,11,1,2,0,3,35,75,11
9,4,9,1,4,0,3,35,18,11
9,4,1,0,6,1,3,35,95,11
9,4,1,0,6,1,3,35,95,11
9,4,1,0,6,1,3,35,95,11
9,4,1,0,6,1,3,35,95,11
9,4,1,0,6,1,3,35,95,11
10,4,18,1,1,0,4,35,89,11
10,4,20,1,1,0,4,35,95,11
10,4,12,1,2,0,4,35,89,11
10,4,14,1,4,0,4,35,126,11
10,4,17,1,4,0,4,35,100,11
10,4,11,1,5,1,4,35,110,11
10,4,11,1,5,1,4,35,110,11
10,4,12,1,5,1,4,35,110,11
10,4,21,0,6,1,4,35,95,11
10,4,12,1,0,0,4,35,100,11
10,4,10,1,1,0,4,35,75,11
10,4,15,1,1,0,4,35,4,11
10,4,16,1,1,0,4,35,100,11
10,4,17,1,1,0,4,35,63,11
10,4,14,1,4,0,4,35,89,11
10,4,15,1,4,0,4,35,4,11
10,4,17,1,6,1,4,35,95,11
10,4,5,0,0,0,4,35,65,11
10,4,19,1,0,0,4,35,100,11
10,4,18,1,2,0,4,35,89,11
10,4,13,1,4,0,4,35,89,11
10,4,9,1,6,1,4,35,65,11
10,4,9,1,0,0,4,35,128,11
10,4,22,0,1,0,4,35,89,11
10,4,7,1,2,0,4,35,65,11
10,4,20,1,5,1,4,35,123,9
10,4,2,0,6,1,4,35,128,11
10,4,12,1,0,0,4,35,100,11
10,4,15,1,2,0,4,35,100,11
11,4,21,0,4,0,4,35,38,11
11,4,9,1,5,1,4,35,89,11
11,4,17,1,5,1,4,35,100,11
11,4,7,1,0,0,4,35,110,11
11,4,17,1,0,0,4,35,100,11
11,4,17,1,2,0,4,35,65,11
11,4,17,1,2,0,4,35,100,11
11,4,11,1,4,0,4,35,65,11
11,4,1,0,5,1,4,35,71,11
11,4,15,1,5,1,4,35,100,11
11,4,2,0,2,0,4,35,110,11
11,4,8,1,2,0,4,35,72,11
11,4,14,1,2,0,4,35,13,9
11,4,15,1,4,0,4,35,100,11
11,4,20,1,4,0,4,35,75,11
11,4,23,0,4,0,4,35,75,11
11,4,12,1,1,0,4,35,89,11
11,4,17,1,1,0,4,35,128,11
11,4,19,1,2,0,4,35,128,11
11,4,19,1,4,0,4,35,100,11
11,4,17,1,5,1,4,35,89,11
11,4,9,1,1,0,4,35,100,11
11,4,19,1,1,0,4,35,7,11
11,4,16,1,2,0,4,35,95,11
11,4,11,1,3,0,4,35,100,11
11,4,12,1,3,0,4,35,89,11
11,4,17,1,3,0,4,35,100,11
12,1,9,1,6,1,4,35,65,11
12,1,12,1,6,1,4,35,95,11
12,1,18,1,6,1,4,35,95,11
12,1,12,1,0,0,4,35,128,11
12,1,17,1,3,0,4,35,76,11
12,1,19,1,5,1,4,35,38,11
12,1,14,1,2,0,4,35,128,11
12,1,14,1,3,0,4,35,95,11
12,1,19,1,5,1,4,35,95,11
12,1,13,1,6,1,4,35,75,11
12,1,18,1,2,0,4,35,75,9
12,1,11,1,3,0,4,35,7,11
12,1,2,0,5,1,4,35,75,11
12,1,1,0,0,0,4,35,95,11
12,1,21,0,1,0,4,35,75,11
12,1,16,1,3,0,4,35,65,11
12,1,15,1,0,0,4,35,75,11
12,1,17,1,0,0,4,35,65,11
12,1,19,1,0,0,4,35,75,11
12,1,19,1,0,0,4,35,67,11
12,1,20,1,0,0,4,35,75,11
12,1,21,0,0,0,4,35,75,11
1,1,17,1,0,0,1,35,95,11
1,1,0,0,5,1,1,35,89,11
1,1,20,1,0,0,1,35,18,11
1,1,11,1,2,0,1,35,67,11
1,1,13,1,4,0,1,35,89,11
1,1,10,1,5,1,1,35,100,11
2,1,17,1,4,0,1,35,89,11
2,1,17,1,0,0,1,35,100,11
2,1,20,1,6,1,1,35,72,11
2,1,20,1,2,0,1,35,95,11
2,1,16,1,4,0,1,35,87,11
2,1,22,0,4,0,1,35,89,11
2,1,17,1,5,1,1,35,100,11
2,1,23,0,0,0,1,35,18,11
2,1,1,0,1,0,1,35,110,11
3,2,13,1,5,1,1,35,128,11
3,2,2,0,3,0,1,35,87,11
3,2,14,1,6,1,1,35,75,9
3,2,17,1,2,0,1,35,100,11
3,2,12,1,3,0,1,35,8,11
4,2,17,1,1,0,2,35,100,11
4,2,21,0,2,0,2,35,100,11
5,2,16,1,3,0,2,35,89,11
5,2,8,1,2,0,2,35,13,11
5,2,20,1,4,0,2,35,18,11
5,2,21,0,6,1,2,35,89,11
5,2,16,1,4,0,2,35,89,11
6,3,2,0,6,1,2,35,95,11
6,3,11,1,0,0,2,35,18,11
6,3,18,1,1,0,2,35,89,11
6,3,11,1,3,0,2,35,87,11
6,3,16,1,6,1,2,35,72,11
6,3,21,0,1,0,2,35,100,11
7,3,20,1,4,0,3,35,128,11
7,3,12,1,4,0,3,35,100,11
7,3,17,1,0,0,3,35,89,11
7,3,15,1,4,0,3,35,4,11
7,3,10,1,2,0,3,35,100,11
8,3,23,0,4,0,3,35,100,11
8,3,17,1,5,1,3,35,95,11
8,3,11,1,2,0,3,35,100,11
8,3,15,1,5,1,3,35,18,11
8,3,8,1,0,0,3,35,128,11
8,3,3,0,4,0,3,35,100,11
9,4,7,1,5,1,3,35,100,11
9,4,22,0,3,0,3,35,100,11
9,4,11,1,6,1,3,35,100,11
9,4,9,1,3,0,3,35,89,11
9,4,7,1,0,0,3,35,100,11
10,4,11,1,3,0,4,35,100,11
10,4,15,1,0,0,4,35,72,11
10,4,16,1,4,0,4,35,100,11
10,4,11,1,6,1,4,35,100,11
10,4,15,1,3,0,4,35,72,11
11,4,19,1,3,0,4,35,100,11
11,4,14,1,1,0,4,35,72,11
11,4,16,1,4,0,4,35,18,11
11,4,9,1,6,1,4,35,75,11
12,1,23,0,0,0,4,35,110,11
12,1,19,1,3,0,4,35,100,11
4,2,15,1,1,0,2,35,89,11
6,3,11,1,6,1,2,35,13,11
7,3,3,0,2,0,3,35,110,9
10,4,10,1,6,1,4,35,13,11
11,4,16,1,1,0,4,35,110,11
2,1,19,1,2,0,1,35,38,11
2,1,14,1,5,1,1,35,75,11
3,2,21,0,3,0,1,35,48,11
3,2,11,1,1,0,1,35,95,11
4,2,21,0,3,0,2,35,80,11
5,2,22,0,3,0,2,35,95,11
6,3,21,0,2,0,2,35,67,11
6,3,7,1,2,0,2,35,72,9
7,3,12,1,3,0,3,35,89,11
7,3,14,1,0,0,3,35,58,11
8,3,6,0,3,0,3,35,75,11
8,3,13,1,0,0,3,35,89,11
9,4,11,1,3,0,3,35,95,11
10,4,20,1,6,1,4,35,89,11
11,4,8,1,1,0,4,35,110,11
12,1,23,0,4,0,4,35,75,11
3,2,12,1,5,1,1,35,89,11
6,3,4,0,0,0,2,35,95,11
7,3,11,1,1,0,3,35,72,11
9,4,15,1,6,1,3,35,110,11
11,4,11,1,1,0,4,35,110,11
11,4,11,1,1,0,4,35,110,11
1,1,18,1,5,1,1,35,100,11
1,1,19,1,3,0,1,35,75,11
2,1,15,1,5,1,1,35,100,11
2,1,17,1,0,0,1,35,100,11
2,1,19,1,1,0,1,35,4,11
5,2,8,1,0,0,2,35,128,11
5,2,22,0,4,0,2,35,18,9
10,4,13,1,3,0,4,35,100,11
10,4,9,1,3,0,4,35,110,11
1,1,18,1,2,0,1,35,89,11
2,1,19,1,5,1,1,35,89,11
2,1,22,0,2,0,1,35,75,11
3,2,14,1,6,1,1,35,38,11
3,2,19,1,4,0,1,35,100,11
4,2,8,1,1,0,2,35,44,11
4,2,15,1,5,1,2,35,100,11
4,2,8,1,6,1,2,35,100,11
4,2,18,1,6,1,2,35,100,11
4,2,19,1,0,0,2,35,100,11
4,2,17,1,4,0,2,35,100,11
5,2,20,1,3,0,2,35,110,11
6,3,13,1,6,1,2,35,13,9
6,3,9,1,1,0,2,35,109,11
6,3,22,0,4,0,2,35,66,11
6,3,14,1,5,1,2,35,24,11
6,3,20,1,1,0,2,35,26,11
6,3,15,1,4,0,2,35,24,11
6,3,5,0,2,0,2,35,100,11
7,3,3,0,3,0,3,35,110,11
7,3,20,1,3,0,3,35,109,11
7,3,12,1,4,0,3,35,100,11
7,3,9,1,6,1,3,35,100,11
7,3,4,0,5,1,3,35,44,11
8,3,6,0,4,0,3,35,44,11
8,3,1,0,3,0,3,35,44,9
8,3,6,0,6,1,3,35,100,11
8,3,20,1,0,0,3,35,100,11
9,4,18,1,6,1,3,35,100,11
9,4,17,1,0,0,3,35,13,8
10,4,0,0,6,1,4,35,100,11
10,4,0,0,2,0,4,35,75,11
10,4,18,1,3,0,4,35,100,11
10,4,13,1,4,0,4,35,100,11
10,4,12,1,2,0,4,35,100,11
10,4,12,1,4,0,4,35,100,11
10,4,13,1,0,0,4,35,100,11
11,4,19,1,1,0,4,35,100,11
11,4,13,1,2,0,4,35,100,11
11,4,12,1,2,0,4,35,100,11
11,4,13,1,3,0,4,35,100,11
1,1,23,0,0,0,1,45,75,9
1,1,8,1,1,0,1,45,87,11
1,1,17,1,3,0,1,45,75,9
1,1,13,1,5,1,1,45,87,11
1,1,0,0,5,1,1,45,87,11
1,1,16,1,5,1,1,45,65,11
1,1,20,1,6,1,1,45,75,11
1,1,0,0,1,0,1,45,87,11
2,1,18,1,5,1,1,45,100,11
2,1,13,1,6,1,1,45,89,11
2,1,16,1,0,0,1,45,87,11
2,1,14,1,3,0,1,45,72,11
2,1,18,1,4,0,1,45,50,11
2,1,16,1,6,1,1,45,89,11
2,1,9,1,5,1,1,45,100,11
2,1,13,1,6,1,1,45,89,11
2,1,16,1,6,1,1,45,50,9
2,1,22,0,3,0,1,45,95,11
3,2,18,1,6,1,1,45,100,11
3,2,15,1,0,0,1,45,72,11
3,2,16,1,0,0,1,45,89,11
3,2,21,0,6,1,1,45,14,11
4,2,20,1,0,0,2,45,100,11
4,2,13,1,2,0,2,45,44,11
4,2,9,1,2,0,2,45,75,11
4,2,16,1,2,0,2,45,13,11
4,2,14,1,1,0,2,45,100,11
5,2,1,0,6,1,2,45,100,11
5,2,12,1,6,1,2,45,100,11
5,2,21,0,6,1,2,45,65,11
5,2,23,0,6,1,2,45,87,11
6,3,3,0,6,1,2,45,87,11
6,3,21,0,6,1,2,45,114,11
6,3,19,1,2,0,2,45,76,11
6,3,9,1,4,0,2,45,128,8
6,3,10,1,4,0,2,45,100,11
6,3,13,1,2,0,2,45,24,11
6,3,17,1,6,1,2,45,100,11
7,3,18,1,2,0,3,45,100,9
7,3,20,1,5,1,3,45,100,11
7,3,13,1,6,1,3,45,100,11
7,3,14,1,4,0,3,45,89,11
7,3,8,1,5,1,3,45,65,11
7,3,12,1,2,0,3,45,89,9
7,3,19,1,2,0,3,45,110,11
7,3,22,0,3,0,3,45,18,11
7,3,18,1,4,0,3,45,128,8
7,3,13,1,1,0,3,45,57,11
8,3,8,1,2,0,3,45,87,9
8,3,10,1,2,0,3,45,4,11
8,3,5,0,4,0,3,45,18,11
8,3,19,1,6,1,3,45,100,11
8,3,19,1,2,0,3,45,18,11
8,3,21,0,3,0,3,45,29,9
8,3,13,1,4,0,3,45,75,8
8,3,14,1,1,0,3,45,65,11
8,3,19,1,2,0,3,45,109,9
8,3,1,0,4,0,3,45,108,11
9,4,1,0,2,0,3,45,100,11
9,4,14,1,2,0,3,45,87,11
9,4,18,1,0,0,3,45,100,11
9,4,12,1,6,1,3,45,100,11
9,4,10,1,0,0,3,45,13,11
9,4,16,1,4,0,3,45,100,11
9,4,16,1,0,0,3,45,13,11
10,4,16,1,3,0,4,45,18,11
10,4,8,1,0,0,4,45,72,11
10,4,15,1,3,0,4,45,100,11
10,4,15,1,5,1,4,45,89,11
10,4,17,1,5,1,4,45,89,11
10,4,17,1,6,1,4,45,89,11
10,4,12,1,2,0,4,45,89,11
10,4,15,1,5,1,4,45,89,11
10,4,7,1,2,0,4,45,100,11
10,4,13,1,3,0,4,45,100,11
11,4,11,1,2,0,4,45,100,11
11,4,22,0,3,0,4,45,89,11
11,4,8,1,5,1,4,45,128,11
11,4,21,0,1,0,4,45,75,11
11,4,19,1,5,1,4,45,75,11
12,1,12,1,6,1,4,45,75,11
12,1,18,1,6,1,4,45,75,11
12,1,20,1,6,1,4,45,75,8
12,1,10,1,0,0,4,45,75,11
12,1,16,1,1,0,4,45,75,11
12,1,5,0,5,1,4,45,75,8
12,1,23,0,6,1,4,45,38,11
12,1,16,1,0,0,4,45,75,8
12,1,21,0,1,0,4,45,97,11
12,1,23,0,1,0,4,45,87,11
12,1,19,1,2,0,4,45,75,11
12,1,13,1,4,0,4,45,87,11
12,1,16,1,5,1,4,45,65,11
12,1,19,1,6,1,4,45,89,11
12,1,19,1,1,0,4,45,75,11
12,1,13,1,3,0,4,45,75,11
12,1,14,1,4,0,4,45,87,11
12,1,15,1,5,1,4,45,75,8
2,1,10,1,3,0,1,45,89,11
2,1,10,1,0,0,1,45,75,11
3,2,15,1,6,1,1,45,87,11
4,2,15,1,1,0,2,45,104,11
4,2,16,1,4,0,2,45,72,9
5,2,5,0,4,0,2,45,24,11
5,2,20,1,0,0,2,45,100,11
6,3,11,1,6,1,2,45,38,11
6,3,22,0,5,1,2,45,125,11
6,3,9,1,6,1,2,45,100,11
7,3,3,0,5,1,3,45,18,9
7,3,11,1,3,0,3,45,100,11
7,3,20,1,3,0,3,45,46,9
7,3,5,0,5,1,3,45,18,11
7,3,12,1,2,0,3,45,1,11
7,3,11,1,1,0,3,45,100,11
8,3,11,1,4,0,3,45,109,11
8,3,21,0,1,0,3,45,100,11
9,4,20,1,0,0,3,45,100,11
9,4,14,1,0,0,3,45,89,11
9,4,14,1,2,0,3,45,100,11
9,4,14,1,2,0,3,45,89,11
10,4,20,1,5,1,4,45,75,11
11,4,12,1,4,0,4,45,75,11
11,4,6,0,1,0,4,45,72,9
11,4,1,0,2,0,4,45,72,11
11,4,13,1,4,0,4,45,72,11
12,1,17,1,0,0,4,45,75,8
12,1,5,0,5,1,4,45,75,11
2,1,12,1,5,1,1,45,87,11
4,2,14,1,5,1,2,45,100,11
6,3,16,1,2,0,2,45,109,9
7,3,2,0,2,0,3,45,64,11
9,4,18,1,2,0,3,45,89,11
10,4,9,1,1,0,4,45,100,9
10,4,17,1,1,0,4,45,100,11
10,4,19,1,2,0,4,45,110,11
12,1,7,1,3,0,4,45,79,9
12,1,13,1,6,1,4,45,87,11
1,1,14,1,5,1,1,45,110,11
2,1,17,1,0,0,1,45,100,11
2,1,19,1,0,0,1,45,128,11
2,1,15,1,1,0,1,45,100,11
2,1,13,1,2,0,1,45,100,11
2,1,17,1,3,0,1,45,100,11
2,1,13,1,4,0,1,45,128,11
2,1,22,0,4,0,1,45,92,11
3,2,19,1,6,1,1,45,128,11
3,2,17,1,5,1,1,45,128,11
3,2,19,1,0,0,1,45,100,11
3,2,19,1,3,0,1,45,100,11
3,2,16,1,4,0,1,45,89,11
3,2,20,1,4,0,1,45,100,11
3,2,20,1,6,1,1,45,100,11
3,2,20,1,0,0,1,45,100,11
3,2,14,1,6,1,1,45,100,11
3,2,21,0,6,1,1,45,13,11
4,2,15,1,6,1,2,45,100,11
4,2,23,0,4,0,2,45,128,11
4,2,23,0,4,0,2,45,128,11
4,2,23,0,5,1,2,45,128,11
4,2,21,0,6,1,2,45,128,11
4,2,23,0,4,0,2,45,18,11
4,2,11,1,0,0,2,45,100,11
5,2,21,0,5,1,2,45,100,11
5,2,19,1,0,0,2,45,100,11
5,2,21,0,0,0,2,45,100,11
5,2,11,1,3,0,2,45,110,11
5,2,19,1,5,1,2,45,58,11
5,2,0,0,3,0,2,45,100,11
6,3,10,1,4,0,2,45,100,11
6,3,12,1,5,1,2,45,13,11
6,3,15,1,5,1,2,45,100,9
6,3,14,1,0,0,2,45,100,11
6,3,19,1,1,0,2,45,100,11
6,3,16,1,2,0,2,45,100,11
6,3,15,1,6,1,2,45,100,11
7,3,5,0,3,0,3,45,110,11
7,3,13,1,6,1,3,45,100,11
7,3,20,1,0,0,3,45,72,11
7,3,13,1,0,0,3,45,100,11
8,3,3,0,3,0,3,45,100,11
8,3,14,1,5,1,3,45,18,11
8,3,18,1,6,1,3,45,100,11
9,4,20,1,4,0,3,45,128,11
9,4,16,1,5,1,3,45,13,11
9,4,16,1,5,1,3,45,100,11
9,4,14,1,4,0,3,45,100,11
9,4,16,1,4,0,3,45,100,11
10,4,15,1,1,0,4,45,100,11
10,4,14,1,2,0,4,45,100,11
10,4,18,1,6,1,4,45,100,11
11,4,21,0,6,1,4,45,128,11
11,4,17,1,0,0,4,45,100,11
11,4,19,1,2,0,4,45,38,11
11,4,1,0,6,1,4,45,100,11
11,4,14,1,6,1,4,45,100,11
11,4,11,1,0,0,4,45,100,11
12,1,14,1,3,0,4,45,75,8
12,1,9,1,3,0,4,45,75,8
12,1,0,0,4,0,4,45,128,11
12,1,3,0,2,0,4,45,128,11
12,1,19,1,2,0,4,45,38,11
12,1,7,1,0,0,4,45,84,8
1,1,15,1,1,0,1,22,24,11
1,1,19,1,2,0,1,22,100,11
1,1,18,1,5,1,1,22,100,11
1,1,20,1,0,0,1,22,100,11
1,1,13,1,2,0,1,22,100,11
1,1,22,0,5,1,1,22,75,11
1,1,22,0,5,1,1,22,75,11
1,1,18,1,6,1,1,22,100,11
1,1,20,1,1,0,1,22,125,11
1,1,23,0,1,0,1,22,128,11
1,1,19,1,2,0,1,22,100,11
1,1,14,1,0,0,1,22,18,11
1,1,20,1,1,0,1,22,65,11
1,1,22,0,1,0,1,22,100,11
1,1,22,0,5,1,1,22,13,8
1,1,11,1,6,1,1,22,100,11
1,1,19,1,6,1,1,22,65,11
1,1,21,0,6,1,1,22,38,8
1,1,22,0,1,0,1,22,65,11
2,1,16,1,3,0,1,22,128,11
2,1,0,0,4,0,1,22,25,11
2,1,16,1,1,0,1,22,4,11
2,1,17,1,1,0,1,22,38,11
2,1,9,1,2,0,1,22,89,11
2,1,9,1,2,0,1,22,46,9
2,1,18,1,2,0,1,22,100,11
2,1,19,1,3,0,1,22,89,11
2,1,13,1,4,0,1,22,100,11
2,1,16,1,5,1,1,22,100,11
2,1,15,1,6,1,1,22,89,11
2,1,14,1,2,0,1,22,100,11
2,1,11,1,4,0,1,22,46,11
2,1,15,1,5,1,1,22,89,11
2,1,17,1,0,0,1,22,100,11
2,1,18,1,0,0,1,22,100,11
2,1,13,1,3,0,1,22,100,11
2,1,14,1,3,0,1,22,89,11
2,1,19,1,3,0,1,22,75,11
2,1,12,1,5,1,1,22,4,11
2,1,8,1,2,0,1,22,100,11
3,2,12,1,5,1,1,22,65,11
3,2,19,1,5,1,1,22,75,11
3,2,12,1,2,0,1,22,75,11
3,2,9,1,4,0,1,22,72,11
3,2,17,1,5,1,1,22,100,11
3,2,22,0,0,0,1,22,64,11
3,2,17,1,1,0,1,22,65,11
3,2,18,1,3,0,1,22,89,11
3,2,1,0,0,0,1,22,75,9
4,2,21,0,1,0,2,22,89,11
4,2,12,1,2,0,2,22,100,11
4,2,10,1,3,0,2,22,89,11
4,2,17,1,3,0,2,22,28,9
4,2,16,1,4,0,2,22,100,11
4,2,14,1,6,1,2,22,100,11
4,2,14,1,6,1,2,22,89,11
4,2,17,1,6,1,2,22,89,11
4,2,17,1,0,0,2,22,128,11
4,2,10,1,3,0,2,22,100,11
4,2,20,1,5,1,2,22,100,11
4,2,21,0,6,1,2,22,100,11
4,2,0,0,0,0,2,22,100,11
4,2,17,1,0,0,2,22,100,11
4,2,12,1,2,0,2,22,100,11
4,2,23,0,2,0,2,22,100,11
4,2,15,1,3,0,2,22,100,11
4,2,21,0,3,0,2,22,100,11
4,2,22,0,3,0,2,22,100,11
4,2,18,1,5,1,2,22,100,11
4,2,9,1,1,0,2,22,89,11
4,2,12,1,1,0,2,22,24,11
5,2,16,1,4,0,2,22,100,11
5,2,19,1,1,0,2,22,65,11
5,2,21,0,6,1,2,22,100,11
5,2,13,1,5,1,2,22,13,9
5,2,14,1,1,0,2,22,100,11
5,2,14,1,2,0,2,22,100,11
5,2,14,1,2,0,2,22,100,11
6,3,8,1,6,1,2,22,100,11
6,3,14,1,6,1,2,22,100,11
6,3,19,1,6,1,2,22,100,11
6,3,13,1,4,0,2,22,100,11
6,3,19,1,4,0,2,22,100,11
6,3,18,1,5,1,2,22,100,11
6,3,3,0,6,1,2,22,100,11
6,3,7,1,6,1,2,22,100,11
6,3,10,1,1,0,2,22,4,11
6,3,14,1,1,0,2,22,100,11
6,3,15,1,1,0,2,22,100,11
6,3,17,1,1,0,2,22,100,11
6,3,21,0,1,0,2,22,100,11
6,3,12,1,3,0,2,22,100,11
6,3,21,0,3,0,2,22,100,9
6,3,23,0,3,0,2,22,100,11
6,3,14,1,4,0,2,22,100,11
6,3,15,1,4,0,2,22,100,11
6,3,12,1,5,1,2,22,100,11
6,3,17,1,5,1,2,22,89,11
6,3,20,1,5,1,2,22,100,11
6,3,22,0,5,1,2,22,100,11
6,3,19,1,6,1,2,22,4,11
6,3,15,1,0,0,2,22,100,11
6,3,19,1,1,0,2,22,100,11
6,3,20,1,1,0,2,22,100,11
6,3,21,0,3,0,2,22,89,11
6,3,20,1,4,0,2,22,100,11
6,3,10,1,5,1,2,22,89,11
6,3,16,1,5,1,2,22,89,11
6,3,18,1,5,1,2,22,100,11
6,3,19,1,5,1,2,22,100,11
6,3,22,0,5,1,2,22,100,11
6,3,12,1,6,1,2,22,100,11
6,3,10,1,0,0,2,22,100,11
6,3,1,0,1,0,2,22,100,11
6,3,13,1,1,0,2,22,100,11
6,3,17,1,1,0,2,22,100,11
6,3,19,1,1,0,2,22,100,11
6,3,10,1,2,0,2,22,100,11
6,3,10,1,2,0,2,22,100,11
6,3,12,1,3,0,2,22,100,11
6,3,22,0,3,0,2,22,100,11
6,3,10,1,4,0,2,22,100,11
6,3,16,1,6,1,2,22,100,11
6,3,22,0,6,1,2,22,100,11
7,3,1,0,0,0,3,22,100,11
7,3,23,0,0,0,3,22,100,11
7,3,7,1,1,0,3,22,100,11
7,3,21,0,1,0,3,22,100,11
7,3,14,1,2,0,3,22,100,11
7,3,23,0,2,0,3,22,100,11
7,3,20,1,3,0,3,22,110,11
7,3,22,0,3,0,3,22,89,11
7,3,18,1,4,0,3,22,100,11
7,3,21,0,4,0,3,22,100,11
7,3,17,1,5,1,3,22,100,11
7,3,20,1,5,1,3,22,100,11
7,3,20,1,5,1,3,22,100,11
7,3,12,1,6,1,3,22,100,11
7,3,14,1,6,1,3,22,89,9
7,3,12,1,0,0,3,22,100,11
7,3,17,1,0,0,3,22,100,11
7,3,23,0,0,0,3,22,100,11
7,3,10,1,1,0,3,22,100,11
7,3,11,1,1,0,3,22,100,11
7,3,17,1,2,0,3,22,100,11
7,3,11,1,3,0,3,22,100,11
7,3,0,0,4,0,3,22,110,11
7,3,7,1,4,0,3,22,100,11
7,3,17,1,4,0,3,22,100,9
7,3,21,0,4,0,3,22,57,11
7,3,12,1,5,1,3,22,89,9
7,3,15,1,5,1,3,22,100,11
7,3,23,0,5,1,3,22,65,9
7,3,22,0,6,1,3,22,100,11
7,3,15,1,0,0,3,22,100,11
7,3,21,0,1,0,3,22,128,11
7,3,14,1,2,0,3,22,100,11
7,3,22,0,2,0,3,22,128,11
7,3,16,1,3,0,3,22,100,11
7,3,13,1,1,0,3,22,100,11
7,3,18,1,1,0,3,22,100,11
7,3,15,1,2,0,3,22,100,11
7,3,18,1,4,0,3,22,100,11
7,3,13,1,5,1,3,22,100,11
7,3,16,1,5,1,3,22,57,11
7,3,18,1,5,1,3,22,57,11
7,3,18,1,6,1,3,22,100,11
7,3,19,1,0,0,3,22,18,9
7,3,21,0,0,0,3,22,62,11
7,3,0,0,1,0,3,22,100,11
7,3,11,1,1,0,3,22,125,11
7,3,18,1,1,0,3,22,100,11
8,3,0,0,3,0,3,22,128,11
8,3,14,1,3,0,3,22,57,11
8,3,15,1,3,0,3,22,100,11
8,3,21,0,4,0,3,22,57,11
8,3,23,0,4,0,3,22,1,11
8,3,18,1,5,1,3,22,110,11
8,3,11,1,6,1,3,22,57,11
8,3,13,1,6,1,3,22,57,11
8,3,16,1,6,1,3,22,57,11
8,3,18,1,6,1,3,22,100,11
8,3,18,1,6,1,3,22,100,11
8,3,19,1,6,1,3,22,12,8
8,3,13,1,0,0,3,22,100,11
8,3,17,1,0,0,3,22,57,11
8,3,18,1,0,0,3,22,100,11
8,3,20,1,0,0,3,22,100,11
8,3,20,1,3,0,3,22,89,11
8,3,12,1,5,1,3,22,89,11
8,3,22,0,1,0,3,22,100,11
8,3,23,0,1,0,3,22,100,11
8,3,18,1,2,0,3,22,42,11
8,3,7,1,3,0,3,22,18,11
8,3,14,1,3,0,3,22,75,9
8,3,0,0,5,1,3,22,128,11
8,3,13,1,5,1,3,22,89,11
8,3,23,0,6,1,3,22,100,11
8,3,10,1,0,0,3,22,75,11
8,3,18,1,1,0,3,22,18,11
8,3,2,0,3,0,3,22,79,11
8,3,21,0,3,0,3,22,100,11
8,3,12,1,4,0,3,22,100,11
8,3,18,1,6,1,3,22,100,11
8,3,22,0,6,1,3,22,100,11
8,3,11,1,0,0,3,22,100,11
8,3,20,1,0,0,3,22,100,11
8,3,23,0,0,0,3,22,100,11
8,3,18,1,1,0,3,22,89,9
8,3,19,1,4,0,3,22,110,11
8,3,21,0,4,0,3,22,100,11
9,4,18,1,6,1,3,22,13,8
9,4,15,1,0,0,3,22,100,11
9,4,15,1,2,0,3,22,57,11
9,4,17,1,2,0,3,22,100,11
9,4,8,1,3,0,3,22,65,11
9,4,22,0,3,0,3,22,89,11
9,4,8,1,1,0,3,22,100,11
9,4,21,0,5,1,3,22,89,11
9,4,17,1,6,1,3,22,125,9
9,4,18,1,6,1,3,22,100,9
9,4,19,1,6,1,3,22,100,11
9,4,12,1,0,0,3,22,125,9
9,4,18,1,2,0,3,22,110,11
9,4,14,1,0,0,3,22,125,11
9,4,19,1,1,0,3,22,100,11
9,4,15,1,3,0,3,22,75,11
9,4,15,1,3,0,3,22,89,11
9,4,20,1,3,0,3,22,18,9
9,4,13,1,5,1,3,22,100,11
9,4,20,1,0,0,3,22,100,11
10,4,14,1,1,0,4,22,100,11
10,4,7,1,2,0,4,22,81,11
10,4,13,1,2,0,4,22,125,11
10,4,12,1,3,0,4,22,100,11
10,4,14,1,3,0,4,22,89,11
10,4,19,1,3,0,4,22,100,11
10,4,20,1,3,0,4,22,89,11
10,4,14,1,4,0,4,22,100,11
10,4,16,1,4,0,4,22,100,11
10,4,16,1,6,1,4,22,38,11
10,4,12,1,1,0,4,22,100,11
10,4,17,1,2,0,4,22,89,11
10,4,20,1,4,0,4,22,24,11
10,4,22,0,4,0,4,22,65,11
10,4,16,1,5,1,4,22,128,11
10,4,17,1,5,1,4,22,4,11
10,4,19,1,5,1,4,22,75,9
10,4,22,0,0,0,4,22,100,11
10,4,1,0,1,0,4,22,89,11
10,4,14,1,2,0,4,22,12,11
10,4,16,1,2,0,4,22,100,11
10,4,23,0,3,0,4,22,87,11
10,4,2,0,6,1,4,22,18,9
10,4,16,1,1,0,4,22,100,11
10,4,12,1,3,0,4,22,100,11
10,4,20,1,3,0,4,22,65,11
11,4,18,1,4,0,4,22,100,11
11,4,22,0,5,1,4,22,58,11
11,4,13,1,6,1,4,22,4,9
11,4,14,1,6,1,4,22,100,11
11,4,14,1,6,1,4,22,100,11
11,4,21,0,6,1,4,22,100,11
11,4,12,1,2,0,4,22,125,11
11,4,17,1,2,0,4,22,100,11
11,4,17,1,2,0,4,22,4,11
11,4,16,1,3,0,4,22,89,11
11,4,2,0,4,0,4,22,128,11
11,4,17,1,4,0,4,22,100,11
11,4,14,1,5,1,4,22,100,11
11,4,16,1,5,1,4,22,100,11
11,4,17,1,5,1,4,22,100,11
11,4,18,1,5,1,4,22,89,8
11,4,19,1,5,1,4,22,65,11
11,4,15,1,6,1,4,22,100,11
11,4,18,1,6,1,4,22,100,11
11,4,19,1,6,1,4,22,100,11
11,4,15,1,0,0,4,22,100,11
11,4,18,1,0,0,4,22,75,11
11,4,18,1,1,0,4,22,110,11
11,4,20,1,1,0,4,22,75,11
11,4,17,1,2,0,4,22,75,11
11,4,17,1,2,0,4,22,75,11
11,4,20,1,6,1,4,22,75,11
11,4,14,1,0,0,4,22,128,11
11,4,19,1,0,0,4,22,75,11
11,4,3,0,1,0,4,22,4,11
11,4,0,0,3,0,4,22,89,11
11,4,13,1,3,0,4,22,100,11
11,4,14,1,3,0,4,22,100,11
11,4,21,0,4,0,4,22,89,9
11,4,19,1,5,1,4,22,100,11
11,4,10,1,6,1,4,22,75,11
11,4,11,1,6,1,4,22,128,11
11,4,12,1,6,1,4,22,100,11
11,4,17,1,6,1,4,22,100,9
11,4,14,1,0,0,4,22,100,11
11,4,17,1,0,0,4,22,100,11
11,4,13,1,1,0,4,22,125,11
11,4,10,1,2,0,4,22,110,11
11,4,17,1,2,0,4,22,125,11
11,4,14,1,3,0,4,22,89,11
11,4,14,1,3,0,4,22,4,11
11,4,15,1,3,0,4,22,89,11
11,4,20,1,3,0,4,22,100,11
11,4,23,0,4,0,4,22,128,11
12,1,14,1,4,0,4,22,88,11
12,1,22,0,4,0,4,22,64,11
12,1,10,1,0,0,4,22,67,11
12,1,10,1,0,0,4,22,18,11
12,1,14,1,6,1,4,22,75,11
12,1,19,1,6,1,4,22,128,11
12,1,20,1,6,1,4,22,75,9
12,1,19,1,3,0,4,22,65,11
12,1,4,0,4,0,4,22,100,11
12,1,18,1,4,0,4,22,100,11
1,1,19,1,0,0,1,22,75,11
1,1,5,0,3,0,1,22,75,11
1,1,12,1,6,1,1,22,75,11
1,1,17,1,0,0,1,22,63,8
2,1,11,1,6,1,1,22,100,11
2,1,15,1,6,1,1,22,100,11
2,1,12,1,5,1,1,22,18,11
2,1,15,1,5,1,1,22,100,11
3,2,13,1,6,1,1,22,128,11
3,2,14,1,5,1,1,22,100,11
3,2,17,1,3,0,1,22,100,11
4,2,15,1,5,1,2,22,40,11
4,2,21,0,6,1,2,22,128,11
4,2,15,1,2,0,2,22,100,11
4,2,21,0,3,0,2,22,89,9
5,2,20,1,2,0,2,22,110,11
5,2,18,1,2,0,2,22,100,11
5,2,19,1,5,1,2,22,100,11
5,2,14,1,1,0,2,22,57,11
5,2,16,1,4,0,2,22,40,11
6,3,13,1,6,1,2,22,100,11
6,3,16,1,0,0,2,22,89,11
6,3,13,1,5,1,2,22,89,11
6,3,19,1,5,1,2,22,89,11
6,3,13,1,2,0,2,22,100,11
6,3,19,1,2,0,2,22,100,11
6,3,8,1,3,0,2,22,100,11
6,3,21,0,4,0,2,22,100,11
6,3,3,0,6,1,2,22,24,9
6,3,3,0,6,1,2,22,89,9
6,3,14,1,4,0,2,22,87,11
6,3,16,1,4,0,2,22,89,11
6,3,13,1,0,0,2,22,89,11
6,3,19,1,1,0,2,22,89,11
6,3,10,1,3,0,2,22,100,11
6,3,10,1,3,0,2,22,75,11
6,3,12,1,3,0,2,22,100,11
6,3,14,1,4,0,2,22,100,11
7,3,16,1,2,0,3,22,100,11
7,3,17,1,2,0,3,22,89,11
7,3,13,1,5,1,3,22,100,11
7,3,11,1,6,1,3,22,89,11
7,3,18,1,1,0,3,22,57,11
7,3,18,1,5,1,3,22,100,11
7,3,21,0,3,0,3,22,75,11
7,3,22,0,4,0,3,22,100,11
7,3,10,1,5,1,3,22,100,11
7,3,22,0,5,1,3,22,75,11
7,3,22,0,0,0,3,22,100,11
7,3,6,0,2,0,3,22,100,11
7,3,22,0,4,0,3,22,125,11
7,3,23,0,5,1,3,22,100,11
7,3,18,1,0,0,3,22,100,11
7,3,8,1,1,0,3,22,57,11
7,3,19,1,2,0,3,22,100,11
8,3,12,1,3,0,3,22,100,11
8,3,2,0,4,0,3,22,110,11
8,3,17,1,4,0,3,22,100,11
8,3,23,0,5,1,3,22,100,11
8,3,13,1,2,0,3,22,89,11
8,3,13,1,3,0,3,22,100,11
8,3,21,0,4,0,3,22,100,11
8,3,18,1,5,1,3,22,57,11
8,3,21,0,5,1,3,22,57,11
8,3,9,1,6,1,3,22,100,11
8,3,19,1,6,1,3,22,100,11
8,3,17,1,2,0,3,22,100,11
8,3,15,1,3,0,3,22,100,11
8,3,1,0,4,0,3,22,100,11
8,3,15,1,0,0,3,22,110,11
8,3,20,1,0,0,3,22,100,11
8,3,18,1,4,0,3,22,100,11
8,3,17,1,3,0,3,22,100,11
8,3,20,1,4,0,3,22,110,11
9,4,14,1,0,0,3,22,110,11
9,4,15,1,6,1,3,22,75,11
9,4,5,0,6,1,3,22,75,11
10,4,22,0,3,0,4,22,4,11
10,4,15,1,5,1,4,22,110,11
10,4,2,0,3,0,4,22,75,11
10,4,16,1,6,1,4,22,100,11
10,4,18,1,4,0,4,22,4,11
10,4,18,1,5,1,4,22,100,11
10,4,18,1,0,0,4,22,125,11
11,4,8,1,0,0,4,22,64,11
11,4,12,1,2,0,4,22,50,11
11,4,6,0,1,0,4,22,110,11
12,1,15,1,1,0,4,22,128,11
12,1,9,1,2,0,4,22,75,11
2,1,16,1,4,0,1,22,87,11
2,1,12,1,1,0,1,22,100,11
2,1,8,1,0,0,1,22,110,11
6,3,21,0,4,0,2,22,100,11
6,3,5,0,5,1,2,22,89,11
7,3,15,1,6,1,3,22,89,11
7,3,20,1,0,0,3,22,87,11
7,3,20,1,3,0,3,22,126,11
7,3,14,1,3,0,3,22,100,11
7,3,23,0,4,0,3,22,87,11
8,3,23,0,3,0,3,22,89,11
8,3,1,0,4,0,3,22,22,11
8,3,3,0,3,0,3,22,4,11
8,3,22,0,0,0,3,22,4,11
8,3,19,1,5,1,3,22,18,11
8,3,23,0,0,0,3,22,100,11
8,3,10,1,1,0,3,22,100,11
8,3,21,0,2,0,3,22,100,11
9,4,23,0,2,0,3,22,87,11
9,4,20,1,6,1,3,22,100,11
10,4,16,1,6,1,4,22,87,11
10,4,19,1,1,0,4,22,72,11
10,4,1,0,3,0,4,22,87,11
10,4,18,1,0,0,4,22,75,11
11,4,17,1,4,0,4,22,100,11
11,4,18,1,3,0,4,22,4,11
11,4,18,1,3,0,4,22,125,11
12,1,20,1,0,0,4,22,22,11
12,1,15,1,2,0,4,22,75,11
1,1,8,1,3,0,1,6,26,11
1,1,15,1,5,1,1,6,26,11
1,1,12,1,6,1,1,6,100,11
1,1,23,0,6,1,1,6,87,11
1,1,0,0,0,0,1,6,89,11
2,1,18,1,3,0,1,6,100,11
2,1,15,1,5,1,1,6,128,11
2,1,15,1,5,1,1,6,12,9
2,1,19,1,5,1,1,6,87,11
2,1,15,1,1,0,1,6,100,11
2,1,15,1,3,0,1,6,89,11
3,2,19,1,0,0,1,6,24,11
3,2,22,0,3,0,1,6,100,11
3,2,12,1,0,0,1,6,12,9
4,2,13,1,6,1,2,6,100,11
4,2,10,1,0,0,2,6,100,11
5,2,22,0,1,0,2,6,34,11
6,3,9,1,0,0,2,6,12,9
7,3,21,0,4,0,3,6,100,11
7,3,12,1,6,1,3,6,87,11
7,3,1,0,1,0,3,6,100,11
7,3,0,0,2,0,3,6,26,11
8,3,7,1,3,0,3,6,109,11
8,3,17,1,4,0,3,6,100,11
9,4,11,1,3,0,3,6,100,11
9,4,16,1,5,1,3,6,63,11
10,4,19,1,2,0,4,6,26,11
10,4,19,1,4,0,4,6,34,11
10,4,0,0,5,1,4,6,100,11
10,4,13,1,4,0,4,6,25,11
11,4,22,0,4,0,4,6,12,11
11,4,19,1,0,0,4,6,34,11
12,1,23,0,0,0,4,6,128,11
12,1,9,1,3,0,4,6,12,8
12,1,12,1,4,0,4,6,128,11
12,1,9,1,1,0,4,6,32,11
4,2,17,1,0,0,2,6,72,11
7,3,14,1,6,1,3,6,72,11
9,4,11,1,0,0,3,6,72,11
12,1,12,1,4,0,4,6,87,11
1,1,20,1,0,0,1,6,95,11
1,1,23,0,0,0,1,6,87,11
1,1,9,1,1,0,1,6,89,11
1,1,18,1,1,0,1,6,100,11
1,1,18,1,1,0,1,6,38,11
1,1,0,0,2,0,1,6,87,11
1,1,7,1,2,0,1,6,65,11
1,1,20,1,2,0,1,6,65,11
1,1,23,0,3,0,1,6,87,11
1,1,3,0,4,0,1,6,87,11
1,1,13,1,4,0,1,6,65,11
1,1,17,1,4,0,1,6,87,11
1,1,20,1,4,0,1,6,87,11
1,1,17,1,5,1,1,6,87,11
1,1,18,1,5,1,1,6,65,11
1,1,20,1,5,1,1,6,65,11
1,1,17,1,0,0,1,6,87,11
1,1,16,1,1,0,1,6,75,11
1,1,13,1,2,0,1,6,89,11
1,1,18,1,2,0,1,6,95,11
1,1,10,1,3,0,1,6,95,11
1,1,16,1,4,0,1,6,100,11
1,1,19,1,4,0,1,6,65,11
1,1,20,1,4,0,1,6,65,11
1,1,23,0,4,0,1,6,65,11
1,1,13,1,5,1,1,6,95,11
1,1,19,1,5,1,1,6,65,11
1,1,23,0,5,1,1,6,95,11
1,1,21,0,6,1,1,6,95,11
1,1,1,0,0,0,1,6,30,11
1,1,15,1,0,0,1,6,65,11
1,1,17,1,0,0,1,6,38,11
1,1,4,0,1,0,1,6,72,11
1,1,19,1,1,0,1,6,65,11
1,1,10,1,2,0,1,6,89,11
1,1,21,0,3,0,1,6,87,11
1,1,3,0,5,1,1,6,38,11
1,1,10,1,6,1,1,6,75,11
1,1,12,1,6,1,1,6,100,11
1,1,15,1,6,1,1,6,38,11
1,1,22,0,6,1,1,6,72,11
1,1,7,1,0,0,1,6,95,11
1,1,13,1,0,0,1,6,38,11
1,1,15,1,0,0,1,6,58,11
1,1,18,1,0,0,1,6,65,11
1,1,4,0,1,0,1,6,72,11
1,1,15,1,1,0,1,6,87,11
1,1,20,1,1,0,1,6,97,11
1,1,13,1,2,0,1,6,65,11
1,1,18,1,2,0,1,6,65,11
1,1,20,1,2,0,1,6,97,11
1,1,21,0,2,0,1,6,97,11
1,1,21,0,2,0,1,6,65,11
1,1,22,0,2,0,1,6,65,11
1,1,12,1,3,0,1,6,87,11
1,1,14,1,3,0,1,6,87,11
1,1,18,1,3,0,1,6,95,11
1,1,19,1,3,0,1,6,72,11
1,1,3,0,4,0,1,6,87,11
1,1,3,0,4,0,1,6,87,11
1,1,8,1,4,0,1,6,87,11
1,1,19,1,4,0,1,6,87,11
1,1,1,0,5,1,1,6,87,11
1,1,19,1,5,1,1,6,46,11
1,1,19,1,5,1,1,6,75,11
1,1,3,0,6,1,1,6,87,11
1,1,8,1,6,1,1,6,87,11
1,1,17,1,6,1,1,6,87,11
1,1,18,1,6,1,1,6,87,11
1,1,2,0,0,0,1,6,65,11
1,1,2,0,0,0,1,6,65,11
1,1,12,1,0,0,1,6,87,11
1,1,12,1,0,0,1,6,87,11
1,1,16,1,0,0,1,6,89,11
1,1,21,0,0,0,1,6,87,11
1,1,1,0,1,0,1,6,38,11
1,1,11,1,1,0,1,6,65,11
1,1,12,1,1,0,1,6,95,11
1,1,12,1,1,0,1,6,38,11
1,1,14,1,1,0,1,6,38,9
1,1,15,1,1,0,1,6,100,11
1,1,19,1,1,0,1,6,75,11
1,1,23,0,1,0,1,6,87,11
1,1,13,1,2,0,1,6,100,11
1,1,18,1,2,0,1,6,65,11
2,1,12,1,3,0,1,6,89,11
2,1,13,1,3,0,1,6,75,11
2,1,13,1,3,0,1,6,75,11
2,1,17,1,3,0,1,6,87,11
2,1,22,0,3,0,1,6,65,11
2,1,10,1,4,0,1,6,38,11
2,1,10,1,4,0,1,6,87,11
2,1,11,1,4,0,1,6,87,11
2,1,17,1,4,0,1,6,87,11
2,1,16,1,5,1,1,6,89,11
2,1,17,1,5,1,1,6,100,11
2,1,18,1,5,1,1,6,95,11
2,1,9,1,6,1,1,6,87,11
2,1,11,1,6,1,1,6,87,11
2,1,16,1,6,1,1,6,87,11
2,1,13,1,0,0,1,6,87,11
2,1,14,1,0,0,1,6,89,11
2,1,18,1,0,0,1,6,87,11
2,1,20,1,0,0,1,6,89,11
2,1,7,1,1,0,1,6,87,11
2,1,20,1,1,0,1,6,58,11
2,1,1,0,2,0,1,6,87,11
2,1,3,0,2,0,1,6,87,11
2,1,12,1,2,0,1,6,87,11
2,1,13,1,2,0,1,6,87,11
2,1,17,1,2,0,1,6,38,11
2,1,20,1,2,0,1,6,65,11
2,1,8,1,3,0,1,6,64,11
2,1,9,1,3,0,1,6,87,11
2,1,16,1,3,0,1,6,87,11
2,1,19,1,3,0,1,6,87,11
2,1,22,0,3,0,1,6,89,11
2,1,23,0,3,0,1,6,87,11
2,1,7,1,4,0,1,6,89,11
2,1,18,1,4,0,1,6,87,11
2,1,21,0,4,0,1,6,65,11
2,1,22,0,4,0,1,6,87,11
2,1,3,0,5,1,1,6,72,11
2,1,3,0,5,1,1,6,87,11
2,1,16,1,5,1,1,6,87,11
2,1,19,1,5,1,1,6,65,11
2,1,2,0,6,1,1,6,87,11
2,1,3,0,6,1,1,6,89,11
2,1,11,1,6,1,1,6,65,11
2,1,12,1,6,1,1,6,89,11
2,1,17,1,6,1,1,6,57,11
2,1,21,0,0,0,1,6,38,11
2,1,22,0,0,0,1,6,65,11
2,1,14,1,1,0,1,6,65,11
2,1,14,1,2,0,1,6,65,11
2,1,16,1,2,0,1,6,38,11
2,1,2,0,3,0,1,6,50,9
2,1,18,1,3,0,1,6,97,11
2,1,19,1,3,0,1,6,38,11
2,1,19,1,4,0,1,6,87,11
2,1,22,0,4,0,1,6,75,11
2,1,17,1,5,1,1,6,87,11
2,1,19,1,5,1,1,6,87,11
2,1,2,0,6,1,1,6,72,11
2,1,2,0,6,1,1,6,87,11
2,1,16,1,6,1,1,6,65,11
2,1,21,0,6,1,1,6,65,11
2,1,1,0,0,0,1,6,95,11
2,1,21,0,0,0,1,6,64,11
2,1,22,0,0,0,1,6,65,11
2,1,15,1,1,0,1,6,13,11
2,1,4,0,2,0,1,6,72,8
2,1,13,1,3,0,1,6,75,11
2,1,18,1,4,0,1,6,45,11
2,1,12,1,6,1,1,6,89,11
2,1,16,1,6,1,1,6,89,11
2,1,18,1,6,1,1,6,65,11
2,1,19,1,6,1,1,6,100,11
2,1,20,1,6,1,1,6,87,11
2,1,21,0,6,1,1,6,72,11
2,1,8,1,0,0,1,6,82,11
2,1,16,1,1,0,1,6,89,11
2,1,1,0,2,0,1,6,64,11
3,2,11,1,4,0,1,6,58,11
3,2,20,1,5,1,1,6,65,11
3,2,13,1,6,1,1,6,65,11
3,2,20,1,6,1,1,6,65,11
3,2,17,1,0,0,1,6,95,11
3,2,18,1,1,0,1,6,87,11
3,2,12,1,2,0,1,6,18,11
3,2,20,1,3,0,1,6,65,11
3,2,21,0,4,0,1,6,65,11
3,2,9,1,5,1,1,6,89,11
3,2,14,1,5,1,1,6,38,11
3,2,21,0,5,1,1,6,65,11
3,2,17,1,6,1,1,6,87,11
3,2,19,1,6,1,1,6,87,11
3,2,23,0,6,1,1,6,89,11
3,2,9,1,0,0,1,6,87,11
3,2,12,1,0,0,1,6,72,11
3,2,21,0,0,0,1,6,87,11
3,2,23,0,1,0,1,6,72,11
3,2,7,1,2,0,1,6,72,11
3,2,23,0,2,0,1,6,100,11
3,2,4,0,5,1,1,6,100,11
3,2,7,1,5,1,1,6,89,11
3,2,16,1,5,1,1,6,95,11
3,2,20,1,5,1,1,6,65,11
3,2,2,0,6,1,1,6,95,11
3,2,12,1,6,1,1,6,89,11
3,2,1,0,0,0,1,6,72,11
3,2,16,1,0,0,1,6,95,11
3,2,16,1,0,0,1,6,89,11
3,2,20,1,0,0,1,6,65,11
3,2,11,1,1,0,1,6,89,11
3,2,13,1,4,0,1,6,87,11
3,2,1,0,5,1,1,6,87,11
3,2,10,1,5,1,1,6,87,11
3,2,23,0,6,1,1,6,65,11
3,2,23,0,3,0,1,6,95,11
3,2,13,1,4,0,1,6,89,11
3,2,16,1,4,0,1,6,79,11
3,2,20,1,4,0,1,6,65,11
3,2,1,0,5,1,1,6,72,11
3,2,10,1,5,1,1,6,95,11
3,2,18,1,5,1,1,6,89,11
3,2,18,1,6,1,1,6,87,11
4,2,16,1,0,0,2,6,95,11
4,2,4,0,1,0,2,6,100,11
4,2,6,0,2,0,2,6,87,11
4,2,16,1,2,0,2,6,89,11
4,2,21,0,2,0,2,6,89,11
4,2,14,1,3,0,2,6,89,11
4,2,15,1,3,0,2,6,38,11
4,2,3,0,4,0,2,6,87,11
4,2,12,1,4,0,2,6,87,11
4,2,17,1,4,0,2,6,87,11
4,2,6,0,5,1,2,6,87,11
4,2,18,1,5,1,2,6,87,11
4,2,16,1,6,1,2,6,87,11
4,2,20,1,6,1,2,6,87,11
4,2,20,1,6,1,2,6,87,11
4,2,21,0,6,1,2,6,87,11
4,2,21,0,6,1,2,6,33,11
4,2,23,0,6,1,2,6,87,11
4,2,9,1,0,0,2,6,87,11
4,2,12,1,0,0,2,6,87,11
4,2,14,1,0,0,2,6,87,11
4,2,19,1,0,0,2,6,87,11
4,2,9,1,1,0,2,6,87,11
4,2,15,1,1,0,2,6,87,11
4,2,9,1,2,0,2,6,87,11
4,2,20,1,2,0,2,6,87,11
4,2,11,1,4,0,2,6,87,11
4,2,12,1,4,0,2,6,87,9
4,2,21,0,4,0,2,6,87,11
4,2,17,1,5,1,2,6,87,11
4,2,20,1,5,1,2,6,87,11
4,2,22,0,5,1,2,6,87,11
4,2,7,1,6,1,2,6,75,11
4,2,17,1,6,1,2,6,89,11
4,2,19,1,6,1,2,6,87,11
4,2,19,1,6,1,2,6,87,11
4,2,5,0,0,0,2,6,87,11
4,2,15,1,0,0,2,6,87,11
4,2,16,1,4,0,2,6,81,11
4,2,22,0,6,1,2,6,87,11
4,2,17,1,0,0,2,6,87,11
4,2,23,0,1,0,2,6,87,11
4,2,10,1,3,0,2,6,87,11
4,2,14,1,3,0,2,6,89,11
4,2,20,1,3,0,2,6,87,11
4,2,20,1,3,0,2,6,87,11
4,2,17,1,4,0,2,6,87,11
4,2,19,1,4,0,2,6,87,11
4,2,11,1,5,1,2,6,87,11
4,2,21,0,6,1,2,6,89,11
4,2,14,1,0,0,2,6,87,11
4,2,21,0,0,0,2,6,87,11
4,2,18,1,1,0,2,6,87,9
5,2,3,0,2,0,2,6,87,11
5,2,9,1,2,0,2,6,87,11
5,2,14,1,3,0,2,6,89,11
5,2,16,1,3,0,2,6,87,11
5,2,20,1,4,0,2,6,87,9
5,2,1,0,5,1,2,6,75,11
5,2,20,1,5,1,2,6,87,11
5,2,2,0,6,1,2,6,64,11
5,2,0,0,0,0,2,6,87,11
5,2,8,1,1,0,2,6,87,11
5,2,11,1,1,0,2,6,87,11
5,2,20,1,1,0,2,6,87,11
5,2,1,0,3,0,2,6,65,11
5,2,16,1,3,0,2,6,87,11
5,2,15,1,4,0,2,6,81,11
5,2,14,1,6,1,2,6,87,9
5,2,14,1,6,1,2,6,87,11
5,2,9,1,0,0,2,6,87,11
5,2,10,1,0,0,2,6,87,11
5,2,20,1,0,0,2,6,87,11
5,2,12,1,1,0,2,6,87,11
5,2,11,1,2,0,2,6,87,11
5,2,11,1,2,0,2,6,65,11
5,2,22,0,2,0,2,6,65,11
5,2,20,1,3,0,2,6,87,11
5,2,2,0,4,0,2,6,87,11
5,2,22,0,4,0,2,6,65,9
5,2,8,1,5,1,2,6,87,11
5,2,14,1,6,1,2,6,87,11
5,2,19,1,6,1,2,6,87,11
5,2,23,0,1,0,2,6,87,11
5,2,21,0,2,0,2,6,87,11
5,2,22,0,2,0,2,6,89,11
5,2,20,1,3,0,2,6,87,11
5,2,16,1,4,0,2,6,45,11
5,2,11,1,5,1,2,6,58,11
5,2,13,1,6,1,2,6,87,11
5,2,14,1,6,1,2,6,87,11
5,2,2,0,0,0,2,6,87,11
5,2,8,1,0,0,2,6,87,11
5,2,20,1,0,0,2,6,87,11
5,2,13,1,1,0,2,6,87,9
5,2,9,1,2,0,2,6,87,11
5,2,13,1,2,0,2,6,100,11
5,2,4,0,3,0,2,6,87,11
5,2,13,1,3,0,2,6,87,11
5,2,9,1,4,0,2,6,111,11
6,3,13,1,0,0,2,6,89,11
6,3,14,1,0,0,2,6,89,11
6,3,15,1,0,0,2,6,87,11
6,3,8,1,2,0,2,6,89,11
6,3,15,1,3,0,2,6,89,11
6,3,16,1,3,0,2,6,89,11
6,3,14,1,5,1,2,6,65,11
6,3,10,1,6,1,2,6,75,11
6,3,14,1,6,1,2,6,75,11
6,3,18,1,6,1,2,6,87,11
6,3,20,1,6,1,2,6,89,11
6,3,5,0,0,0,2,6,128,11
6,3,20,1,0,0,2,6,126,11
6,3,7,1,1,0,2,6,95,11
6,3,10,1,2,0,2,6,87,11
6,3,18,1,2,0,2,6,100,11
6,3,18,1,3,0,2,6,87,11
6,3,18,1,4,0,2,6,89,11
6,3,16,1,5,1,2,6,89,9
6,3,5,0,1,0,2,6,87,11
6,3,20,1,1,0,2,6,87,11
6,3,20,1,1,0,2,6,87,11
6,3,21,0,3,0,2,6,87,11
6,3,23,0,3,0,2,6,87,11
6,3,0,0,4,0,2,6,87,11
6,3,15,1,4,0,2,6,87,11
6,3,20,1,4,0,2,6,87,11
6,3,19,1,5,1,2,6,18,11
6,3,1,0,4,0,2,6,100,11
6,3,15,1,4,0,2,6,100,11
6,3,16,1,4,0,2,6,18,11
6,3,14,1,5,1,2,6,100,11
6,3,19,1,5,1,2,6,22,9
6,3,20,1,5,1,2,6,128,11
6,3,13,1,6,1,2,6,89,9
6,3,22,0,6,1,2,6,95,11
6,3,23,0,6,1,2,6,48,11
7,3,17,1,0,0,3,6,18,11
7,3,15,1,1,0,3,6,87,11
7,3,23,0,1,0,3,6,87,11
7,3,9,1,2,0,3,6,87,11
7,3,14,1,3,0,3,6,58,11
7,3,3,0,4,0,3,6,100,11
7,3,15,1,4,0,3,6,75,11
7,3,17,1,4,0,3,6,87,11
7,3,23,0,4,0,3,6,100,11
7,3,0,0,5,1,3,6,87,11
7,3,13,1,6,1,3,6,89,11
7,3,16,1,6,1,3,6,89,11
7,3,16,1,6,1,3,6,100,11
7,3,17,1,6,1,3,6,65,11
7,3,14,1,1,0,3,6,89,11
7,3,18,1,2,0,3,6,75,11
7,3,22,0,3,0,3,6,38,11
7,3,23,0,3,0,3,6,87,11
7,3,23,0,3,0,3,6,87,11
7,3,17,1,6,1,3,6,95,11
7,3,21,0,6,1,3,6,65,11
7,3,20,1,0,0,3,6,46,11
7,3,11,1,1,0,3,6,89,11
7,3,7,1,2,0,3,6,89,11
7,3,15,1,2,0,3,6,100,11
7,3,21,0,3,0,3,6,87,11
7,3,10,1,4,0,3,6,100,11
7,3,11,1,4,0,3,6,100,11
7,3,20,1,0,0,3,6,89,11
7,3,0,0,1,0,3,6,87,11
7,3,16,1,1,0,3,6,89,11
7,3,22,0,2,0,3,6,58,11
7,3,22,0,4,0,3,6,89,11
7,3,10,1,5,1,3,6,65,9
7,3,15,1,0,0,3,6,4,11
7,3,14,1,1,0,3,6,65,11
8,3,6,0,3,0,3,6,87,11
8,3,16,1,3,0,3,6,87,11
8,3,17,1,3,0,3,6,38,11
8,3,13,1,4,0,3,6,25,9
8,3,17,1,4,0,3,6,87,11
8,3,21,0,4,0,3,6,89,11
8,3,13,1,5,1,3,6,102,11
8,3,14,1,5,1,3,6,75,11
8,3,22,0,5,1,3,6,95,11
8,3,11,1,6,1,3,6,65,11
8,3,12,1,6,1,3,6,95,11
8,3,20,1,6,1,3,6,95,11
8,3,23,0,6,1,3,6,95,11
8,3,0,0,0,0,3,6,89,11
8,3,21,0,0,0,3,6,89,11
8,3,3,0,2,0,3,6,72,11
8,3,10,1,2,0,3,6,89,11
8,3,5,0,3,0,3,6,87,11
8,3,15,1,4,0,3,6,65,11
8,3,7,1,5,1,3,6,95,11
8,3,8,1,6,1,3,6,72,11
8,3,12,1,1,0,3,6,89,11
8,3,8,1,2,0,3,6,87,11
8,3,8,1,2,0,3,6,87,11
8,3,16,1,3,0,3,6,87,11
8,3,13,1,4,0,3,6,95,11
8,3,19,1,4,0,3,6,89,11
8,3,22,0,4,0,3,6,100,11
8,3,15,1,0,0,3,6,65,11
8,3,21,0,0,0,3,6,87,11
8,3,2,0,5,1,3,6,87,11
8,3,1,0,6,1,3,6,87,11
8,3,19,1,6,1,3,6,87,11
8,3,23,0,1,0,3,6,87,11
8,3,11,1,2,0,3,6,89,11
8,3,0,0,3,0,3,6,69,11
8,3,11,1,3,0,3,6,89,11
8,3,15,1,3,0,3,6,89,11
8,3,20,1,3,0,3,6,87,11
8,3,20,1,3,0,3,6,38,11
8,3,23,0,3,0,3,6,83,11
8,3,20,1,5,1,3,6,87,11
9,4,2,0,6,1,3,6,87,11
9,4,20,1,6,1,3,6,89,11
9,4,15,1,0,0,3,6,38,9
9,4,4,0,1,0,3,6,65,11
9,4,21,0,2,0,3,6,65,11
9,4,12,1,3,0,3,6,87,11
9,4,9,1,4,0,3,6,51,11
9,4,0,0,5,1,3,6,100,11
9,4,13,1,5,1,3,6,87,11
9,4,14,1,5,1,3,6,18,11
9,4,16,1,6,1,3,6,89,11
9,4,5,0,1,0,3,6,87,11
9,4,11,1,1,0,3,6,78,11
9,4,18,1,1,0,3,6,89,11
9,4,23,0,1,0,3,6,87,11
9,4,4,0,3,0,3,6,87,11
9,4,11,1,5,1,3,6,46,11
9,4,20,1,5,1,3,6,89,11
9,4,22,0,5,1,3,6,89,11
9,4,0,0,6,1,3,6,89,11
9,4,15,1,6,1,3,6,100,11
9,4,18,1,6,1,3,6,89,11
9,4,0,0,0,0,3,6,100,11
9,4,9,1,0,0,3,6,87,11
9,4,0,0,2,0,3,6,89,11
9,4,11,1,5,1,3,6,87,11
9,4,11,1,0,0,3,6,89,11
9,4,4,0,2,0,3,6,87,9
9,4,11,1,2,0,3,6,87,11
9,4,12,1,2,0,3,6,89,11
9,4,13,1,2,0,3,6,87,11
9,4,18,1,2,0,3,6,89,11
9,4,15,1,3,0,3,6,65,11
9,4,21,0,3,0,3,6,89,11
9,4,21,0,4,0,3,6,65,11
9,4,15,1,5,1,3,6,87,11
9,4,13,1,0,0,3,6,87,11
9,4,14,1,0,0,3,6,87,11
9,4,19,1,0,0,3,6,89,11
10,4,3,0,1,0,4,6,95,11
10,4,12,1,1,0,4,6,87,11
10,4,22,0,1,0,4,6,89,11
10,4,17,1,2,0,4,6,87,11
10,4,7,1,4,0,4,6,89,11
10,4,5,0,5,1,4,6,87,11
10,4,21,0,0,0,4,6,7,11
10,4,18,1,1,0,4,6,65,11
10,4,18,1,1,0,4,6,89,11
10,4,10,1,3,0,4,6,87,11
10,4,19,1,4,0,4,6,87,11
10,4,19,1,6,1,4,6,89,11
10,4,19,1,6,1,4,6,13,11
10,4,15,1,0,0,4,6,87,11
10,4,22,0,0,0,4,6,125,9
10,4,22,0,0,0,4,6,87,11
10,4,9,1,2,0,4,6,2,11
10,4,22,0,2,0,4,6,89,11
10,4,13,1,3,0,4,6,89,11
10,4,18,1,4,0,4,6,89,11
10,4,18,1,4,0,4,6,65,11
10,4,21,0,4,0,4,6,100,11
10,4,17,1,5,1,4,6,89,11
10,4,12,1,0,0,4,6,89,11
10,4,20,1,1,0,4,6,18,11
10,4,21,0,1,0,4,6,89,11
10,4,10,1,2,0,4,6,89,11
10,4,19,1,2,0,4,6,89,11
10,4,20,1,2,0,4,6,65,11
10,4,22,0,3,0,4,6,87,11
10,4,22,0,3,0,4,6,87,11
10,4,23,0,4,0,4,6,100,11
10,4,17,1,6,1,4,6,89,11
10,4,19,1,6,1,4,6,87,11
10,4,10,1,0,0,4,6,87,11
10,4,3,0,1,0,4,6,87,11
10,4,10,1,1,0,4,6,65,11
10,4,19,1,1,0,4,6,87,11
10,4,20,1,1,0,4,6,65,11
10,4,13,1,2,0,4,6,87,11
10,4,20,1,2,0,4,6,87,11
10,4,9,1,3,0,4,6,87,11
11,4,2,0,5,1,4,6,65,11
11,4,10,1,5,1,4,6,12,11
11,4,21,0,5,1,4,6,87,11
11,4,22,0,5,1,4,6,95,11
11,4,13,1,6,1,4,6,89,11
11,4,17,1,6,1,4,6,89,11
11,4,18,1,6,1,4,6,87,11
11,4,20,1,6,1,4,6,89,11
11,4,21,0,6,1,4,6,64,11
11,4,18,1,0,0,4,6,87,11
11,4,5,0,1,0,4,6,95,11
11,4,6,0,1,0,4,6,18,11
11,4,18,1,3,0,4,6,65,11
11,4,12,1,4,0,4,6,89,11
11,4,22,0,4,0,4,6,75,11
11,4,17,1,5,1,4,6,46,11
11,4,18,1,5,1,4,6,100,11
11,4,3,0,6,1,4,6,100,11
11,4,11,1,6,1,4,6,28,11
11,4,13,1,6,1,4,6,87,11
11,4,15,1,6,1,4,6,87,11
11,4,18,1,6,1,4,6,89,11
11,4,16,1,0,0,4,6,75,11
11,4,17,1,0,0,4,6,65,11
11,4,0,0,2,0,4,6,38,11
11,4,1,0,3,0,4,6,95,11
11,4,8,1,4,0,4,6,38,11
11,4,22,0,4,0,4,6,87,11
11,4,14,1,5,1,4,6,38,11
11,4,13,1,6,1,4,6,89,11
11,4,7,1,0,0,4,6,89,11
11,4,20,1,0,0,4,6,87,11
11,4,0,0,2,0,4,6,87,11
11,4,1,0,2,0,4,6,75,11
11,4,21,0,2,0,4,6,87,11
11,4,8,1,3,0,4,6,26,11
11,4,17,1,3,0,4,6,87,11
11,4,18,1,3,0,4,6,87,11
11,4,15,1,4,0,4,6,89,9
11,4,17,1,4,0,4,6,65,11
11,4,17,1,5,1,4,6,87,11
11,4,20,1,5,1,4,6,65,11
11,4,20,1,5,1,4,6,65,11
11,4,21,0,5,1,4,6,64,11
11,4,15,1,6,1,4,6,87,11
11,4,16,1,6,1,4,6,87,11
11,4,9,1,0,0,4,6,95,11
11,4,16,1,0,0,4,6,87,11
11,4,18,1,0,0,4,6,87,11
11,4,18,1,0,0,4,6,38,11
11,4,20,1,0,0,4,6,38,11
11,4,9,1,1,0,4,6,78,11
11,4,10,1,1,0,4,6,38,11
11,4,12,1,1,0,4,6,100,11
11,4,15,1,1,0,4,6,38,11
11,4,5,0,2,0,4,6,95,11
11,4,6,0,2,0,4,6,59,11
11,4,8,1,2,0,4,6,87,11
11,4,19,1,2,0,4,6,65,11
11,4,19,1,2,0,4,6,89,11
11,4,21,0,2,0,4,6,38,11
11,4,6,0,3,0,4,6,89,11
11,4,13,1,3,0,4,6,95,11
11,4,17,1,3,0,4,6,38,11
11,4,17,1,3,0,4,6,38,11
11,4,17,1,3,0,4,6,65,11
11,4,18,1,3,0,4,6,89,11
11,4,21,0,3,0,4,6,95,11
11,4,11,1,4,0,4,6,2,11
11,4,16,1,4,0,4,6,13,11
11,4,11,1,5,1,4,6,1,11
11,4,13,1,5,1,4,6,1,11
11,4,22,0,5,1,4,6,87,11
11,4,22,0,5,1,4,6,1,11
12,1,18,1,6,1,4,6,38,11
12,1,18,1,0,0,4,6,65,11
12,1,7,1,1,0,4,6,95,11
12,1,12,1,1,0,4,6,89,11
12,1,15,1,1,0,4,6,87,11
12,1,15,1,1,0,4,6,87,11
12,1,23,0,1,0,4,6,58,11
12,1,14,1,2,0,4,6,87,11
12,1,10,1,3,0,4,6,46,11
12,1,17,1,3,0,4,6,65,11
12,1,21,0,3,0,4,6,95,11
12,1,19,1,4,0,4,6,65,11
12,1,21,0,4,0,4,6,87,11
12,1,11,1,6,1,4,6,95,11
12,1,23,0,6,1,4,6,89,11
12,1,16,1,0,0,4,6,87,11
12,1,14,1,1,0,4,6,58,11
12,1,22,0,1,0,4,6,89,11
12,1,10,1,2,0,4,6,87,11
12,1,11,1,2,0,4,6,38,9
12,1,13,1,2,0,4,6,38,11
12,1,19,1,2,0,4,6,87,11
12,1,0,0,3,0,4,6,65,11
12,1,14,1,3,0,4,6,97,11
12,1,15,1,3,0,4,6,95,11
12,1,22,0,3,0,4,6,38,11
12,1,9,1,4,0,4,6,72,9
12,1,11,1,4,0,4,6,87,11
12,1,17,1,4,0,4,6,87,11
12,1,19,1,4,0,4,6,75,11
12,1,12,1,5,1,4,6,65,11
12,1,16,1,6,1,4,6,65,11
12,1,17,1,6,1,4,6,65,11
12,1,18,1,0,0,4,6,87,11
12,1,16,1,1,0,4,6,95,11
12,1,18,1,1,0,4,6,65,11
12,1,18,1,1,0,4,6,38,11
12,1,19,1,2,0,4,6,89,11
12,1,9,1,3,0,4,6,87,11
12,1,19,1,3,0,4,6,95,11
12,1,23,0,3,0,4,6,87,11
12,1,23,0,3,0,4,6,38,11
12,1,23,0,3,0,4,6,87,11
12,1,11,1,4,0,4,6,100,11
12,1,18,1,4,0,4,6,83,9
12,1,18,1,4,0,4,6,75,11
12,1,23,0,4,0,4,6,97,11
12,1,14,1,5,1,4,6,65,11
12,1,15,1,5,1,4,6,87,11
12,1,18,1,6,1,4,6,75,11
12,1,22,0,0,0,4,6,75,11
12,1,7,1,1,0,4,6,95,11
12,1,18,1,1,0,4,6,87,11
12,1,18,1,1,0,4,6,87,9
12,1,19,1,1,0,4,6,87,11
12,1,12,1,2,0,4,6,65,11
12,1,13,1,2,0,4,6,95,11
12,1,16,1,2,0,4,6,65,11
12,1,0,0,3,0,4,6,65,11
12,1,11,1,3,0,4,6,95,11
12,1,16,1,3,0,4,6,95,11
12,1,12,1,4,0,4,6,95,11
12,1,19,1,4,0,4,6,44,11
12,1,21,0,4,0,4,6,128,11
12,1,12,1,5,1,4,6,87,11
12,1,12,1,5,1,4,6,87,11
12,1,14,1,5,1,4,6,87,11
12,1,15,1,5,1,4,6,87,11
12,1,22,0,5,1,4,6,89,11
12,1,1,0,6,1,4,6,87,11
12,1,3,0,6,1,4,6,87,11
12,1,17,1,6,1,4,6,87,11
12,1,18,1,6,1,4,6,87,11
12,1,12,1,0,0,4,6,89,11
12,1,13,1,0,0,4,6,87,11
12,1,18,1,0,0,4,6,38,11
12,1,21,0,0,0,4,6,97,11
12,1,22,0,0,0,4,6,87,11
12,1,18,1,1,0,4,6,87,11
12,1,19,1,1,0,4,6,89,11
12,1,20,1,1,0,4,6,87,11
12,1,20,1,1,0,4,6,65,11
1,1,14,1,2,0,1,6,4,11
1,1,14,1,0,0,1,6,22,11
1,1,21,0,4,0,1,6,89,11
1,1,16,1,6,1,1,6,100,11
1,1,8,1,1,0,1,6,75,11
1,1,13,1,5,1,1,6,97,11
1,1,13,1,0,0,1,6,87,11
1,1,12,1,2,0,1,6,110,11
1,1,13,1,2,0,1,6,100,11
2,1,1,0,6,1,1,6,12,9
2,1,20,1,4,0,1,6,100,11
2,1,20,1,4,0,1,6,100,11
3,2,9,1,4,0,1,6,87,11
3,2,12,1,1,0,1,6,89,11
3,2,10,1,6,1,1,6,128,9
4,2,0,0,3,0,2,6,75,11
4,2,23,0,4,0,2,6,89,11
4,2,14,1,3,0,2,6,9,11
4,2,12,1,4,0,2,6,100,11
4,2,0,0,6,1,2,6,12,9
4,2,18,1,4,0,2,6,110,11
4,2,15,1,5,1,2,6,13,11
4,2,10,1,0,0,2,6,89,11
5,2,15,1,1,0,2,6,89,11
5,2,11,1,5,1,2,6,89,11
5,2,13,1,6,1,2,6,38,11
5,2,14,1,6,1,2,6,89,11
5,2,17,1,1,0,2,6,89,11
5,2,18,1,4,0,2,6,89,11
5,2,16,1,3,0,2,6,89,11
5,2,23,0,3,0,2,6,128,11
6,3,16,1,6,1,2,6,89,11
6,3,20,1,4,0,2,6,87,11
6,3,7,1,5,1,2,6,100,11
6,3,15,1,0,0,2,6,89,11
6,3,14,1,1,0,2,6,7,11
6,3,21,0,2,0,2,6,87,11
6,3,21,0,6,1,2,6,100,11
6,3,23,0,4,0,2,6,100,11
6,3,12,1,6,1,2,6,89,11
7,3,17,1,2,0,3,6,89,11
7,3,6,0,4,0,3,6,100,11
7,3,17,1,4,0,3,6,18,11
7,3,20,1,5,1,3,6,89,11
7,3,13,1,1,0,3,6,89,11
7,3,3,0,2,0,3,6,89,11
7,3,15,1,3,0,3,6,89,11
7,3,23,0,3,0,3,6,87,11
7,3,6,0,5,1,3,6,89,11
7,3,20,1,2,0,3,6,110,11
7,3,11,1,4,0,3,6,100,11
7,3,21,0,1,0,3,6,89,11
8,3,11,1,3,0,3,6,89,11
8,3,23,0,0,0,3,6,89,11
8,3,16,1,1,0,3,6,100,11
8,3,21,0,1,0,3,6,89,11
8,3,19,1,4,0,3,6,100,11
8,3,10,1,4,0,3,6,89,11
8,3,12,1,4,0,3,6,128,11
8,3,15,1,5,1,3,6,100,11
9,4,2,0,4,0,3,6,128,11
9,4,19,1,0,0,3,6,100,11
9,4,17,1,6,1,3,6,110,11
9,4,12,1,2,0,3,6,75,11
9,4,23,0,2,0,3,6,112,11
9,4,3,0,4,0,3,6,128,11
9,4,3,0,4,0,3,6,128,11
10,4,10,1,0,0,4,6,89,11
10,4,12,1,6,1,4,6,100,11
10,4,14,1,6,1,4,6,89,11
10,4,16,1,0,0,4,6,100,11
10,4,5,0,1,0,4,6,13,11
11,4,11,1,4,0,4,6,89,11
11,4,6,0,1,0,4,6,110,11
11,4,15,1,2,0,4,6,89,11
11,4,9,1,3,0,4,6,89,11
11,4,9,1,6,1,4,6,18,11
11,4,11,1,0,0,4,6,110,11
11,4,20,1,1,0,4,6,110,11
11,4,10,1,5,1,4,6,75,9
12,1,21,0,2,0,4,6,128,11
12,1,17,1,5,1,4,6,87,11
12,1,13,1,0,0,4,6,12,11
1,1,13,1,1,0,1,6,87,11
1,1,18,1,1,0,1,6,87,11
1,1,11,1,3,0,1,6,89,11
1,1,17,1,3,0,1,6,87,11
1,1,12,1,5,1,1,6,75,11
1,1,17,1,5,1,1,6,100,11
1,1,13,1,0,0,1,6,89,11
1,1,18,1,5,1,1,6,87,11
1,1,14,1,0,0,1,6,89,11
1,1,23,0,1,0,1,6,87,11
1,1,22,0,2,0,1,6,75,11
1,1,18,1,4,0,1,6,89,11
1,1,16,1,5,1,1,6,75,11
1,1,18,1,0,0,1,6,57,11
1,1,19,1,2,0,1,6,128,11
1,1,11,1,4,0,1,6,87,11
1,1,21,0,0,0,1,6,89,11
1,1,11,1,1,0,1,6,125,11
2,1,16,1,3,0,1,6,75,11
2,1,17,1,4,0,1,6,128,11
2,1,16,1,5,1,1,6,100,11
2,1,19,1,5,1,1,6,57,11
2,1,22,0,5,1,1,6,38,11
2,1,14,1,1,0,1,6,87,11
2,1,21,0,2,0,1,6,89,11
2,1,22,0,3,0,1,6,100,11
2,1,17,1,4,0,1,6,128,11
2,1,18,1,5,1,1,6,75,11
2,1,13,1,6,1,1,6,65,11
2,1,19,1,0,0,1,6,87,11
2,1,11,1,1,0,1,6,100,11
2,1,13,1,1,0,1,6,89,11
2,1,11,1,5,1,1,6,89,11
2,1,16,1,6,1,1,6,89,11
2,1,21,0,6,1,1,6,89,11
2,1,11,1,0,0,1,6,89,11
2,1,8,1,1,0,1,6,18,11
2,1,14,1,3,0,1,6,89,11
2,1,15,1,3,0,1,6,95,11
2,1,15,1,3,0,1,6,89,11
2,1,15,1,4,0,1,6,89,11
2,1,14,1,5,1,1,6,89,11
2,1,4,0,0,0,1,6,18,11
2,1,18,1,0,0,1,6,87,11
3,2,18,1,2,0,1,6,89,11
3,2,11,1,5,1,1,6,46,11
3,2,12,1,0,0,1,6,89,11
3,2,15,1,0,0,1,6,100,11
3,2,18,1,0,0,1,6,100,11
3,2,19,1,0,0,1,6,89,11
3,2,18,1,3,0,1,6,89,11
3,2,19,1,0,0,1,6,89,11
3,2,22,0,1,0,1,6,89,11
3,2,9,1,1,0,1,6,89,11
3,2,9,1,4,0,1,6,18,11
4,2,18,1,0,0,2,6,1,11
4,2,23,0,0,0,2,6,128,11
4,2,3,0,3,0,2,6,12,11
4,2,12,1,4,0,2,6,100,11
4,2,22,0,4,0,2,6,89,11
4,2,12,1,2,0,2,6,89,11
4,2,0,0,3,0,2,6,75,11
4,2,22,0,5,1,2,6,1,11
4,2,17,1,6,1,2,6,87,11
4,2,19,1,6,1,2,6,89,11
4,2,20,1,6,1,2,6,89,11
4,2,17,1,0,0,2,6,128,11
4,2,19,1,0,0,2,6,22,9
4,2,21,0,4,0,2,6,100,11
4,2,20,1,0,0,2,6,89,11
4,2,17,1,1,0,2,6,100,11
4,2,9,1,2,0,2,6,128,11
4,2,18,1,2,0,2,6,1,11
4,2,15,1,4,0,2,6,100,11
4,2,20,1,4,0,2,6,89,11
4,2,12,1,6,1,2,6,89,11
4,2,12,1,1,0,2,6,89,11
5,2,15,1,2,0,2,6,100,11
5,2,19,1,2,0,2,6,89,11
5,2,14,1,3,0,2,6,100,11
5,2,0,0,6,1,2,6,95,11
5,2,15,1,6,1,2,6,100,11
5,2,20,1,0,0,2,6,128,11
5,2,13,1,1,0,2,6,89,11
5,2,1,0,4,0,2,6,89,11
5,2,21,0,4,0,2,6,89,11
5,2,22,0,5,1,2,6,100,11
5,2,20,1,1,0,2,6,128,11
5,2,18,1,6,1,2,6,89,11
5,2,22,0,1,0,2,6,41,11
5,2,16,1,3,0,2,6,100,11
5,2,18,1,4,0,2,6,18,11
5,2,13,1,3,0,2,6,128,11
6,3,14,1,0,0,2,6,100,11
6,3,23,0,1,0,2,6,128,11
6,3,15,1,2,0,2,6,110,11
6,3,22,0,3,0,2,6,18,11
6,3,17,1,6,1,2,6,128,11
6,3,10,1,2,0,2,6,4,11
6,3,20,1,2,0,2,6,89,11
6,3,20,1,5,1,2,6,128,11
7,3,21,0,3,0,3,6,89,11
7,3,21,0,4,0,3,6,128,11
7,3,17,1,5,1,3,6,87,11
7,3,12,1,2,0,3,6,100,11
7,3,23,0,2,0,3,6,100,11
7,3,0,0,5,1,3,6,100,11
7,3,16,1,6,1,3,6,128,11
7,3,21,0,0,0,3,6,100,11
7,3,23,0,4,0,3,6,100,11
7,3,5,0,0,0,3,6,128,11
7,3,21,0,1,0,3,6,128,11
8,3,21,0,5,1,3,6,89,11
8,3,17,1,4,0,3,6,89,11
8,3,0,0,0,0,3,6,75,11
8,3,14,1,5,1,3,6,38,11
8,3,20,1,3,0,3,6,89,11
8,3,22,0,5,1,3,6,75,11
8,3,22,0,1,0,3,6,100,11
9,4,7,1,1,0,3,6,110,11
9,4,15,1,6,1,3,6,87,11
9,4,21,0,6,1,3,6,100,11
9,4,23,0,6,1,3,6,89,11
10,4,8,1,5,1,4,6,110,11
10,4,21,0,5,1,4,6,75,11
10,4,1,0,0,0,4,6,128,11
10,4,11,1,3,0,4,6,100,11
10,4,19,1,2,0,4,6,100,11
10,4,20,1,6,1,4,6,100,11
10,4,21,0,6,1,4,6,89,11
10,4,19,1,1,0,4,6,100,11
10,4,20,1,6,1,4,6,8,11
10,4,19,1,0,0,4,6,95,11
10,4,15,1,1,0,4,6,7,11
11,4,7,1,0,0,4,6,100,11
11,4,8,1,5,1,4,6,87,11
11,4,12,1,6,1,4,6,75,11
11,4,20,1,0,0,4,6,87,11
11,4,14,1,3,0,4,6,89,11
11,4,22,0,3,0,4,6,89,11
11,4,21,0,6,1,4,6,89,11
11,4,0,0,0,0,4,6,100,9
11,4,15,1,0,0,4,6,128,11
11,4,21,0,0,0,4,6,89,11
11,4,18,1,1,0,4,6,100,11
11,4,10,1,3,0,4,6,89,11
11,4,15,1,3,0,4,6,89,11
11,4,14,1,4,0,4,6,89,11
11,4,16,1,4,0,4,6,100,11
11,4,20,1,4,0,4,6,89,11
11,4,21,0,6,1,4,6,89,11
11,4,10,1,0,0,4,6,89,11
11,4,15,1,0,0,4,6,100,11
11,4,13,1,1,0,4,6,38,11
12,1,19,1,6,1,4,6,1,11
12,1,14,1,0,0,4,6,18,11
12,1,12,1,1,0,4,6,89,11
12,1,16,1,1,0,4,6,89,11
12,1,20,1,2,0,4,6,89,11
12,1,11,1,3,0,4,6,89,11
12,1,18,1,4,0,4,6,58,11
12,1,18,1,0,0,4,6,87,11
12,1,11,1,1,0,4,6,128,11
12,1,22,0,5,1,4,6,12,11
12,1,12,1,6,1,4,6,38,11
12,1,17,1,2,0,4,6,128,11
12,1,6,0,4,0,4,6,100,11
12,1,19,1,5,1,4,6,128,11
12,1,17,1,6,1,4,6,75,11
12,1,10,1,0,0,4,6,87,11
12,1,19,1,0,0,4,6,128,11
12,1,16,1,1,0,4,6,38,11
1,1,15,1,3,0,1,6,89,11
2,1,16,1,3,0,1,6,87,11
2,1,3,0,4,0,1,6,100,11
2,1,11,1,5,1,1,6,87,11
2,1,11,1,1,0,1,6,87,11
2,1,9,1,2,0,1,6,89,11
2,1,17,1,3,0,1,6,72,11
2,1,6,0,5,1,1,6,72,11
2,1,12,1,6,1,1,6,72,11
3,2,15,1,4,0,1,6,100,11
3,2,15,1,5,1,1,6,18,11
4,2,14,1,4,0,2,6,89,11
4,2,20,1,4,0,2,6,89,11
5,2,5,0,0,0,2,6,87,11
5,2,9,1,1,0,2,6,18,11
6,3,11,1,6,1,2,6,58,11
6,3,11,1,1,0,2,6,19,11
7,3,9,1,0,0,3,6,115,11
7,3,4,0,6,1,3,6,128,11
7,3,7,1,6,1,3,6,18,11
8,3,16,1,6,1,3,6,110,11
8,3,17,1,0,0,3,6,19,8
8,3,14,1,5,1,3,6,76,11
8,3,3,0,2,0,3,6,72,11
9,4,13,1,6,1,3,6,65,11
10,4,13,1,4,0,4,6,38,11
10,4,21,0,6,1,4,6,100,11
11,4,1,0,0,0,4,6,19,11
11,4,20,1,0,0,4,6,110,11
11,4,22,0,1,0,4,6,110,11
11,4,13,1,5,1,4,6,75,11
11,4,0,0,6,1,4,6,128,11
11,4,15,1,6,1,4,6,65,11
11,4,11,1,6,1,4,6,87,11
12,1,12,1,1,0,4,6,89,11
12,1,23,0,6,1,4,6,18,11
12,1,18,1,3,0,4,6,100,11
12,1,13,1,0,0,4,6,18,11
1,1,15,1,3,0,1,6,87,11
1,1,23,0,2,0,1,6,75,11
2,1,18,1,6,1,1,6,87,11
2,1,21,0,4,0,1,6,89,11
2,1,14,1,5,1,1,6,100,11
2,1,12,1,6,1,1,6,87,11
3,2,15,1,6,1,1,6,38,11
3,2,21,0,1,0,1,6,4,11
3,2,14,1,4,0,1,6,87,11
3,2,23,0,0,0,1,6,87,11
4,2,11,1,4,0,2,6,89,11
4,2,17,1,0,0,2,6,89,11
5,2,22,0,4,0,2,6,100,11
5,2,21,0,5,1,2,6,75,11
5,2,11,1,6,1,2,6,75,11
8,3,16,1,4,0,3,6,87,11
8,3,14,1,4,0,3,6,75,8
9,4,19,1,0,0,3,6,75,9
10,4,17,1,3,0,4,6,75,11
11,4,19,1,0,0,4,6,87,11
11,4,18,1,0,0,4,6,100,11
12,1,16,1,4,0,4,6,87,11
12,1,13,1,4,0,4,6,87,11
1,1,10,1,1,0,1,1,26,11
1,1,11,1,1,0,1,1,128,11
1,1,0,0,6,1,1,1,18,11
1,1,7,1,6,1,1,1,110,11
1,1,7,1,5,1,1,1,75,11
1,1,10,1,0,0,1,1,128,11
1,1,18,1,6,1,1,1,128,11
1,1,16,1,1,0,1,1,100,11
1,1,21,0,1,0,1,1,128,11
1,1,3,0,2,0,1,1,18,11
1,1,16,1,5,1,1,1,89,11
1,1,12,1,0,0,1,1,100,11
1,1,18,1,1,0,1,1,89,11
1,1,11,1,2,0,1,1,89,11
2,1,16,1,3,0,1,1,4,11
2,1,14,1,4,0,1,1,89,11
2,1,5,0,5,1,1,1,75,9
2,1,18,1,5,1,1,1,100,11
2,1,11,1,0,0,1,1,26,11
2,1,14,1,5,1,1,1,100,11
2,1,22,0,2,0,1,1,25,11
2,1,16,1,5,1,1,1,100,11
2,1,18,1,6,1,1,1,100,11
2,1,18,1,2,0,1,1,65,11
2,1,11,1,4,0,1,1,12,11
2,1,21,0,4,0,1,1,89,11
2,1,15,1,2,0,1,1,100,11
2,1,18,1,2,0,1,1,100,11
3,2,12,1,4,0,1,1,128,11
3,2,23,0,6,1,1,1,89,11
3,2,20,1,1,0,1,1,75,11
3,2,22,0,3,0,1,1,18,11
3,2,20,1,5,1,1,1,75,11
3,2,5,0,0,0,1,1,128,11
3,2,2,0,1,0,1,1,100,11
3,2,18,1,3,0,1,1,89,9
3,2,3,0,5,1,1,1,89,11
3,2,10,1,6,1,1,1,57,11
3,2,11,1,1,0,1,1,128,11
3,2,16,1,5,1,1,1,110,11
3,2,15,1,6,1,1,1,100,11
3,2,21,0,6,1,1,1,57,11
4,2,12,1,2,0,2,1,100,11
4,2,0,0,4,0,2,1,128,11
4,2,19,1,4,0,2,1,128,11
4,2,9,1,1,0,2,1,18,11
4,2,4,0,2,0,2,1,128,11
4,2,22,0,3,0,2,1,100,11
4,2,8,1,5,1,2,1,100,11
4,2,3,0,1,0,2,1,18,11
4,2,13,1,4,0,2,1,110,11
4,2,20,1,0,0,2,1,18,11
4,2,21,0,0,0,2,1,100,11
4,2,18,1,3,0,2,1,110,11
5,2,11,1,0,0,2,1,100,11
5,2,1,0,2,0,2,1,89,11
5,2,9,1,2,0,2,1,89,11
5,2,16,1,2,0,2,1,100,11
5,2,23,0,2,0,2,1,100,9
5,2,23,0,2,0,2,1,89,11
5,2,10,1,6,1,2,1,18,11
5,2,13,1,6,1,2,1,12,9
5,2,16,1,6,1,2,1,100,11
5,2,8,1,3,0,2,1,89,11
5,2,23,0,5,1,2,1,100,11
5,2,21,0,0,0,2,1,128,11
5,2,22,0,0,0,2,1,100,11
5,2,13,1,2,0,2,1,100,11
5,2,10,1,4,0,2,1,38,11
5,2,19,1,5,1,2,1,100,11
5,2,13,1,6,1,2,1,89,11
5,2,13,1,6,1,2,1,89,11
6,3,13,1,6,1,2,1,89,11
6,3,13,1,0,0,2,1,100,11
6,3,19,1,2,0,2,1,18,11
6,3,19,1,2,0,2,1,100,11
6,3,1,0,3,0,2,1,89,11
6,3,19,1,3,0,2,1,100,11
6,3,14,1,5,1,2,1,89,11
6,3,21,0,5,1,2,1,100,11
6,3,20,1,6,1,2,1,89,11
6,3,11,1,1,0,2,1,100,11
6,3,14,1,1,0,2,1,89,11
6,3,21,0,2,0,2,1,89,11
6,3,22,0,4,0,2,1,100,11
6,3,23,0,4,0,2,1,100,11
6,3,19,1,0,0,2,1,89,11
6,3,23,0,0,0,2,1,100,11
6,3,19,1,4,0,2,1,100,11
6,3,21,0,4,0,2,1,100,11
6,3,11,1,0,0,2,1,89,11
6,3,8,1,1,0,2,1,110,11
6,3,21,0,2,0,2,1,89,11
6,3,14,1,3,0,2,1,100,11
6,3,8,1,5,1,2,1,89,11
7,3,11,1,1,0,3,1,110,11
7,3,23,0,3,0,3,1,89,11
7,3,8,1,4,0,3,1,110,11
7,3,19,1,4,0,3,1,58,11
7,3,1,0,5,1,3,1,18,11
7,3,21,0,5,1,3,1,89,11
7,3,21,0,0,0,3,1,100,11
7,3,0,0,4,0,3,1,100,11
7,3,20,1,4,0,3,1,89,11
7,3,0,0,5,1,3,1,100,11
7,3,16,1,6,1,3,1,89,11
7,3,15,1,2,0,3,1,89,11
7,3,12,1,4,0,3,1,110,11
7,3,2,0,5,1,3,1,89,11
7,3,3,0,5,1,3,1,89,11
7,3,1,0,6,1,3,1,128,11
7,3,1,0,0,0,3,1,100,11
7,3,16,1,1,0,3,1,110,11
7,3,21,0,1,0,3,1,110,11
7,3,2,0,2,0,3,1,89,11
7,3,13,1,2,0,3,1,89,11
7,3,15,1,2,0,3,1,125,11
7,3,21,0,1,0,3,1,128,11
7,3,11,1,2,0,3,1,110,11
7,3,18,1,2,0,3,1,110,11
8,3,19,1,4,0,3,1,128,11
8,3,21,0,4,0,3,1,89,9
8,3,19,1,5,1,3,1,57,11
8,3,8,1,0,0,3,1,65,11
8,3,20,1,1,0,3,1,128,11
8,3,17,1,4,0,3,1,38,11
8,3,0,0,5,1,3,1,100,11
8,3,5,0,0,0,3,1,57,11
8,3,22,0,0,0,3,1,100,11
8,3,15,1,1,0,3,1,100,11
8,3,21,0,3,0,3,1,89,11
8,3,1,0,5,1,3,1,128,11
8,3,21,0,6,1,3,1,89,11
8,3,11,1,2,0,3,1,128,11
8,3,16,1,2,0,3,1,89,11
8,3,21,0,2,0,3,1,100,11
8,3,12,1,3,0,3,1,100,11
8,3,1,0,5,1,3,1,100,11
8,3,21,0,6,1,3,1,89,11
8,3,9,1,0,0,3,1,100,11
8,3,8,1,1,0,3,1,110,11
8,3,13,1,3,0,3,1,110,11
9,4,22,0,6,1,3,1,128,11
9,4,4,0,0,0,3,1,18,11
9,4,16,1,1,0,3,1,89,11
9,4,20,1,5,1,3,1,89,11
9,4,19,1,4,0,3,1,100,11
9,4,22,0,1,0,3,1,89,11
9,4,11,1,2,0,3,1,110,11
9,4,21,0,6,1,3,1,89,11
9,4,12,1,0,0,3,1,100,11
9,4,20,1,1,0,3,1,128,11
9,4,0,0,2,0,3,1,128,11
9,4,12,1,2,0,3,1,89,11
9,4,21,0,2,0,3,1,100,11
9,4,23,0,2,0,3,1,89,11
9,4,13,1,5,1,3,1,89,11
9,4,22,0,5,1,3,1,100,11
9,4,13,1,6,1,3,1,128,11
9,4,23,0,6,1,3,1,18,11
9,4,18,1,0,0,3,1,128,11
10,4,15,1,4,0,4,1,100,11
10,4,20,1,4,0,4,1,89,11
10,4,23,0,5,1,4,1,38,11
10,4,19,1,0,0,4,1,72,11
10,4,18,1,3,0,4,1,100,11
10,4,5,0,4,0,4,1,18,11
10,4,9,1,5,1,4,1,89,11
10,4,15,1,6,1,4,1,128,11
10,4,18,1,2,0,4,1,89,11
10,4,2,0,3,0,4,1,89,11
10,4,19,1,1,0,4,1,89,11
10,4,11,1,2,0,4,1,26,9
10,4,13,1,3,0,4,1,100,11
10,4,17,1,4,0,4,1,100,11
10,4,18,1,4,0,4,1,89,11
10,4,14,1,6,1,4,1,100,11
10,4,22,0,6,1,4,1,128,11
10,4,17,1,0,0,4,1,100,11
10,4,1,0,1,0,4,1,100,11
10,4,20,1,1,0,4,1,128,11
10,4,19,1,2,0,4,1,128,11
11,4,9,1,4,0,4,1,64,11
11,4,12,1,4,0,4,1,100,11
11,4,15,1,5,1,4,1,100,11
11,4,3,0,0,0,4,1,100,11
11,4,10,1,2,0,4,1,89,11
11,4,14,1,5,1,4,1,100,11
11,4,19,1,5,1,4,1,65,11
11,4,9,1,6,1,4,1,100,11
11,4,11,1,6,1,4,1,89,11
11,4,11,1,6,1,4,1,100,11
11,4,17,1,6,1,4,1,100,11
11,4,19,1,6,1,4,1,38,11
11,4,19,1,6,1,4,1,100,11
11,4,13,1,0,0,4,1,100,11
11,4,11,1,5,1,4,1,18,11
11,4,15,1,1,0,4,1,26,11
11,4,16,1,1,0,4,1,128,11
11,4,19,1,1,0,4,1,128,11
11,4,15,1,6,1,4,1,100,11
11,4,21,0,0,0,4,1,89,11
11,4,12,1,1,0,4,1,128,11
11,4,15,1,2,0,4,1,100,11
11,4,19,1,3,0,4,1,12,11
12,1,21,0,6,1,4,1,38,11
12,1,14,1,0,0,4,1,128,11
12,1,19,1,0,0,4,1,38,11
12,1,13,1,4,0,4,1,22,11
12,1,8,1,5,1,4,1,38,11
12,1,18,1,5,1,4,1,38,11
12,1,10,1,1,0,4,1,110,11
12,1,17,1,3,0,4,1,100,11
12,1,0,0,5,1,4,1,100,11
12,1,0,0,5,1,4,1,128,11
12,1,14,1,5,1,4,1,128,11
1,1,1,0,0,0,1,1,87,11
1,1,21,0,0,0,1,1,100,11
1,1,23,0,0,0,1,1,38,11
1,1,19,1,1,0,1,1,18,11
1,1,17,1,2,0,1,1,75,11
1,1,13,1,5,1,1,1,87,11
1,1,11,1,6,1,1,1,110,11
1,1,17,1,6,1,1,1,87,11
1,1,18,1,0,0,1,1,100,11
1,1,22,0,1,0,1,1,87,11
1,1,21,0,2,0,1,1,100,11
1,1,21,0,5,1,1,1,100,11
1,1,22,0,5,1,1,1,87,11
1,1,21,0,1,0,1,1,38,11
1,1,18,1,3,0,1,1,100,11
1,1,18,1,6,1,1,1,89,11
1,1,11,1,0,0,1,1,100,11
1,1,17,1,1,0,1,1,87,11
1,1,20,1,1,0,1,1,87,11
1,1,23,0,1,0,1,1,100,11
1,1,11,1,2,0,1,1,87,11
1,1,21,0,2,0,1,1,75,11
1,1,12,1,3,0,1,1,100,11
1,1,14,1,3,0,1,1,100,11
1,1,15,1,3,0,1,1,100,11
1,1,18,1,3,0,1,1,100,11
1,1,16,1,4,0,1,1,100,11
1,1,23,0,5,1,1,1,100,11
1,1,1,0,6,1,1,1,100,11
1,1,10,1,6,1,1,1,87,11
1,1,10,1,6,1,1,1,100,11
1,1,14,1,6,1,1,1,87,11
1,1,15,1,6,1,1,1,100,11
1,1,16,1,6,1,1,1,100,11
1,1,19,1,6,1,1,1,100,11
1,1,13,1,0,0,1,1,87,11
1,1,22,0,0,0,1,1,87,11
1,1,14,1,1,0,1,1,100,11
1,1,8,1,2,0,1,1,97,11
1,1,15,1,2,0,1,1,87,11
1,1,18,1,2,0,1,1,100,11
2,1,12,1,3,0,1,1,100,11
2,1,22,0,3,0,1,1,100,11
2,1,15,1,4,0,1,1,87,11
2,1,19,1,4,0,1,1,100,11
2,1,7,1,5,1,1,1,65,8
2,1,22,0,5,1,1,1,87,11
2,1,3,0,6,1,1,1,87,11
2,1,4,0,6,1,1,1,87,11
2,1,14,1,6,1,1,1,87,11
2,1,18,1,6,1,1,1,87,11
2,1,20,1,6,1,1,1,100,11
2,1,21,0,6,1,1,1,87,11
2,1,9,1,0,0,1,1,87,11
2,1,14,1,0,0,1,1,87,11
2,1,13,1,1,0,1,1,42,11
2,1,16,1,1,0,1,1,87,11
2,1,11,1,2,0,1,1,100,11
2,1,12,1,2,0,1,1,100,11
2,1,10,1,3,0,1,1,87,11
2,1,12,1,3,0,1,1,89,11
2,1,19,1,3,0,1,1,100,11
2,1,12,1,4,0,1,1,100,11
2,1,15,1,4,0,1,1,100,11
2,1,19,1,4,0,1,1,75,11
2,1,1,0,6,1,1,1,100,11
2,1,12,1,6,1,1,1,100,11
2,1,16,1,6,1,1,1,100,9
2,1,16,1,6,1,1,1,100,11
2,1,0,0,2,0,1,1,87,11
2,1,21,0,2,0,1,1,100,11
2,1,1,0,3,0,1,1,30,11
2,1,21,0,3,0,1,1,100,11
2,1,6,0,4,0,1,1,100,11
2,1,10,1,5,1,1,1,100,11
2,1,11,1,5,1,1,1,100,11
2,1,12,1,5,1,1,1,100,11
2,1,16,1,5,1,1,1,100,11
2,1,19,1,5,1,1,1,100,11
2,1,22,0,5,1,1,1,75,11
2,1,12,1,6,1,1,1,87,11
2,1,3,0,0,0,1,1,87,11
2,1,3,0,0,0,1,1,87,11
2,1,5,0,1,0,1,1,18,11
2,1,18,1,3,0,1,1,75,11
2,1,17,1,5,1,1,1,87,11
2,1,5,0,6,1,1,1,87,11
2,1,12,1,6,1,1,1,65,11
2,1,8,1,0,0,1,1,65,11
2,1,21,0,0,0,1,1,100,11
2,1,23,0,0,0,1,1,87,11
3,2,22,0,2,0,1,1,87,11
3,2,14,1,5,1,1,1,87,11
3,2,22,0,5,1,1,1,64,11
3,2,19,1,6,1,1,1,87,11
3,2,4,0,0,0,1,1,87,11
3,2,18,1,1,0,1,1,87,11
3,2,3,0,4,0,1,1,87,11
3,2,6,0,4,0,1,1,87,11
3,2,21,0,6,1,1,1,100,11
3,2,9,1,0,0,1,1,100,11
3,2,15,1,4,0,1,1,87,11
3,2,21,0,0,0,1,1,87,11
3,2,1,0,1,0,1,1,87,11
3,2,2,0,1,0,1,1,87,11
3,2,2,0,1,0,1,1,87,11
3,2,16,1,1,0,1,1,100,11
3,2,19,1,1,0,1,1,110,11
3,2,21,0,1,0,1,1,87,11
3,2,12,1,2,0,1,1,18,11
3,2,13,1,2,0,1,1,18,11
3,2,19,1,2,0,1,1,100,11
3,2,16,1,3,0,1,1,100,11
3,2,18,1,4,0,1,1,100,11
3,2,21,0,4,0,1,1,100,11
3,2,18,1,5,1,1,1,100,11
3,2,18,1,5,1,1,1,100,11
3,2,14,1,6,1,1,1,100,11
4,2,19,1,0,0,2,1,100,11
4,2,1,0,1,0,2,1,100,11
4,2,12,1,2,0,2,1,89,11
4,2,0,0,3,0,2,1,87,11
4,2,10,1,3,0,2,1,100,11
4,2,21,0,3,0,2,1,44,11
4,2,12,1,5,1,2,1,100,11
4,2,16,1,5,1,2,1,100,11
4,2,22,0,5,1,2,1,100,11
4,2,20,1,6,1,2,1,100,11
4,2,20,1,6,1,2,1,100,11
4,2,15,1,0,0,2,1,87,11
4,2,16,1,0,0,2,1,100,11
4,2,17,1,2,0,2,1,100,11
4,2,18,1,3,0,2,1,100,11
4,2,20,1,3,0,2,1,18,11
4,2,0,0,4,0,2,1,100,11
4,2,22,0,4,0,2,1,100,11
4,2,12,1,6,1,2,1,89,11
4,2,13,1,6,1,2,1,100,11
4,2,21,0,6,1,2,1,100,11
4,2,13,1,0,0,2,1,100,11
4,2,13,1,1,0,2,1,100,11
4,2,14,1,1,0,2,1,100,11
4,2,14,1,1,0,2,1,100,11
4,2,22,0,1,0,2,1,100,11
4,2,11,1,2,0,2,1,65,11
4,2,13,1,5,1,2,1,100,11
4,2,21,0,1,0,2,1,100,11
4,2,11,1,4,0,2,1,100,11
4,2,21,0,0,0,2,1,100,11
4,2,19,1,1,0,2,1,5,11
5,2,20,1,3,0,2,1,88,11
5,2,18,1,6,1,2,1,89,11
5,2,22,0,6,1,2,1,100,11
5,2,0,0,0,0,2,1,87,11
5,2,0,0,0,0,2,1,87,11
5,2,1,0,0,0,2,1,87,11
5,2,11,1,0,0,2,1,89,11
5,2,20,1,1,0,2,1,89,11
5,2,21,0,1,0,2,1,100,11
5,2,23,0,1,0,2,1,65,11
5,2,11,1,2,0,2,1,100,11
5,2,15,1,2,0,2,1,100,11
5,2,16,1,2,0,2,1,100,11
5,2,22,0,2,0,2,1,100,11
5,2,15,1,3,0,2,1,100,11
5,2,1,0,6,1,2,1,87,11
5,2,1,0,6,1,2,1,100,11
5,2,1,0,6,1,2,1,87,11
5,2,16,1,0,0,2,1,100,11
5,2,17,1,0,0,2,1,100,11
5,2,17,1,1,0,2,1,100,11
5,2,23,0,1,0,2,1,100,11
5,2,23,0,1,0,2,1,87,11
5,2,0,0,2,0,2,1,87,11
5,2,16,1,2,0,2,1,100,11
5,2,19,1,2,0,2,1,100,11
5,2,8,1,3,0,2,1,100,11
5,2,21,0,5,1,2,1,100,11
5,2,9,1,2,0,2,1,100,11
5,2,15,1,2,0,2,1,100,11
5,2,17,1,2,0,2,1,89,11
5,2,21,0,3,0,2,1,100,11
6,3,21,0,5,1,2,1,87,11
6,3,15,1,6,1,2,1,75,11
6,3,21,0,6,1,2,1,100,11
6,3,18,1,0,0,2,1,100,11
6,3,17,1,1,0,2,1,100,11
6,3,21,0,1,0,2,1,97,11
6,3,22,0,1,0,2,1,100,11
6,3,11,1,2,0,2,1,100,11
6,3,21,0,3,0,2,1,100,11
6,3,13,1,4,0,2,1,100,11
6,3,11,1,5,1,2,1,87,11
6,3,11,1,6,1,2,1,100,11
6,3,14,1,6,1,2,1,100,11
6,3,12,1,1,0,2,1,100,11
6,3,22,0,1,0,2,1,100,11
6,3,11,1,2,0,2,1,81,11
6,3,20,1,2,0,2,1,100,11
6,3,22,0,2,0,2,1,100,11
6,3,23,0,2,0,2,1,100,11
6,3,14,1,3,0,2,1,100,11
6,3,19,1,4,0,2,1,89,11
6,3,1,0,5,1,2,1,100,11
6,3,15,1,5,1,2,1,100,11
6,3,22,0,5,1,2,1,100,11
6,3,19,1,6,1,2,1,109,11
6,3,8,1,0,0,2,1,100,11
6,3,3,0,1,0,2,1,87,11
6,3,4,0,1,0,2,1,87,11
6,3,11,1,1,0,2,1,100,11
6,3,22,0,2,0,2,1,87,11
6,3,13,1,4,0,2,1,100,11
6,3,14,1,4,0,2,1,87,11
6,3,22,0,4,0,2,1,100,11
6,3,13,1,5,1,2,1,100,11
6,3,15,1,5,1,2,1,38,11
6,3,22,0,5,1,2,1,97,11
6,3,19,1,6,1,2,1,100,11
6,3,23,0,6,1,2,1,100,11
6,3,1,0,0,0,2,1,87,11
6,3,20,1,0,0,2,1,100,11
6,3,7,1,1,0,2,1,45,9
6,3,13,1,1,0,2,1,100,11
6,3,21,0,1,0,2,1,100,11
6,3,23,0,1,0,2,1,45,11
6,3,21,0,2,0,2,1,65,11
6,3,23,0,3,0,2,1,100,11
6,3,0,0,4,0,2,1,100,11
6,3,0,0,4,0,2,1,100,11
6,3,15,1,4,0,2,1,89,11
6,3,18,1,5,1,2,1,100,11
6,3,23,0,5,1,2,1,100,11
6,3,23,0,5,1,2,1,100,11
6,3,15,1,6,1,2,1,124,11
6,3,20,1,6,1,2,1,100,11
7,3,23,0,1,0,3,1,100,11
7,3,7,1,2,0,3,1,87,11
7,3,12,1,2,0,3,1,100,11
7,3,22,0,2,0,3,1,100,11
7,3,16,1,3,0,3,1,87,11
7,3,21,0,3,0,3,1,87,11
7,3,22,0,3,0,3,1,100,11
7,3,23,0,3,0,3,1,100,11
7,3,12,1,4,0,3,1,13,11
7,3,12,1,4,0,3,1,100,11
7,3,13,1,4,0,3,1,13,11
7,3,22,0,4,0,3,1,100,11
7,3,14,1,5,1,3,1,100,11
7,3,23,0,6,1,3,1,100,11
7,3,16,1,0,0,3,1,100,11
7,3,23,0,0,0,3,1,100,11
7,3,10,1,1,0,3,1,100,11
7,3,6,0,3,0,3,1,75,11
7,3,10,1,4,0,3,1,100,11
7,3,17,1,4,0,3,1,87,11
7,3,19,1,4,0,3,1,100,11
7,3,19,1,4,0,3,1,100,11
7,3,22,0,4,0,3,1,110,11
7,3,12,1,5,1,3,1,100,11
7,3,14,1,5,1,3,1,100,11
7,3,20,1,6,1,3,1,100,11
7,3,22,0,6,1,3,1,100,11
7,3,22,0,0,0,3,1,87,11
7,3,13,1,1,0,3,1,100,11
7,3,16,1,1,0,3,1,100,11
7,3,16,1,1,0,3,1,100,11
7,3,21,0,1,0,3,1,100,11
7,3,21,0,1,0,3,1,87,11
7,3,3,0,2,0,3,1,76,11
7,3,12,1,2,0,3,1,100,11
7,3,15,1,2,0,3,1,100,11
7,3,18,1,2,0,3,1,100,11
7,3,18,1,3,0,3,1,100,11
7,3,21,0,3,0,3,1,100,11
7,3,20,1,4,0,3,1,100,11
7,3,22,0,4,0,3,1,100,11
7,3,22,0,4,0,3,1,100,11
7,3,3,0,5,1,3,1,100,11
7,3,9,1,5,1,3,1,100,11
7,3,18,1,5,1,3,1,100,11
7,3,19,1,5,1,3,1,100,11
7,3,19,1,6,1,3,1,100,11
7,3,1,0,0,0,3,1,87,11
7,3,15,1,1,0,3,1,100,11
7,3,17,1,1,0,3,1,100,11
7,3,17,1,1,0,3,1,100,11
7,3,18,1,1,0,3,1,100,11
7,3,21,0,1,0,3,1,100,11
7,3,23,0,1,0,3,1,100,11
7,3,13,1,2,0,3,1,100,11
7,3,8,1,3,0,3,1,100,11
7,3,13,1,3,0,3,1,100,11
7,3,15,1,3,0,3,1,100,11
7,3,21,0,3,0,3,1,100,11
7,3,22,0,3,0,3,1,100,11
7,3,3,0,4,0,3,1,87,11
7,3,17,1,4,0,3,1,100,11
7,3,21,0,4,0,3,1,100,11
7,3,3,0,5,1,3,1,87,11
7,3,3,0,5,1,3,1,87,11
7,3,3,0,5,1,3,1,87,11
7,3,4,0,5,1,3,1,87,11
7,3,19,1,5,1,3,1,100,11
7,3,19,1,5,1,3,1,100,11
7,3,19,1,6,1,3,1,100,11
7,3,19,1,6,1,3,1,100,11
7,3,2,0,0,0,3,1,87,11
7,3,15,1,1,0,3,1,100,11
7,3,23,0,1,0,3,1,100,11
7,3,15,1,2,0,3,1,100,11
7,3,17,1,2,0,3,1,100,11
8,3,13,1,3,0,3,1,100,11
8,3,22,0,3,0,3,1,100,11
8,3,13,1,4,0,3,1,100,11
8,3,22,0,4,0,3,1,100,11
8,3,23,0,5,1,3,1,100,11
8,3,21,0,6,1,3,1,100,11
8,3,23,0,6,1,3,1,126,11
8,3,2,0,1,0,3,1,126,11
8,3,14,1,1,0,3,1,100,11
8,3,14,1,1,0,3,1,72,9
8,3,16,1,1,0,3,1,89,11
8,3,5,0,2,0,3,1,11,11
8,3,5,0,3,0,3,1,87,11
8,3,11,1,3,0,3,1,100,11
8,3,12,1,4,0,3,1,100,11
8,3,21,0,4,0,3,1,64,11
8,3,13,1,5,1,3,1,100,11
8,3,15,1,6,1,3,1,100,11
8,3,16,1,6,1,3,1,100,11
8,3,19,1,6,1,3,1,100,11
8,3,14,1,0,0,3,1,81,11
8,3,15,1,0,0,3,1,100,11
8,3,17,1,0,0,3,1,100,11
8,3,20,1,1,0,3,1,100,11
8,3,20,1,1,0,3,1,100,11
8,3,15,1,2,0,3,1,100,11
8,3,13,1,4,0,3,1,100,11
8,3,18,1,4,0,3,1,100,11
8,3,19,1,4,0,3,1,100,11
8,3,9,1,5,1,3,1,65,11
8,3,10,1,5,1,3,1,100,11
8,3,20,1,5,1,3,1,100,11
8,3,10,1,6,1,3,1,100,11
8,3,13,1,6,1,3,1,100,11
8,3,18,1,6,1,3,1,100,11
8,3,20,1,6,1,3,1,100,11
8,3,15,1,1,0,3,1,89,11
8,3,15,1,2,0,3,1,100,11
8,3,20,1,4,0,3,1,100,11
8,3,1,0,5,1,3,1,100,11
8,3,23,0,5,1,3,1,109,9
8,3,19,1,6,1,3,1,87,11
8,3,11,1,0,0,3,1,72,11
8,3,11,1,0,0,3,1,89,11
8,3,13,1,0,0,3,1,100,11
8,3,21,0,2,0,3,1,18,11
8,3,5,0,3,0,3,1,87,11
8,3,3,0,5,1,3,1,100,11
8,3,15,1,5,1,3,1,100,11
9,4,10,1,0,0,3,1,100,11
9,4,15,1,2,0,3,1,100,11
9,4,17,1,2,0,3,1,18,11
9,4,23,0,3,0,3,1,100,11
9,4,4,0,5,1,3,1,100,11
9,4,21,0,6,1,3,1,100,11
9,4,22,0,6,1,3,1,100,11
9,4,19,1,0,0,3,1,100,11
9,4,19,1,0,0,3,1,100,11
9,4,19,1,0,0,3,1,100,11
9,4,11,1,3,0,3,1,100,11
9,4,14,1,3,0,3,1,89,11
9,4,18,1,6,1,3,1,89,11
9,4,10,1,1,0,3,1,18,11
9,4,8,1,3,0,3,1,38,11
9,4,19,1,3,0,3,1,100,11
9,4,16,1,6,1,3,1,100,11
9,4,19,1,6,1,3,1,100,11
9,4,22,0,6,1,3,1,89,11
9,4,15,1,1,0,3,1,100,11
9,4,23,0,1,0,3,1,87,11
9,4,23,0,1,0,3,1,87,11
9,4,13,1,3,0,3,1,100,11
9,4,13,1,3,0,3,1,100,11
9,4,22,0,3,0,3,1,100,11
9,4,19,1,4,0,3,1,100,11
9,4,19,1,4,0,3,1,100,11
9,4,20,1,4,0,3,1,100,11
9,4,13,1,6,1,3,1,100,11
9,4,17,1,6,1,3,1,100,11
9,4,21,0,6,1,3,1,100,11
9,4,17,1,0,0,3,1,100,11
9,4,21,0,0,0,3,1,38,11
10,4,19,1,1,0,4,1,100,11
10,4,22,0,1,0,4,1,64,11
10,4,17,1,2,0,4,1,100,11
10,4,17,1,2,0,4,1,100,11
10,4,18,1,4,0,4,1,100,11
10,4,19,1,4,0,4,1,100,11
10,4,12,1,5,1,4,1,100,11
10,4,16,1,0,0,4,1,100,11
10,4,18,1,0,0,4,1,100,11
10,4,18,1,2,0,4,1,100,11
10,4,14,1,3,0,4,1,100,11
10,4,16,1,4,0,4,1,100,11
10,4,19,1,5,1,4,1,100,11
10,4,10,1,1,0,4,1,100,11
10,4,10,1,1,0,4,1,100,11
10,4,14,1,2,0,4,1,100,11
10,4,18,1,2,0,4,1,100,11
10,4,18,1,2,0,4,1,100,11
10,4,14,1,3,0,4,1,126,11
10,4,13,1,4,0,4,1,18,11
10,4,21,0,4,0,4,1,100,11
10,4,20,1,5,1,4,1,100,11
10,4,15,1,6,1,4,1,100,11
10,4,16,1,6,1,4,1,100,11
10,4,15,1,0,0,4,1,100,11
10,4,7,1,1,0,4,1,18,11
10,4,10,1,1,0,4,1,100,11
10,4,15,1,1,0,4,1,89,11
10,4,18,1,1,0,4,1,100,11
10,4,9,1,2,0,4,1,100,11
10,4,12,1,2,0,4,1,100,11
10,4,19,1,2,0,4,1,100,11
10,4,11,1,3,0,4,1,100,11
10,4,13,1,3,0,4,1,100,11
10,4,14,1,3,0,4,1,100,11
10,4,15,1,3,0,4,1,100,11
10,4,17,1,3,0,4,1,100,11
10,4,18,1,3,0,4,1,100,11
10,4,21,0,3,0,4,1,100,11
10,4,14,1,4,0,4,1,100,11
10,4,18,1,4,0,4,1,100,11
10,4,19,1,4,0,4,1,100,11
10,4,12,1,5,1,4,1,100,11
10,4,13,1,5,1,4,1,100,11
10,4,16,1,5,1,4,1,100,11
10,4,17,1,5,1,4,1,100,11
10,4,18,1,5,1,4,1,100,11
10,4,18,1,5,1,4,1,100,11
10,4,18,1,5,1,4,1,100,11
10,4,21,0,6,1,4,1,100,11
10,4,12,1,0,0,4,1,100,11
10,4,16,1,0,0,4,1,100,11
10,4,15,1,1,0,4,1,100,11
10,4,1,0,2,0,4,1,87,11
10,4,11,1,2,0,4,1,100,11
10,4,11,1,3,0,4,1,100,11
10,4,12,1,3,0,4,1,100,11
10,4,14,1,3,0,4,1,89,11
10,4,15,1,3,0,4,1,100,11
11,4,10,1,4,0,4,1,100,11
11,4,16,1,4,0,4,1,100,11
11,4,17,1,4,0,4,1,100,11
11,4,0,0,5,1,4,1,100,11
11,4,2,0,6,1,4,1,87,11
11,4,14,1,6,1,4,1,100,11
11,4,12,1,0,0,4,1,100,11
11,4,14,1,0,0,4,1,100,11
11,4,18,1,1,0,4,1,100,11
11,4,19,1,1,0,4,1,100,11
11,4,12,1,2,0,4,1,100,11
11,4,18,1,2,0,4,1,100,11
11,4,18,1,3,0,4,1,100,11
11,4,12,1,4,0,4,1,89,11
11,4,16,1,5,1,4,1,100,11
11,4,0,0,6,1,4,1,65,11
11,4,5,0,0,0,4,1,100,11
11,4,22,0,0,0,4,1,87,11
11,4,17,1,5,1,4,1,87,11
11,4,12,1,6,1,4,1,89,11
11,4,1,0,1,0,4,1,87,11
11,4,18,1,4,0,4,1,100,11
11,4,10,1,5,1,4,1,87,11
11,4,21,0,5,1,4,1,75,11
11,4,19,1,1,0,4,1,100,11
11,4,13,1,2,0,4,1,87,11
12,1,18,1,0,0,4,1,65,11
12,1,7,1,1,0,4,1,75,11
12,1,16,1,4,0,4,1,100,11
12,1,16,1,4,0,4,1,87,11
12,1,12,1,6,1,4,1,87,11
12,1,15,1,6,1,4,1,87,11
12,1,18,1,5,1,4,1,87,11
12,1,11,1,6,1,4,1,87,11
12,1,0,0,0,0,4,1,75,11
12,1,4,0,0,0,4,1,87,11
12,1,23,0,0,0,4,1,87,11
12,1,2,0,3,0,4,1,100,11
12,1,13,1,4,0,4,1,87,11
12,1,20,1,6,1,4,1,87,11
12,1,11,1,2,0,4,1,87,11
12,1,13,1,2,0,4,1,87,11
12,1,21,0,3,0,4,1,65,11
12,1,10,1,4,0,4,1,87,11
12,1,13,1,5,1,4,1,87,11
12,1,18,1,5,1,4,1,65,11
12,1,12,1,6,1,4,1,100,11
12,1,17,1,6,1,4,1,87,11
12,1,23,0,6,1,4,1,87,11
12,1,13,1,0,0,4,1,87,11
12,1,17,1,1,0,4,1,65,11
1,1,12,1,2,0,1,1,100,11
2,1,18,1,5,1,1,1,100,11
2,1,18,1,1,0,1,1,100,11
2,1,14,1,4,0,1,1,100,11
3,2,0,0,6,1,1,1,87,11
4,2,10,1,1,0,2,1,110,11
5,2,12,1,4,0,2,1,13,11
5,2,13,1,2,0,2,1,100,11
6,3,16,1,0,0,2,1,89,11
8,3,17,1,4,0,3,1,18,11
9,4,10,1,6,1,3,1,38,8
10,4,11,1,3,0,4,1,100,11
11,4,13,1,6,1,4,1,89,11
12,1,23,0,2,0,4,1,100,11
12,1,17,1,6,1,4,1,75,11
12,1,11,1,1,0,4,1,38,11
1,1,17,1,1,0,1,1,75,11
1,1,17,1,2,0,1,1,100,11
1,1,19,1,2,0,1,1,75,11
2,1,18,1,1,0,1,1,57,11
2,1,15,1,5,1,1,1,100,11
3,2,17,1,3,0,1,1,100,11
4,2,20,1,3,0,2,1,75,11
5,2,17,1,4,0,2,1,100,11
5,2,9,1,3,0,2,1,57,11
6,3,21,0,3,0,2,1,100,11
6,3,13,1,3,0,2,1,75,11
7,3,9,1,5,1,3,1,100,11
10,4,17,1,5,1,4,1,100,11
11,4,10,1,4,0,4,1,100,11
11,4,17,1,4,0,4,1,100,11
11,4,16,1,5,1,4,1,100,11
1,1,22,0,4,0,1,1,100,11
1,1,22,0,2,0,1,1,18,11
1,1,12,1,2,0,1,1,63,9
1,1,11,1,6,1,1,1,89,11
1,1,13,1,1,0,1,1,89,11
1,1,16,1,2,0,1,1,57,11
2,1,10,1,3,0,1,1,100,11
2,1,12,1,5,1,1,1,100,11
2,1,21,0,2,0,1,1,100,11
2,1,14,1,6,1,1,1,100,11
2,1,18,1,6,1,1,1,89,11
2,1,20,1,5,1,1,1,75,11
3,2,19,1,3,0,1,1,100,11
3,2,19,1,4,0,1,1,89,11
4,2,20,1,1,0,2,1,100,11
6,3,19,1,1,0,2,1,100,11
6,3,18,1,3,0,2,1,100,11
8,3,12,1,1,0,3,1,26,11
9,4,14,1,2,0,3,1,100,11
9,4,18,1,5,1,3,1,26,11
10,4,19,1,1,0,4,1,100,11
10,4,16,1,6,1,4,1,100,11
10,4,15,1,2,0,4,1,100,11
10,4,13,1,0,0,4,1,100,11
12,1,18,1,3,0,4,1,87,11
1,1,0,0,0,0,1,1,65,11
1,1,0,0,2,0,1,1,128,11
1,1,1,0,2,0,1,1,128,11
1,1,11,1,6,1,1,1,12,9
1,1,12,1,3,0,1,1,72,11
1,1,12,1,3,0,1,48,100,11
1,1,14,1,5,1,1,48,100,11
1,1,12,1,0,0,1,1,100,11
1,1,14,1,0,0,1,1,100,11
2,1,19,1,3,0,1,1,100,11
2,1,19,1,3,0,1,48,100,11
2,1,14,1,4,0,1,48,12,9
2,1,21,0,5,1,1,1,13,11
2,1,13,1,4,0,1,1,128,11
2,1,19,1,0,0,1,1,100,11
3,2,8,1,4,0,1,1,38,11
3,2,19,1,4,0,1,1,75,11
3,2,15,1,5,1,1,48,100,11
3,2,16,1,1,0,1,1,100,11
4,2,13,1,0,0,2,48,100,11
4,2,12,1,4,0,2,48,100,11
4,2,20,1,6,1,2,1,100,11
4,2,15,1,1,0,2,48,100,11
5,2,17,1,5,1,2,1,128,11
5,2,2,0,6,1,2,48,18,11
5,2,18,1,3,0,2,48,100,11
5,2,18,1,0,0,2,1,128,11
5,2,20,1,1,0,2,1,89,11
5,2,11,1,3,0,2,1,100,9
5,2,10,1,4,0,2,1,100,11
6,3,21,0,2,0,2,48,12,9
6,3,12,1,4,0,2,1,89,9
6,3,14,1,3,0,2,1,87,11
7,3,13,1,0,0,3,1,89,9
7,3,1,0,5,1,3,1,12,11
7,3,20,1,2,0,3,1,110,11
8,3,1,0,1,0,3,48,100,11
8,3,5,0,5,1,3,48,87,11
8,3,9,1,2,0,3,48,89,11
8,3,13,1,4,0,3,48,100,11
8,3,21,0,0,0,3,48,12,11
9,4,16,1,2,0,3,1,100,11
9,4,7,1,1,0,3,1,87,11
9,4,11,1,5,1,3,48,100,11
9,4,16,1,3,0,3,1,87,11
9,4,13,1,0,0,3,48,100,11
10,4,14,1,5,1,4,1,110,11
10,4,13,1,2,0,4,48,100,11
10,4,11,1,2,0,4,1,128,11
11,4,21,0,5,1,4,48,100,11
11,4,12,1,0,0,4,48,100,11
11,4,12,1,1,0,4,1,12,11
11,4,18,1,4,0,4,48,100,11
11,4,18,1,5,1,4,48,100,9
11,4,10,1,6,1,4,48,100,11
1,1,16,1,0,0,1,1,75,11
1,1,16,1,1,0,1,1,100,11
1,1,15,1,0,0,1,1,128,11
1,1,13,1,2,0,1,1,100,11
1,1,18,1,2,0,1,1,100,11
2,1,18,1,4,0,1,1,100,11
2,1,11,1,2,0,1,1,100,11
2,1,13,1,6,1,1,1,13,11
3,2,19,1,6,1,1,1,100,11
3,2,17,1,0,0,1,1,100,11
3,2,17,1,5,1,1,1,100,11
4,2,2,0,0,0,2,1,128,11
4,2,21,0,1,0,2,1,100,11
5,2,8,1,2,0,2,1,89,11
5,2,18,1,6,1,2,1,100,11
5,2,16,1,4,0,2,1,89,11
5,2,18,1,3,0,2,1,18,11
5,2,19,1,5,1,2,1,100,11
5,2,20,1,5,1,2,1,100,11
5,2,10,1,6,1,2,1,100,11
7,3,15,1,1,0,3,1,110,11
8,3,16,1,2,0,3,1,128,11
8,3,5,0,0,0,3,1,18,11
8,3,7,1,1,0,3,1,110,11
8,3,20,1,0,0,3,1,110,11
9,4,20,1,1,0,3,1,12,11
9,4,9,1,6,1,3,1,18,11
10,4,4,0,3,0,4,1,18,11
10,4,9,1,2,0,4,1,18,11
10,4,11,1,3,0,4,1,100,11
11,4,8,1,0,0,4,1,18,11
11,4,11,1,0,0,4,1,18,11
12,1,10,1,4,0,4,1,108,11
12,1,17,1,1,0,4,1,13,11
1,1,20,1,3,0,1,15,75,11
1,1,3,0,4,0,1,15,75,11
1,1,10,1,6,1,1,15,87,11
1,1,22,0,6,1,1,15,87,11
2,1,8,1,3,0,1,15,87,11
2,1,18,1,1,0,1,15,89,11
2,1,21,0,1,0,1,15,100,11
2,1,12,1,3,0,1,15,89,11
2,1,18,1,3,0,1,15,87,11
2,1,12,1,6,1,1,15,87,11
2,1,20,1,6,1,1,15,89,11
2,1,23,0,6,1,1,15,87,11
2,1,18,1,1,0,1,15,65,11
3,2,17,1,0,0,1,15,100,11
3,2,12,1,4,0,1,15,100,11
3,2,22,0,3,0,1,15,100,11
3,2,13,1,3,0,1,15,89,11
3,2,21,0,3,0,1,15,100,11
3,2,20,1,5,1,1,15,18,11
3,2,20,1,6,1,1,15,89,11
3,2,18,1,1,0,1,15,110,11
4,2,4,0,1,0,2,15,72,11
4,2,14,1,1,0,2,15,13,11
4,2,20,1,3,0,2,15,13,11
4,2,0,0,5,1,2,15,87,11
4,2,21,0,2,0,2,15,87,11
4,2,9,1,1,0,2,15,110,11
4,2,15,1,4,0,2,15,18,11
4,2,11,1,0,0,2,15,89,11
4,2,20,1,1,0,2,15,100,11
5,2,3,0,2,0,2,15,13,11
5,2,13,1,6,1,2,15,89,11
5,2,10,1,0,0,2,15,89,11
5,2,1,0,2,0,2,15,89,11
5,2,15,1,2,0,2,15,89,11
5,2,16,1,2,0,2,15,89,11
5,2,19,1,3,0,2,15,100,11
5,2,19,1,0,0,2,15,89,11
5,2,21,0,4,0,2,15,89,11
6,3,7,1,2,0,2,15,100,11
6,3,15,1,4,0,2,15,100,11
6,3,7,1,0,0,2,15,18,9
6,3,17,1,2,0,2,15,89,9
6,3,17,1,5,1,2,15,75,11
6,3,8,1,2,0,2,15,18,11
6,3,11,1,2,0,2,15,89,11
6,3,4,0,3,0,2,15,18,11
6,3,22,0,1,0,2,15,100,11
6,3,4,0,2,0,2,15,89,11
6,3,12,1,4,0,2,15,89,11
7,3,13,1,0,0,3,15,100,11
7,3,22,0,0,0,3,15,13,11
7,3,21,0,3,0,3,15,89,11
7,3,13,1,5,1,3,15,75,11
7,3,12,1,0,0,3,15,75,8
7,3,20,1,3,0,3,15,65,8
7,3,10,1,4,0,3,15,89,11
7,3,21,0,5,1,3,15,100,11
7,3,13,1,6,1,3,15,12,9
8,3,8,1,5,1,3,15,18,11
8,3,23,0,6,1,3,15,13,9
8,3,0,0,0,0,3,15,100,11
8,3,3,0,2,0,3,15,100,11
8,3,4,0,4,0,3,15,71,11
8,3,1,0,0,0,3,15,100,11
8,3,9,1,6,1,3,15,18,11
8,3,17,1,2,0,3,15,100,11
8,3,10,1,4,0,3,15,75,11
8,3,16,1,0,0,3,15,100,11
8,3,13,1,1,0,3,15,75,8
9,4,2,0,6,1,3,15,110,11
9,4,15,1,0,0,3,15,18,11
9,4,5,0,1,0,3,15,75,9
9,4,11,1,2,0,3,15,38,11
9,4,1,0,1,0,3,15,100,11
9,4,17,1,3,0,3,15,87,11
9,4,17,1,3,0,3,15,87,11
9,4,19,1,3,0,3,15,87,11
9,4,19,1,3,0,3,15,87,11
10,4,11,1,2,0,4,15,89,11
10,4,11,1,2,0,4,15,89,11
10,4,17,1,5,1,4,15,89,11
10,4,21,0,5,1,4,15,100,11
10,4,14,1,3,0,4,15,72,11
10,4,9,1,1,0,4,15,89,11
10,4,17,1,1,0,4,15,100,11
10,4,18,1,1,0,4,15,100,11
11,4,11,1,0,0,4,15,100,11
11,4,19,1,5,1,4,15,100,11
11,4,11,1,0,0,4,15,38,11
11,4,12,1,0,0,4,15,110,11
11,4,13,1,3,0,4,15,89,11
11,4,18,1,6,1,4,15,89,11
11,4,13,1,1,0,4,15,57,11
11,4,16,1,3,0,4,15,75,11
11,4,13,1,5,1,4,15,110,11
12,1,16,1,0,0,4,15,100,11
12,1,8,1,1,0,4,15,75,11
1,1,14,1,1,0,1,15,87,11
1,1,17,1,3,0,1,15,75,11
1,1,10,1,6,1,1,15,87,11
3,2,22,0,3,0,1,15,87,11
4,2,20,1,0,0,2,15,75,11
4,2,19,1,4,0,2,15,18,11
5,2,10,1,5,1,2,15,65,11
6,3,2,0,3,0,2,15,13,11
6,3,13,1,3,0,2,15,1,11
11,4,12,1,6,1,4,15,81,11
12,1,15,1,2,0,4,15,75,11
12,1,23,0,5,1,4,15,75,11
1,1,17,1,6,1,1,15,87,11
1,1,20,1,1,0,1,15,87,11
1,1,21,0,2,0,1,15,75,11
2,1,15,1,6,1,1,15,75,11
2,1,18,1,1,0,1,15,87,11
3,2,21,0,5,1,1,15,89,11
3,2,14,1,6,1,1,15,38,11
3,2,16,1,5,1,1,15,100,11
4,2,15,1,3,0,2,15,100,11
4,2,12,1,6,1,2,15,18,11
4,2,12,1,1,0,2,15,100,11
4,2,9,1,3,0,2,15,110,11
4,2,10,1,4,0,2,15,72,11
4,2,18,1,4,0,2,15,89,11
4,2,12,1,5,1,2,15,100,11
6,3,16,1,3,0,2,15,100,11
6,3,11,1,2,0,2,15,100,11
9,4,11,1,1,0,3,15,46,11
10,4,22,0,4,0,4,15,13,11
10,4,8,1,5,1,4,15,100,11
12,1,21,0,1,0,4,15,75,11
1,1,20,1,5,1,1,15,89,11
1,1,2,0,0,0,1,15,75,11
1,1,2,0,1,0,1,15,65,11
1,1,7,1,1,0,1,15,128,11
1,1,15,1,1,0,1,15,89,11
2,1,13,1,6,1,1,15,128,11
2,1,15,1,2,0,1,15,128,11
2,1,16,1,1,0,1,15,89,11
2,1,16,1,5,1,1,15,12,9
2,1,2,0,3,0,1,15,18,11
3,2,12,1,2,0,1,15,18,11
3,2,0,0,5,1,1,15,128,11
3,2,22,0,1,0,1,15,75,8
3,2,13,1,6,1,1,15,4,11
4,2,10,1,6,1,2,15,75,11
4,2,11,1,6,1,2,15,89,11
4,2,2,0,0,0,2,15,75,9
4,2,23,0,2,0,2,15,128,11
4,2,8,1,3,0,2,15,110,11
4,2,20,1,0,0,2,15,89,11
5,2,11,1,6,1,2,15,89,11
5,2,13,1,2,0,2,15,95,11
5,2,21,0,2,0,2,15,87,11
5,2,12,1,5,1,2,15,89,11
5,2,18,1,5,1,2,15,87,11
5,2,18,1,5,1,2,15,87,11
5,2,0,0,2,0,2,15,75,11
5,2,12,1,5,1,2,15,65,8
5,2,0,0,6,1,2,15,128,11
5,2,7,1,4,0,2,15,75,11
5,2,18,1,1,0,2,15,38,11
5,2,2,0,3,0,2,15,128,11
6,3,16,1,5,1,2,15,89,11
6,3,22,0,5,1,2,15,4,11
6,3,13,1,4,0,2,15,89,11
6,3,20,1,6,1,2,15,89,11
6,3,9,1,4,0,2,15,75,11
6,3,15,1,0,0,2,15,18,11
6,3,13,1,1,0,2,15,97,11
6,3,8,1,2,0,2,15,89,11
7,3,5,0,1,0,3,15,100,11
7,3,10,1,1,0,3,15,18,8
7,3,10,1,2,0,3,15,100,11
7,3,11,1,2,0,3,15,100,11
7,3,18,1,3,0,3,15,128,11
7,3,11,1,2,0,3,15,89,11
7,3,21,0,3,0,3,15,100,11
7,3,13,1,4,0,3,15,18,9
7,3,18,1,6,1,3,15,100,11
7,3,23,0,6,1,3,15,100,11
7,3,18,1,1,0,3,15,110,11
7,3,18,1,1,0,3,15,89,11
8,3,17,1,3,0,3,15,89,11
8,3,20,1,4,0,3,15,89,11
8,3,13,1,5,1,3,15,110,11
9,4,19,1,5,1,3,15,18,11
9,4,13,1,2,0,3,15,75,11
9,4,19,1,4,0,3,15,89,11
9,4,21,0,4,0,3,15,75,9
10,4,20,1,2,0,4,15,18,8
10,4,20,1,0,0,4,15,100,11
10,4,10,1,3,0,4,15,89,11
10,4,13,1,0,0,4,15,89,11
10,4,15,1,0,0,4,15,100,11
11,4,13,1,3,0,4,15,13,11
11,4,19,1,5,1,4,15,75,11
11,4,17,1,0,0,4,15,128,11
12,1,22,0,4,0,4,15,128,11
12,1,18,1,0,0,4,15,128,11
1,1,16,1,6,1,1,15,18,11
3,2,7,1,4,0,1,15,75,8
4,2,20,1,5,1,2,15,12,9
5,2,3,0,5,1,2,15,18,11
5,2,14,1,5,1,2,15,89,11
5,2,11,1,6,1,2,15,89,11
5,2,11,1,6,1,2,15,75,9
6,3,12,1,0,0,2,6,89,11
6,3,15,1,5,1,2,6,87,11
6,3,11,1,3,0,2,15,89,11
6,3,14,1,6,1,2,15,89,11
6,3,20,1,3,0,2,6,89,11
6,3,19,1,4,0,2,15,75,11
6,3,19,1,5,1,2,15,12,11
6,3,20,1,0,0,2,15,126,8
6,3,3,0,6,1,2,15,89,11
7,3,14,1,0,0,3,6,89,11
7,3,22,0,4,0,3,15,89,11
8,3,21,0,5,1,3,15,89,11
8,3,6,0,6,1,3,15,72,9
9,4,22,0,5,1,3,15,13,11
10,4,8,1,1,0,4,15,100,11
10,4,3,0,4,0,4,15,72,9
10,4,17,1,4,0,4,15,12,9
10,4,22,0,4,0,4,15,4,11
11,4,15,1,5,1,4,6,4,9
11,4,5,0,2,0,4,15,87,9
12,1,23,0,4,0,4,6,12,9
12,1,17,1,6,1,4,15,87,11
12,1,14,1,4,0,4,15,12,8
12,1,22,0,0,0,4,15,38,8
1,1,10,1,0,0,1,3,75,11
1,1,19,1,0,0,1,3,89,11
1,1,22,0,1,0,1,3,64,11
1,1,12,1,3,0,1,3,100,11
1,1,17,1,4,0,1,3,12,9
1,1,20,1,5,1,1,3,100,11
1,1,15,1,6,1,1,3,38,11
1,1,18,1,5,1,1,3,100,11
1,1,16,1,1,0,1,3,65,11
1,1,13,1,2,0,1,3,87,11
1,1,18,1,2,0,1,3,79,11
1,1,2,0,6,1,1,3,100,11
1,1,14,1,1,0,1,3,65,11
1,1,20,1,2,0,1,3,100,11
2,1,12,1,4,0,1,3,12,9
2,1,13,1,4,0,1,3,89,11
2,1,0,0,5,1,1,3,89,11
2,1,15,1,6,1,1,3,87,11
2,1,14,1,2,0,1,3,100,11
2,1,18,1,6,1,1,3,89,11
2,1,19,1,2,0,1,3,81,11
3,2,9,1,3,0,1,3,65,11
3,2,12,1,4,0,1,3,100,11
3,2,4,0,0,0,1,3,112,9
3,2,13,1,6,1,1,3,75,11
3,2,20,1,6,1,1,3,100,11
3,2,20,1,2,0,1,3,100,11
3,2,12,1,4,0,1,3,100,11
3,2,12,1,6,1,1,3,89,11
3,2,22,0,6,1,1,3,75,11
3,2,22,0,6,1,1,3,100,11
4,2,12,1,4,0,2,3,87,11
4,2,12,1,5,1,2,3,75,11
5,2,20,1,6,1,2,3,100,11
5,2,16,1,5,1,2,3,95,11
5,2,1,0,0,0,2,3,87,11
5,2,7,1,0,0,2,3,100,11
5,2,12,1,3,0,2,3,65,11
6,3,13,1,5,1,2,3,89,11
6,3,23,0,5,1,2,3,87,11
6,3,16,1,3,0,2,3,100,11
6,3,21,0,5,1,2,3,12,9
7,3,12,1,6,1,3,3,72,11
7,3,20,1,4,0,3,3,72,11
7,3,14,1,3,0,3,3,100,11
7,3,15,1,3,0,3,3,89,11
7,3,21,0,6,1,3,3,100,11
7,3,14,1,1,0,3,3,89,11
8,3,22,0,6,1,3,3,89,11
9,4,18,1,6,1,3,3,87,11
10,4,18,1,3,0,4,3,79,11
10,4,8,1,1,0,4,3,72,11
10,4,12,1,6,1,4,3,89,11
10,4,10,1,1,0,4,3,100,11
10,4,13,1,4,0,4,3,89,11
10,4,20,1,5,1,4,3,65,11
10,4,18,1,3,0,4,3,87,11
11,4,14,1,6,1,4,3,100,11
11,4,17,1,6,1,4,3,100,11
11,4,6,0,0,0,4,3,72,11
11,4,2,0,6,1,4,3,100,11
11,4,17,1,3,0,4,3,65,11
11,4,17,1,0,0,4,3,100,11
11,4,8,1,1,0,4,3,65,11
12,1,21,0,0,0,4,3,100,11
4,2,12,1,1,0,2,3,100,11
4,2,13,1,6,1,2,3,75,8
5,2,9,1,6,1,2,3,75,11
5,2,18,1,3,0,2,3,87,11
6,3,17,1,0,0,2,3,79,11
6,3,12,1,4,0,2,3,81,11
6,3,18,1,3,0,2,3,95,11
7,3,16,1,1,0,3,3,110,11
7,3,14,1,0,0,3,3,18,11
11,4,5,0,1,0,4,3,100,11
11,4,12,1,2,0,4,3,128,11
11,4,16,1,5,1,4,3,89,11
7,3,17,1,1,0,3,3,110,11
7,3,10,1,6,1,3,3,18,11
2,1,9,1,3,0,1,3,75,8
3,2,8,1,1,0,1,3,106,11
6,3,7,1,3,0,2,3,18,11
7,3,12,1,2,0,3,3,75,11
11,4,17,1,5,1,4,3,103,11
11,4,5,0,1,0,4,3,110,11
1,1,14,1,3,0,1,3,45,11
1,1,11,1,0,0,1,3,89,11
1,1,17,1,1,0,1,3,89,11
1,1,18,1,1,0,1,3,75,11
4,2,6,0,2,0,2,3,110,11
6,3,15,1,1,0,2,3,45,11
6,3,15,1,4,0,2,3,1,11
6,3,14,1,2,0,2,3,89,11
6,3,17,1,1,0,2,3,1,11
7,3,12,1,4,0,3,3,26,11
8,3,20,1,2,0,3,3,18,11
10,4,18,1,0,0,4,3,87,11
10,4,19,1,2,0,4,3,95,11
10,4,0,0,1,0,4,3,128,11
11,4,3,0,6,1,4,3,75,9
11,4,20,1,5,1,4,3,12,11
4,2,11,1,4,0,2,3,125,11
7,3,14,1,6,1,3,3,12,9
7,3,14,1,0,0,3,3,110,11
1,1,15,1,0,0,1,36,95,11
1,1,0,0,1,0,1,36,65,11
1,1,10,1,2,0,1,36,65,11
1,1,20,1,0,0,1,36,75,11
1,1,18,1,1,0,1,36,65,11
1,1,3,0,2,0,1,36,89,11
1,1,21,0,2,0,1,36,38,11
1,1,21,0,5,1,1,36,95,11
1,1,21,0,1,0,1,36,95,11
1,1,14,1,2,0,1,36,95,11
1,1,8,1,4,0,1,36,38,11
1,1,22,0,4,0,1,36,95,11
1,1,8,1,5,1,1,36,95,11
1,1,13,1,5,1,1,36,89,11
1,1,15,1,6,1,1,36,65,11
1,1,21,0,1,0,1,36,38,9
1,1,19,1,6,1,1,36,75,11
1,1,17,1,0,0,1,36,95,11
1,1,12,1,2,0,1,36,95,11
1,1,16,1,2,0,1,36,95,11
1,1,20,1,2,0,1,36,65,11
1,1,20,1,2,0,1,36,65,11
2,1,4,0,4,0,1,36,72,11
2,1,13,1,4,0,1,36,13,9
2,1,7,1,6,1,1,36,65,11
2,1,0,0,0,0,1,36,100,11
2,1,17,1,0,0,1,36,100,11
2,1,18,1,0,0,1,36,65,11
2,1,14,1,3,0,1,36,95,11
2,1,0,0,4,0,1,36,95,11
2,1,23,0,5,1,1,36,38,11
2,1,1,0,3,0,1,36,75,11
2,1,14,1,3,0,1,36,95,11
2,1,21,0,5,1,1,36,95,11
2,1,10,1,6,1,1,36,95,11
2,1,14,1,0,0,1,36,12,11
2,1,22,0,0,0,1,36,38,11
2,1,20,1,1,0,1,36,95,11
2,1,21,0,3,0,1,36,95,11
2,1,13,1,4,0,1,36,95,11
2,1,17,1,4,0,1,36,95,11
2,1,21,0,5,1,1,36,38,11
2,1,0,0,0,0,1,36,72,11
3,2,13,1,6,1,1,36,95,11
3,2,8,1,0,0,1,36,95,11
3,2,5,0,5,1,1,36,72,11
3,2,7,1,0,0,1,36,72,11
3,2,16,1,5,1,1,36,95,11
3,2,12,1,0,0,1,36,75,11
3,2,21,0,0,0,1,36,89,11
3,2,22,0,3,0,1,36,95,11
3,2,15,1,4,0,1,36,89,11
3,2,18,1,4,0,1,36,72,11
3,2,16,1,5,1,1,36,95,11
3,2,20,1,6,1,1,36,65,11
3,2,0,0,0,0,1,36,128,11
3,2,19,1,0,0,1,36,89,11
3,2,19,1,2,0,1,36,95,11
3,2,10,1,5,1,1,36,100,11
3,2,16,1,5,1,1,36,89,9
3,2,21,0,5,1,1,36,100,11
3,2,18,1,6,1,1,36,89,11
4,2,12,1,0,0,2,36,65,11
4,2,7,1,1,0,2,36,72,11
4,2,11,1,4,0,2,36,65,11
4,2,19,1,4,0,2,36,100,11
4,2,14,1,5,1,2,36,89,11
4,2,21,0,6,1,2,36,89,11
4,2,10,1,0,0,2,36,89,11
4,2,12,1,0,0,2,36,38,11
4,2,0,0,3,0,2,36,89,11
4,2,12,1,3,0,2,36,89,11
4,2,18,1,5,1,2,36,89,11
4,2,0,0,6,1,2,36,65,11
4,2,15,1,0,0,2,36,100,11
4,2,16,1,3,0,2,36,38,11
4,2,21,0,2,0,2,36,38,11
4,2,7,1,4,0,2,36,72,11
4,2,0,0,6,1,2,36,72,11
4,2,15,1,0,0,2,36,100,11
5,2,16,1,5,1,2,36,100,11
5,2,1,0,6,1,2,36,65,11
5,2,10,1,3,0,2,36,72,11
5,2,4,0,0,0,2,36,72,11
5,2,19,1,0,0,2,36,89,11
5,2,18,1,5,1,2,36,89,11
5,2,13,1,1,0,2,36,72,11
5,2,17,1,1,0,2,36,51,11
6,3,22,0,6,1,2,36,89,11
6,3,7,1,4,0,2,36,89,11
6,3,23,0,4,0,2,36,97,11
6,3,17,1,5,1,2,36,100,11
6,3,13,1,6,1,2,36,95,11
6,3,10,1,3,0,2,36,13,11
6,3,6,0,4,0,2,36,95,11
6,3,7,1,4,0,2,36,13,9
6,3,14,1,4,0,2,36,89,11
6,3,20,1,6,1,2,36,100,11
6,3,22,0,6,1,2,36,89,11
6,3,16,1,0,0,2,36,119,11
6,3,16,1,5,1,2,36,75,11
6,3,16,1,6,1,2,36,100,11
6,3,19,1,6,1,2,36,89,11
6,3,9,1,1,0,2,36,46,11
7,3,20,1,0,0,3,36,100,11
7,3,23,0,0,0,3,36,75,11
7,3,19,1,1,0,3,36,72,9
7,3,23,0,1,0,3,36,95,11
7,3,6,0,2,0,3,36,100,11
7,3,11,1,0,0,3,36,89,11
7,3,11,1,3,0,3,36,100,11
7,3,7,1,5,1,3,36,72,11
7,3,22,0,5,1,3,36,75,11
7,3,15,1,6,1,3,36,95,11
7,3,14,1,2,0,3,36,72,11
7,3,22,0,2,0,3,36,100,11
7,3,14,1,4,0,3,36,89,11
7,3,12,1,5,1,3,36,100,11
7,3,15,1,5,1,3,36,100,11
7,3,21,0,3,0,3,36,72,11
7,3,12,1,2,0,3,36,89,11
8,3,16,1,3,0,3,36,89,11
8,3,1,0,6,1,3,36,72,11
8,3,2,0,6,1,3,36,95,11
8,3,5,0,6,1,3,36,95,11
8,3,14,1,6,1,3,36,100,11
8,3,9,1,1,0,3,36,95,11
8,3,16,1,3,0,3,36,100,11
8,3,11,1,4,0,3,36,100,11
8,3,20,1,4,0,3,36,100,11
8,3,15,1,6,1,3,36,89,11
8,3,12,1,0,0,3,36,100,11
8,3,9,1,0,0,3,36,72,11
8,3,19,1,1,0,3,36,72,11
8,3,8,1,2,0,3,36,100,11
8,3,23,0,2,0,3,36,100,11
8,3,7,1,3,0,3,36,100,11
8,3,16,1,3,0,3,36,72,11
8,3,20,1,4,0,3,36,38,11
8,3,15,1,5,1,3,36,72,11
8,3,18,1,4,0,3,36,38,9
8,3,17,1,5,1,3,36,75,8
9,4,9,1,6,1,3,36,22,11
9,4,19,1,1,0,3,36,16,11
9,4,12,1,2,0,3,36,89,11
9,4,21,0,5,1,3,36,95,11
9,4,22,0,5,1,3,36,89,9
9,4,1,0,6,1,3,36,119,11
9,4,3,0,1,0,3,36,100,11
9,4,10,1,3,0,3,36,38,11
9,4,20,1,3,0,3,36,100,11
9,4,23,0,3,0,3,36,95,11
9,4,11,1,4,0,3,36,22,11
9,4,1,0,5,1,3,36,65,11
9,4,2,0,0,0,3,36,72,11
9,4,3,0,2,0,3,36,43,11
9,4,8,1,2,0,3,36,100,11
9,4,22,0,2,0,3,36,100,11
9,4,4,0,1,0,3,36,100,11
9,4,15,1,1,0,3,36,72,11
9,4,15,1,1,0,3,36,72,9
9,4,19,1,3,0,3,36,72,11
9,4,11,1,4,0,3,36,100,11
9,4,16,1,0,0,3,36,100,11
10,4,12,1,2,0,4,36,89,11
10,4,21,0,2,0,4,36,100,11
10,4,19,1,1,0,4,36,89,11
10,4,18,1,2,0,4,36,100,11
10,4,16,1,3,0,4,36,89,11
10,4,10,1,4,0,4,36,100,11
10,4,18,1,0,0,4,36,100,11
10,4,10,1,5,1,4,36,89,11
10,4,20,1,0,0,4,36,79,11
10,4,21,0,0,0,4,36,100,11
10,4,23,0,1,0,4,36,95,11
10,4,11,1,3,0,4,36,72,9
10,4,16,1,3,0,4,36,89,11
10,4,11,1,6,1,4,36,100,11
10,4,14,1,1,0,4,36,100,11
11,4,8,1,4,0,4,36,100,11
11,4,11,1,4,0,4,36,100,11
11,4,13,1,4,0,4,36,100,11
11,4,6,0,5,1,4,36,38,11
11,4,13,1,3,0,4,36,65,11
11,4,20,1,4,0,4,36,89,11
11,4,16,1,5,1,4,36,65,11
11,4,20,1,5,1,4,36,100,11
11,4,20,1,6,1,4,36,72,11
11,4,2,0,1,0,4,36,100,11
11,4,2,0,1,0,4,36,100,11
11,4,6,0,1,0,4,36,100,11
11,4,12,1,6,1,4,36,100,11
11,4,21,0,5,1,4,36,65,11
11,4,11,1,1,0,4,36,100,11
11,4,15,1,1,0,4,36,100,11
11,4,18,1,4,0,4,36,65,11
11,4,12,1,5,1,4,36,65,8
12,1,15,1,6,1,4,36,95,11
12,1,19,1,1,0,4,36,103,11
12,1,4,0,4,0,4,36,75,11
12,1,15,1,5,1,4,36,95,11
12,1,15,1,6,1,4,36,100,11
12,1,19,1,5,1,4,36,100,11
12,1,14,1,4,0,4,36,38,11
12,1,11,1,5,1,4,36,72,11
12,1,17,1,5,1,4,36,13,11
12,1,9,1,0,0,4,36,95,11
12,1,10,1,0,0,4,36,1,11
12,1,18,1,3,0,4,36,65,11
12,1,9,1,4,0,4,36,95,11
12,1,23,0,4,0,4,36,65,11
12,1,10,1,5,1,4,36,89,11
1,1,9,1,1,0,1,36,95,11
1,1,22,0,3,0,1,36,95,11
1,1,15,1,2,0,1,36,95,11
2,1,14,1,6,1,1,36,95,11
2,1,20,1,2,0,1,36,38,11
4,2,12,1,6,1,2,36,89,11
4,2,12,1,3,0,2,36,89,11
5,2,10,1,5,1,2,36,89,11
5,2,14,1,2,0,2,36,13,9
5,2,13,1,1,0,2,36,100,11
6,3,18,1,2,0,2,36,38,11
6,3,17,1,3,0,2,36,89,11
6,3,10,1,4,0,2,36,89,11
6,3,10,1,4,0,2,36,89,11
6,3,11,1,4,0,2,36,44,11
6,3,16,1,6,1,2,36,44,11
7,3,16,1,5,1,3,36,22,9
7,3,19,1,5,1,3,36,72,11
7,3,18,1,1,0,3,36,100,11
8,3,17,1,5,1,3,36,100,11
8,3,5,0,2,0,3,36,89,11
10,4,12,1,5,1,4,36,38,8
11,4,12,1,4,0,4,36,1,11
11,4,18,1,5,1,4,36,75,11
11,4,9,1,2,0,4,36,100,11
12,1,10,1,3,0,4,36,100,11
12,1,17,1,3,0,4,36,89,11
12,1,12,1,4,0,4,36,95,11
4,2,10,1,1,0,2,36,75,11
12,1,22,0,1,0,4,36,75,11
1,1,10,1,5,1,1,36,128,11
1,1,19,1,0,0,1,36,128,11
1,1,18,1,2,0,1,36,89,11
1,1,18,1,3,0,1,36,128,11
1,1,15,1,4,0,1,36,12,8
1,1,3,0,1,0,1,36,128,11
1,1,13,1,2,0,1,36,65,11
2,1,8,1,0,0,1,36,110,11
2,1,5,0,2,0,1,36,38,9
3,2,16,1,6,1,1,36,128,11
3,2,1,0,4,0,1,36,75,11
3,2,1,0,6,1,1,36,12,11
3,2,12,1,1,0,1,36,56,11
3,2,19,1,1,0,1,36,38,11
3,2,9,1,3,0,1,36,110,11
4,2,15,1,2,0,2,36,18,11
4,2,23,0,1,0,2,36,110,11
4,2,3,0,2,0,2,36,18,11
5,2,8,1,3,0,2,36,89,11
5,2,17,1,2,0,2,36,89,11
6,3,9,1,2,0,2,36,128,11
6,3,12,1,4,0,2,36,72,11
6,3,12,1,6,1,2,36,89,11
7,3,19,1,0,0,3,36,87,11
7,3,13,1,4,0,3,36,100,11
7,3,13,1,4,0,3,36,110,11
7,3,12,1,5,1,3,36,100,11
8,3,15,1,6,1,3,36,18,9
8,3,19,1,1,0,3,36,110,11
9,4,15,1,2,0,3,36,89,11
9,4,18,1,6,1,3,36,110,11
9,4,18,1,6,1,3,36,110,11
9,4,7,1,1,0,3,36,110,11
9,4,9,1,1,0,3,36,25,11
10,4,8,1,6,1,4,36,65,11
10,4,10,1,6,1,4,36,110,11
11,4,3,0,1,0,4,36,110,11
11,4,9,1,5,1,4,36,128,11
11,4,19,1,3,0,4,36,128,11
11,4,18,1,6,1,4,36,75,11
12,1,18,1,5,1,4,36,75,11
12,1,18,1,0,0,4,36,128,11
12,1,20,1,4,0,4,36,75,11
12,1,11,1,0,0,4,36,18,9
12,1,22,0,0,0,4,36,128,11
2,1,12,1,4,0,1,36,68,11
2,1,16,1,6,1,1,36,100,11
3,2,18,1,4,0,1,36,87,11
3,2,11,1,3,0,1,36,75,11
3,2,17,1,0,0,1,36,1,11
4,2,8,1,2,0,2,36,87,11
4,2,22,0,4,0,2,36,7,11
4,2,1,0,6,1,2,36,100,11
5,2,0,0,6,1,2,36,128,11
5,2,0,0,3,0,2,36,18,11
7,3,10,1,1,0,3,36,59,11
7,3,4,0,2,0,3,36,75,11
9,4,4,0,0,0,3,36,18,11
9,4,10,1,1,0,3,36,110,11
11,4,7,1,3,0,4,36,110,11
11,4,14,1,0,0,4,36,89,11
12,1,23,0,5,1,4,36,87,11
12,1,14,1,5,1,4,36,87,11
2,1,16,1,2,0,1,36,110,11
4,2,11,1,4,0,2,36,110,11
4,2,14,1,6,1,2,36,100,11
4,2,15,1,6,1,2,36,100,11
4,2,20,1,3,0,2,36,18,9
4,2,18,1,5,1,2,36,110,11
5,2,0,0,6,1,2,36,89,11
5,2,20,1,5,1,2,36,110,11
6,3,2,0,1,0,2,36,110,11
7,3,7,1,2,0,3,36,110,11
7,3,18,1,4,0,3,36,89,11
9,4,9,1,4,0,3,36,13,11
10,4,6,0,4,0,4,36,110,11
11,4,10,1,5,1,4,36,89,9
11,4,9,1,1,0,4,36,87,11
12,1,13,1,5,1,4,36,18,9
12,1,0,0,6,1,4,36,18,11
1,1,15,1,1,0,1,30,87,11
1,1,17,1,0,0,1,30,38,11
2,1,16,1,2,0,1,30,18,11
2,1,1,0,3,0,1,30,87,11
2,1,8,1,0,0,1,30,13,11
2,1,12,1,3,0,1,30,18,11
3,2,23,0,0,0,1,30,75,11
3,2,1,0,4,0,1,30,72,11
4,2,1,0,4,0,2,30,75,11
4,2,20,1,5,1,2,30,126,11
4,2,18,1,1,0,2,30,89,11
4,2,14,1,2,0,2,30,87,11
5,2,16,1,6,1,2,30,89,11
5,2,16,1,0,0,2,30,38,9
5,2,19,1,4,0,2,30,75,11
5,2,12,1,4,0,2,30,75,11
6,3,12,1,4,0,2,30,89,11
6,3,19,1,2,0,2,30,25,8
6,3,6,0,3,0,2,30,109,11
6,3,11,1,3,0,2,30,89,11
6,3,9,1,4,0,2,30,89,11
7,3,16,1,0,0,3,30,87,11
7,3,16,1,1,0,3,30,18,11
7,3,0,0,3,0,3,30,89,11
7,3,10,1,1,0,3,30,89,11
7,3,19,1,3,0,3,30,110,11
8,3,17,1,3,0,3,30,89,11
8,3,22,0,4,0,3,30,58,8
9,4,18,1,0,0,3,30,87,11
9,4,10,1,4,0,3,30,18,11
9,4,19,1,6,1,3,30,89,11
10,4,15,1,2,0,4,30,87,11
10,4,11,1,1,0,4,30,75,11
11,4,14,1,4,0,4,30,18,11
11,4,13,1,0,0,4,30,65,11
11,4,4,0,4,0,4,30,75,8
11,4,12,1,5,1,4,30,87,11
11,4,10,1,6,1,4,30,100,11
11,4,17,1,6,1,4,30,75,11
12,1,21,0,3,0,4,30,79,11
12,1,3,0,0,0,4,30,75,11
12,1,16,1,5,1,4,30,18,11
3,2,6,0,3,0,1,30,75,11
4,2,17,1,2,0,2,30,89,11
5,2,13,1,1,0,2,30,100,11
7,3,20,1,3,0,3,30,89,11
10,4,0,0,6,1,4,30,47,11
12,1,17,1,5,1,4,30,89,11
3,2,15,1,6,1,1,5,75,11
5,2,15,1,1,0,2,5,89,11
7,3,20,1,2,0,3,5,75,11
9,4,15,1,5,1,3,5,128,8
10,4,17,1,5,1,4,5,89,11
1,1,17,1,0,0,1,30,75,11
2,1,16,1,5,1,1,30,89,11
3,2,23,0,0,0,1,30,75,9
4,2,16,1,2,0,2,30,100,11
5,2,8,1,4,0,2,30,110,11
5,2,14,1,3,0,2,30,4,11
6,3,19,1,4,0,2,30,89,11
6,3,16,1,5,1,2,30,89,11
6,3,15,1,5,1,2,30,100,11
11,4,13,1,0,0,4,30,100,11
11,4,15,1,0,0,4,30,100,11
11,4,9,1,1,0,4,30,100,11
11,4,0,0,4,0,4,30,75,9
12,1,12,1,5,1,4,30,18,9
12,1,14,1,5,1,4,30,128,11
3,2,16,1,0,0,1,30,1,11
5,2,4,0,4,0,2,30,110,11
5,2,13,1,4,0,2,30,63,11
5,2,12,1,6,1,2,30,110,11
6,3,12,1,5,1,2,30,89,11
7,3,12,1,2,0,3,30,100,11
9,4,22,0,5,1,3,30,110,11
10,4,20,1,5,1,4,30,110,11
10,4,13,1,4,0,4,30,110,11
10,4,21,0,0,0,4,30,1,11
12,1,3,0,1,0,4,30,75,9
1,1,22,0,6,1,1,30,128,11
5,2,22,0,3,0,2,30,110,11
6,3,21,0,5,1,2,30,63,11
6,3,15,1,0,0,2,30,46,11
7,3,21,0,6,1,3,30,110,11
7,3,0,0,5,1,3,30,128,11
7,3,1,0,5,1,3,30,110,11
9,4,13,1,0,0,3,30,48,11
10,4,19,1,5,1,4,30,110,11
11,4,14,1,1,0,4,30,110,11
3,2,15,1,0,0,1,30,128,11
4,2,12,1,1,0,2,30,75,11
4,2,4,0,2,0,2,30,110,11
5,2,9,1,3,0,2,30,110,11
7,3,23,0,3,0,3,30,75,11
7,3,0,0,2,0,3,30,110,11
8,3,21,0,1,0,3,30,110,11
8,3,21,0,5,1,3,30,18,11
8,3,21,0,0,0,3,30,110,11
9,4,0,0,3,0,3,30,84,11
10,4,1,0,4,0,4,30,110,11
11,4,23,0,4,0,4,30,1,11
11,4,23,0,3,0,4,30,110,11
12,1,10,1,5,1,4,30,110,11
1,1,22,0,1,0,1,2,100,11
1,1,1,0,3,0,1,2,128,11
1,1,2,0,3,0,1,2,75,11
1,1,12,1,5,1,1,2,128,11
1,1,14,1,5,1,1,2,13,9
1,1,12,1,0,0,1,2,128,11
2,1,23,0,4,0,1,2,128,11
2,1,14,1,1,0,1,2,78,11
2,1,19,1,1,0,1,2,18,11
2,1,12,1,3,0,1,2,65,9
3,2,5,0,4,0,1,2,128,11
3,2,23,0,5,1,1,2,110,11
3,2,22,0,4,0,1,2,100,11
4,2,14,1,2,0,2,2,22,8
4,2,12,1,5,1,2,2,18,9
4,2,16,1,6,1,2,2,18,11
4,2,0,0,0,0,2,2,128,11
4,2,20,1,0,0,2,2,100,11
4,2,11,1,1,0,2,2,14,11
5,2,15,1,2,0,2,2,18,9
5,2,9,1,5,1,2,2,100,11
5,2,8,1,4,0,2,2,18,9
5,2,9,1,1,0,2,2,65,11
5,2,16,1,3,0,2,2,89,11
5,2,19,1,3,0,2,2,18,11
6,3,14,1,1,0,2,2,89,11
6,3,22,0,4,0,2,2,100,9
6,3,12,1,2,0,2,2,87,11
6,3,11,1,3,0,2,2,100,11
6,3,11,1,6,1,2,2,113,9
6,3,12,1,3,0,2,2,100,11
7,3,22,0,1,0,3,2,100,11
7,3,8,1,3,0,3,2,100,11
7,3,13,1,5,1,3,2,100,11
7,3,16,1,0,0,3,2,65,11
7,3,1,0,2,0,3,2,72,11
8,3,23,0,2,0,3,2,100,11
8,3,0,0,6,1,3,2,87,11
8,3,12,1,2,0,3,2,89,11
8,3,15,1,4,0,3,2,100,11
8,3,13,1,5,1,3,2,128,11
8,3,20,1,1,0,3,2,18,11
9,4,17,1,5,1,3,2,100,11
9,4,12,1,2,0,3,2,89,11
10,4,16,1,3,0,4,2,100,11
10,4,9,1,0,0,4,2,100,11
10,4,17,1,5,1,4,2,89,11
10,4,19,1,0,0,4,2,100,11
10,4,8,1,6,1,4,2,100,11
10,4,15,1,0,0,4,2,38,11
11,4,18,1,6,1,4,2,100,11
11,4,13,1,1,0,4,2,110,11
11,4,17,1,1,0,4,2,110,11
12,1,16,1,5,1,4,2,38,11
12,1,14,1,1,0,4,2,65,11
12,1,12,1,3,0,4,2,75,11
1,1,10,1,4,0,1,2,89,11
1,1,20,1,2,0,1,2,128,11
2,1,8,1,3,0,1,2,75,11
2,1,20,1,1,0,1,2,128,11
3,2,16,1,3,0,1,2,128,11
3,2,17,1,1,0,1,2,100,11
4,2,7,1,3,0,2,2,65,11
4,2,14,1,4,0,2,2,18,11
5,2,20,1,6,1,2,2,18,11
6,3,14,1,2,0,2,2,100,11
6,3,11,1,4,0,2,2,100,11
7,3,10,1,0,0,3,2,72,9
7,3,14,1,4,0,3,2,4,9
8,3,0,0,0,0,3,2,67,11
8,3,13,1,0,0,3,2,65,11
8,3,16,1,1,0,3,2,100,11
8,3,10,1,1,0,3,2,75,11
11,4,19,1,1,0,4,2,75,11
11,4,16,1,1,0,4,2,110,11
11,4,17,1,2,0,4,2,89,11
11,4,13,1,1,0,4,2,63,11
12,1,13,1,6,1,4,2,87,11
12,1,20,1,1,0,4,2,128,11
12,1,14,1,2,0,4,2,128,11
12,1,14,1,0,0,4,2,128,11
1,1,18,1,2,0,1,5,100,11
1,1,9,1,2,0,1,5,128,11
3,2,16,1,6,1,1,5,128,11
3,2,17,1,6,1,1,5,100,11
4,2,21,0,4,0,2,5,110,11
6,3,22,0,0,0,2,5,100,11
7,3,20,1,0,0,3,5,100,11
9,4,15,1,5,1,3,5,100,11
10,4,16,1,4,0,4,5,100,11
10,4,13,1,4,0,4,5,100,11
11,4,23,0,3,0,4,5,100,11
11,4,18,1,4,0,4,5,100,11
11,4,17,1,1,0,4,5,110,11
11,4,23,0,1,0,4,5,110,11
11,4,18,1,0,0,4,5,75,9
11,4,21,0,0,0,4,5,100,11
11,4,23,0,2,0,4,5,100,11
12,1,14,1,6,1,4,5,107,11
6,3,8,1,4,0,2,5,98,11
9,4,19,1,6,1,3,5,75,11
10,4,22,0,5,1,4,5,13,11
3,2,0,0,6,1,1,5,88,11
5,2,0,0,0,0,2,5,75,11
6,3,11,1,2,0,2,5,126,11
8,3,22,0,1,0,3,5,89,11
1,1,12,1,3,0,1,2,100,11
1,1,14,1,4,0,1,2,100,11
1,1,16,1,5,1,1,2,100,11
1,1,16,1,5,1,1,2,128,11
1,1,14,1,6,1,1,2,128,11
1,1,17,1,6,1,1,2,110,11
1,1,13,1,3,0,1,2,38,11
1,1,21,0,4,0,1,2,100,11
2,1,9,1,6,1,1,2,100,11
2,1,23,0,4,0,1,2,128,11
2,1,3,0,6,1,1,2,128,11
2,1,9,1,0,0,1,2,128,11
2,1,10,1,0,0,1,2,128,11
2,1,15,1,0,0,1,2,100,11
2,1,1,0,1,0,1,2,110,11
2,1,13,1,6,1,1,2,128,11
2,1,18,1,3,0,1,2,7,11
3,2,21,0,3,0,1,2,18,11
3,2,16,1,3,0,1,2,100,11
3,2,18,1,4,0,1,2,48,11
3,2,13,1,6,1,1,2,13,11
4,2,12,1,3,0,2,2,38,11
4,2,12,1,6,1,2,2,89,11
4,2,17,1,6,1,2,2,100,11
4,2,13,1,0,0,2,2,89,11
4,2,20,1,5,1,2,2,100,11
4,2,11,1,0,0,2,2,100,11
4,2,7,1,0,0,2,2,100,11
5,2,22,0,2,0,2,2,110,11
5,2,20,1,5,1,2,2,57,11
5,2,14,1,6,1,2,2,89,11
5,2,8,1,0,0,2,2,57,11
5,2,19,1,0,0,2,2,65,11
5,2,1,0,6,1,2,2,128,11
5,2,16,1,1,0,2,2,18,11
5,2,17,1,2,0,2,2,18,11
5,2,20,1,5,1,2,2,110,11
5,2,11,1,2,0,2,2,24,11
6,3,21,0,6,1,2,2,110,11
6,3,17,1,2,0,2,2,87,11
6,3,20,1,2,0,2,2,100,11
6,3,14,1,3,0,2,2,89,11
6,3,17,1,4,0,2,2,89,11
6,3,20,1,5,1,2,2,18,11
6,3,12,1,2,0,2,2,100,11
6,3,14,1,5,1,2,2,89,11
7,3,12,1,5,1,3,2,24,11
7,3,16,1,2,0,3,2,100,11
7,3,21,0,5,1,3,2,100,11
7,3,18,1,1,0,3,2,100,11
7,3,12,1,5,1,3,2,38,11
8,3,14,1,4,0,3,2,89,11
8,3,0,0,5,1,3,2,75,11
8,3,2,0,5,1,3,2,100,11
8,3,21,0,6,1,3,2,89,11
8,3,19,1,1,0,3,2,26,11
8,3,19,1,4,0,3,2,89,11
8,3,20,1,6,1,3,2,100,11
9,4,16,1,6,1,3,2,100,11
9,4,6,0,5,1,3,2,58,11
9,4,19,1,2,0,3,2,58,11
9,4,13,1,5,1,3,2,37,11
9,4,14,1,5,1,3,2,92,11
9,4,10,1,3,0,3,2,18,11
9,4,19,1,3,0,3,2,89,11
10,4,17,1,2,0,4,2,75,11
10,4,23,0,3,0,4,2,100,11
10,4,3,0,0,0,4,2,89,11
10,4,9,1,6,1,4,2,89,11
10,4,10,1,0,0,4,2,89,11
10,4,8,1,1,0,4,2,7,11
11,4,11,1,4,0,4,2,38,11
11,4,17,1,0,0,4,2,100,11
11,4,9,1,1,0,4,2,89,11
11,4,11,1,2,0,4,2,75,11
11,4,7,1,4,0,4,2,110,11
11,4,11,1,4,0,4,2,128,11
12,1,6,0,4,0,4,2,18,11
12,1,1,0,6,1,4,2,128,11
12,1,1,0,2,0,4,2,128,11
12,1,8,1,2,0,4,2,7,11
12,1,16,1,2,0,4,2,75,11
12,1,23,0,6,1,4,2,89,11
12,1,10,1,0,0,4,2,58,11
12,1,10,1,0,0,4,2,89,11
1,1,13,1,2,0,1,28,65,11
1,1,1,0,3,0,1,28,128,11
1,1,8,1,3,0,1,28,100,11
1,1,3,0,6,1,1,28,128,11
1,1,23,0,6,1,1,28,89,11
1,1,17,1,2,0,1,28,128,11
1,1,11,1,2,0,1,28,128,11
2,1,0,0,4,0,1,28,75,9
2,1,12,1,5,1,1,28,100,11
2,1,17,1,5,1,1,28,100,11
2,1,13,1,0,0,1,28,14,11
2,1,20,1,4,0,1,28,18,9
2,1,18,1,6,1,1,28,89,11
2,1,9,1,0,0,1,28,65,11
2,1,19,1,0,0,1,28,89,11
2,1,10,1,2,0,1,28,84,11
2,1,19,1,3,0,1,28,128,8
2,1,18,1,5,1,1,28,128,11
3,2,2,0,3,0,1,28,128,11
3,2,13,1,5,1,1,28,89,11
3,2,21,0,5,1,1,28,89,11
3,2,23,0,4,0,1,28,128,11
3,2,17,1,1,0,1,28,89,11
3,2,20,1,3,0,1,28,100,11
3,2,4,0,0,0,1,28,18,8
3,2,18,1,2,0,1,28,89,11
3,2,12,1,5,1,1,28,100,11
4,2,12,1,2,0,2,28,18,11
4,2,8,1,0,0,2,28,89,11
4,2,9,1,0,0,2,28,87,11
4,2,20,1,2,0,2,28,89,11
4,2,8,1,3,0,2,28,72,8
4,2,19,1,3,0,2,28,89,11
4,2,23,0,4,0,2,28,89,11
4,2,13,1,5,1,2,28,89,11
4,2,15,1,0,0,2,28,89,11
4,2,19,1,6,1,2,28,128,11
4,2,14,1,0,0,2,28,89,11
4,2,3,0,1,0,2,28,89,11
4,2,14,1,2,0,2,28,89,11
4,2,16,1,4,0,2,28,128,11
4,2,22,0,5,1,2,28,100,11
4,2,15,1,0,0,2,28,100,11
4,2,4,0,1,0,2,28,89,11
4,2,21,0,1,0,2,28,89,11
5,2,16,1,2,0,2,28,89,11
5,2,1,0,3,0,2,28,128,11
5,2,21,0,4,0,2,28,89,11
5,2,12,1,6,1,2,28,100,11
5,2,17,1,1,0,2,28,89,11
5,2,16,1,2,0,2,28,89,11
5,2,20,1,2,0,2,28,18,11
5,2,22,0,2,0,2,28,100,11
5,2,20,1,4,0,2,28,75,11
5,2,17,1,6,1,2,28,89,11
5,2,1,0,0,0,2,28,89,11
5,2,11,1,3,0,2,28,22,11
5,2,13,1,3,0,2,28,18,9
5,2,2,0,1,0,2,28,128,11
5,2,2,0,3,0,2,28,128,11
5,2,1,0,4,0,2,28,128,11
6,3,22,0,5,1,2,28,100,11
6,3,20,1,0,0,2,28,89,11
6,3,12,1,1,0,2,28,89,11
6,3,7,1,3,0,2,28,89,11
6,3,8,1,3,0,2,28,89,11
6,3,17,1,3,0,2,28,89,11
6,3,3,0,4,0,2,28,18,9
6,3,16,1,5,1,2,28,18,11
6,3,10,1,6,1,2,28,89,11
6,3,17,1,2,0,2,28,89,11
6,3,0,0,3,0,2,28,89,11
6,3,22,0,5,1,2,28,89,11
6,3,10,1,6,1,2,28,100,11
6,3,17,1,6,1,2,28,89,11
6,3,12,1,1,0,2,28,89,11
6,3,13,1,1,0,2,28,89,11
6,3,3,0,3,0,2,28,89,11
6,3,13,1,3,0,2,28,89,11
6,3,18,1,4,0,2,28,89,11
6,3,12,1,5,1,2,28,89,11
6,3,17,1,5,1,2,28,89,9
6,3,1,0,0,0,2,28,89,9
6,3,16,1,1,0,2,28,128,11
6,3,18,1,5,1,2,28,128,11
6,3,20,1,6,1,2,28,89,11
7,3,7,1,0,0,3,28,100,11
7,3,18,1,0,0,3,28,75,11
7,3,21,0,2,0,3,28,89,11
7,3,8,1,3,0,3,28,89,9
7,3,18,1,3,0,3,28,89,11
7,3,18,1,3,0,3,28,89,11
7,3,9,1,4,0,3,28,89,11
7,3,12,1,6,1,3,28,18,11
7,3,20,1,0,0,3,28,100,11
7,3,11,1,1,0,3,28,89,11
7,3,10,1,4,0,3,28,89,11
7,3,11,1,6,1,3,28,100,11
7,3,11,1,6,1,3,28,128,9
7,3,5,0,0,0,3,28,89,11
7,3,15,1,0,0,3,28,89,11
7,3,14,1,1,0,3,28,128,11
7,3,15,1,3,0,3,28,75,9
7,3,22,0,3,0,3,28,89,11
7,3,8,1,4,0,3,28,89,11
7,3,12,1,4,0,3,28,89,11
7,3,13,1,4,0,3,28,100,11
7,3,9,1,6,1,3,28,18,11
7,3,13,1,6,1,3,28,89,11
7,3,9,1,0,0,3,28,89,11
7,3,17,1,1,0,3,28,100,11
7,3,19,1,2,0,3,28,89,11
7,3,12,1,3,0,3,28,128,11
7,3,12,1,4,0,3,28,100,11
7,3,20,1,5,1,3,28,89,11
7,3,13,1,6,1,3,28,128,11
7,3,14,1,6,1,3,28,89,11
7,3,2,0,0,0,3,28,100,11
7,3,11,1,0,0,3,28,89,11
7,3,12,1,1,0,3,28,89,11
7,3,21,0,1,0,3,28,18,9
7,3,13,1,2,0,3,28,89,11
7,3,13,1,2,0,3,28,18,11
7,3,15,1,2,0,3,28,100,11
8,3,19,1,3,0,3,28,89,11
8,3,20,1,5,1,3,28,128,11
8,3,21,0,5,1,3,28,89,11
8,3,17,1,0,0,3,28,89,11
8,3,18,1,0,0,3,28,89,11
8,3,19,1,0,0,3,28,89,11
8,3,14,1,2,0,3,28,100,11
8,3,18,1,2,0,3,28,89,11
8,3,19,1,2,0,3,28,89,11
8,3,21,0,2,0,3,28,100,11
8,3,11,1,3,0,3,28,97,11
8,3,12,1,3,0,3,28,100,11
8,3,19,1,3,0,3,28,89,11
8,3,19,1,5,1,3,28,89,11
8,3,22,0,5,1,3,28,89,11
8,3,12,1,6,1,3,28,89,11
8,3,17,1,6,1,3,28,89,11
8,3,23,0,1,0,3,28,89,11
8,3,8,1,2,0,3,28,100,11
8,3,15,1,2,0,3,28,89,11
8,3,17,1,2,0,3,28,89,11
8,3,0,0,4,0,3,28,128,11
8,3,12,1,4,0,3,28,100,11
8,3,20,1,4,0,3,28,100,11
8,3,9,1,5,1,3,28,89,11
8,3,19,1,5,1,3,28,22,8
8,3,18,1,6,1,3,28,89,11
8,3,9,1,0,0,3,28,89,11
8,3,20,1,5,1,3,28,76,11
8,3,19,1,0,0,3,28,89,11
8,3,16,1,1,0,3,28,89,11
8,3,20,1,2,0,3,28,89,11
8,3,20,1,2,0,3,28,89,11
8,3,19,1,3,0,3,28,100,11
8,3,19,1,3,0,3,28,89,11
8,3,14,1,4,0,3,28,89,11
8,3,20,1,5,1,3,28,89,11
8,3,21,0,5,1,3,28,100,11
9,4,13,1,6,1,3,28,100,11
9,4,15,1,6,1,3,28,89,11
9,4,18,1,1,0,3,28,89,11
9,4,9,1,2,0,3,28,89,11
9,4,15,1,2,0,3,28,18,8
9,4,16,1,2,0,3,28,89,11
9,4,0,0,5,1,3,28,89,11
9,4,21,0,5,1,3,28,65,11
9,4,10,1,0,0,3,28,89,11
9,4,3,0,1,0,3,28,100,11
9,4,12,1,1,0,3,28,100,11
9,4,15,1,2,0,3,28,128,11
9,4,17,1,3,0,3,28,89,11
9,4,10,1,4,0,3,28,89,11
9,4,19,1,4,0,3,28,128,11
9,4,13,1,5,1,3,28,89,11
9,4,10,1,6,1,3,28,12,9
9,4,10,1,0,0,3,28,100,11
9,4,10,1,0,0,3,28,89,11
9,4,14,1,0,0,3,28,46,11
9,4,15,1,0,0,3,28,89,11
9,4,17,1,1,0,3,28,39,8
9,4,17,1,2,0,3,28,89,11
9,4,20,1,2,0,3,28,89,11
9,4,18,1,3,0,3,28,89,11
9,4,21,0,3,0,3,28,72,9
9,4,9,1,5,1,3,28,89,11
9,4,19,1,5,1,3,28,89,11
9,4,20,1,5,1,3,28,89,11
9,4,19,1,6,1,3,28,128,11
9,4,17,1,0,0,3,28,75,11
9,4,17,1,1,0,3,28,89,11
9,4,19,1,1,0,3,28,89,11
9,4,18,1,2,0,3,28,89,11
9,4,8,1,4,0,3,28,89,11
9,4,6,0,0,0,3,28,38,9
9,4,10,1,0,0,3,28,18,8
9,4,18,1,0,0,3,28,89,11
9,4,18,1,0,0,3,28,89,11
10,4,10,1,1,0,4,28,100,11
10,4,9,1,5,1,4,28,89,11
10,4,14,1,2,0,4,28,89,11
10,4,16,1,5,1,4,28,100,11
10,4,17,1,5,1,4,28,89,11
10,4,17,1,3,0,4,28,100,11
10,4,8,1,4,0,4,28,89,11
10,4,18,1,4,0,4,28,89,11
10,4,16,1,6,1,4,28,89,11
10,4,18,1,0,0,4,28,89,11
10,4,9,1,2,0,4,28,65,11
10,4,22,0,0,0,4,28,100,11
10,4,16,1,2,0,4,28,89,11
10,4,7,1,3,0,4,28,89,11
10,4,21,0,3,0,4,28,89,11
11,4,15,1,0,0,4,28,18,11
11,4,17,1,4,0,4,28,89,11
11,4,17,1,6,1,4,28,89,11
11,4,10,1,1,0,4,28,110,11
11,4,9,1,6,1,4,28,128,11
11,4,13,1,1,0,4,28,89,11
11,4,17,1,2,0,4,28,100,11
11,4,22,0,3,0,4,28,18,11
11,4,16,1,4,0,4,28,89,11
11,4,8,1,1,0,4,28,89,11
11,4,11,1,1,0,4,28,89,11
11,4,13,1,1,0,4,28,89,11
11,4,17,1,1,0,4,28,100,11
11,4,22,0,2,0,4,28,89,11
11,4,18,1,4,0,4,28,100,11
12,1,3,0,2,0,4,28,22,9
12,1,5,0,2,0,4,28,89,11
12,1,17,1,2,0,4,28,89,11
12,1,18,1,2,0,4,28,89,11
12,1,17,1,3,0,4,28,89,11
12,1,12,1,4,0,4,28,128,11
12,1,16,1,5,1,4,28,89,11
12,1,4,0,5,1,4,28,128,11
12,1,13,1,2,0,4,28,128,11
12,1,4,0,3,0,4,28,67,11
12,1,14,1,1,0,4,28,75,9
12,1,18,1,1,0,4,28,18,9
12,1,22,0,1,0,4,28,128,9
1,1,14,1,0,0,1,28,87,11
1,1,14,1,6,1,1,28,75,11
1,1,21,0,6,1,1,28,4,11
2,1,21,0,6,1,1,28,7,9
2,1,6,0,0,0,1,28,7,11
2,1,17,1,3,0,1,28,89,11
2,1,18,1,2,0,1,28,75,11
2,1,8,1,1,0,1,28,75,9
3,2,11,1,0,0,1,28,89,11
3,2,13,1,0,0,1,28,26,11
3,2,16,1,4,0,1,28,89,11
3,2,11,1,6,1,1,28,89,11
3,2,15,1,0,0,1,28,89,11
3,2,12,1,6,1,1,28,75,11
3,2,13,1,6,1,1,28,89,11
3,2,0,0,3,0,1,28,100,11
3,2,11,1,6,1,1,28,4,11
4,2,18,1,0,0,2,28,100,11
4,2,8,1,2,0,2,28,65,9
4,2,19,1,6,1,2,28,89,11
4,2,17,1,1,0,2,28,89,11
4,2,0,0,6,1,2,28,4,11
4,2,13,1,6,1,2,28,128,11
4,2,15,1,4,0,2,28,89,11
4,2,6,0,2,0,2,28,65,9
4,2,11,1,6,1,2,28,100,11
4,2,13,1,1,0,2,28,89,11
5,2,22,0,6,1,2,28,126,11
5,2,9,1,0,0,2,28,52,11
5,2,14,1,0,0,2,28,72,11
5,2,15,1,0,0,2,28,34,11
5,2,20,1,0,0,2,28,26,11
6,3,20,1,0,0,2,28,87,11
6,3,12,1,2,0,2,28,89,11
6,3,13,1,3,0,2,28,89,11
6,3,21,0,6,1,2,28,34,9
7,3,16,1,3,0,3,28,34,11
7,3,16,1,3,0,3,28,34,11
7,3,11,1,6,1,3,28,75,11
7,3,7,1,0,0,3,28,89,11
8,3,23,0,0,0,3,28,112,9
8,3,17,1,3,0,3,28,72,11
9,4,20,1,4,0,3,28,44,11
9,4,21,0,3,0,3,28,46,11
10,4,11,1,4,0,4,28,81,11
10,4,13,1,0,0,4,28,128,11
10,4,0,0,6,1,4,28,67,11
11,4,12,1,5,1,4,28,89,11
11,4,12,1,6,1,4,28,4,11
11,4,6,0,1,0,4,28,110,11
11,4,16,1,1,0,4,28,4,9
11,4,15,1,5,1,4,28,81,11
12,1,11,1,5,1,4,28,89,11
12,1,10,1,5,1,4,28,100,11
1,1,21,0,2,0,1,28,100,11
1,1,9,1,6,1,1,28,45,11
1,1,20,1,6,1,1,28,95,11
1,1,12,1,1,0,1,28,100,11
1,1,17,1,2,0,1,28,100,11
1,1,18,1,5,1,1,28,100,11
1,1,8,1,1,0,1,28,18,11
2,1,19,1,5,1,1,28,100,11
2,1,12,1,0,0,1,28,100,11
2,1,18,1,3,0,1,28,7,11
2,1,12,1,5,1,1,28,87,11
2,1,17,1,2,0,1,28,12,11
2,1,13,1,4,0,1,28,7,11
2,1,18,1,1,0,1,28,100,11
3,2,11,1,5,1,1,28,18,11
3,2,13,1,0,0,1,28,95,11
3,2,20,1,0,0,1,28,89,11
3,2,18,1,3,0,1,28,100,11
3,2,18,1,4,0,1,28,100,11
3,2,10,1,1,0,1,28,89,11
3,2,21,0,5,1,1,28,95,11
3,2,16,1,6,1,1,28,89,11
4,2,20,1,0,0,2,28,100,11
4,2,19,1,0,0,2,28,100,11
4,2,20,1,5,1,2,28,89,11
4,2,16,1,4,0,2,28,18,11
4,2,11,1,6,1,2,28,89,11
4,2,12,1,0,0,2,28,89,11
4,2,22,0,0,0,2,28,89,11
5,2,12,1,5,1,2,28,89,11
5,2,16,1,6,1,2,28,100,11
5,2,14,1,5,1,2,28,72,11
5,2,23,0,2,0,2,28,100,11
5,2,23,0,6,1,2,28,44,8
5,2,14,1,2,0,2,28,100,11
6,3,11,1,2,0,2,28,89,11
6,3,11,1,0,0,2,28,18,11
6,3,20,1,1,0,2,28,100,11
6,3,22,0,2,0,2,28,95,11
6,3,15,1,6,1,2,28,89,11
7,3,21,0,1,0,3,28,89,11
7,3,16,1,3,0,3,28,110,11
7,3,17,1,3,0,3,28,110,11
7,3,11,1,0,0,3,28,18,11
7,3,13,1,3,0,3,28,89,11
7,3,18,1,5,1,3,28,100,11
7,3,22,0,6,1,3,28,100,11
7,3,23,0,0,0,3,28,100,11
7,3,0,0,5,1,3,28,117,11
7,3,10,1,5,1,3,28,100,11
8,3,22,0,5,1,3,28,44,8
8,3,8,1,2,0,3,28,72,9
8,3,4,0,0,0,3,28,100,11
9,4,4,0,0,0,3,28,100,11
9,4,20,1,1,0,3,28,38,11
9,4,20,1,2,0,3,28,89,11
9,4,18,1,6,1,3,28,100,11
9,4,10,1,6,1,3,28,18,11
9,4,15,1,6,1,3,28,100,11
9,4,12,1,6,1,3,28,18,11
10,4,14,1,5,1,4,28,89,11
10,4,11,1,5,1,4,28,100,11
10,4,10,1,4,0,4,28,13,11
10,4,17,1,0,0,4,28,89,11
11,4,6,0,1,0,4,28,110,11
11,4,12,1,0,0,4,28,89,11
11,4,9,1,4,0,4,28,18,11
11,4,17,1,0,0,4,28,100,11
11,4,16,1,1,0,4,28,89,11
11,4,16,1,3,0,4,28,100,11
12,1,16,1,0,0,4,28,26,11
12,1,10,1,6,1,4,28,100,11
12,1,10,1,4,0,4,28,95,11
1,1,14,1,0,0,1,28,75,11
2,1,7,1,5,1,1,28,95,11
8,3,10,1,6,1,3,28,18,11
9,4,16,1,3,0,3,28,110,11
10,4,11,1,5,1,4,28,110,11
11,4,23,0,5,1,4,28,128,11
12,1,16,1,5,1,4,28,75,11
12,1,11,1,4,0,4,28,75,11
1,1,9,1,4,0,1,46,87,11
1,1,23,0,4,0,1,46,97,11
1,1,12,1,5,1,1,46,87,9
1,1,20,1,3,0,1,46,38,11
1,1,5,0,2,0,1,46,89,11
1,1,13,1,2,0,1,46,87,11
1,1,2,0,5,1,1,46,87,11
1,1,13,1,2,0,1,46,12,11
2,1,14,1,4,0,1,46,18,11
2,1,18,1,5,1,1,46,87,11
2,1,18,1,6,1,1,46,87,11
2,1,22,0,0,0,1,46,65,11
2,1,18,1,2,0,1,46,65,11
3,2,14,1,6,1,1,46,87,11
3,2,19,1,4,0,1,46,87,11
4,2,20,1,3,0,2,46,87,11
4,2,18,1,5,1,2,46,87,11
4,2,11,1,2,0,2,46,65,11
5,2,20,1,2,0,2,46,65,11
5,2,21,0,4,0,2,46,65,11
5,2,13,1,4,0,2,46,128,11
5,2,12,1,2,0,2,46,117,11
6,3,18,1,0,0,2,46,89,11
6,3,21,0,0,0,2,46,87,11
6,3,23,0,1,0,2,46,100,11
6,3,12,1,4,0,2,46,89,11
6,3,8,1,0,0,2,46,65,11
6,3,20,1,6,1,2,46,65,11
7,3,12,1,2,0,3,46,89,11
7,3,12,1,0,0,3,46,89,11
8,3,8,1,4,0,3,46,87,11
8,3,17,1,2,0,3,46,89,11
8,3,15,1,6,1,3,46,65,11
8,3,9,1,5,1,3,46,100,11
10,4,13,1,1,0,4,46,87,11
10,4,12,1,4,0,4,46,89,11
11,4,12,1,4,0,4,46,100,11
11,4,17,1,0,0,4,46,38,11
11,4,20,1,1,0,4,46,87,11
1,1,22,0,0,0,1,46,128,11
1,1,14,1,1,0,1,46,38,9
1,1,16,1,1,0,1,46,26,11
2,1,16,1,2,0,1,46,95,11
2,1,16,1,4,0,1,46,87,11
3,2,6,0,3,0,1,46,109,11
3,2,9,1,4,0,1,46,72,11
3,2,21,0,5,1,1,46,38,11
4,2,14,1,3,0,2,46,89,11
4,2,11,1,6,1,2,46,75,8
5,2,19,1,6,1,2,46,100,11
5,2,20,1,4,0,2,46,4,11
5,2,11,1,2,0,2,46,128,11
5,2,12,1,2,0,2,46,89,11
5,2,15,1,2,0,2,46,26,9
6,3,3,0,3,0,2,46,4,11
6,3,8,1,3,0,2,46,26,11
6,3,13,1,6,1,2,46,12,11
7,3,6,0,2,0,3,46,37,11
7,3,21,0,2,0,3,46,4,11
7,3,20,1,2,0,3,46,100,11
7,3,13,1,5,1,3,46,4,11
7,3,16,1,6,1,3,46,89,11
7,3,20,1,2,0,3,46,100,11
8,3,14,1,4,0,3,46,100,11
8,3,12,1,3,0,3,46,75,9
9,4,13,1,1,0,3,46,4,11
10,4,17,1,3,0,4,46,100,11
10,4,17,1,2,0,4,46,100,11
10,4,18,1,3,0,4,46,4,11
10,4,10,1,2,0,4,46,109,9
11,4,15,1,5,1,4,46,4,11
12,1,13,1,6,1,4,46,72,11
12,1,8,1,0,0,4,46,72,11
12,1,20,1,6,1,4,46,100,11
1,1,13,1,0,0,1,46,89,11
10,4,9,1,3,0,4,46,13,11
2,1,13,1,3,0,1,46,100,11
4,2,20,1,5,1,2,46,26,11
4,2,15,1,4,0,2,46,100,11
5,2,13,1,2,0,2,46,4,11
6,3,11,1,4,0,2,46,89,11
8,3,2,0,6,1,3,46,12,11
1,1,1,0,6,1,1,46,75,11
2,1,14,1,4,0,1,46,100,11
3,2,20,1,6,1,1,46,87,11
3,2,20,1,6,1,1,46,7,11
3,2,11,1,3,0,1,46,100,11
3,2,10,1,5,1,1,46,100,11
4,2,19,1,2,0,2,46,4,11
4,2,12,1,4,0,2,46,4,11
4,2,12,1,5,1,2,46,26,11
4,2,15,1,5,1,2,46,89,11
4,2,16,1,6,1,2,46,26,11
5,2,14,1,4,0,2,46,4,11
5,2,12,1,2,0,2,46,4,11
5,2,1,0,6,1,2,46,46,11
6,3,19,1,1,0,2,46,26,9
6,3,15,1,2,0,2,46,26,11
6,3,19,1,3,0,2,46,26,11
6,3,8,1,2,0,2,46,26,11
6,3,12,1,1,0,2,46,26,11
7,3,9,1,6,1,3,46,26,11
7,3,18,1,0,0,3,46,57,9
7,3,17,1,4,0,3,46,26,9
8,3,15,1,3,0,3,46,26,9
8,3,18,1,1,0,3,46,75,11
9,4,14,1,5,1,3,46,26,9
10,4,21,0,0,0,4,46,125,11
10,4,10,1,1,0,4,46,26,11
11,4,17,1,5,1,4,46,100,11
11,4,12,1,4,0,4,46,128,11
11,4,17,1,5,1,4,46,26,11
12,1,20,1,0,0,4,46,75,11
1,1,16,1,3,0,1,46,100,11
1,1,16,1,1,0,1,46,100,11
2,1,19,1,1,0,1,46,89,11
2,1,9,1,2,0,1,46,84,11
3,2,18,1,6,1,1,46,100,11
4,2,14,1,5,1,2,46,4,11
4,2,19,1,4,0,2,46,128,11
4,2,12,1,0,0,2,46,100,11
4,2,10,1,1,0,2,46,128,11
4,2,16,1,2,0,2,46,26,11
6,3,12,1,5,1,2,46,4,11
8,3,17,1,3,0,3,46,4,11
11,4,14,1,5,1,4,46,89,11
11,4,16,1,5,1,4,46,4,11
11,4,15,1,4,0,4,46,100,11
12,1,11,1,5,1,4,46,89,11
5,2,3,0,4,0,2,46,110,11
5,2,21,0,6,1,2,46,44,8
5,2,13,1,2,0,2,46,18,11
10,4,20,1,3,0,4,46,18,11
1,1,21,0,3,0,1,46,75,8
1,1,12,1,6,1,1,46,100,11
2,1,19,1,3,0,1,46,75,11
2,1,16,1,6,1,1,46,100,11
2,1,20,1,5,1,1,46,100,11
3,2,12,1,3,0,1,46,110,11
3,2,12,1,2,0,1,46,75,9
4,2,15,1,1,0,2,46,89,11
4,2,20,1,2,0,2,46,89,11
4,2,15,1,6,1,2,46,128,11
5,2,12,1,1,0,2,46,89,11
8,3,11,1,1,0,3,46,75,11
8,3,20,1,2,0,3,46,18,11
9,4,14,1,1,0,3,46,75,11
11,4,14,1,5,1,4,46,89,11
11,4,18,1,1,0,4,46,87,11
12,1,17,1,4,0,4,46,100,11
12,1,19,1,6,1,4,46,75,11
1,1,16,1,1,0,1,13,75,9
1,1,0,0,2,0,1,13,65,11
1,1,12,1,2,0,1,13,87,11
1,1,12,1,6,1,1,13,100,9
2,1,12,1,3,0,1,13,87,11
2,1,13,1,5,1,1,13,87,11
2,1,23,0,2,0,1,13,87,11
2,1,13,1,0,0,1,13,89,11
3,2,20,1,4,0,1,13,89,11
3,2,21,0,4,0,1,13,65,11
3,2,20,1,0,0,1,13,65,11
3,2,19,1,2,0,1,13,87,11
3,2,21,0,4,0,1,13,65,11
3,2,18,1,6,1,1,13,89,11
4,2,22,0,3,0,2,13,89,11
4,2,12,1,3,0,2,13,89,11
4,2,9,1,5,1,2,13,87,11
5,2,12,1,3,0,2,13,89,11
5,2,0,0,6,1,2,13,65,11
8,3,6,0,4,0,3,13,87,11
8,3,9,1,0,0,3,13,89,11
8,3,18,1,0,0,3,13,89,11
8,3,13,1,3,0,3,13,87,11
9,4,15,1,3,0,3,13,89,11
10,4,6,0,0,0,4,13,87,11
10,4,20,1,4,0,4,13,87,11
10,4,13,1,1,0,4,13,87,11
11,4,21,0,5,1,4,13,38,9
11,4,0,0,0,0,4,13,128,11
11,4,16,1,3,0,4,13,38,11
12,1,12,1,1,0,4,13,87,11
12,1,1,0,4,0,4,13,128,11
12,1,19,1,1,0,4,13,65,11
12,1,9,1,6,1,4,13,87,11
6,3,7,1,4,0,2,13,12,11
1,1,4,0,6,1,1,13,12,11
12,1,13,1,6,1,4,13,78,9
1,1,17,1,4,0,1,48,18,11
1,1,14,1,0,0,1,48,18,8
1,1,0,0,2,0,1,48,75,11
1,1,13,1,1,0,1,48,1,11
2,1,14,1,0,0,1,48,100,11
2,1,12,1,2,0,1,48,12,11
2,1,12,1,2,0,1,48,100,11
2,1,14,1,0,0,1,48,100,11
2,1,14,1,5,1,1,48,100,11
2,1,17,1,3,0,1,48,100,11
3,2,18,1,1,0,1,48,65,11
3,2,11,1,6,1,1,48,18,11
3,2,11,1,3,0,1,48,13,9
3,2,12,1,3,0,1,48,100,11
4,2,11,1,1,0,2,48,64,11
4,2,14,1,0,0,2,48,89,11
4,2,10,1,2,0,2,48,4,11
4,2,20,1,3,0,2,48,103,11
4,2,15,1,1,0,2,48,81,11
5,2,18,1,2,0,2,48,100,11
5,2,20,1,1,0,2,48,100,11
5,2,19,1,0,0,2,48,100,11
5,2,9,1,4,0,2,48,100,11
5,2,20,1,6,1,2,48,81,11
5,2,7,1,2,0,2,48,100,11
6,3,20,1,5,1,2,48,100,11
6,3,6,0,2,0,2,48,18,11
7,3,13,1,2,0,3,48,100,11
7,3,19,1,5,1,3,48,100,11
7,3,22,0,1,0,3,48,100,11
8,3,15,1,3,0,3,48,89,11
8,3,21,0,2,0,3,48,1,11
8,3,18,1,0,0,3,48,89,11
9,4,14,1,1,0,3,48,100,11
9,4,18,1,3,0,3,48,100,11
10,4,15,1,1,0,4,48,100,11
11,4,19,1,1,0,4,48,89,11
1,1,16,1,2,0,1,48,1,11
4,2,13,1,2,0,2,48,128,11
6,3,19,1,3,0,2,48,66,11
11,4,22,0,4,0,4,48,65,11
2,1,3,0,6,1,1,48,75,11
2,1,16,1,6,1,1,48,75,11
2,1,16,1,3,0,1,48,100,11
4,2,9,1,1,0,2,48,89,11
4,2,17,1,5,1,2,48,100,11
4,2,11,1,2,0,2,48,100,11
7,3,0,0,0,0,3,48,89,11
10,4,9,1,2,0,4,48,1,11
11,4,11,1,6,1,4,48,89,11
11,4,22,0,1,0,4,48,100,11
11,4,17,1,0,0,4,48,89,11
1,1,4,0,2,0,1,48,72,11
1,1,10,1,6,1,1,48,89,11
1,1,9,1,5,1,1,48,87,11
1,1,14,1,6,1,1,48,87,11
2,1,16,1,4,0,1,48,75,11
2,1,14,1,3,0,1,48,100,11
3,2,18,1,5,1,1,48,57,11
4,2,15,1,5,1,2,48,100,11
4,2,3,0,6,1,2,48,89,11
4,2,18,1,1,0,2,48,89,11
5,2,13,1,5,1,2,48,38,11
5,2,10,1,6,1,2,48,89,11
5,2,22,0,1,0,2,48,87,11
5,2,11,1,3,0,2,48,4,11
6,3,17,1,0,0,2,48,89,11
7,3,20,1,6,1,3,48,87,11
7,3,19,1,5,1,3,48,75,11
8,3,8,1,2,0,3,48,75,11
8,3,4,0,0,0,3,48,22,8
9,4,11,1,0,0,3,48,89,11
10,4,17,1,5,1,4,48,110,11
10,4,13,1,6,1,4,48,12,9
11,4,18,1,4,0,4,48,89,11
11,4,11,1,2,0,4,48,24,11
11,4,9,1,0,0,4,48,89,11
11,4,22,0,3,0,4,48,42,9
12,1,22,0,5,1,4,48,75,11
12,1,8,1,4,0,4,48,100,11
1,1,18,1,4,0,1,7,87,11
1,1,11,1,1,0,1,7,75,11
1,1,22,0,2,0,1,7,97,11
1,1,19,1,2,0,1,7,87,11
1,1,17,1,0,0,1,7,12,11
2,1,19,1,4,0,1,7,58,11
2,1,13,1,2,0,1,7,72,11
2,1,6,0,3,0,1,7,75,11
2,1,23,0,4,0,1,7,72,11
2,1,14,1,5,1,1,7,89,11
2,1,12,1,5,1,1,7,100,11
3,2,12,1,1,0,1,7,75,11
3,2,16,1,2,0,1,7,100,11
3,2,17,1,3,0,1,7,103,11
3,2,16,1,0,0,1,7,75,11
3,2,17,1,0,0,1,7,100,11
3,2,14,1,2,0,1,7,76,11
3,2,14,1,6,1,1,7,100,11
4,2,18,1,5,1,2,7,100,11
4,2,20,1,5,1,2,7,100,11
4,2,17,1,0,0,2,7,100,11
4,2,12,1,2,0,2,7,100,11
4,2,12,1,4,0,2,7,100,11
4,2,12,1,4,0,2,7,89,11
4,2,11,1,6,1,2,7,100,11
4,2,17,1,6,1,2,7,100,11
4,2,13,1,5,1,2,7,100,11
5,2,13,1,3,0,2,7,87,11
5,2,11,1,5,1,2,7,89,11
5,2,10,1,1,0,2,7,100,11
5,2,18,1,3,0,2,7,83,11
5,2,14,1,1,0,2,7,100,11
5,2,22,0,2,0,2,7,100,11
5,2,7,1,5,1,2,7,109,11
5,2,19,1,5,1,2,7,100,11
5,2,8,1,6,1,2,7,72,11
5,2,19,1,6,1,2,7,100,11
5,2,17,1,1,0,2,7,12,9
6,3,13,1,2,0,2,7,100,11
6,3,0,0,5,1,2,7,95,11
6,3,0,0,1,0,2,7,100,11
6,3,12,1,0,0,2,7,72,11
6,3,19,1,1,0,2,7,103,11
6,3,15,1,4,0,2,7,100,11
6,3,19,1,6,1,2,7,100,11
6,3,14,1,0,0,2,7,89,11
6,3,4,0,5,1,2,7,100,11
7,3,9,1,5,1,3,7,89,11
7,3,23,0,6,1,3,7,128,11
7,3,20,1,0,0,3,7,72,11
7,3,18,1,2,0,3,7,72,11
7,3,19,1,1,0,3,7,89,11
7,3,21,0,1,0,3,7,89,11
7,3,2,0,2,0,3,7,100,11
7,3,10,1,2,0,3,7,100,11
7,3,23,0,3,0,3,7,100,11
8,3,19,1,6,1,3,7,110,11
8,3,20,1,0,0,3,7,72,11
8,3,20,1,2,0,3,7,100,11
8,3,12,1,6,1,3,7,38,11
8,3,10,1,0,0,3,7,75,11
8,3,22,0,2,0,3,7,72,11
8,3,23,0,0,0,3,7,38,11
8,3,14,1,4,0,3,7,72,11
9,4,8,1,3,0,3,7,75,11
9,4,13,1,4,0,3,7,89,11
9,4,14,1,6,1,3,7,72,11
9,4,19,1,3,0,3,7,128,11
9,4,0,0,4,0,3,7,13,11
9,4,15,1,5,1,3,7,72,11
9,4,4,0,6,1,3,7,72,11
9,4,12,1,6,1,3,7,100,11
10,4,15,1,1,0,4,7,100,11
10,4,11,1,3,0,4,7,4,11
10,4,14,1,3,0,4,7,22,11
10,4,12,1,4,0,4,7,4,11
10,4,14,1,0,0,4,7,100,11
10,4,11,1,0,0,4,7,87,11
11,4,4,0,3,0,4,7,12,11
11,4,22,0,2,0,4,7,89,11
11,4,22,0,5,1,4,7,110,11
12,1,6,0,6,1,4,7,87,11
12,1,16,1,2,0,4,7,87,11
12,1,6,0,2,0,4,7,87,11
12,1,21,0,1,0,4,7,75,11
12,1,10,1,5,1,4,7,87,11
1,1,19,1,0,0,1,7,128,11
1,1,13,1,2,0,1,7,75,11
1,1,12,1,6,1,1,7,1,11
1,1,17,1,6,1,1,7,18,11
1,1,11,1,2,0,1,7,87,11
1,1,20,1,2,0,1,7,128,11
1,1,21,0,0,0,1,7,12,11
1,1,12,1,5,1,1,7,38,11
1,1,17,1,2,0,1,7,89,11
1,1,14,1,4,0,1,7,100,11
2,1,13,1,6,1,1,7,100,11
2,1,21,0,6,1,1,7,89,11
2,1,8,1,0,0,1,7,65,11
2,1,18,1,0,0,1,7,88,11
2,1,19,1,0,0,1,7,100,11
2,1,11,1,4,0,1,7,89,11
2,1,13,1,4,0,1,7,4,11
2,1,20,1,4,0,1,7,100,11
2,1,15,1,6,1,1,7,100,11
2,1,0,0,1,0,1,7,75,11
2,1,17,1,2,0,1,7,75,11
3,2,21,0,5,1,1,7,128,11
3,2,0,0,4,0,1,7,44,11
3,2,15,1,6,1,1,7,89,11
3,2,16,1,2,0,1,7,4,11
3,2,20,1,6,1,1,7,109,11
3,2,23,0,6,1,1,7,100,11
4,2,18,1,0,0,2,7,4,11
4,2,11,1,2,0,2,7,18,11
4,2,17,1,2,0,2,7,89,11
4,2,20,1,3,0,2,7,89,11
4,2,19,1,4,0,2,7,4,11
4,2,14,1,5,1,2,7,100,11
4,2,6,0,6,1,2,7,89,11
4,2,17,1,1,0,2,7,89,11
4,2,9,1,4,0,2,7,109,11
4,2,16,1,4,0,2,7,109,9
4,2,13,1,0,0,2,7,100,11
4,2,21,0,0,0,2,7,22,11
4,2,12,1,3,0,2,7,4,11
4,2,21,0,5,1,2,7,100,11
5,2,8,1,1,0,2,7,100,11
5,2,21,0,4,0,2,7,100,11
5,2,16,1,5,1,2,7,89,11
5,2,22,0,6,1,2,7,100,11
5,2,2,0,1,0,2,7,89,11
5,2,21,0,4,0,2,7,100,11
5,2,13,1,6,1,2,7,75,9
5,2,10,1,0,0,2,7,44,11
5,2,16,1,3,0,2,7,4,11
5,2,19,1,3,0,2,7,125,11
5,2,12,1,4,0,2,7,100,9
5,2,18,1,0,0,2,7,100,11
5,2,20,1,1,0,2,7,100,11
6,3,12,1,5,1,2,7,26,9
6,3,16,1,5,1,2,7,89,11
6,3,12,1,0,0,2,7,38,11
6,3,21,0,0,0,2,7,100,9
6,3,10,1,1,0,2,7,89,11
6,3,22,0,2,0,2,7,100,11
6,3,16,1,6,1,2,7,26,11
6,3,20,1,6,1,2,7,100,11
6,3,6,0,0,0,2,7,13,9
6,3,10,1,2,0,2,7,128,11
6,3,19,1,2,0,2,7,100,11
6,3,20,1,6,1,2,7,89,11
6,3,19,1,1,0,2,7,110,9
6,3,11,1,2,0,2,7,87,11
6,3,12,1,4,0,2,7,89,11
6,3,16,1,5,1,2,7,100,11
6,3,11,1,6,1,2,7,89,11
7,3,12,1,1,0,3,7,89,11
7,3,13,1,4,0,3,7,87,11
7,3,1,0,2,0,3,7,44,11
7,3,19,1,2,0,3,7,125,11
7,3,12,1,4,0,3,7,66,11
7,3,10,1,6,1,3,7,89,11
7,3,9,1,4,0,3,7,89,11
8,3,20,1,4,0,3,7,89,11
8,3,22,0,4,0,3,7,8,11
8,3,16,1,4,0,3,7,89,11
8,3,12,1,0,0,3,7,4,11
8,3,12,1,5,1,3,7,100,11
8,3,0,0,1,0,3,7,89,11
8,3,11,1,2,0,3,7,87,11
9,4,10,1,1,0,3,7,87,11
9,4,14,1,1,0,3,7,100,11
9,4,1,0,6,1,3,7,110,11
9,4,11,1,3,0,3,7,81,11
9,4,13,1,2,0,3,7,115,11
9,4,20,1,3,0,3,7,110,11
9,4,17,1,6,1,3,7,13,11
9,4,19,1,1,0,3,7,89,11
9,4,14,1,2,0,3,7,18,11
9,4,9,1,4,0,3,7,22,11
10,4,13,1,2,0,4,7,26,11
10,4,9,1,3,0,4,7,44,11
10,4,12,1,3,0,4,7,89,11
10,4,18,1,4,0,4,7,89,11
10,4,12,1,3,0,4,7,100,11
10,4,18,1,3,0,4,7,100,11
10,4,14,1,5,1,4,7,89,11
10,4,16,1,5,1,4,7,11,11
10,4,16,1,1,0,4,7,87,11
11,4,16,1,5,1,4,7,126,11
11,4,12,1,1,0,4,7,4,11
11,4,12,1,1,0,4,7,89,11
11,4,21,0,1,0,4,7,4,11
11,4,18,1,2,0,4,7,18,11
11,4,14,1,1,0,4,7,89,11
11,4,12,1,4,0,4,7,18,11
11,4,19,1,5,1,4,7,100,11
11,4,16,1,3,0,4,7,100,11
11,4,14,1,4,0,4,7,100,11
11,4,17,1,4,0,4,7,100,11
11,4,17,1,4,0,4,7,100,11
11,4,11,1,5,1,4,7,89,11
11,4,14,1,5,1,4,7,100,11
12,1,18,1,1,0,4,7,100,11
12,1,12,1,3,0,4,7,81,11
12,1,9,1,6,1,4,7,38,11
12,1,2,0,6,1,4,7,89,11
12,1,20,1,5,1,4,7,109,9
12,1,11,1,6,1,4,7,89,11
12,1,12,1,0,0,4,7,128,11
1,1,13,1,3,0,1,7,100,11
1,1,20,1,5,1,1,7,87,11
1,1,11,1,6,1,1,7,87,11
1,1,18,1,0,0,1,7,87,11
1,1,1,0,1,0,1,7,30,11
1,1,17,1,1,0,1,7,75,11
1,1,17,1,2,0,1,7,75,11
1,1,19,1,2,0,1,7,1,11
2,1,11,1,0,0,1,7,1,11
2,1,13,1,5,1,1,7,89,11
2,1,6,0,0,0,1,7,72,11
2,1,15,1,1,0,1,7,89,11
2,1,16,1,4,0,1,7,72,11
2,1,20,1,2,0,1,7,72,11
3,2,9,1,2,0,1,7,89,11
3,2,13,1,0,0,1,7,100,11
3,2,17,1,0,0,1,7,89,11
3,2,20,1,0,0,1,7,89,11
3,2,9,1,1,0,1,7,89,11
3,2,13,1,1,0,1,7,89,11
3,2,8,1,3,0,1,7,1,11
3,2,13,1,4,0,1,7,1,11
3,2,11,1,1,0,1,7,13,11
3,2,14,1,5,1,1,7,1,11
3,2,8,1,2,0,1,7,1,11
3,2,18,1,5,1,1,7,100,11
3,2,12,1,6,1,1,7,100,11
4,2,11,1,2,0,2,7,1,11
4,2,13,1,4,0,2,7,100,11
4,2,20,1,4,0,2,7,100,11
4,2,11,1,0,0,2,7,111,11
4,2,7,1,6,1,2,7,18,11
4,2,16,1,0,0,2,7,72,11
4,2,7,1,1,0,2,7,4,11
4,2,20,1,2,0,2,7,4,11
4,2,14,1,5,1,2,7,89,11
4,2,7,1,0,0,2,7,1,11
5,2,14,1,6,1,2,7,38,11
5,2,18,1,6,1,2,7,1,11
5,2,0,0,0,0,2,7,89,11
5,2,15,1,1,0,2,7,89,11
5,2,13,1,1,0,2,7,89,11
5,2,21,0,1,0,2,7,4,11
5,2,12,1,2,0,2,7,89,11
6,3,23,0,0,0,2,7,125,11
6,3,11,1,1,0,2,7,128,11
6,3,12,1,3,0,2,7,72,11
6,3,14,1,3,0,2,7,89,11
6,3,14,1,4,0,2,7,1,11
6,3,22,0,6,1,2,7,75,11
6,3,7,1,0,0,2,7,100,11
6,3,15,1,0,0,2,7,109,11
6,3,16,1,0,0,2,7,89,11
6,3,18,1,4,0,2,7,89,11
6,3,19,1,5,1,2,7,75,11
6,3,15,1,6,1,2,7,13,8
7,3,8,1,0,0,3,7,100,11
7,3,23,0,0,0,3,7,58,11
7,3,14,1,1,0,3,7,100,11
7,3,18,1,3,0,3,7,4,11
7,3,23,0,4,0,3,7,22,11
7,3,14,1,2,0,3,7,75,11
7,3,10,1,3,0,3,7,100,11
7,3,23,0,5,1,3,7,89,11
7,3,10,1,6,1,3,7,89,11
7,3,13,1,2,0,3,7,75,11
7,3,8,1,6,1,3,7,38,11
7,3,12,1,0,0,3,7,100,11
7,3,17,1,0,0,3,7,89,11
8,3,21,0,1,0,3,7,89,11
8,3,20,1,4,0,3,7,89,11
8,3,16,1,1,0,3,7,100,11
8,3,18,1,3,0,3,7,1,11
8,3,20,1,5,1,3,7,87,11
8,3,16,1,3,0,3,7,26,11
8,3,20,1,3,0,3,7,72,11
8,3,18,1,2,0,3,7,89,11
9,4,19,1,2,0,3,7,100,11
9,4,8,1,3,0,3,7,1,11
9,4,14,1,1,0,3,7,89,11
9,4,7,1,1,0,3,7,26,11
9,4,9,1,3,0,3,7,18,11
9,4,19,1,1,0,3,7,72,11
9,4,19,1,3,0,3,7,18,11
9,4,13,1,4,0,3,7,89,11
9,4,4,0,0,0,3,7,89,11
10,4,11,1,2,0,4,7,89,11
10,4,20,1,6,1,4,7,22,8
10,4,16,1,1,0,4,7,89,11
10,4,4,0,3,0,4,7,72,11
10,4,13,1,5,1,4,7,100,11
11,4,19,1,6,1,4,7,87,11
11,4,16,1,0,0,4,7,18,11
11,4,16,1,2,0,4,7,1,11
11,4,17,1,2,0,4,7,100,11
11,4,11,1,4,0,4,7,89,11
11,4,15,1,4,0,4,7,26,11
11,4,14,1,5,1,4,7,100,11
11,4,13,1,1,0,4,7,89,11
11,4,8,1,4,0,4,7,110,11
12,1,17,1,1,0,4,7,13,11
12,1,18,1,0,0,4,7,87,11
12,1,16,1,1,0,4,7,89,11
12,1,15,1,6,1,4,7,89,11
12,1,7,1,0,0,4,7,22,11
12,1,13,1,3,0,4,7,100,11
12,1,1,0,5,1,4,7,100,11
12,1,4,0,5,1,4,7,100,11
12,1,16,1,6,1,4,7,22,11
12,1,14,1,0,0,4,7,100,11
12,1,16,1,0,0,4,7,100,11
12,1,12,1,1,0,4,7,72,11
12,1,15,1,6,1,4,7,75,11
1,1,20,1,3,0,1,7,1,11
3,2,23,0,3,0,1,7,1,11
4,2,19,1,3,0,2,7,100,11
11,4,4,0,0,0,4,7,110,11
11,4,7,1,1,0,4,7,110,11
11,4,8,1,1,0,4,7,110,11
11,4,13,1,1,0,4,7,110,11
12,1,11,1,5,1,4,7,128,11
12,1,21,0,3,0,4,7,72,11
12,1,22,0,3,0,4,7,75,11
1,1,21,0,2,0,1,12,38,11
1,1,22,0,3,0,1,12,89,11
1,1,19,1,3,0,1,12,87,11
1,1,3,0,1,0,1,12,38,11
1,1,5,0,3,0,1,12,38,11
1,1,11,1,5,1,1,12,89,11
1,1,15,1,6,1,1,12,75,11
1,1,9,1,0,0,1,12,87,11
1,1,17,1,1,0,1,12,75,11
1,1,11,1,2,0,1,12,89,11
1,1,13,1,5,1,1,12,11,11
1,1,15,1,5,1,1,12,38,11
1,1,23,0,5,1,1,12,75,11
1,1,13,1,0,0,1,12,75,11
1,1,19,1,1,0,1,12,38,11
1,1,2,0,2,0,1,12,18,11
2,1,13,1,2,0,1,12,13,11
2,1,7,1,0,0,1,12,18,11
2,1,22,0,0,0,1,12,18,11
2,1,5,0,1,0,1,12,18,11
2,1,15,1,2,0,1,12,87,11
2,1,21,0,4,0,1,12,18,11
2,1,21,0,5,1,1,12,18,11
2,1,16,1,0,0,1,12,87,11
3,2,11,1,0,0,1,12,18,11
3,2,11,1,5,1,1,12,65,11
3,2,11,1,6,1,1,12,76,11
3,2,16,1,6,1,1,12,65,11
3,2,20,1,6,1,1,12,89,11
3,2,1,0,0,0,1,12,12,11
3,2,23,0,0,0,1,12,75,11
3,2,16,1,3,0,1,12,127,11
3,2,18,1,3,0,1,12,128,11
3,2,0,0,6,1,1,12,100,11
3,2,16,1,0,0,1,12,38,11
3,2,21,0,3,0,1,12,18,11
3,2,2,0,5,1,1,12,38,11
3,2,19,1,6,1,1,12,13,11
4,2,12,1,2,0,2,12,79,11
4,2,13,1,4,0,2,12,89,11
4,2,21,0,0,0,2,12,87,11
4,2,11,1,2,0,2,12,89,11
4,2,15,1,3,0,2,12,87,11
4,2,15,1,0,0,2,12,18,11
4,2,13,1,4,0,2,12,75,11
4,2,5,0,6,1,2,12,65,11
4,2,14,1,6,1,2,12,75,11
4,2,22,0,4,0,2,12,87,11
4,2,19,1,5,1,2,12,18,11
4,2,6,0,1,0,2,12,100,11
4,2,8,1,1,0,2,12,100,11
5,2,21,0,0,0,2,12,87,11
5,2,13,1,2,0,2,12,72,11
5,2,19,1,3,0,2,12,61,11
5,2,10,1,5,1,2,12,87,11
5,2,15,1,5,1,2,12,89,11
5,2,15,1,0,0,2,12,100,11
5,2,18,1,1,0,2,12,75,11
5,2,3,0,3,0,2,12,87,11
5,2,10,1,4,0,2,12,65,11
5,2,1,0,5,1,2,12,75,11
5,2,3,0,5,1,2,12,75,11
5,2,16,1,5,1,2,12,59,11
5,2,17,1,5,1,2,12,100,11
5,2,17,1,5,1,2,12,89,11
5,2,1,0,3,0,2,12,78,11
5,2,15,1,4,0,2,12,100,11
6,3,13,1,2,0,2,12,100,11
6,3,13,1,4,0,2,12,89,11
6,3,4,0,6,1,2,12,18,11
6,3,17,1,1,0,2,12,100,11
6,3,16,1,2,0,2,12,65,11
6,3,12,1,6,1,2,12,75,11
6,3,2,0,0,0,2,12,89,11
6,3,10,1,5,1,2,12,89,11
6,3,6,0,6,1,2,12,89,11
6,3,12,1,6,1,2,12,126,11
6,3,13,1,6,1,2,12,38,11
6,3,18,1,3,0,2,12,89,11
7,3,15,1,1,0,3,12,89,11
7,3,17,1,1,0,3,12,89,11
7,3,15,1,2,0,3,12,87,11
7,3,17,1,2,0,3,12,89,11
7,3,14,1,3,0,3,12,14,11
7,3,21,0,6,1,3,12,89,11
7,3,10,1,0,0,3,12,100,11
7,3,12,1,0,0,3,12,65,11
7,3,12,1,1,0,3,12,75,11
7,3,15,1,1,0,3,12,100,11
7,3,14,1,4,0,3,12,127,11
7,3,11,1,5,1,3,12,72,11
7,3,16,1,6,1,3,12,44,11
7,3,14,1,0,0,3,12,46,11
7,3,14,1,0,0,3,12,89,11
7,3,20,1,0,0,3,12,18,11
7,3,2,0,2,0,3,12,38,11
7,3,11,1,5,1,3,12,89,11
7,3,13,1,5,1,3,12,89,11
7,3,13,1,1,0,3,12,89,11
7,3,19,1,2,0,3,12,100,11
7,3,20,1,4,0,3,12,18,11
7,3,15,1,0,0,3,12,100,11
7,3,13,1,1,0,3,12,100,11
7,3,22,0,1,0,3,12,89,11
7,3,16,1,2,0,3,12,89,11
8,3,0,0,4,0,3,12,75,11
8,3,14,1,4,0,3,12,100,11
8,3,11,1,2,0,3,12,58,11
8,3,22,0,3,0,3,12,18,11
8,3,14,1,4,0,3,12,75,11
8,3,17,1,5,1,3,12,100,11
8,3,21,0,5,1,3,12,89,11
8,3,1,0,6,1,3,12,100,11
8,3,11,1,6,1,3,12,87,11
8,3,10,1,0,0,3,12,100,11
8,3,21,0,6,1,3,12,97,11
8,3,9,1,4,0,3,12,110,11
8,3,9,1,1,0,3,12,18,11
8,3,12,1,4,0,3,12,38,11
9,4,18,1,0,0,3,12,89,11
9,4,19,1,5,1,3,12,100,11
9,4,15,1,3,0,3,12,100,11
9,4,3,0,5,1,3,12,100,11
10,4,6,0,3,0,4,12,75,11
10,4,14,1,6,1,4,12,87,11
10,4,11,1,0,0,4,12,100,11
10,4,6,0,2,0,4,12,100,11
10,4,10,1,5,1,4,12,100,11
10,4,23,0,6,1,4,12,89,11
10,4,17,1,1,0,4,12,100,11
10,4,8,1,2,0,4,12,18,11
10,4,23,0,3,0,4,12,38,11
10,4,17,1,6,1,4,12,100,11
10,4,19,1,6,1,4,12,100,11
10,4,14,1,4,0,4,12,48,11
10,4,19,1,5,1,4,12,75,11
10,4,12,1,2,0,4,12,100,11
11,4,15,1,4,0,4,12,18,11
11,4,12,1,1,0,4,12,89,11
11,4,19,1,2,0,4,12,75,11
11,4,9,1,4,0,4,12,87,11
11,4,15,1,5,1,4,12,75,11
11,4,19,1,1,0,4,12,110,11
11,4,18,1,2,0,4,12,72,11
11,4,21,0,3,0,4,12,65,11
11,4,1,0,5,1,4,12,13,11
11,4,2,0,5,1,4,12,110,11
11,4,11,1,5,1,4,12,65,11
11,4,19,1,5,1,4,12,75,11
11,4,19,1,5,1,4,12,75,11
11,4,20,1,5,1,4,12,65,11
11,4,17,1,5,1,4,12,110,11
12,1,1,0,6,1,4,12,58,11
12,1,11,1,2,0,4,12,65,11
12,1,6,0,4,0,4,12,75,11
12,1,17,1,3,0,4,12,18,11
12,1,15,1,5,1,4,12,65,11
12,1,9,1,0,0,4,12,75,11
12,1,23,0,0,0,4,12,128,11
12,1,0,0,2,0,4,12,75,11
12,1,2,0,2,0,4,12,18,11
12,1,21,0,2,0,4,12,75,11
12,1,21,0,2,0,4,12,128,11
12,1,20,1,4,0,4,12,64,11
12,1,6,0,6,1,4,12,89,11
12,1,6,0,0,0,4,12,75,11
12,1,19,1,1,0,4,12,88,11
12,1,19,1,1,0,4,12,38,11
12,1,6,0,2,0,4,12,75,11
12,1,19,1,3,0,4,12,75,11
12,1,4,0,4,0,4,12,110,11
12,1,1,0,5,1,4,12,89,11
12,1,9,1,5,1,4,12,75,11
12,1,2,0,6,1,4,12,78,11
1,1,9,1,3,0,1,12,18,11
1,1,16,1,5,1,1,12,75,11
2,1,14,1,0,0,1,12,1,11
2,1,11,1,2,0,1,12,18,11
3,2,11,1,0,0,1,12,1,11
4,2,14,1,5,1,2,12,100,11
5,2,23,0,0,0,2,12,26,11
7,3,13,1,0,0,3,12,18,11
7,3,13,1,3,0,3,12,12,11
7,3,19,1,3,0,3,12,1,11
11,4,23,0,5,1,4,12,88,11
11,4,12,1,5,1,4,12,1,11
11,4,21,0,0,0,4,12,128,11
3,2,21,0,6,1,1,12,87,11
3,2,0,0,4,0,1,12,75,11
5,2,6,0,2,0,2,12,110,11
5,2,19,1,6,1,2,12,57,11
6,3,16,1,1,0,2,12,65,9
6,3,17,1,5,1,2,12,75,9
7,3,12,1,0,0,3,12,87,11
8,3,15,1,2,0,3,12,89,11
8,3,17,1,6,1,3,12,44,9
8,3,17,1,4,0,3,12,38,9
11,4,22,0,4,0,4,12,128,11
12,1,20,1,1,0,4,12,128,11
2,1,17,1,6,1,1,12,100,11
3,2,10,1,3,0,1,12,100,11
3,2,15,1,6,1,1,12,89,9
3,2,12,1,0,0,1,12,89,9
4,2,2,0,3,0,2,12,87,11
5,2,15,1,5,1,2,12,100,11
5,2,4,0,5,1,2,12,110,11
5,2,12,1,0,0,2,12,87,11
6,3,20,1,3,0,2,12,72,11
7,3,16,1,1,0,3,12,76,11
10,4,10,1,2,0,4,12,72,11
11,4,8,1,2,0,4,12,110,11
11,4,12,1,1,0,4,12,89,11
11,4,18,1,2,0,4,12,89,11
12,1,18,1,3,0,4,12,46,11
12,1,18,1,4,0,4,12,100,11
12,1,14,1,5,1,4,12,100,11
12,1,17,1,1,0,4,12,100,11
1,1,11,1,3,0,1,12,128,11
5,2,15,1,0,0,2,12,89,11
8,3,5,0,5,1,3,12,127,11
1,1,20,1,1,0,1,12,89,11
1,1,1,0,2,0,1,12,75,11
1,1,8,1,6,1,1,12,38,11
2,1,12,1,2,0,1,12,100,11
2,1,15,1,4,0,1,12,55,11
2,1,6,0,6,1,1,12,100,11
2,1,19,1,6,1,1,12,95,11
2,1,17,1,3,0,1,12,95,11
3,2,7,1,1,0,1,12,4,11
3,2,10,1,6,1,1,12,38,11
3,2,13,1,3,0,1,12,100,11
4,2,15,1,1,0,2,12,26,11
4,2,5,0,4,0,2,12,75,11
5,2,11,1,4,0,2,12,75,11
5,2,18,1,4,0,2,12,89,11
5,2,19,1,1,0,2,12,46,11
5,2,8,1,5,1,2,12,89,11
5,2,3,0,0,0,2,12,89,11
6,3,8,1,2,0,2,12,100,11
7,3,1,0,1,0,3,12,4,11
7,3,20,1,2,0,3,12,18,11
7,3,8,1,4,0,3,12,19,11
7,3,22,0,6,1,3,12,18,11
8,3,16,1,1,0,3,12,100,11
8,3,19,1,2,0,3,12,100,11
8,3,18,1,1,0,3,12,48,9
8,3,6,0,5,1,3,12,4,11
9,4,1,0,1,0,3,12,100,11
9,4,5,0,5,1,3,12,87,11
10,4,16,1,2,0,4,12,128,11
10,4,20,1,2,0,4,12,87,11
10,4,21,0,0,0,4,12,126,11
11,4,12,1,4,0,4,12,89,11
11,4,17,1,4,0,4,12,95,11
11,4,19,1,4,0,4,12,100,11
11,4,15,1,4,0,4,12,100,11
12,1,5,0,3,0,4,12,38,11
12,1,18,1,6,1,4,12,87,11
1,1,19,1,5,1,1,12,100,11
7,3,20,1,0,0,3,12,38,11
8,3,15,1,6,1,3,12,95,11
9,4,11,1,1,0,3,12,100,11
9,4,21,0,4,0,3,12,87,11
4,2,13,1,4,0,2,12,100,11
6,3,9,1,5,1,2,12,95,11
8,3,15,1,4,0,3,12,89,11
9,4,13,1,6,1,3,12,87,11
10,4,19,1,5,1,4,12,100,11
11,4,19,1,4,0,4,12,87,9
11,4,12,1,0,0,4,12,100,11
11,4,22,0,2,0,4,12,100,11
12,1,17,1,6,1,4,12,12,11
12,1,21,0,0,0,4,12,38,11
12,1,13,1,1,0,4,12,75,11
1,1,16,1,2,0,1,29,75,11
1,1,16,1,5,1,1,29,89,11
1,1,1,0,6,1,1,29,128,11
2,1,2,0,4,0,1,29,89,11
2,1,16,1,6,1,1,29,89,11
2,1,12,1,0,0,1,29,125,11
2,1,15,1,5,1,1,29,65,11
2,1,19,1,5,1,1,29,75,11
2,1,17,1,3,0,1,29,89,11
2,1,18,1,3,0,1,29,100,11
2,1,16,1,4,0,1,29,89,11
2,1,20,1,2,0,1,29,110,11
2,1,18,1,3,0,1,29,75,11
3,2,15,1,0,0,1,29,89,11
3,2,6,0,2,0,1,29,18,11
3,2,12,1,2,0,1,29,89,11
3,2,12,1,4,0,1,29,89,11
3,2,13,1,5,1,1,29,65,11
3,2,12,1,0,0,1,29,89,11
3,2,20,1,0,0,1,29,89,11
3,2,10,1,4,0,1,29,72,11
3,2,13,1,6,1,1,29,128,11
4,2,12,1,0,0,2,29,89,11
4,2,20,1,2,0,2,29,75,11
4,2,13,1,3,0,2,29,64,11
4,2,11,1,4,0,2,29,75,11
4,2,14,1,4,0,2,29,89,11
4,2,8,1,6,1,2,29,89,11
4,2,15,1,6,1,2,29,89,11
4,2,8,1,1,0,2,29,89,11
4,2,10,1,4,0,2,29,75,11
4,2,12,1,6,1,2,29,89,11
4,2,16,1,6,1,2,29,89,11
4,2,13,1,4,0,2,29,89,11
4,2,16,1,6,1,2,29,18,11
4,2,9,1,1,0,2,29,46,11
5,2,13,1,3,0,2,29,89,8
5,2,18,1,5,1,2,29,89,11
5,2,20,1,5,1,2,29,89,11
5,2,17,1,2,0,2,29,89,11
5,2,20,1,2,0,2,29,89,11
5,2,17,1,0,0,2,29,89,11
5,2,11,1,4,0,2,29,87,8
5,2,11,1,1,0,2,29,100,11
5,2,18,1,5,1,2,29,89,11
6,3,15,1,5,1,2,29,7,11
6,3,16,1,5,1,2,29,128,11
6,3,4,0,0,0,2,29,18,11
6,3,19,1,2,0,2,29,89,11
6,3,14,1,5,1,2,29,89,11
6,3,17,1,2,0,2,29,89,11
6,3,0,0,4,0,2,29,75,11
6,3,1,0,4,0,2,29,58,11
6,3,5,0,5,1,2,29,128,11
6,3,11,1,5,1,2,29,128,11
6,3,12,1,6,1,2,29,87,11
6,3,12,1,1,0,2,29,84,8
6,3,13,1,3,0,2,29,100,11
6,3,15,1,0,0,2,29,128,11
6,3,19,1,3,0,2,29,128,11
6,3,5,0,5,1,2,29,100,11
7,3,19,1,0,0,3,29,13,11
7,3,15,1,1,0,3,29,25,11
7,3,20,1,1,0,3,29,89,11
7,3,9,1,2,0,3,29,110,11
7,3,19,1,0,0,3,29,75,11
7,3,9,1,2,0,3,29,79,11
7,3,20,1,2,0,3,29,89,11
7,3,3,0,1,0,3,29,75,11
7,3,22,0,2,0,3,29,18,11
7,3,11,1,5,1,3,29,89,11
7,3,2,0,6,1,3,29,128,11
7,3,15,1,0,0,3,29,100,11
7,3,16,1,0,0,3,29,22,11
7,3,1,0,1,0,3,29,89,11
8,3,20,1,1,0,3,29,75,11
8,3,4,0,3,0,3,29,41,11
8,3,12,1,6,1,3,29,100,11
8,3,17,1,0,0,3,29,100,11
8,3,15,1,4,0,3,29,100,11
8,3,7,1,2,0,3,29,14,11
8,3,16,1,3,0,3,29,87,11
9,4,13,1,0,0,3,29,14,11
9,4,18,1,1,0,3,29,89,11
9,4,14,1,4,0,3,29,14,11
9,4,13,1,0,0,3,29,75,11
9,4,2,0,5,1,3,29,18,8
9,4,11,1,6,1,3,29,72,11
9,4,21,0,6,1,3,29,65,8
9,4,22,0,0,0,3,29,89,11
10,4,1,0,1,0,4,29,18,11
10,4,12,1,5,1,4,29,100,11
10,4,14,1,6,1,4,29,18,11
10,4,22,0,5,1,4,29,13,9
10,4,17,1,4,0,4,29,128,11
11,4,9,1,5,1,4,29,110,11
11,4,18,1,2,0,4,29,65,11
11,4,18,1,5,1,4,29,89,11
11,4,3,0,6,1,4,29,18,9
11,4,16,1,1,0,4,29,89,11
11,4,18,1,2,0,4,29,125,11
11,4,23,0,2,0,4,29,125,11
11,4,22,0,4,0,4,29,76,11
11,4,8,1,5,1,4,29,125,11
11,4,12,1,0,0,4,29,57,11
11,4,13,1,2,0,4,29,89,11
11,4,15,1,2,0,4,29,89,11
12,1,17,1,5,1,4,29,4,11
4,2,10,1,6,1,2,29,89,11
4,2,12,1,6,1,2,29,89,11
5,2,11,1,5,1,2,29,75,9
5,2,7,1,0,0,2,29,128,11
7,3,6,0,6,1,3,29,12,9
7,3,9,1,1,0,3,29,26,11
7,3,12,1,1,0,3,29,89,11
8,3,0,0,3,0,3,29,128,11
8,3,20,1,6,1,3,29,89,11
9,4,2,0,0,0,3,29,7,11
10,4,4,0,6,1,4,29,38,9
11,4,16,1,3,0,4,29,100,11
1,1,17,1,6,1,1,29,100,11
1,1,15,1,0,0,1,29,128,11
2,1,9,1,3,0,1,29,89,11
2,1,14,1,3,0,1,29,26,11
2,1,11,1,6,1,1,29,89,11
2,1,21,0,2,0,1,29,89,11
2,1,10,1,2,0,1,29,89,11
3,2,10,1,5,1,1,29,89,11
3,2,12,1,1,0,1,29,100,11
3,2,19,1,4,0,1,29,1,11
4,2,10,1,0,0,2,29,14,11
4,2,23,0,0,0,2,29,89,11
4,2,18,1,3,0,2,29,89,11
4,2,21,0,3,0,2,29,89,11
4,2,9,1,6,1,2,29,89,11
4,2,20,1,2,0,2,29,89,11
4,2,9,1,4,0,2,29,89,11
4,2,18,1,5,1,2,29,75,11
4,2,2,0,1,0,2,29,95,11
4,2,13,1,5,1,2,29,72,11
4,2,14,1,3,0,2,29,89,11
5,2,12,1,5,1,2,29,89,11
5,2,23,0,6,1,2,29,128,11
5,2,14,1,0,0,2,29,100,11
5,2,16,1,1,0,2,29,100,11
5,2,0,0,6,1,2,29,89,11
6,3,14,1,2,0,2,29,100,11
6,3,15,1,4,0,2,29,128,11
6,3,11,1,0,0,2,29,18,11
6,3,12,1,4,0,2,29,100,11
7,3,11,1,0,0,3,29,72,11
7,3,17,1,2,0,3,29,22,8
7,3,17,1,3,0,3,29,75,11
7,3,16,1,1,0,3,29,1,11
8,3,7,1,3,0,3,29,72,11
8,3,0,0,0,0,3,29,75,11
8,3,17,1,2,0,3,29,18,11
8,3,12,1,5,1,3,29,100,11
8,3,14,1,5,1,3,29,100,11
8,3,21,0,4,0,3,29,13,11
8,3,8,1,1,0,3,29,100,11
8,3,3,0,3,0,3,29,128,11
8,3,18,1,3,0,3,29,75,9
8,3,8,1,5,1,3,29,110,11
9,4,18,1,4,0,3,29,128,11
9,4,14,1,6,1,3,29,125,11
9,4,12,1,4,0,3,29,100,11
9,4,11,1,5,1,3,29,72,11
9,4,19,1,3,0,3,29,72,11
9,4,16,1,2,0,3,29,100,11
9,4,22,0,0,0,3,29,89,11
10,4,2,0,6,1,4,29,110,11
10,4,21,0,0,0,4,29,128,11
10,4,23,0,3,0,4,29,128,11
10,4,9,1,0,0,4,29,89,11
11,4,17,1,5,1,4,29,89,11
11,4,14,1,2,0,4,29,2,11
11,4,10,1,3,0,4,29,89,11
11,4,18,1,5,1,4,29,110,11
11,4,20,1,5,1,4,29,110,11
11,4,17,1,1,0,4,29,26,11
11,4,13,1,2,0,4,29,89,11
11,4,17,1,4,0,4,29,89,11
11,4,17,1,5,1,4,29,1,11
11,4,11,1,0,0,4,29,89,11
11,4,12,1,1,0,4,29,100,11
11,4,17,1,1,0,4,29,1,11
12,1,18,1,4,0,4,29,89,11
12,1,17,1,2,0,4,29,72,11
12,1,20,1,4,0,4,29,89,11
12,1,18,1,2,0,4,29,75,11
1,1,0,0,0,0,1,29,128,11
1,1,12,1,1,0,1,29,58,11
2,1,15,1,6,1,1,29,57,11
2,1,21,0,4,0,1,29,89,11
2,1,14,1,1,0,1,29,89,11
3,2,10,1,6,1,1,29,75,9
3,2,13,1,3,0,1,29,100,11
4,2,20,1,3,0,2,29,89,11
4,2,13,1,0,0,2,29,100,11
5,2,21,0,3,0,2,29,89,11
6,3,14,1,1,0,2,29,89,11
6,3,14,1,2,0,2,29,100,11
6,3,9,1,2,0,2,29,89,9
6,3,16,1,2,0,2,29,100,11
6,3,16,1,6,1,2,29,89,11
7,3,0,0,3,0,3,29,100,11
8,3,20,1,5,1,3,29,87,11
8,3,10,1,6,1,3,29,100,11
8,3,11,1,2,0,3,29,72,11
8,3,15,1,5,1,3,29,100,11
8,3,23,0,5,1,3,29,89,11
9,4,14,1,6,1,3,29,89,11
9,4,14,1,0,0,3,29,100,11
9,4,21,0,1,0,3,29,89,11
9,4,6,0,2,0,3,29,100,11
10,4,9,1,6,1,4,29,65,11
10,4,12,1,2,0,4,29,89,11
11,4,13,1,1,0,4,29,128,11
11,4,22,0,5,1,4,29,57,11
12,1,17,1,5,1,4,29,4,11
12,1,18,1,1,0,4,29,89,11
12,1,10,1,2,0,4,29,89,11
12,1,17,1,4,0,4,29,26,11
12,1,15,1,6,1,4,29,89,11
12,1,13,1,0,0,4,29,100,11
12,1,19,1,0,0,4,29,100,11
12,1,0,0,3,0,4,29,75,11
2,1,9,1,3,0,1,29,13,11
2,1,18,1,0,0,1,29,1,11
2,1,15,1,3,0,1,29,65,11
3,2,8,1,2,0,1,29,95,11
3,2,10,1,6,1,1,29,89,11
4,2,21,0,3,0,2,29,18,11
4,2,14,1,6,1,2,29,128,11
4,2,20,1,3,0,2,29,18,11
4,2,13,1,4,0,2,29,128,11
4,2,13,1,4,0,2,29,87,11
5,2,12,1,2,0,2,29,13,11
5,2,14,1,6,1,2,29,89,11
5,2,13,1,3,0,2,29,89,11
5,2,16,1,3,0,2,29,18,11
5,2,13,1,5,1,2,29,100,11
5,2,18,1,0,0,2,29,1,11
6,3,12,1,5,1,2,29,100,11
6,3,15,1,1,0,2,29,89,11
6,3,23,0,3,0,2,29,87,11
6,3,16,1,1,0,2,29,128,11
6,3,9,1,1,0,2,29,87,11
6,3,10,1,0,0,2,29,76,11
7,3,23,0,3,0,3,29,75,11
7,3,11,1,3,0,3,29,18,11
7,3,6,0,2,0,3,29,65,11
7,3,12,1,2,0,3,29,128,11
7,3,23,0,6,1,3,29,128,11
7,3,14,1,1,0,3,29,100,11
7,3,16,1,1,0,3,29,100,11
8,3,19,1,6,1,3,29,65,11
8,3,4,0,5,1,3,29,87,11
8,3,14,1,1,0,3,29,50,11
9,4,15,1,1,0,3,29,4,11
9,4,6,0,1,0,3,29,100,11
9,4,17,1,4,0,3,29,100,11
10,4,1,0,2,0,4,29,87,11
10,4,23,0,4,0,4,29,128,11
10,4,15,1,0,0,4,29,100,11
10,4,9,1,4,0,4,29,100,11
10,4,19,1,5,1,4,29,38,11
10,4,14,1,6,1,4,29,128,11
11,4,10,1,5,1,4,29,1,11
11,4,20,1,1,0,4,29,100,11
11,4,14,1,1,0,4,29,100,11
11,4,22,0,4,0,4,29,89,11
12,1,3,0,2,0,4,29,89,11
12,1,8,1,2,0,4,29,89,11
12,1,13,1,6,1,4,29,13,11
12,1,12,1,1,0,4,29,89,9
12,1,17,1,4,0,4,29,87,11
2,1,19,1,6,1,1,29,4,11
3,2,12,1,4,0,1,29,89,11
3,2,12,1,3,0,1,29,38,11
3,2,13,1,3,0,1,29,38,11
3,2,17,1,1,0,1,29,89,9
4,2,11,1,4,0,2,29,89,11
4,2,11,1,6,1,2,29,68,11
5,2,14,1,1,0,2,29,38,11
5,2,3,0,4,0,2,29,128,11
5,2,20,1,4,0,2,29,72,11
5,2,16,1,6,1,2,29,89,11
5,2,20,1,0,0,2,29,89,11
5,2,19,1,2,0,2,29,46,9
6,3,14,1,4,0,2,29,38,9
6,3,15,1,4,0,2,29,89,11
7,3,18,1,0,0,3,29,72,11
7,3,1,0,5,1,3,29,89,11
7,3,14,1,4,0,3,29,65,11
7,3,15,1,4,0,3,29,100,11
8,3,6,0,0,0,3,29,65,11
8,3,8,1,0,0,3,29,100,11
8,3,14,1,3,0,3,29,100,11
10,4,12,1,4,0,4,29,100,11
11,4,13,1,4,0,4,29,20,11
11,4,10,1,1,0,4,29,89,11
11,4,14,1,5,1,4,29,89,11
12,1,12,1,0,0,4,29,125,11
1,1,17,1,0,0,1,10,46,11
1,1,21,0,0,0,1,10,38,11
1,1,18,1,1,0,1,10,72,11
1,1,7,1,3,0,1,10,110,11
1,1,2,0,0,0,1,10,75,9
1,1,13,1,3,0,1,10,89,9
1,1,18,1,5,1,1,10,64,11
1,1,12,1,6,1,1,10,100,11
1,1,23,0,6,1,1,10,100,11
1,1,13,1,2,0,1,10,89,11
1,1,19,1,2,0,1,10,75,11
1,1,21,0,2,0,1,10,89,8
1,1,22,0,3,0,1,10,72,11
1,1,22,0,4,0,1,10,89,11
1,1,8,1,6,1,1,10,72,11
1,1,18,1,6,1,1,10,89,11
1,1,19,1,6,1,1,10,89,11
1,1,14,1,1,0,1,10,13,8
1,1,12,1,2,0,1,10,89,11
1,1,11,1,4,0,1,10,65,11
1,1,15,1,4,0,1,10,89,11
1,1,15,1,4,0,1,10,89,11
1,1,17,1,5,1,1,10,87,11
1,1,19,1,6,1,1,10,89,11
2,1,16,1,2,0,1,10,95,11
2,1,18,1,2,0,1,10,89,11
2,1,10,1,3,0,1,10,89,11
2,1,11,1,1,0,1,10,89,11
2,1,3,0,2,0,1,10,72,8
2,1,13,1,3,0,1,10,89,11
2,1,16,1,5,1,1,10,72,11
2,1,21,0,5,1,1,10,89,11
2,1,12,1,6,1,1,10,89,8
2,1,17,1,6,1,1,10,89,11
2,1,12,1,1,0,1,10,89,11
2,1,23,0,1,0,1,10,89,11
2,1,13,1,4,0,1,10,89,11
2,1,12,1,6,1,1,10,89,11
2,1,13,1,2,0,1,10,65,11
2,1,20,1,2,0,1,10,89,11
2,1,17,1,3,0,1,10,89,11
3,2,17,1,6,1,1,10,89,11
3,2,20,1,6,1,1,10,89,11
3,2,18,1,1,0,1,10,97,11
3,2,19,1,5,1,1,10,89,11
3,2,21,0,5,1,1,10,89,11
3,2,17,1,0,0,1,10,89,11
3,2,14,1,2,0,1,10,89,11
3,2,19,1,5,1,1,10,48,11
3,2,20,1,5,1,1,10,100,11
3,2,18,1,6,1,1,10,89,11
3,2,17,1,0,0,1,10,6,11
3,2,18,1,1,0,1,10,89,11
3,2,15,1,3,0,1,10,89,11
3,2,15,1,5,1,1,10,89,11
3,2,19,1,6,1,1,10,89,11
3,2,20,1,6,1,1,10,89,11
3,2,17,1,0,0,1,10,83,11
3,2,19,1,1,0,1,10,8,11
3,2,20,1,1,0,1,10,89,11
3,2,16,1,3,0,1,10,89,11
3,2,13,1,4,0,1,10,89,11
3,2,18,1,5,1,1,10,89,11
3,2,14,1,6,1,1,10,38,11
4,2,17,1,0,0,2,10,89,11
4,2,0,0,2,0,2,10,89,11
4,2,21,0,4,0,2,10,38,11
4,2,22,0,1,0,2,10,89,8
4,2,23,0,5,1,2,10,89,9
4,2,12,1,0,0,2,10,89,11
4,2,12,1,1,0,2,10,89,11
4,2,15,1,4,0,2,10,89,11
4,2,19,1,4,0,2,10,100,11
4,2,20,1,4,0,2,10,89,9
4,2,18,1,5,1,2,10,89,11
4,2,19,1,5,1,2,10,65,11
4,2,22,0,5,1,2,10,110,11
4,2,11,1,0,0,2,10,89,11
4,2,13,1,1,0,2,10,72,11
4,2,18,1,3,0,2,10,89,9
4,2,11,1,6,1,2,10,89,11
4,2,21,0,6,1,2,10,100,11
5,2,16,1,4,0,2,10,89,11
5,2,22,0,4,0,2,10,89,11
5,2,15,1,5,1,2,10,89,8
5,2,18,1,5,1,2,10,89,8
5,2,0,0,6,1,2,10,87,11
5,2,0,0,6,1,2,10,72,9
5,2,14,1,6,1,2,10,89,11
5,2,1,0,0,0,2,10,18,8
5,2,16,1,2,0,2,10,22,11
5,2,15,1,3,0,2,10,89,11
5,2,1,0,0,0,2,10,72,11
5,2,0,0,5,1,2,10,89,11
5,2,10,1,6,1,2,10,65,11
5,2,15,1,4,0,2,10,107,11
5,2,21,0,0,0,2,10,89,11
5,2,23,0,1,0,2,10,89,11
5,2,15,1,2,0,2,10,89,11
5,2,19,1,4,0,2,10,8,11
5,2,21,0,4,0,2,10,89,8
6,3,8,1,5,1,2,10,89,11
6,3,18,1,0,0,2,10,89,11
6,3,12,1,2,0,2,10,72,11
6,3,13,1,3,0,2,10,72,11
6,3,15,1,3,0,2,10,89,11
6,3,18,1,3,0,2,10,89,11
6,3,12,1,2,0,2,10,89,11
6,3,0,0,3,0,2,10,84,8
6,3,15,1,4,0,2,10,38,11
6,3,20,1,6,1,2,10,89,11
6,3,0,0,0,0,2,10,89,11
6,3,0,0,1,0,2,10,72,11
6,3,9,1,4,0,2,10,89,11
6,3,10,1,4,0,2,10,46,11
6,3,21,0,4,0,2,10,89,9
6,3,13,1,5,1,2,10,89,11
6,3,2,0,6,1,2,10,89,11
6,3,16,1,6,1,2,10,87,9
6,3,19,1,6,1,2,10,89,11
6,3,21,0,6,1,2,10,89,11
6,3,19,1,0,0,2,10,72,11
6,3,10,1,3,0,2,10,87,11
6,3,14,1,3,0,2,10,89,11
6,3,17,1,3,0,2,10,89,11
6,3,7,1,5,1,2,10,87,11
6,3,19,1,6,1,2,10,89,9
7,3,14,1,2,0,3,10,65,11
7,3,22,0,2,0,3,10,65,11
7,3,20,1,3,0,3,10,75,11
7,3,22,0,3,0,3,10,38,11
7,3,15,1,4,0,3,10,89,11
7,3,14,1,5,1,3,10,79,11
7,3,14,1,5,1,3,10,13,9
7,3,17,1,5,1,3,10,87,11
7,3,16,1,0,0,3,10,84,11
7,3,7,1,3,0,3,10,72,11
7,3,17,1,3,0,3,10,89,11
7,3,23,0,5,1,3,10,89,8
7,3,10,1,6,1,3,10,89,11
7,3,13,1,0,0,3,10,89,11
8,3,12,1,4,0,3,10,17,11
8,3,15,1,4,0,3,10,72,11
8,3,0,0,5,1,3,10,84,11
8,3,0,0,5,1,3,10,89,8
8,3,2,0,5,1,3,10,89,11
8,3,11,1,5,1,3,10,89,11
8,3,16,1,1,0,3,10,72,11
8,3,0,0,3,0,3,10,97,11
8,3,22,0,3,0,3,10,72,11
8,3,0,0,4,0,3,10,87,11
8,3,16,1,6,1,3,10,46,11
8,3,20,1,6,1,3,10,89,11
8,3,8,1,1,0,3,10,65,11
8,3,17,1,2,0,3,10,89,11
8,3,21,0,3,0,3,10,84,11
8,3,15,1,0,0,3,10,89,11
8,3,16,1,0,0,3,10,89,11
8,3,9,1,1,0,3,10,89,11
8,3,13,1,1,0,3,10,65,11
8,3,13,1,3,0,3,10,72,11
8,3,19,1,4,0,3,10,38,11
8,3,14,1,5,1,3,10,58,11
8,3,15,1,5,1,3,10,72,11
8,3,20,1,0,0,3,10,89,11
8,3,19,1,4,0,3,10,89,11
9,4,7,1,0,0,3,10,89,11
9,4,16,1,5,1,3,10,65,11
9,4,19,1,5,1,3,10,89,8
9,4,1,0,0,0,3,10,100,11
9,4,15,1,0,0,3,10,87,11
9,4,18,1,1,0,3,10,72,11
9,4,20,1,2,0,3,10,87,11
9,4,23,0,3,0,3,10,87,11
9,4,12,1,5,1,3,10,75,11
9,4,22,0,1,0,3,10,72,11
9,4,13,1,2,0,3,10,84,11
9,4,22,0,3,0,3,10,89,8
9,4,18,1,4,0,3,10,128,11
9,4,16,1,2,0,3,10,128,11
9,4,23,0,5,1,3,10,89,8
10,4,1,0,2,0,4,10,89,8
10,4,7,1,2,0,4,10,89,11
10,4,9,1,2,0,4,10,89,11
10,4,21,0,2,0,4,10,89,11
10,4,19,1,5,1,4,10,89,11
10,4,11,1,6,1,4,10,89,11
10,4,15,1,6,1,4,10,89,11
10,4,23,0,6,1,4,10,107,11
10,4,23,0,6,1,4,10,89,11
10,4,3,0,4,0,4,10,89,8
10,4,9,1,4,0,4,10,89,11
10,4,18,1,4,0,4,10,89,11
10,4,5,0,5,1,4,10,89,11
10,4,10,1,6,1,4,10,89,11
10,4,12,1,6,1,4,10,89,11
10,4,3,0,0,0,4,10,89,11
10,4,12,1,0,0,4,10,97,11
10,4,0,0,2,0,4,10,89,11
10,4,13,1,2,0,4,10,89,8
10,4,18,1,2,0,4,10,89,11
10,4,6,0,4,0,4,10,87,11
10,4,10,1,4,0,4,10,89,11
10,4,20,1,4,0,4,10,89,11
10,4,5,0,5,1,4,10,18,11
10,4,22,0,5,1,4,10,89,8
10,4,18,1,6,1,4,10,89,11
10,4,14,1,1,0,4,10,65,11
10,4,19,1,1,0,4,10,100,11
10,4,8,1,2,0,4,10,72,11
10,4,17,1,4,0,4,10,89,11
10,4,17,1,4,0,4,10,89,11
10,4,16,1,6,1,4,10,89,11
10,4,11,1,0,0,4,10,89,11
10,4,12,1,0,0,4,10,100,11
10,4,22,0,0,0,4,10,72,11
11,4,4,0,4,0,4,10,72,9
11,4,10,1,5,1,4,10,89,11
11,4,18,1,5,1,4,10,17,11
11,4,8,1,6,1,4,10,89,11
11,4,20,1,6,1,4,10,100,11
11,4,15,1,2,0,4,10,89,11
11,4,17,1,2,0,4,10,89,11
11,4,20,1,2,0,4,10,89,11
11,4,23,0,2,0,4,10,89,11
11,4,8,1,3,0,4,10,72,11
11,4,19,1,4,0,4,10,72,11
11,4,17,1,5,1,4,10,89,11
11,4,19,1,5,1,4,10,100,11
11,4,23,0,5,1,4,10,87,11
11,4,13,1,1,0,4,10,89,11
11,4,15,1,2,0,4,10,65,11
11,4,22,0,2,0,4,10,89,11
11,4,12,1,3,0,4,10,89,11
11,4,6,0,1,0,4,10,95,11
11,4,20,1,1,0,4,10,89,9
11,4,16,1,2,0,4,10,89,11
11,4,17,1,2,0,4,10,17,11
11,4,2,0,6,1,4,10,100,11
11,4,10,1,0,0,4,10,89,11
11,4,17,1,0,0,4,10,75,11
11,4,10,1,1,0,4,10,89,11
11,4,17,1,1,0,4,10,38,11
11,4,9,1,2,0,4,10,89,11
11,4,8,1,3,0,4,10,89,8
11,4,15,1,3,0,4,10,89,11
11,4,1,0,5,1,4,10,88,11
12,1,11,1,0,0,4,10,89,11
12,1,18,1,3,0,4,10,72,11
12,1,13,1,0,0,4,10,89,11
12,1,22,0,1,0,4,10,65,11
12,1,13,1,5,1,4,10,84,11
12,1,13,1,1,0,4,10,89,11
12,1,21,0,3,0,4,10,100,11
12,1,9,1,3,0,4,10,75,11
12,1,16,1,4,0,4,10,128,11
12,1,10,1,5,1,4,10,65,11
12,1,15,1,6,1,4,10,65,11
12,1,5,0,0,0,4,10,89,11
12,1,21,0,0,0,4,10,65,11
1,1,13,1,5,1,1,10,100,11
2,1,13,1,0,0,1,10,4,11
3,2,12,1,4,0,1,10,1,11
3,2,14,1,3,0,1,10,128,11
3,2,20,1,4,0,1,10,89,11
3,2,11,1,5,1,1,10,89,9
3,2,16,1,3,0,1,10,89,11
4,2,20,1,0,0,2,10,128,11
4,2,13,1,1,0,2,10,89,11
4,2,20,1,3,0,2,10,100,11
4,2,17,1,1,0,2,10,89,11
4,2,12,1,4,0,2,10,100,11
4,2,21,0,0,0,2,10,89,11
4,2,11,1,2,0,2,10,89,11
4,2,12,1,4,0,2,10,89,11
6,3,19,1,2,0,2,10,4,11
6,3,0,0,5,1,2,10,128,11
6,3,10,1,4,0,2,10,89,11
6,3,19,1,4,0,2,10,18,9
6,3,22,0,1,0,2,10,87,11
8,3,17,1,1,0,3,10,17,11
8,3,13,1,4,0,3,10,89,11
8,3,19,1,4,0,3,10,66,11
9,4,22,0,4,0,3,10,100,11
10,4,6,0,6,1,4,10,100,11
10,4,23,0,6,1,4,10,100,11
11,4,9,1,2,0,4,10,89,11
11,4,12,1,6,1,4,10,110,11
11,4,13,1,0,0,4,10,79,11
11,4,23,0,0,0,4,10,100,11
11,4,6,0,3,0,4,10,89,11
11,4,9,1,3,0,4,10,89,11
12,1,19,1,6,1,4,10,89,11
1,1,12,1,3,0,1,10,128,11
1,1,14,1,0,0,1,10,13,11
3,2,21,0,1,0,1,10,100,11
3,2,15,1,1,0,1,10,128,11
3,2,19,1,2,0,1,10,89,9
5,2,21,0,3,0,2,10,89,11
5,2,23,0,3,0,2,10,89,11
5,2,1,0,6,1,2,10,89,11
5,2,11,1,0,0,2,10,128,8
6,3,4,0,2,0,2,10,65,11
6,3,16,1,5,1,2,10,14,8
8,3,21,0,5,1,3,10,75,11
9,4,17,1,1,0,3,10,76,11
10,4,13,1,6,1,4,10,89,11
10,4,16,1,0,0,4,10,89,11
10,4,11,1,3,0,4,10,65,11
11,4,18,1,3,0,4,10,100,11
12,1,15,1,2,0,4,10,128,11
12,1,11,1,0,0,4,10,89,11
1,1,20,1,4,0,1,10,89,11
1,1,14,1,1,0,1,10,89,11
2,1,12,1,4,0,1,10,89,11
2,1,12,1,1,0,1,10,89,11
2,1,15,1,2,0,1,10,89,11
3,2,13,1,6,1,1,10,89,11
3,2,18,1,6,1,1,10,89,11
3,2,15,1,2,0,1,10,97,11
3,2,16,1,2,0,1,10,89,11
3,2,12,1,3,0,1,10,89,9
3,2,14,1,3,0,1,10,89,11
4,2,19,1,0,0,2,10,88,11
5,2,14,1,1,0,2,10,89,11
6,3,16,1,0,0,2,10,89,11
7,3,21,0,4,0,3,10,89,11
7,3,21,0,0,0,3,10,110,11
7,3,14,1,0,0,3,10,89,11
8,3,4,0,4,0,3,10,75,11
9,4,22,0,0,0,3,10,44,11
9,4,21,0,6,1,3,10,110,11
10,4,8,1,4,0,4,10,42,11
10,4,4,0,6,1,4,10,100,11
10,4,17,1,4,0,4,10,89,11
11,4,16,1,5,1,4,10,100,11
11,4,15,1,3,0,4,10,89,11
1,1,3,0,4,0,1,10,89,11
2,1,23,0,6,1,1,10,89,11
2,1,18,1,6,1,1,10,89,11
2,1,16,1,1,0,1,10,89,11
2,1,1,0,5,1,1,10,72,8
2,1,17,1,2,0,1,10,89,11
3,2,9,1,4,0,1,10,89,11
3,2,19,1,0,0,1,10,89,11
3,2,11,1,3,0,1,10,89,11
3,2,11,1,1,0,1,10,72,11
3,2,15,1,4,0,1,10,65,11
4,2,16,1,0,0,2,10,12,11
4,2,19,1,5,1,2,10,89,11
4,2,16,1,1,0,2,10,75,11
4,2,11,1,3,0,2,10,5,9
4,2,7,1,4,0,2,10,48,11
4,2,23,0,4,0,2,10,89,11
4,2,20,1,2,0,2,10,72,11
4,2,23,0,3,0,2,10,65,9
4,2,13,1,4,0,2,10,72,11
4,2,10,1,6,1,2,10,72,11
4,2,13,1,1,0,2,10,72,11
5,2,18,1,5,1,2,10,89,9
5,2,16,1,6,1,2,10,89,11
5,2,19,1,6,1,2,10,89,11
5,2,16,1,0,0,2,10,89,11
6,3,17,1,5,1,2,10,89,11
6,3,21,0,6,1,2,10,128,11
6,3,15,1,0,0,2,10,89,11
6,3,0,0,2,0,2,10,83,11
7,3,17,1,4,0,3,10,89,11
7,3,18,1,4,0,3,10,89,11
7,3,12,1,1,0,3,10,89,11
7,3,16,1,1,0,3,10,100,11
7,3,19,1,2,0,3,10,89,11
8,3,0,0,4,0,3,10,75,9
8,3,1,0,6,1,3,10,128,11
8,3,15,1,6,1,3,10,100,11
8,3,3,0,3,0,3,10,89,11
8,3,0,0,6,1,3,10,89,11
8,3,11,1,3,0,3,10,46,11
8,3,13,1,3,0,3,10,100,11
8,3,12,1,5,1,3,10,89,11
9,4,2,0,6,1,3,10,100,11
9,4,3,0,6,1,3,10,100,11
9,4,13,1,4,0,3,10,100,11
9,4,14,1,6,1,3,10,128,11
10,4,18,1,3,0,4,10,89,11
10,4,7,1,6,1,4,10,125,11
10,4,23,0,4,0,4,10,100,11
10,4,14,1,6,1,4,10,128,11
11,4,20,1,5,1,4,10,100,11
11,4,18,1,1,0,4,10,89,11
11,4,17,1,4,0,4,10,89,11
11,4,9,1,6,1,4,10,89,11
11,4,10,1,0,0,4,10,89,11
11,4,15,1,5,1,4,10,89,11
11,4,16,1,5,1,4,10,89,11
12,1,17,1,1,0,4,10,26,11
12,1,12,1,2,0,4,10,72,11
12,1,15,1,5,1,4,10,100,11
12,1,17,1,3,0,4,10,65,11
12,1,13,1,5,1,4,10,89,11
12,1,15,1,0,0,4,10,97,11
12,1,8,1,1,0,4,10,18,11
5,2,13,1,3,0,2,10,89,11
5,2,16,1,4,0,2,10,89,11
5,2,22,0,6,1,2,10,128,11
6,3,12,1,5,1,2,10,89,11
6,3,6,0,0,0,2,10,89,11
7,3,14,1,2,0,3,10,89,11
8,3,1,0,1,0,3,10,128,11
1,1,13,1,3,0,1,33,100,11
1,1,21,0,5,1,1,33,87,11
1,1,14,1,3,0,1,33,65,11
1,1,15,1,3,0,1,33,87,11
1,1,18,1,2,0,1,33,4,11
2,1,19,1,5,1,1,33,75,11
2,1,10,1,1,0,1,33,18,11
2,1,9,1,4,0,1,33,75,8
2,1,0,0,5,1,1,33,75,11
2,1,18,1,5,1,1,33,100,11
2,1,0,0,2,0,1,33,38,9
2,1,18,1,0,0,1,33,87,11
2,1,22,0,3,0,1,33,87,11
2,1,12,1,6,1,1,33,87,11
2,1,20,1,2,0,1,33,1,11
2,1,23,0,2,0,1,33,88,11
3,2,21,0,4,0,1,33,89,11
3,2,12,1,6,1,1,33,1,11
3,2,20,1,1,0,1,33,100,11
3,2,21,0,1,0,1,33,87,11
3,2,21,0,1,0,1,33,75,11
3,2,12,1,0,0,1,33,100,11
3,2,9,1,4,0,1,33,65,11
3,2,11,1,4,0,1,33,75,11
4,2,14,1,2,0,2,33,38,8
4,2,8,1,1,0,2,33,89,11
5,2,1,0,4,0,2,33,100,11
6,3,18,1,2,0,2,33,89,11
6,3,21,0,2,0,2,33,128,11
6,3,13,1,4,0,2,33,25,8
6,3,18,1,3,0,2,33,46,11
6,3,9,1,4,0,2,33,72,11
7,3,16,1,0,0,3,33,79,11
8,3,16,1,3,0,3,33,100,11
8,3,20,1,5,1,3,33,89,11
8,3,12,1,0,0,3,33,13,11
8,3,14,1,1,0,3,33,29,11
8,3,10,1,2,0,3,33,65,11
9,4,22,0,4,0,3,33,100,11
9,4,19,1,0,0,3,33,89,11
9,4,16,1,2,0,3,33,110,11
9,4,21,0,6,1,3,33,89,11
9,4,23,0,4,0,3,33,100,11
10,4,19,1,1,0,4,33,89,11
10,4,19,1,3,0,4,33,100,11
10,4,23,0,4,0,4,33,112,11
11,4,19,1,2,0,4,33,18,8
11,4,18,1,5,1,4,33,75,11
11,4,17,1,0,0,4,33,75,11
11,4,17,1,2,0,4,33,110,11
11,4,16,1,5,1,4,33,128,11
11,4,13,1,6,1,4,33,75,11
11,4,21,0,5,1,4,33,110,11
12,1,15,1,1,0,4,33,128,11
12,1,0,0,6,1,4,33,75,11
12,1,15,1,3,0,4,33,18,11
12,1,8,1,0,0,4,33,128,11
1,1,16,1,1,0,1,33,4,11
2,1,20,1,6,1,1,33,75,8
2,1,20,1,0,0,1,33,87,11
2,1,14,1,6,1,1,33,110,11
2,1,18,1,3,0,1,33,75,11
3,2,0,0,2,0,1,33,100,11
3,2,16,1,6,1,1,33,128,9
4,2,16,1,2,0,2,33,89,11
5,2,17,1,6,1,2,33,89,11
5,2,0,0,3,0,2,33,38,8
6,3,17,1,6,1,2,33,12,11
6,3,17,1,0,0,2,33,128,11
7,3,10,1,1,0,3,33,100,11
7,3,19,1,0,0,3,33,4,11
9,4,16,1,3,0,3,33,100,11
10,4,10,1,5,1,4,33,12,9
11,4,8,1,5,1,4,33,89,11
11,4,14,1,4,0,4,33,18,11
12,1,15,1,0,0,4,33,2,11
12,1,17,1,3,0,4,33,17,11
4,2,7,1,3,0,2,33,128,11
4,2,15,1,6,1,2,33,89,11
7,3,13,1,3,0,3,33,18,8
8,3,14,1,5,1,3,33,38,11
8,3,6,0,1,0,3,33,75,8
2,1,16,1,4,0,1,33,87,11
4,2,15,1,2,0,2,33,89,11
4,2,8,1,3,0,2,33,42,11
4,2,23,0,4,0,2,33,89,11
5,2,17,1,1,0,2,33,110,11
8,3,12,1,3,0,3,33,18,11
8,3,3,0,1,0,3,33,128,11
9,4,9,1,0,0,3,33,18,11
11,4,15,1,1,0,4,33,89,11
11,4,11,1,1,0,4,33,128,11
11,4,20,1,4,0,4,33,89,11
11,4,20,1,5,1,4,33,26,11
2,1,14,1,2,0,1,33,128,11
2,1,12,1,2,0,1,33,100,11
3,2,22,0,4,0,1,33,13,9
3,2,21,0,3,0,1,33,100,11
3,2,13,1,6,1,1,33,125,11
4,2,16,1,5,1,2,33,75,9
5,2,14,1,5,1,2,33,107,11
5,2,17,1,5,1,2,33,89,11
6,3,20,1,6,1,2,33,89,11
6,3,13,1,1,0,2,33,89,11
7,3,19,1,5,1,3,33,87,11
7,3,13,1,0,0,3,33,87,11
7,3,13,1,2,0,3,33,87,11
7,3,12,1,5,1,3,33,100,11
8,3,15,1,4,0,3,33,89,9
8,3,0,0,4,0,3,33,89,11
8,3,17,1,0,0,3,33,18,11
8,3,21,0,1,0,3,33,100,11
9,4,16,1,0,0,3,33,18,11
9,4,8,1,5,1,3,33,87,11
10,4,13,1,1,0,4,33,100,11
11,4,11,1,0,0,4,33,89,11
11,4,10,1,2,0,4,33,89,11
11,4,19,1,0,0,4,33,38,11
12,1,21,0,1,0,4,33,89,11
12,1,20,1,6,1,4,33,128,11
1,1,12,1,3,0,1,51,72,11
1,1,17,1,4,0,1,51,26,11
1,1,20,1,4,0,1,51,87,11
1,1,18,1,1,0,1,51,75,11
1,1,8,1,4,0,1,51,87,11
1,1,18,1,4,0,1,51,87,8
1,1,6,0,1,0,1,51,47,9
1,1,16,1,2,0,1,51,87,11
2,1,12,1,0,0,1,51,128,11
2,1,17,1,2,0,1,51,128,11
3,2,10,1,4,0,1,51,75,11
3,2,12,1,5,1,1,51,89,11
3,2,13,1,1,0,1,51,89,11
4,2,12,1,0,0,2,51,18,9
4,2,15,1,5,1,2,51,89,11
4,2,8,1,6,1,2,51,100,11
4,2,21,0,6,1,2,51,100,11
4,2,19,1,2,0,2,51,128,11
4,2,22,0,1,0,2,51,38,11
4,2,18,1,1,0,2,51,72,11
5,2,20,1,5,1,2,51,89,11
5,2,21,0,5,1,2,51,89,11
5,2,0,0,6,1,2,51,89,11
5,2,9,1,6,1,2,51,89,11
5,2,18,1,6,1,2,51,127,11
5,2,14,1,0,0,2,51,89,11
5,2,17,1,1,0,2,51,89,11
5,2,18,1,2,0,2,51,75,11
6,3,18,1,4,0,2,51,75,11
6,3,14,1,4,0,2,51,117,11
6,3,13,1,2,0,2,51,75,11
6,3,10,1,6,1,2,51,89,11
7,3,13,1,5,1,3,51,89,11
7,3,21,0,6,1,3,51,89,11
7,3,14,1,3,0,3,51,38,11
7,3,19,1,4,0,3,51,89,11
7,3,14,1,5,1,3,51,18,9
7,3,14,1,6,1,3,51,19,11
7,3,19,1,6,1,3,51,89,11
8,3,2,0,4,0,3,51,97,11
8,3,13,1,2,0,3,51,75,11
8,3,14,1,1,0,3,51,18,11
8,3,22,0,1,0,3,51,18,11
8,3,15,1,2,0,3,51,79,11
9,4,18,1,1,0,3,51,11,11
9,4,22,0,1,0,3,51,18,11
10,4,19,1,3,0,4,51,87,11
10,4,12,1,0,0,4,51,27,11
10,4,22,0,6,1,4,51,75,11
10,4,22,0,5,1,4,51,76,11
11,4,17,1,1,0,4,51,89,11
11,4,19,1,3,0,4,51,117,9
11,4,22,0,4,0,4,51,67,11
11,4,12,1,0,0,4,51,89,11
11,4,0,0,1,0,4,51,89,11
11,4,12,1,6,1,4,51,89,11
11,4,11,1,0,0,4,51,89,9
11,4,14,1,2,0,4,51,89,11
11,4,21,0,2,0,4,51,128,11
11,4,7,1,5,1,4,51,12,8
12,1,8,1,4,0,4,51,75,11
12,1,14,1,4,0,4,51,75,11
12,1,19,1,4,0,4,51,1,11
12,1,17,1,3,0,4,51,103,11
12,1,14,1,1,0,4,51,22,9
12,1,15,1,1,0,4,51,75,11
12,1,23,0,0,0,4,51,87,11
1,1,9,1,4,0,1,51,18,9
2,1,12,1,3,0,1,51,75,11
11,4,19,1,5,1,4,51,89,11
1,1,22,0,5,1,1,51,26,11
1,1,13,1,6,1,1,51,12,11
1,1,13,1,6,1,1,51,12,11
1,1,11,1,5,1,1,51,18,11
1,1,18,1,0,0,1,51,38,11
2,1,21,0,1,0,1,51,65,11
2,1,15,1,5,1,1,51,4,11
2,1,15,1,6,1,1,51,4,11
6,3,13,1,2,0,2,51,89,11
8,3,19,1,1,0,3,51,18,11
9,4,15,1,3,0,3,51,89,11
2,1,18,1,2,0,1,43,100,11
2,1,11,1,1,0,1,43,125,11
2,1,13,1,1,0,1,43,125,11
3,2,17,1,6,1,1,43,87,11
4,2,17,1,5,1,2,43,128,11
4,2,12,1,0,0,2,43,110,11
4,2,9,1,5,1,2,43,78,8
5,2,0,0,6,1,2,43,128,11
5,2,13,1,6,1,2,43,100,11
6,3,12,1,3,0,2,43,61,11
6,3,19,1,3,0,2,43,38,11
7,3,20,1,3,0,3,43,18,11
7,3,18,1,2,0,3,43,68,11
8,3,22,0,3,0,3,43,65,11
8,3,22,0,0,0,3,43,89,11
10,4,9,1,5,1,4,43,72,11
12,1,23,0,0,0,4,43,128,9
5,2,21,0,0,0,2,43,128,11
1,1,20,1,5,1,1,43,100,11
1,1,9,1,3,0,1,43,128,11
3,2,19,1,5,1,1,43,89,11
8,3,14,1,4,0,3,43,18,11
8,3,11,1,6,1,3,43,18,11
10,4,18,1,4,0,4,43,100,11
1,1,23,0,0,0,1,17,89,11
1,1,23,0,0,0,1,17,58,9
1,1,16,1,4,0,1,17,7,11
1,1,20,1,3,0,1,17,89,11
1,1,21,0,0,0,1,17,89,11
1,1,15,1,1,0,1,17,128,11
2,1,17,1,4,0,1,17,89,11
2,1,1,0,5,1,1,17,38,11
2,1,7,1,0,0,1,17,128,11
2,1,9,1,0,0,1,17,75,11
2,1,2,0,1,0,1,17,18,9
2,1,11,1,4,0,1,17,89,9
2,1,19,1,0,0,1,17,89,11
3,2,1,0,4,0,1,17,89,11
3,2,18,1,5,1,1,17,128,11
3,2,19,1,3,0,1,17,100,11
3,2,23,0,6,1,1,17,89,11
3,2,14,1,3,0,1,17,87,11
3,2,12,1,6,1,1,17,100,11
3,2,20,1,6,1,1,17,89,11
3,2,22,0,0,0,1,17,89,11
4,2,14,1,1,0,2,17,100,11
4,2,20,1,1,0,2,17,18,11
4,2,4,0,2,0,2,17,128,11
4,2,11,1,3,0,2,17,89,11
4,2,5,0,1,0,2,17,100,11
4,2,18,1,5,1,2,17,1,11
4,2,18,1,6,1,2,17,89,11
4,2,21,0,6,1,2,17,89,11
4,2,15,1,1,0,2,17,89,11
4,2,15,1,1,0,2,17,89,11
4,2,16,1,1,0,2,17,128,11
4,2,13,1,6,1,2,17,100,11
4,2,17,1,6,1,2,17,128,11
4,2,14,1,1,0,2,17,100,11
5,2,15,1,2,0,2,17,13,11
5,2,16,1,0,0,2,17,100,11
5,2,15,1,4,0,2,17,89,11
5,2,11,1,5,1,2,17,128,11
5,2,15,1,2,0,2,17,100,11
5,2,12,1,4,0,2,17,100,11
5,2,15,1,2,0,2,17,87,11
6,3,14,1,5,1,2,17,100,11
6,3,12,1,6,1,2,17,100,11
6,3,12,1,4,0,2,17,4,11
6,3,12,1,0,0,2,17,100,11
6,3,13,1,6,1,2,17,100,11
6,3,12,1,1,0,2,17,4,11
6,3,1,0,2,0,2,17,87,11
6,3,15,1,2,0,2,17,100,11
7,3,13,1,0,0,3,17,100,11
7,3,19,1,5,1,3,17,18,11
7,3,15,1,6,1,3,17,128,11
7,3,14,1,1,0,3,17,64,11
7,3,14,1,0,0,3,17,100,11
7,3,17,1,5,1,3,17,100,11
7,3,20,1,6,1,3,17,65,11
7,3,13,1,0,0,3,17,100,11
7,3,14,1,0,0,3,17,100,11
7,3,14,1,0,0,3,17,100,11
8,3,12,1,3,0,3,17,128,11
8,3,20,1,5,1,3,17,100,11
8,3,15,1,0,0,3,17,12,11
8,3,3,0,5,1,3,17,104,11
8,3,13,1,6,1,3,17,89,11
8,3,13,1,3,0,3,17,89,11
8,3,12,1,3,0,3,17,100,11
9,4,19,1,6,1,3,17,89,11
9,4,11,1,0,0,3,17,100,11
9,4,13,1,6,1,3,17,75,11
10,4,18,1,5,1,4,17,89,11
10,4,12,1,6,1,4,17,89,11
10,4,21,0,3,0,4,17,65,11
11,4,13,1,1,0,4,17,87,11
11,4,16,1,4,0,4,17,14,11
11,4,20,1,2,0,4,17,89,11
12,1,13,1,0,0,4,17,65,11
12,1,6,0,1,0,4,17,128,11
12,1,10,1,1,0,4,17,18,11
12,1,14,1,4,0,4,17,18,11
1,1,3,0,1,0,1,17,18,11
1,1,10,1,4,0,1,17,14,11
2,1,21,0,4,0,1,17,128,11
2,1,11,1,1,0,1,17,4,11
2,1,17,1,3,0,1,17,4,11
2,1,19,1,3,0,1,17,75,11
2,1,19,1,1,0,1,17,4,11
2,1,16,1,6,1,1,17,89,11
2,1,12,1,0,0,1,17,4,11
3,2,17,1,6,1,1,17,100,11
3,2,19,1,6,1,1,17,89,11
3,2,7,1,1,0,1,17,65,8
3,2,10,1,2,0,1,17,89,11
3,2,16,1,5,1,1,17,1,11
3,2,19,1,6,1,1,17,89,11
3,2,10,1,1,0,1,17,89,11
3,2,15,1,3,0,1,17,89,11
3,2,18,1,3,0,1,17,128,11
3,2,18,1,6,1,1,17,75,11
3,2,14,1,1,0,1,17,89,11
3,2,9,1,2,0,1,17,89,11
4,2,9,1,1,0,2,17,89,11
4,2,23,0,5,1,2,17,18,11
4,2,17,1,6,1,2,17,14,9
4,2,17,1,1,0,2,17,89,11
4,2,21,0,2,0,2,17,18,11
5,2,20,1,5,1,2,17,75,11
5,2,11,1,6,1,2,17,89,11
5,2,10,1,1,0,2,17,89,11
5,2,21,0,4,0,2,17,89,9
6,3,21,0,5,1,2,17,89,11
6,3,0,0,6,1,2,17,64,11
6,3,23,0,5,1,2,17,89,8
6,3,13,1,1,0,2,17,89,11
6,3,12,1,4,0,2,17,100,11
6,3,7,1,5,1,2,17,76,11
6,3,14,1,2,0,2,17,65,11
6,3,7,1,4,0,2,17,18,11
6,3,2,0,0,0,2,17,65,8
6,3,13,1,2,0,2,17,100,11
7,3,8,1,1,0,3,17,14,11
7,3,8,1,2,0,3,17,18,11
7,3,23,0,1,0,3,17,4,11
7,3,8,1,5,1,3,17,65,11
7,3,15,1,6,1,3,17,89,11
8,3,18,1,3,0,3,17,18,11
8,3,22,0,3,0,3,17,4,9
8,3,0,0,1,0,3,17,128,11
8,3,7,1,5,1,3,17,4,11
8,3,14,1,4,0,3,17,89,11
8,3,16,1,4,0,3,17,18,9
8,3,20,1,5,1,3,17,18,9
9,4,6,0,6,1,3,17,128,11
9,4,20,1,0,0,3,17,89,11
10,4,14,1,2,0,4,17,128,11
10,4,17,1,0,0,4,17,18,9
10,4,1,0,1,0,4,17,18,11
10,4,22,0,2,0,4,17,89,11
11,4,8,1,6,1,4,17,18,11
11,4,12,1,4,0,4,17,89,11
12,1,13,1,6,1,4,17,18,9
1,1,8,1,1,0,1,17,18,8
1,1,21,0,3,0,1,17,67,11
1,1,15,1,2,0,1,17,18,8
2,1,20,1,5,1,1,17,75,11
2,1,18,1,2,0,1,17,75,8
2,1,20,1,2,0,1,17,89,11
3,2,1,0,2,0,1,17,87,11
3,2,21,0,1,0,1,17,89,11
3,2,16,1,6,1,1,17,87,11
4,2,6,0,4,0,2,17,100,11
4,2,13,1,4,0,2,17,100,11
4,2,9,1,1,0,2,17,100,11
4,2,11,1,4,0,2,17,4,11
5,2,22,0,3,0,2,17,100,11
5,2,14,1,1,0,2,17,18,11
5,2,12,1,6,1,2,17,100,11
5,2,16,1,6,1,2,17,100,11
6,3,21,0,3,0,2,17,89,11
6,3,22,0,4,0,2,17,100,11
6,3,0,0,4,0,2,17,4,11
7,3,21,0,4,0,3,17,87,11
7,3,13,1,5,1,3,17,100,11
8,3,21,0,3,0,3,17,87,11
8,3,13,1,2,0,3,17,87,11
8,3,4,0,5,1,3,17,100,11
9,4,18,1,0,0,3,17,87,11
9,4,21,0,2,0,3,17,63,11
9,4,20,1,2,0,3,17,89,11
9,4,16,1,5,1,3,17,100,11
9,4,20,1,0,0,3,17,100,11
10,4,23,0,4,0,4,17,100,11
10,4,10,1,6,1,4,17,89,11
10,4,22,0,5,1,4,17,128,11
10,4,23,0,0,0,4,17,18,11
10,4,11,1,5,1,4,17,128,11
10,4,18,1,0,0,4,17,100,11
10,4,10,1,1,0,4,17,100,11
11,4,9,1,5,1,4,17,100,11
11,4,3,0,5,1,4,17,4,11
11,4,19,1,1,0,4,17,100,11
11,4,19,1,3,0,4,17,100,11
11,4,19,1,3,0,4,17,75,11
11,4,14,1,4,0,4,17,100,11
11,4,14,1,0,0,4,17,100,11
11,4,0,0,1,0,4,17,89,11
11,4,1,0,1,0,4,17,12,8
11,4,12,1,1,0,4,17,4,11
12,1,14,1,6,1,4,17,89,11
1,1,16,1,0,0,1,17,100,11
2,1,13,1,6,1,1,17,75,9
4,2,14,1,2,0,2,17,100,11
4,2,20,1,3,0,2,17,75,11
4,2,17,1,6,1,2,17,4,11
5,2,23,0,5,1,2,17,100,11
5,2,14,1,3,0,2,17,4,11
8,3,8,1,6,1,3,17,100,11
10,4,20,1,0,0,4,17,100,11
10,4,14,1,3,0,4,17,100,11
10,4,11,1,0,0,4,17,100,11
10,4,14,1,0,0,4,17,100,11
11,4,1,0,6,1,4,17,100,11
11,4,14,1,6,1,4,17,100,11
11,4,11,1,0,0,4,17,100,11
1,1,1,0,3,0,1,17,89,11
1,1,11,1,3,0,1,17,89,11
1,1,4,0,4,0,1,17,72,11
1,1,12,1,4,0,1,17,4,11
1,1,19,1,4,0,1,17,65,11
1,1,21,0,4,0,1,17,75,11
1,1,16,1,5,1,1,17,125,11
1,1,16,1,6,1,1,17,128,11
1,1,23,0,3,0,1,17,19,11
1,1,1,0,6,1,1,17,18,11
1,1,18,1,0,0,1,17,128,11
1,1,4,0,4,0,1,17,128,11
1,1,1,0,5,1,1,17,87,11
1,1,1,0,5,1,1,17,87,11
1,1,15,1,5,1,1,17,100,11
1,1,3,0,6,1,1,17,100,11
1,1,11,1,6,1,1,17,89,11
1,1,14,1,6,1,1,17,65,11
1,1,8,1,1,0,1,17,87,11
1,1,23,0,2,0,1,17,87,11
1,1,7,1,3,0,1,17,87,11
1,1,9,1,3,0,1,17,89,11
1,1,11,1,4,0,1,17,65,11
1,1,11,1,4,0,1,17,87,11
1,1,10,1,5,1,1,17,38,8
1,1,16,1,5,1,1,17,4,11
1,1,17,1,5,1,1,17,4,11
1,1,18,1,5,1,1,17,13,11
1,1,1,0,6,1,1,17,87,11
2,1,17,1,3,0,1,17,87,11
2,1,10,1,4,0,1,17,65,11
2,1,12,1,4,0,1,17,75,8
2,1,12,1,1,0,1,17,89,11
2,1,20,1,2,0,1,17,65,11
2,1,19,1,3,0,1,17,89,11
2,1,18,1,5,1,1,17,127,11
2,1,11,1,6,1,1,17,4,11
2,1,15,1,1,0,1,17,4,11
2,1,16,1,1,0,1,17,100,11
2,1,19,1,2,0,1,17,38,8
2,1,21,0,2,0,1,17,75,11
2,1,19,1,3,0,1,17,38,11
2,1,20,1,4,0,1,17,75,11
2,1,10,1,0,0,1,17,89,11
2,1,11,1,0,0,1,17,18,9
2,1,23,0,0,0,1,17,89,11
2,1,7,1,2,0,1,17,76,11
2,1,18,1,2,0,1,17,89,11
2,1,18,1,3,0,1,17,89,11
2,1,5,0,5,1,1,17,128,11
2,1,0,0,6,1,1,17,87,11
2,1,16,1,0,0,1,17,65,8
2,1,5,0,1,0,1,17,58,11
2,1,10,1,1,0,1,17,89,11
3,2,2,0,4,0,1,17,89,11
3,2,6,0,4,0,1,17,128,11
3,2,14,1,6,1,1,17,128,11
3,2,19,1,6,1,1,17,75,11
3,2,9,1,0,0,1,17,89,11
3,2,10,1,0,0,1,17,89,11
3,2,13,1,0,0,1,17,13,11
3,2,18,1,1,0,1,17,18,11
3,2,21,0,3,0,1,17,38,11
3,2,22,0,3,0,1,17,87,11
3,2,15,1,5,1,1,17,89,11
3,2,19,1,5,1,1,17,128,11
3,2,2,0,6,1,1,17,18,11
3,2,6,0,1,0,1,17,53,11
3,2,19,1,1,0,1,17,128,11
3,2,17,1,3,0,1,17,128,11
3,2,1,0,6,1,1,17,56,11
3,2,9,1,6,1,1,17,128,11
3,2,18,1,0,0,1,17,38,11
3,2,8,1,1,0,1,17,128,11
3,2,20,1,1,0,1,17,65,11
3,2,0,0,3,0,1,17,38,11
3,2,18,1,4,0,1,17,89,11
3,2,17,1,6,1,1,17,100,11
3,2,22,0,6,1,1,17,100,11
3,2,12,1,0,0,1,17,87,11
3,2,22,0,0,0,1,17,100,11
3,2,18,1,1,0,1,17,89,11
3,2,11,1,2,0,1,17,65,11
3,2,18,1,2,0,1,17,87,11
3,2,22,0,2,0,1,17,58,11
3,2,22,0,2,0,1,17,87,11
3,2,10,1,3,0,1,17,87,11
3,2,13,1,3,0,1,17,128,11
3,2,15,1,3,0,1,17,38,11
3,2,16,1,3,0,1,17,100,11
3,2,0,0,4,0,1,17,100,11
3,2,6,0,4,0,1,17,87,11
3,2,20,1,4,0,1,17,75,11
3,2,10,1,5,1,1,17,89,11
3,2,17,1,5,1,1,17,87,11
3,2,4,0,6,1,1,17,65,11
3,2,23,0,6,1,1,17,65,11
4,2,16,1,3,0,2,17,89,11
4,2,3,0,5,1,2,17,107,11
4,2,20,1,5,1,2,17,100,11
4,2,20,1,5,1,2,17,38,11
4,2,11,1,6,1,2,17,89,11
4,2,13,1,6,1,2,17,26,11
4,2,16,1,6,1,2,17,87,11
4,2,21,0,6,1,2,17,89,11
4,2,22,0,6,1,2,17,87,11
4,2,19,1,0,0,2,17,65,11
4,2,1,0,1,0,2,17,87,11
4,2,15,1,1,0,2,17,87,11
4,2,22,0,1,0,2,17,13,11
4,2,21,0,2,0,2,17,89,11
4,2,9,1,1,0,2,17,89,11
4,2,13,1,1,0,2,17,100,11
4,2,2,0,2,0,2,17,65,11
4,2,11,1,2,0,2,17,89,11
4,2,10,1,4,0,2,17,89,11
4,2,18,1,4,0,2,17,89,11
4,2,15,1,5,1,2,17,89,11
4,2,1,0,6,1,2,17,89,11
4,2,14,1,6,1,2,17,128,11
4,2,21,0,6,1,2,17,38,11
4,2,0,0,0,0,2,17,87,11
4,2,12,1,0,0,2,17,87,8
4,2,16,1,0,0,2,17,89,11
4,2,9,1,1,0,2,17,89,11
4,2,1,0,3,0,2,17,87,11
4,2,10,1,4,0,2,17,65,11
4,2,7,1,5,1,2,17,128,11
4,2,11,1,5,1,2,17,4,11
4,2,12,1,5,1,2,17,18,11
4,2,14,1,5,1,2,17,18,11
4,2,22,0,5,1,2,17,87,11
4,2,15,1,0,0,2,17,87,11
5,2,15,1,3,0,2,17,89,11
5,2,16,1,4,0,2,17,89,11
5,2,23,0,4,0,2,17,38,11
5,2,8,1,5,1,2,17,128,11
5,2,12,1,5,1,2,17,97,11
5,2,19,1,5,1,2,17,89,11
5,2,22,0,5,1,2,17,97,11
5,2,0,0,6,1,2,17,89,11
5,2,0,0,6,1,2,17,87,11
5,2,2,0,6,1,2,17,87,11
5,2,16,1,6,1,2,17,89,11
5,2,20,1,6,1,2,17,89,11
5,2,8,1,0,0,2,17,128,11
5,2,20,1,0,0,2,17,100,11
5,2,21,0,0,0,2,17,95,11
5,2,17,1,1,0,2,17,65,11
5,2,19,1,1,0,2,17,100,11
5,2,13,1,2,0,2,17,100,11
5,2,9,1,3,0,2,17,87,11
5,2,14,1,5,1,2,17,38,11
5,2,12,1,6,1,2,17,87,11
5,2,14,1,1,0,2,17,89,11
5,2,1,0,3,0,2,17,100,11
5,2,1,0,4,0,2,17,100,11
5,2,18,1,4,0,2,17,38,11
5,2,15,1,0,0,2,17,89,11
5,2,13,1,1,0,2,17,100,11
5,2,15,1,2,0,2,17,100,11
5,2,21,0,3,0,2,17,88,11
5,2,11,1,5,1,2,17,30,11
5,2,21,0,5,1,2,17,89,11
5,2,12,1,0,0,2,17,100,11
5,2,0,0,3,0,2,17,100,11
5,2,1,0,3,0,2,17,87,11
6,3,15,1,5,1,2,17,100,11
6,3,11,1,6,1,2,17,89,11
6,3,8,1,0,0,2,17,87,11
6,3,12,1,0,0,2,17,65,11
6,3,13,1,0,0,2,17,87,11
6,3,16,1,0,0,2,17,89,11
6,3,16,1,5,1,2,17,100,11
6,3,21,0,5,1,2,17,89,11
6,3,16,1,6,1,2,17,38,11
6,3,9,1,1,0,2,17,87,11
6,3,14,1,1,0,2,17,65,11
6,3,8,1,2,0,2,17,89,11
6,3,11,1,4,0,2,17,22,11
6,3,12,1,5,1,2,17,89,11
6,3,17,1,5,1,2,17,65,11
6,3,13,1,6,1,2,17,89,11
6,3,16,1,0,0,2,17,87,11
6,3,14,1,1,0,2,17,100,11
6,3,12,1,2,0,2,17,87,11
6,3,16,1,2,0,2,17,87,11
6,3,18,1,2,0,2,17,18,11
6,3,20,1,4,0,2,17,89,11
6,3,19,1,6,1,2,17,89,11
6,3,21,0,6,1,2,17,38,11
6,3,17,1,0,0,2,17,100,11
6,3,20,1,0,0,2,17,127,11
6,3,10,1,1,0,2,17,38,11
6,3,13,1,2,0,2,17,38,11
6,3,21,0,3,0,2,17,75,11
6,3,8,1,4,0,2,17,38,11
6,3,15,1,4,0,2,17,100,11
6,3,15,1,4,0,2,17,89,11
6,3,18,1,5,1,2,17,65,11
6,3,19,1,5,1,2,17,87,11
6,3,23,0,5,1,2,17,65,11
7,3,0,0,0,0,3,17,89,11
7,3,11,1,0,0,3,17,65,11
7,3,23,0,0,0,3,17,87,11
7,3,9,1,1,0,3,17,65,11
7,3,10,1,3,0,3,17,87,11
7,3,14,1,3,0,3,17,100,11
7,3,16,1,3,0,3,17,100,11
7,3,0,0,4,0,3,17,100,11
7,3,3,0,4,0,3,17,128,11
7,3,19,1,5,1,3,17,75,11
7,3,23,0,5,1,3,17,87,11
7,3,0,0,6,1,3,17,87,11
7,3,12,1,0,0,3,17,100,11
7,3,14,1,1,0,3,17,87,11
7,3,16,1,1,0,3,17,128,11
7,3,6,0,2,0,3,17,89,11
7,3,1,0,3,0,3,17,128,11
7,3,23,0,5,1,3,17,38,11
7,3,3,0,0,0,3,17,100,11
7,3,13,1,0,0,3,17,51,11
7,3,0,0,1,0,3,17,89,11
7,3,10,1,2,0,3,17,100,11
7,3,8,1,4,0,3,17,89,11
7,3,18,1,5,1,3,17,65,11
7,3,4,0,6,1,3,17,65,11
7,3,18,1,6,1,3,17,89,11
7,3,14,1,2,0,3,17,128,11
7,3,14,1,0,0,3,17,100,11
7,3,17,1,0,0,3,17,100,11
7,3,10,1,1,0,3,17,65,11
7,3,11,1,1,0,3,17,100,11
8,3,21,0,3,0,3,17,89,11
8,3,4,0,0,0,3,17,87,11
8,3,20,1,0,0,3,17,87,11
8,3,10,1,1,0,3,17,100,11
8,3,16,1,3,0,3,17,18,11
8,3,11,1,5,1,3,17,18,8
8,3,11,1,6,1,3,17,75,11
8,3,12,1,2,0,3,17,46,11
8,3,23,0,2,0,3,17,87,11
8,3,20,1,4,0,3,17,89,11
8,3,1,0,0,0,3,17,89,11
8,3,12,1,0,0,3,17,89,11
8,3,11,1,1,0,3,17,100,11
8,3,16,1,2,0,3,17,65,11
8,3,20,1,2,0,3,17,65,11
8,3,21,0,5,1,3,17,100,11
8,3,20,1,1,0,3,17,18,11
8,3,8,1,2,0,3,17,75,11
8,3,14,1,3,0,3,17,18,11
8,3,11,1,5,1,3,17,89,11
8,3,18,1,5,1,3,17,18,11
9,4,21,0,2,0,3,17,100,11
9,4,7,1,4,0,3,17,100,11
9,4,14,1,4,0,3,17,58,11
9,4,11,1,6,1,3,17,18,11
9,4,16,1,0,0,3,17,100,11
9,4,16,1,2,0,3,17,100,11
9,4,16,1,3,0,3,17,100,11
9,4,20,1,3,0,3,17,89,11
9,4,7,1,6,1,3,17,38,11
9,4,13,1,6,1,3,17,38,11
9,4,20,1,6,1,3,17,100,11
9,4,11,1,2,0,3,17,75,11
9,4,15,1,4,0,3,17,65,11
9,4,2,0,5,1,3,17,18,8
9,4,7,1,5,1,3,17,89,11
9,4,8,1,0,0,3,17,18,11
9,4,17,1,0,0,3,17,89,11
9,4,17,1,0,0,3,17,100,11
10,4,1,0,2,0,4,17,18,8
10,4,1,0,2,0,4,17,18,8
10,4,13,1,2,0,4,17,89,11
10,4,0,0,3,0,4,17,58,11
10,4,18,1,4,0,4,17,18,11
10,4,20,1,4,0,4,17,89,11
10,4,2,0,6,1,4,17,12,11
10,4,18,1,6,1,4,17,38,11
10,4,20,1,6,1,4,17,100,11
10,4,11,1,2,0,4,17,18,11
10,4,18,1,4,0,4,17,89,11
10,4,20,1,5,1,4,17,95,11
10,4,22,0,1,0,4,17,48,8
10,4,14,1,3,0,4,17,22,11
10,4,19,1,5,1,4,17,65,11
10,4,7,1,6,1,4,17,100,11
10,4,12,1,6,1,4,17,87,11
10,4,18,1,6,1,4,17,100,11
10,4,10,1,0,0,4,17,38,11
10,4,11,1,0,0,4,17,87,11
10,4,11,1,3,0,4,17,38,11
10,4,7,1,5,1,4,17,100,11
10,4,18,1,5,1,4,17,100,11
10,4,7,1,6,1,4,17,18,11
10,4,15,1,0,0,4,17,65,11
11,4,8,1,4,0,4,17,89,11
11,4,18,1,6,1,4,17,65,11
11,4,4,0,2,0,4,17,100,11
11,4,19,1,6,1,4,17,38,11
11,4,18,1,1,0,4,17,65,11
11,4,8,1,2,0,4,17,126,11
11,4,9,1,5,1,4,17,100,11
11,4,20,1,5,1,4,17,100,11
11,4,18,1,6,1,4,17,18,11
11,4,17,1,0,0,4,17,128,11
11,4,4,0,1,0,4,17,13,11
11,4,22,0,1,0,4,17,65,11
11,4,11,1,3,0,4,17,89,11
11,4,13,1,4,0,4,17,95,11
11,4,13,1,5,1,4,17,89,11
11,4,14,1,5,1,4,17,128,11
11,4,17,1,0,0,4,17,65,11
11,4,11,1,1,0,4,17,89,11
11,4,18,1,5,1,4,17,79,11
12,1,0,0,1,0,4,17,87,11
12,1,9,1,2,0,4,17,18,11
12,1,16,1,2,0,4,17,100,11
12,1,10,1,3,0,4,17,87,11
12,1,11,1,4,0,4,17,18,11
12,1,14,1,4,0,4,17,100,11
12,1,18,1,4,0,4,17,76,11
12,1,18,1,4,0,4,17,75,11
12,1,6,0,5,1,4,17,72,11
12,1,22,0,5,1,4,17,89,11
12,1,21,0,6,1,4,17,110,11
12,1,21,0,2,0,4,17,89,11
12,1,10,1,5,1,4,17,57,11
12,1,14,1,5,1,4,17,89,11
12,1,18,1,5,1,4,17,89,11
12,1,10,1,6,1,4,17,89,11
12,1,23,0,6,1,4,17,89,11
12,1,8,1,0,0,4,17,18,11
12,1,18,1,1,0,4,17,65,11
12,1,10,1,2,0,4,17,87,11
12,1,10,1,6,1,4,17,46,8
12,1,20,1,6,1,4,17,128,11
12,1,9,1,2,0,4,17,38,11
12,1,20,1,2,0,4,17,18,11
12,1,15,1,3,0,4,17,75,11
12,1,18,1,3,0,4,17,38,11
12,1,12,1,6,1,4,17,65,11
12,1,19,1,0,0,4,17,30,11
12,1,20,1,0,0,4,17,128,11
12,1,20,1,1,0,4,17,65,11
1,1,18,1,0,0,1,17,89,11
1,1,12,1,5,1,1,17,100,11
1,1,15,1,5,1,1,17,100,11
1,1,13,1,0,0,1,17,89,11
2,1,1,0,1,0,1,17,128,11
2,1,19,1,3,0,1,17,18,11
3,2,9,1,2,0,1,17,89,11
3,2,22,0,2,0,1,17,89,11
3,2,10,1,0,0,1,17,72,11
3,2,17,1,0,0,1,17,89,11
3,2,13,1,5,1,1,17,100,11
4,2,19,1,2,0,2,17,89,11
4,2,1,0,4,0,2,17,100,11
4,2,18,1,4,0,2,17,128,11
4,2,11,1,1,0,2,17,128,11
4,2,0,0,4,0,2,17,128,11
4,2,20,1,0,0,2,17,89,11
4,2,11,1,2,0,2,17,89,11
4,2,12,1,2,0,2,17,100,11
4,2,16,1,5,1,2,17,89,11
4,2,15,1,0,0,2,17,128,11
4,2,13,1,3,0,2,17,89,11
4,2,20,1,6,1,2,17,89,11
5,2,3,0,3,0,2,17,128,11
5,2,13,1,3,0,2,17,89,11
5,2,13,1,1,0,2,17,89,11
5,2,21,0,0,0,2,17,89,11
5,2,14,1,1,0,2,17,35,11
5,2,7,1,5,1,2,17,89,11
5,2,15,1,3,0,2,17,89,11
5,2,8,1,4,0,2,17,89,11
5,2,7,1,4,0,2,17,100,11
5,2,17,1,4,0,2,17,100,11
6,3,9,1,4,0,2,17,89,11
6,3,16,1,5,1,2,17,100,11
6,3,23,0,6,1,2,17,100,11
6,3,22,0,0,0,2,17,89,11
6,3,15,1,1,0,2,17,89,11
6,3,19,1,3,0,2,17,75,11
6,3,14,1,4,0,2,17,89,11
6,3,13,1,5,1,2,17,89,11
6,3,17,1,5,1,2,17,18,11
6,3,7,1,6,1,2,17,100,11
6,3,11,1,6,1,2,17,100,11
7,3,11,1,1,0,3,17,100,11
7,3,14,1,2,0,3,17,89,11
7,3,10,1,4,0,3,17,110,11
7,3,14,1,5,1,3,17,89,11
7,3,14,1,5,1,3,17,89,11
7,3,15,1,3,0,3,17,89,11
7,3,16,1,4,0,3,17,89,11
7,3,20,1,6,1,3,17,89,11
7,3,10,1,0,0,3,17,100,11
7,3,11,1,0,0,3,17,100,11
7,3,13,1,4,0,3,17,89,11
7,3,13,1,1,0,3,17,100,11
8,3,13,1,3,0,3,17,128,11
8,3,21,0,2,0,3,17,89,11
8,3,0,0,3,0,3,17,89,11
8,3,16,1,3,0,3,17,126,11
8,3,20,1,0,0,3,17,89,11
8,3,12,1,2,0,3,17,100,11
8,3,16,1,3,0,3,17,89,11
8,3,19,1,3,0,3,17,18,11
8,3,21,0,6,1,3,17,89,11
8,3,14,1,1,0,3,17,100,11
8,3,15,1,5,1,3,17,89,11
9,4,17,1,0,0,3,17,110,11
9,4,17,1,1,0,3,17,89,11
9,4,12,1,2,0,3,17,89,11
9,4,18,1,6,1,3,17,89,11
10,4,13,1,1,0,4,17,89,11
10,4,0,0,1,0,4,17,128,11
10,4,20,1,2,0,4,17,89,11
10,4,19,1,4,0,4,17,89,11
10,4,4,0,4,0,4,17,89,11
10,4,19,1,4,0,4,17,89,11
10,4,1,0,2,0,4,17,89,11
10,4,14,1,3,0,4,17,89,11
10,4,17,1,1,0,4,17,100,11
10,4,22,0,1,0,4,17,128,11
11,4,20,1,6,1,4,17,89,11
11,4,16,1,0,0,4,17,89,11
11,4,20,1,0,0,4,17,100,11
11,4,19,1,2,0,4,17,89,9
11,4,14,1,4,0,4,17,89,11
11,4,9,1,4,0,4,17,89,11
11,4,4,0,6,1,4,17,18,11
11,4,12,1,2,0,4,17,89,11
12,1,17,1,6,1,4,17,100,11
12,1,15,1,5,1,4,17,67,11
12,1,10,1,2,0,4,17,89,11
12,1,13,1,6,1,4,17,89,11
12,1,18,1,1,0,4,17,65,11
9,4,0,0,2,0,3,17,5,11
1,1,19,1,3,0,1,50,100,11
1,1,20,1,0,0,1,50,18,8
1,1,16,1,2,0,1,50,18,8
1,1,17,1,3,0,1,50,128,11
1,1,20,1,5,1,1,50,87,11
1,1,6,0,0,0,1,50,87,11
1,1,17,1,0,0,1,50,100,11
2,1,18,1,0,0,1,50,100,11
2,1,17,1,1,0,1,50,87,11
2,1,13,1,6,1,1,50,100,11
2,1,20,1,2,0,1,50,89,11
2,1,10,1,2,0,1,50,18,9
3,2,17,1,5,1,1,50,89,11
3,2,15,1,4,0,1,50,57,11
3,2,15,1,5,1,1,50,7,11
3,2,22,0,6,1,1,50,128,8
4,2,19,1,2,0,2,50,100,11
4,2,17,1,1,0,2,50,100,11
4,2,4,0,4,0,2,50,89,11
4,2,9,1,4,0,2,50,100,11
4,2,16,1,1,0,2,50,100,11
5,2,1,0,3,0,2,50,100,11
5,2,8,1,4,0,2,50,100,11
5,2,7,1,5,1,2,50,100,11
5,2,0,0,6,1,2,50,87,11
5,2,23,0,6,1,2,50,97,11
5,2,18,1,3,0,2,50,89,11
6,3,23,0,1,0,2,50,87,11
6,3,23,0,4,0,2,50,100,11
6,3,1,0,5,1,2,50,38,11
6,3,8,1,2,0,2,50,89,11
6,3,14,1,4,0,2,50,89,11
6,3,1,0,5,1,2,50,38,9
7,3,20,1,2,0,3,50,89,11
7,3,13,1,6,1,3,50,26,11
7,3,3,0,0,0,3,50,18,11
7,3,9,1,3,0,3,50,89,11
7,3,12,1,1,0,3,50,89,11
7,3,19,1,4,0,3,50,19,11
8,3,14,1,4,0,3,50,18,11
8,3,1,0,0,0,3,50,100,11
8,3,16,1,6,1,3,50,100,11
9,4,22,0,2,0,3,50,87,11
9,4,14,1,5,1,3,50,87,11
10,4,17,1,1,0,4,50,112,11
11,4,11,1,1,0,4,50,89,11
11,4,19,1,3,0,4,50,100,11
11,4,15,1,5,1,4,50,100,11
12,1,20,1,0,0,4,50,100,11
12,1,20,1,6,1,4,50,100,11
7,3,12,1,5,1,3,50,100,11
9,4,11,1,5,1,3,50,89,11
1,1,4,0,0,0,1,50,100,11
1,1,23,0,2,0,1,50,100,11
1,1,1,0,4,0,1,50,100,11
1,1,19,1,5,1,1,50,100,11
1,1,17,1,4,0,1,50,65,11
1,1,22,0,4,0,1,50,72,11
1,1,14,1,5,1,1,50,87,11
1,1,22,0,1,0,1,50,75,11
1,1,8,1,3,0,1,50,89,11
1,1,11,1,2,0,1,50,89,11
1,1,11,1,5,1,1,50,89,11
1,1,11,1,6,1,1,50,18,11
1,1,9,1,1,0,1,50,128,11
2,1,18,1,6,1,1,50,75,11
2,1,22,0,0,0,1,50,100,11
2,1,20,1,4,0,1,50,26,11
2,1,13,1,5,1,1,50,100,11
2,1,12,1,6,1,1,50,89,11
2,1,7,1,4,0,1,50,14,8
2,1,18,1,6,1,1,50,7,11
2,1,19,1,0,0,1,50,12,11
2,1,21,0,5,1,1,50,100,11
2,1,19,1,6,1,1,50,89,11
2,1,21,0,6,1,1,50,63,9
2,1,13,1,3,0,1,50,38,11
3,2,17,1,4,0,1,50,65,11
3,2,20,1,4,0,1,50,65,9
3,2,12,1,5,1,1,50,89,11
3,2,21,0,1,0,1,50,75,11
3,2,16,1,3,0,1,50,100,11
3,2,14,1,4,0,1,50,89,11
3,2,0,0,6,1,1,50,26,11
3,2,13,1,4,0,1,50,29,9
3,2,0,0,4,0,1,50,100,11
3,2,18,1,4,0,1,50,13,11
3,2,19,1,1,0,1,50,89,11
3,2,14,1,2,0,1,50,84,11
3,2,12,1,3,0,1,50,38,11
4,2,5,0,3,0,2,50,64,11
4,2,10,1,4,0,2,50,89,11
4,2,13,1,5,1,2,50,38,11
4,2,19,1,5,1,2,50,89,9
4,2,21,0,0,0,2,50,72,11
4,2,17,1,1,0,2,50,72,11
4,2,11,1,2,0,2,50,89,11
4,2,5,0,6,1,2,50,89,11
4,2,11,1,6,1,2,50,100,11
4,2,20,1,6,1,2,50,89,11
4,2,13,1,0,0,2,50,89,9
4,2,18,1,0,0,2,50,18,11
4,2,0,0,2,0,2,50,87,11
4,2,15,1,2,0,2,50,97,11
4,2,21,0,6,1,2,50,65,11
4,2,16,1,2,0,2,50,65,11
4,2,13,1,3,0,2,50,100,11
4,2,18,1,0,0,2,50,89,11
5,2,13,1,3,0,2,50,89,11
5,2,1,0,4,0,2,50,89,11
5,2,1,0,5,1,2,50,100,11
5,2,8,1,5,1,2,50,100,11
5,2,14,1,5,1,2,50,89,11
5,2,0,0,6,1,2,50,97,11
5,2,3,0,0,0,2,50,100,11
5,2,21,0,3,0,2,50,95,11
5,2,19,1,3,0,2,50,8,11
5,2,14,1,1,0,2,50,46,8
5,2,20,1,1,0,2,50,75,9
5,2,13,1,2,0,2,50,89,11
5,2,8,1,1,0,2,50,65,11
5,2,12,1,1,0,2,50,95,11
5,2,2,0,3,0,2,50,89,11
5,2,15,1,4,0,2,50,46,11
6,3,17,1,5,1,2,50,89,11
6,3,23,0,1,0,2,50,87,11
6,3,1,0,4,0,2,50,87,11
6,3,13,1,5,1,2,50,100,11
6,3,19,1,5,1,2,50,89,11
6,3,5,0,6,1,2,50,44,8
6,3,13,1,6,1,2,50,65,11
6,3,21,0,1,0,2,50,58,11
6,3,17,1,2,0,2,50,89,11
6,3,0,0,4,0,2,50,89,9
6,3,20,1,4,0,2,50,26,11
6,3,4,0,0,0,2,50,100,11
6,3,11,1,1,0,2,50,30,11
6,3,2,0,4,0,2,50,48,11
6,3,5,0,6,1,2,50,65,11
6,3,5,0,2,0,2,50,100,11
6,3,23,0,4,0,2,50,65,11
7,3,0,0,2,0,3,50,18,11
7,3,14,1,5,1,3,50,95,11
7,3,2,0,2,0,3,50,95,11
7,3,19,1,3,0,3,50,100,11
7,3,18,1,4,0,3,50,95,11
7,3,21,0,1,0,3,50,89,11
7,3,10,1,2,0,3,50,87,11
7,3,13,1,5,1,3,50,72,11
7,3,1,0,6,1,3,50,100,11
7,3,12,1,0,0,3,50,66,11
7,3,23,0,1,0,3,50,89,11
7,3,3,0,4,0,3,50,95,11
7,3,16,1,1,0,3,50,18,11
8,3,7,1,3,0,3,50,100,11
8,3,16,1,4,0,3,50,128,11
8,3,22,0,4,0,3,50,65,11
8,3,2,0,5,1,3,50,95,11
8,3,3,0,5,1,3,50,95,11
8,3,10,1,5,1,3,50,100,11
8,3,10,1,5,1,3,50,100,11
8,3,17,1,5,1,3,50,89,11
8,3,16,1,6,1,3,50,95,11
8,3,23,0,4,0,3,50,89,11
8,3,12,1,5,1,3,50,18,11
8,3,2,0,6,1,3,50,87,11
8,3,15,1,0,0,3,50,18,11
8,3,14,1,0,0,3,50,18,8
8,3,8,1,1,0,3,50,48,11
8,3,18,1,1,0,3,50,89,11
8,3,2,0,3,0,3,50,89,11
8,3,19,1,1,0,3,50,126,11
8,3,11,1,5,1,3,50,89,11
9,4,15,1,4,0,3,50,95,11
9,4,16,1,6,1,3,50,65,9
9,4,13,1,4,0,3,50,89,11
9,4,12,1,6,1,3,50,89,11
9,4,18,1,0,0,3,50,29,9
9,4,5,0,3,0,3,50,100,11
9,4,19,1,4,0,3,50,100,11
9,4,20,1,4,0,3,50,126,11
10,4,13,1,4,0,4,50,100,11
10,4,17,1,4,0,4,50,100,11
10,4,18,1,3,0,4,50,87,11
10,4,4,0,4,0,4,50,18,11
10,4,11,1,0,0,4,50,75,11
10,4,9,1,1,0,4,50,100,11
10,4,15,1,3,0,4,50,89,11
10,4,18,1,4,0,4,50,89,11
11,4,16,1,0,0,4,50,89,11
11,4,18,1,0,0,4,50,87,11
11,4,16,1,2,0,4,50,100,11
11,4,14,1,3,0,4,50,89,11
11,4,16,1,0,0,4,50,65,11
11,4,17,1,1,0,4,50,110,11
11,4,23,0,2,0,4,50,89,11
11,4,9,1,5,1,4,50,89,9
11,4,5,0,6,1,4,50,18,11
11,4,21,0,3,0,4,50,89,11
11,4,1,0,0,0,4,50,15,9
11,4,18,1,1,0,4,50,100,11
11,4,18,1,2,0,4,50,67,11
11,4,8,1,5,1,4,50,89,11
12,1,12,1,3,0,4,50,89,11
12,1,14,1,3,0,4,50,89,11
12,1,13,1,5,1,4,50,13,8
12,1,22,0,5,1,4,50,87,11
12,1,21,0,1,0,4,50,75,11
12,1,14,1,4,0,4,50,47,11
12,1,4,0,0,0,4,50,100,11
10,4,19,1,5,1,4,50,5,11
1,1,5,0,5,1,1,50,89,11
1,1,15,1,5,1,1,50,89,11
1,1,1,0,2,0,1,50,75,9
1,1,7,1,2,0,1,50,100,11
2,1,7,1,4,0,1,50,75,11
3,2,10,1,5,1,1,50,75,11
3,2,13,1,0,0,1,50,75,9
3,2,15,1,2,0,1,50,100,11
4,2,8,1,3,0,2,50,89,11
4,2,11,1,3,0,2,50,75,11
4,2,16,1,4,0,2,50,89,9
4,2,11,1,6,1,2,50,100,11
4,2,10,1,2,0,2,50,89,11
5,2,15,1,1,0,2,50,89,11
5,2,12,1,5,1,2,50,89,9
5,2,21,0,4,0,2,50,87,11
6,3,20,1,4,0,2,50,89,11
6,3,15,1,6,1,2,50,100,11
7,3,16,1,5,1,3,50,89,11
7,3,16,1,6,1,3,50,75,9
7,3,14,1,0,0,3,50,89,11
7,3,14,1,3,0,3,50,100,11
7,3,14,1,5,1,3,50,89,11
8,3,12,1,5,1,3,50,100,11
8,3,13,1,5,1,3,50,89,9
8,3,14,1,6,1,3,50,89,11
8,3,9,1,5,1,3,50,89,11
9,4,14,1,5,1,3,50,100,11
11,4,9,1,5,1,4,50,100,11
11,4,21,0,3,0,4,50,89,11
11,4,20,1,2,0,4,50,87,11
11,4,9,1,1,0,4,50,89,11
11,4,19,1,5,1,4,50,100,11
12,1,19,1,0,0,4,50,100,11
12,1,16,1,0,0,4,50,100,11
12,1,20,1,5,1,4,50,100,11
12,1,16,1,2,0,4,50,89,11
12,1,21,0,3,0,4,50,75,11
2,1,8,1,5,1,1,50,75,11
4,2,6,0,3,0,2,50,89,11
4,2,7,1,5,1,2,50,89,11
4,2,0,0,4,0,2,50,89,11
5,2,17,1,6,1,2,50,75,11
6,3,6,0,3,0,2,50,50,11
7,3,8,1,1,0,3,50,18,11
8,3,8,1,3,0,3,50,128,11
10,4,22,0,2,0,4,50,100,11
10,4,23,0,6,1,4,50,100,11
11,4,22,0,5,1,4,50,89,11
11,4,2,0,1,0,4,50,75,11
1,1,9,1,3,0,1,41,58,11
1,1,11,1,3,0,1,41,18,11
1,1,4,0,0,0,1,41,65,11
1,1,16,1,6,1,1,41,38,11
1,1,18,1,1,0,1,41,75,11
1,1,19,1,6,1,1,41,59,11
2,1,21,0,4,0,1,41,75,11
2,1,16,1,0,0,1,41,89,11
2,1,18,1,0,0,1,41,100,11
2,1,21,0,0,0,1,41,65,11
2,1,20,1,5,1,1,41,84,11
2,1,9,1,6,1,1,41,19,11
2,1,15,1,0,0,1,41,89,11
2,1,8,1,5,1,1,41,100,11
2,1,21,0,6,1,1,41,89,11
3,2,20,1,0,0,1,41,89,11
3,2,11,1,1,0,1,41,12,11
3,2,9,1,1,0,1,41,18,11
3,2,8,1,2,0,1,41,87,11
3,2,13,1,0,0,1,41,89,11
3,2,19,1,0,0,1,41,128,11
3,2,20,1,6,1,1,41,72,11
3,2,21,0,6,1,1,41,128,11
4,2,10,1,1,0,2,41,65,11
4,2,17,1,2,0,2,41,4,11
4,2,14,1,0,0,2,41,13,11
4,2,13,1,1,0,2,41,89,11
4,2,15,1,3,0,2,41,89,11
4,2,11,1,0,0,2,41,100,11
4,2,17,1,1,0,2,41,95,11
4,2,1,0,3,0,2,41,100,11
4,2,10,1,5,1,2,41,75,11
4,2,22,0,1,0,2,41,65,11
5,2,7,1,2,0,2,41,87,11
5,2,3,0,5,1,2,41,4,11
5,2,17,1,6,1,2,41,4,11
5,2,23,0,0,0,2,41,100,11
5,2,15,1,2,0,2,41,128,11
5,2,16,1,3,0,2,41,89,11
5,2,18,1,6,1,2,41,89,11
5,2,9,1,6,1,2,41,87,11
5,2,20,1,1,0,2,41,27,11
5,2,16,1,5,1,2,41,87,11
5,2,16,1,0,0,2,41,58,11
5,2,22,0,1,0,2,41,100,11
6,3,5,0,6,1,2,41,84,11
6,3,20,1,0,0,2,41,75,11
6,3,5,0,3,0,2,41,104,11
6,3,15,1,3,0,2,41,58,11
6,3,8,1,3,0,2,41,38,9
6,3,18,1,5,1,2,41,89,11
6,3,21,0,5,1,2,41,100,11
6,3,21,0,1,0,2,41,75,11
6,3,3,0,2,0,2,41,65,11
6,3,19,1,6,1,2,41,72,11
7,3,19,1,0,0,3,41,87,11
7,3,22,0,6,1,3,41,87,11
7,3,2,0,6,1,3,41,75,11
7,3,21,0,0,0,3,41,4,11
7,3,8,1,1,0,3,41,87,11
7,3,16,1,4,0,3,41,87,11
7,3,18,1,4,0,3,41,72,11
7,3,14,1,0,0,3,41,72,11
7,3,0,0,2,0,3,41,100,11
8,3,16,1,2,0,3,41,4,11
8,3,9,1,4,0,3,41,87,11
8,3,10,1,4,0,3,41,87,11
8,3,9,1,5,1,3,41,89,11
8,3,11,1,6,1,3,41,65,11
8,3,0,0,0,0,3,41,114,11
8,3,15,1,4,0,3,41,65,11
9,4,7,1,4,0,3,41,38,11
9,4,1,0,6,1,3,41,75,11
9,4,14,1,0,0,3,41,87,11
10,4,11,1,3,0,4,41,100,11
10,4,13,1,1,0,4,41,38,11
10,4,19,1,5,1,4,41,18,11
10,4,21,0,1,0,4,41,88,11
10,4,9,1,3,0,4,41,65,11
10,4,7,1,5,1,4,41,110,11
11,4,4,0,1,0,4,41,89,11
11,4,10,1,1,0,4,41,89,11
11,4,0,0,2,0,4,41,46,11
11,4,14,1,4,0,4,41,79,11
11,4,11,1,0,0,4,41,65,11
11,4,14,1,1,0,4,41,65,11
11,4,16,1,2,0,4,41,75,11
11,4,11,1,4,0,4,41,89,11
11,4,15,1,5,1,4,41,75,11
11,4,16,1,6,1,4,41,89,11
11,4,16,1,0,0,4,41,100,11
11,4,21,0,2,0,4,41,100,11
11,4,21,0,2,0,4,41,89,11
11,4,15,1,3,0,4,41,100,11
11,4,21,0,3,0,4,41,18,11
11,4,9,1,4,0,4,41,89,11
11,4,10,1,5,1,4,41,95,11
11,4,19,1,5,1,4,41,38,11
12,1,15,1,1,0,4,41,46,11
12,1,12,1,3,0,4,41,128,11
12,1,9,1,4,0,4,41,87,11
12,1,21,0,0,0,4,41,72,11
12,1,15,1,4,0,4,41,65,11
12,1,21,0,3,0,4,41,38,11
12,1,13,1,0,0,4,41,65,11
3,2,2,0,6,1,1,41,65,11
3,2,14,1,5,1,1,41,57,11
4,2,12,1,1,0,2,41,13,11
5,2,0,0,5,1,2,41,81,11
6,3,16,1,2,0,2,41,100,11
6,3,14,1,6,1,2,41,13,11
7,3,16,1,1,0,3,41,13,11
9,4,15,1,4,0,3,41,44,11
9,4,11,1,2,0,3,41,18,11
10,4,12,1,2,0,4,41,87,11
11,4,16,1,6,1,4,41,100,11
11,4,22,0,0,0,4,41,75,11
11,4,11,1,3,0,4,41,89,11
11,4,12,1,4,0,4,41,100,11
12,1,21,0,2,0,4,41,100,11
12,1,22,0,3,0,4,41,1,11
5,2,1,0,2,0,2,41,87,11
8,3,11,1,6,1,3,41,93,11
9,4,11,1,4,0,3,41,18,11
11,4,16,1,1,0,4,41,87,11
1,1,19,1,1,0,1,41,87,11
1,1,0,0,0,0,1,41,38,9
2,1,15,1,6,1,1,41,38,9
2,1,10,1,1,0,1,41,18,9
3,2,0,0,2,0,1,41,89,11
4,2,20,1,0,0,2,41,128,11
4,2,14,1,3,0,2,41,87,11
4,2,2,0,5,1,2,41,110,9
5,2,1,0,6,1,2,41,75,11
6,3,14,1,3,0,2,41,38,8
6,3,21,0,1,0,2,41,100,11
7,3,20,1,0,0,3,41,100,11
7,3,15,1,3,0,3,41,87,11
7,3,19,1,0,0,3,41,89,11
8,3,23,0,6,1,3,41,18,11
8,3,0,0,4,0,3,41,12,11
8,3,19,1,3,0,3,41,18,8
8,3,7,1,6,1,3,41,100,11
8,3,15,1,3,0,3,41,100,11
9,4,23,0,6,1,3,41,128,11
9,4,17,1,3,0,3,41,100,11
9,4,10,1,4,0,3,41,18,11
9,4,20,1,4,0,3,41,18,11
10,4,19,1,0,0,4,41,26,11
11,4,18,1,1,0,4,41,128,11
11,4,9,1,2,0,4,41,89,11
12,1,19,1,2,0,4,41,18,9
12,1,6,0,0,0,4,41,38,11
12,1,19,1,1,0,4,41,89,11
1,1,9,1,6,1,1,41,100,11
1,1,11,1,4,0,1,41,100,11
3,2,22,0,2,0,1,41,75,11
5,2,10,1,6,1,2,41,75,11
6,3,21,0,5,1,2,41,4,11
8,3,15,1,1,0,3,41,18,11
8,3,14,1,5,1,3,41,75,11
9,4,12,1,6,1,3,41,26,11
10,4,22,0,1,0,4,41,58,11
10,4,13,1,6,1,4,41,128,11
11,4,18,1,6,1,4,41,75,11
12,1,2,0,0,0,4,41,18,11
12,1,16,1,1,0,4,41,38,11
1,1,0,0,6,1,1,41,107,11
4,2,12,1,3,0,2,41,87,11
7,3,16,1,3,0,3,41,100,11
8,3,1,0,0,0,3,41,58,11
10,4,11,1,5,1,4,41,100,11
12,1,17,1,5,1,4,41,100,11
1,1,21,0,5,1,1,41,87,11
4,2,23,0,5,1,2,41,114,11
4,2,22,0,1,0,2,41,65,11
5,2,14,1,5,1,2,41,89,11
5,2,19,1,3,0,2,41,89,11
6,3,13,1,4,0,2,41,75,11
6,3,19,1,6,1,2,41,107,11
6,3,20,1,0,0,2,41,89,11
6,3,11,1,4,0,2,41,89,11
7,3,19,1,1,0,3,41,87,11
8,3,13,1,4,0,3,41,100,11
8,3,6,0,4,0,3,41,89,11
8,3,9,1,4,0,3,41,89,11
9,4,13,1,1,0,3,41,75,11
9,4,13,1,2,0,3,41,100,11
10,4,15,1,2,0,4,41,89,11
1,1,21,0,4,0,1,32,65,11
1,1,21,0,1,0,1,32,75,11
1,1,13,1,1,0,1,32,75,11
2,1,13,1,5,1,1,32,38,11
2,1,12,1,0,0,1,32,75,11
2,1,19,1,0,0,1,32,100,11
3,2,21,0,5,1,1,32,46,11
3,2,17,1,3,0,1,32,75,11
3,2,15,1,5,1,1,32,100,11
3,2,0,0,6,1,1,32,128,11
4,2,9,1,3,0,2,32,89,11
4,2,18,1,5,1,2,32,100,11
4,2,18,1,4,0,2,32,1,11
5,2,12,1,5,1,2,32,89,11
5,2,18,1,1,0,2,32,89,11
5,2,13,1,1,0,2,32,89,11
6,3,13,1,0,0,2,32,65,11
6,3,14,1,4,0,2,32,22,11
6,3,13,1,5,1,2,32,95,11
6,3,15,1,0,0,2,32,79,11
6,3,16,1,2,0,2,32,18,11
6,3,4,0,2,0,2,32,87,11
6,3,15,1,2,0,2,32,89,9
6,3,9,1,3,0,2,32,28,11
7,3,13,1,3,0,3,32,65,11
7,3,3,0,2,0,3,32,110,11
8,3,15,1,6,1,3,32,89,11
8,3,21,0,2,0,3,32,83,11
8,3,12,1,6,1,3,32,100,9
8,3,22,0,6,1,3,32,76,11
8,3,21,0,1,0,3,32,87,9
9,4,11,1,6,1,3,32,75,11
9,4,8,1,0,0,3,32,1,11
9,4,16,1,2,0,3,32,18,11
9,4,20,1,3,0,3,32,46,11
10,4,10,1,6,1,4,32,100,11
10,4,21,0,6,1,4,32,18,9
11,4,17,1,6,1,4,32,72,11
11,4,22,0,5,1,4,32,65,11
12,1,20,1,2,0,4,32,65,11
12,1,14,1,0,0,4,32,89,11
12,1,4,0,6,1,4,32,75,11
12,1,21,0,0,0,4,32,110,11
1,1,9,1,4,0,1,32,128,11
3,2,9,1,4,0,1,32,75,11
6,3,12,1,1,0,2,32,89,11
1,1,20,1,0,0,1,32,87,11
1,1,21,0,3,0,1,32,87,11
1,1,4,0,6,1,1,32,18,11
1,1,7,1,6,1,1,32,110,11
2,1,8,1,3,0,1,32,87,11
3,2,16,1,1,0,1,32,100,11
6,3,2,0,6,1,2,32,89,11
6,3,13,1,2,0,2,32,100,11
6,3,13,1,2,0,2,32,89,11
6,3,10,1,5,1,2,32,89,11
7,3,7,1,1,0,3,32,46,9
7,3,19,1,6,1,3,32,89,11
7,3,13,1,3,0,3,32,89,11
7,3,16,1,3,0,3,32,89,11
8,3,12,1,5,1,3,32,89,11
8,3,22,0,1,0,3,32,89,11
9,4,16,1,6,1,3,32,26,11
9,4,7,1,3,0,3,32,87,11
10,4,15,1,4,0,4,32,100,11
10,4,13,1,6,1,4,32,75,9
10,4,16,1,1,0,4,32,88,11
11,4,12,1,3,0,4,32,100,11
12,1,22,0,2,0,4,32,87,11
12,1,13,1,2,0,4,32,13,11
12,1,21,0,6,1,4,32,38,11
12,1,21,0,6,1,4,32,22,8
1,1,10,1,0,0,1,32,100,11
1,1,18,1,4,0,1,32,89,11
1,1,12,1,0,0,1,32,13,11
3,2,11,1,6,1,1,32,87,11
3,2,20,1,4,0,1,32,89,11
4,2,1,0,0,0,2,32,89,11
4,2,10,1,3,0,2,32,65,11
4,2,13,1,2,0,2,32,20,11
5,2,20,1,3,0,2,32,38,11
5,2,14,1,2,0,2,32,48,11
6,3,19,1,0,0,2,32,89,11
10,4,21,0,4,0,4,32,46,11
11,4,21,0,5,1,4,32,75,11
9,4,16,1,4,0,3,24,18,9
12,1,20,1,5,1,4,24,65,11
2,1,13,1,3,0,1,24,89,11
3,2,22,0,3,0,1,24,75,11
3,2,16,1,1,0,1,24,128,11
4,2,14,1,4,0,2,24,100,11
5,2,12,1,4,0,2,24,72,11
5,2,2,0,0,0,2,24,13,11
5,2,15,1,3,0,2,24,75,11
5,2,11,1,5,1,2,24,87,11
6,3,16,1,0,0,2,24,128,11
8,3,16,1,5,1,3,24,18,11
8,3,22,0,5,1,3,24,75,11
8,3,19,1,2,0,3,24,24,11
10,4,16,1,2,0,4,24,65,8
11,4,23,0,3,0,4,24,65,11
12,1,6,0,4,0,4,24,75,11
12,1,18,1,6,1,4,24,75,11
1,1,4,0,6,1,1,24,100,11
1,1,23,0,0,0,1,24,110,11
3,2,14,1,1,0,1,24,89,11
3,2,4,0,5,1,1,24,128,11
3,2,20,1,1,0,1,24,110,11
4,2,16,1,6,1,2,24,65,11
4,2,10,1,1,0,2,24,89,11
4,2,12,1,3,0,2,24,100,11
4,2,19,1,4,0,2,24,128,11
4,2,14,1,5,1,2,24,89,11
5,2,14,1,4,0,2,24,89,11
5,2,19,1,5,1,2,24,89,11
6,3,22,0,4,0,2,24,26,11
8,3,16,1,2,0,3,24,18,8
9,4,19,1,1,0,3,24,89,11
10,4,16,1,1,0,4,24,18,11
10,4,21,0,1,0,4,24,100,11
10,4,10,1,1,0,4,24,13,11
11,4,9,1,6,1,4,24,110,11
11,4,11,1,0,0,4,24,12,11
11,4,14,1,5,1,4,24,89,11
11,4,20,1,6,1,4,24,13,11
12,1,17,1,3,0,4,24,75,8
2,1,19,1,6,1,1,24,110,11
8,3,11,1,0,0,3,24,26,11
10,4,13,1,2,0,4,24,128,11
11,4,15,1,6,1,4,24,89,11
11,4,10,1,5,1,4,24,89,11
12,1,19,1,3,0,4,24,128,11
1,1,13,1,5,1,1,24,65,11
1,1,10,1,6,1,1,24,87,11
1,1,16,1,6,1,1,24,87,11
1,1,14,1,2,0,1,24,18,11
1,1,16,1,4,0,1,24,75,11
1,1,22,0,4,0,1,24,65,11
1,1,3,0,5,1,1,24,65,11
1,1,0,0,6,1,1,24,89,11
1,1,12,1,6,1,1,24,89,11
2,1,18,1,0,0,1,24,89,11
2,1,0,0,4,0,1,24,128,11
2,1,20,1,1,0,1,24,89,11
2,1,12,1,5,1,1,24,26,11
2,1,21,0,5,1,1,24,18,11
2,1,8,1,2,0,1,24,19,9
3,2,12,1,6,1,1,24,89,11
3,2,12,1,4,0,1,24,13,11
3,2,22,0,1,0,1,24,128,11
3,2,21,0,3,0,1,24,89,11
3,2,9,1,5,1,1,24,38,11
3,2,14,1,0,0,1,24,18,11
3,2,18,1,0,0,1,24,100,11
3,2,21,0,6,1,1,24,128,11
4,2,18,1,1,0,2,24,26,11
4,2,20,1,4,0,2,24,4,11
4,2,11,1,5,1,2,24,38,11
4,2,21,0,1,0,2,24,89,11
4,2,3,0,4,0,2,24,128,11
4,2,23,0,2,0,2,24,64,11
4,2,19,1,0,0,2,24,87,11
5,2,13,1,2,0,2,24,65,11
5,2,1,0,3,0,2,24,100,11
5,2,12,1,1,0,2,24,110,11
5,2,16,1,1,0,2,24,89,11
5,2,21,0,1,0,2,24,89,11
5,2,0,0,0,0,2,24,107,11
5,2,22,0,5,1,2,24,100,11
5,2,3,0,3,0,2,24,128,11
5,2,3,0,3,0,2,24,128,11
5,2,19,1,4,0,2,24,128,11
6,3,4,0,3,0,2,24,87,11
6,3,4,0,5,1,2,24,87,11
6,3,12,1,6,1,2,24,89,11
6,3,19,1,6,1,2,24,72,8
6,3,2,0,1,0,2,24,100,11
6,3,23,0,3,0,2,24,100,11
7,3,23,0,3,0,3,24,131,9
7,3,21,0,5,1,3,24,18,11
7,3,20,1,0,0,3,24,111,11
7,3,20,1,5,1,3,24,89,11
7,3,0,0,6,1,3,24,100,9
7,3,0,0,0,0,3,24,100,11
7,3,20,1,0,0,3,24,13,9
8,3,22,0,4,0,3,24,89,11
8,3,23,0,4,0,3,24,128,11
8,3,3,0,1,0,3,24,18,11
8,3,2,0,2,0,3,24,65,11
8,3,22,0,0,0,3,24,89,11
9,4,18,1,3,0,3,24,100,11
9,4,19,1,0,0,3,24,75,11
10,4,14,1,6,1,4,24,18,11
10,4,10,1,0,0,4,24,89,11
10,4,22,0,5,1,4,24,87,11
10,4,14,1,0,0,4,24,84,11
10,4,12,1,2,0,4,24,65,11
10,4,15,1,3,0,4,24,89,11
11,4,20,1,3,0,4,24,89,11
11,4,12,1,6,1,4,24,65,11
11,4,3,0,1,0,4,24,18,8
11,4,14,1,6,1,4,24,75,9
11,4,12,1,0,0,4,24,7,11
11,4,18,1,2,0,4,24,38,11
12,1,20,1,2,0,4,24,38,11
12,1,18,1,5,1,4,24,38,11
12,1,22,0,0,0,4,24,38,11
12,1,23,0,2,0,4,24,128,11
12,1,12,1,3,0,4,24,117,8
12,1,20,1,6,1,4,24,128,11
12,1,7,1,1,0,4,24,75,11
12,1,17,1,1,0,4,24,65,11
12,1,20,1,5,1,4,24,128,11
12,1,9,1,1,0,4,24,95,11
1,1,19,1,2,0,1,34,128,9
1,1,21,0,1,0,1,34,65,11
1,1,17,1,3,0,1,1,89,11
1,1,11,1,0,0,1,34,100,11
1,1,18,1,2,0,1,34,89,11
1,1,18,1,4,0,1,1,100,11
1,1,18,1,4,0,1,1,4,11
1,1,5,0,6,1,1,34,72,9
2,1,19,1,5,1,1,1,89,11
2,1,20,1,5,1,1,1,89,9
2,1,13,1,6,1,1,34,89,11
2,1,9,1,2,0,1,1,72,9
2,1,14,1,4,0,1,34,38,11
2,1,9,1,0,0,1,34,89,11
2,1,20,1,2,0,1,34,65,11
2,1,13,1,3,0,1,1,100,11
2,1,20,1,3,0,1,1,100,11
3,2,19,1,6,1,1,1,100,11
3,2,13,1,4,0,1,34,75,8
3,2,15,1,0,0,1,34,89,11
3,2,16,1,5,1,1,1,72,11
3,2,12,1,0,0,1,34,89,11
3,2,19,1,3,0,1,34,89,11
3,2,20,1,6,1,1,1,100,11
3,2,20,1,6,1,1,34,95,11
4,2,11,1,2,0,2,34,89,11
4,2,19,1,4,0,2,1,100,11
4,2,14,1,3,0,2,34,89,11
4,2,16,1,3,0,2,34,89,11
4,2,18,1,4,0,2,1,89,11
4,2,13,1,6,1,2,34,89,11
4,2,18,1,0,0,2,1,100,11
4,2,20,1,1,0,2,34,89,11
5,2,18,1,4,0,2,34,89,11
5,2,19,1,5,1,2,34,38,8
5,2,20,1,5,1,2,1,100,11
5,2,20,1,4,0,2,34,100,11
6,3,15,1,5,1,2,1,89,11
6,3,21,0,1,0,2,34,38,11
6,3,16,1,4,0,2,1,4,11
6,3,20,1,4,0,2,1,89,11
6,3,14,1,5,1,2,34,89,11
6,3,22,0,6,1,2,1,100,11
6,3,19,1,6,1,2,34,110,11
6,3,16,1,1,0,2,34,100,11
7,3,15,1,2,0,3,1,100,11
7,3,13,1,0,0,3,34,100,11
7,3,22,0,0,0,3,34,89,11
7,3,19,1,2,0,3,1,100,11
7,3,18,1,5,1,3,34,71,9
8,3,21,0,1,0,3,1,100,11
8,3,6,0,1,0,3,34,89,11
8,3,19,1,1,0,3,1,72,9
9,4,21,0,1,0,3,1,110,11
9,4,21,0,0,0,3,1,110,11
9,4,18,1,5,1,3,1,128,9
9,4,22,0,6,1,3,1,4,9
9,4,15,1,6,1,3,1,100,11
10,4,8,1,5,1,4,1,110,11
10,4,17,1,2,0,4,1,89,11
10,4,17,1,1,0,4,1,100,11
11,4,17,1,6,1,4,1,87,11
11,4,18,1,1,0,4,34,65,11
11,4,7,1,2,0,4,1,12,9
11,4,11,1,3,0,4,34,89,11
11,4,18,1,6,1,4,34,89,11
11,4,21,0,6,1,4,34,89,11
11,4,14,1,2,0,4,1,100,11
11,4,17,1,3,0,4,34,100,11
11,4,18,1,3,0,4,34,89,11
11,4,23,0,4,0,4,1,100,11
12,1,2,0,6,1,4,34,95,11
12,1,8,1,4,0,4,34,89,11
12,1,0,0,1,0,4,34,110,11
12,1,15,1,0,0,4,34,107,11
12,1,17,1,4,0,4,1,38,11
12,1,16,1,5,1,4,34,95,11
1,1,15,1,3,0,1,34,75,11
1,1,20,1,1,0,1,34,75,11
4,2,20,1,1,0,2,34,95,11
4,2,15,1,5,1,2,34,100,11
4,2,15,1,6,1,2,34,24,11
5,2,10,1,6,1,2,34,72,9
8,3,11,1,0,0,3,34,84,11
11,4,17,1,3,0,4,34,18,11
12,1,13,1,6,1,4,34,46,9
1,1,2,0,1,0,1,25,128,9
1,1,23,0,5,1,1,25,87,11
1,1,22,0,2,0,1,25,38,9
1,1,1,0,5,1,1,25,75,11
1,1,21,0,0,0,1,25,128,11
1,1,10,1,6,1,1,25,89,11
2,1,19,1,5,1,1,25,38,11
2,1,3,0,5,1,1,25,75,11
2,1,18,1,6,1,1,25,110,11
2,1,14,1,2,0,1,25,85,11
2,1,14,1,2,0,1,25,75,11
2,1,15,1,2,0,1,25,128,11
2,1,19,1,2,0,1,25,75,11
2,1,1,0,3,0,1,25,128,11
2,1,20,1,4,0,1,25,75,11
2,1,14,1,5,1,1,25,1,11
3,2,18,1,2,0,1,25,110,11
3,2,15,1,1,0,1,25,75,9
3,2,14,1,5,1,1,25,1,11
4,2,11,1,0,0,2,25,100,11
4,2,22,0,3,0,2,25,89,11
4,2,0,0,0,0,2,25,87,11
4,2,21,0,3,0,2,25,87,11
4,2,9,1,4,0,2,25,87,11
4,2,23,0,4,0,2,25,87,11
4,2,19,1,6,1,2,25,1,11
4,2,11,1,0,0,2,25,89,11
4,2,12,1,1,0,2,25,87,11
4,2,18,1,1,0,2,25,106,9
4,2,8,1,0,0,2,25,89,11
4,2,0,0,6,1,2,25,89,11
5,2,20,1,2,0,2,25,89,11
5,2,12,1,4,0,2,25,89,11
5,2,23,0,2,0,2,25,75,11
6,3,19,1,2,0,2,25,4,11
6,3,11,1,3,0,2,25,89,11
6,3,12,1,4,0,2,25,89,11
6,3,17,1,4,0,2,25,1,11
6,3,17,1,0,0,2,25,89,11
6,3,7,1,3,0,2,25,1,11
7,3,18,1,2,0,3,25,100,11
7,3,17,1,1,0,3,25,75,11
7,3,16,1,2,0,3,25,1,9
7,3,16,1,2,0,3,25,125,11
7,3,8,1,4,0,3,25,110,11
7,3,0,0,3,0,3,25,128,11
7,3,4,0,2,0,3,25,87,11
7,3,9,1,2,0,3,25,48,11
8,3,14,1,0,0,3,25,87,11
8,3,21,0,2,0,3,25,87,11
8,3,16,1,1,0,3,25,87,11
8,3,21,0,6,1,3,25,1,11
8,3,21,0,6,1,3,25,87,11
8,3,8,1,1,0,3,25,87,11
8,3,11,1,2,0,3,25,75,9
9,4,12,1,6,1,3,25,38,11
10,4,23,0,1,0,4,25,87,11
10,4,14,1,4,0,4,25,110,11
10,4,22,0,5,1,4,25,110,11
10,4,9,1,3,0,4,25,89,11
11,4,11,1,5,1,4,25,72,8
11,4,16,1,4,0,4,25,100,9
11,4,8,1,0,0,4,25,100,11
11,4,9,1,0,0,4,25,100,11
11,4,17,1,1,0,4,25,87,9
11,4,13,1,4,0,4,25,89,11
11,4,12,1,0,0,4,25,89,9
11,4,13,1,0,0,4,25,1,11
11,4,19,1,0,0,4,25,89,11
12,1,16,1,3,0,4,25,75,11
12,1,6,0,0,0,4,25,18,11
12,1,7,1,5,1,4,25,125,11
12,1,15,1,6,1,4,25,87,11
12,1,14,1,4,0,4,25,1,11
12,1,16,1,6,1,4,25,75,11
12,1,11,1,0,0,4,25,87,11
1,1,12,1,0,0,1,25,65,11
1,1,18,1,5,1,1,25,89,11
1,1,16,1,5,1,1,25,100,11
2,1,17,1,4,0,1,25,75,11
2,1,13,1,6,1,1,25,4,11
2,1,19,1,6,1,1,25,4,11
2,1,10,1,0,0,1,25,100,11
2,1,16,1,3,0,1,25,75,11
3,2,22,0,6,1,1,25,100,11
3,2,10,1,2,0,1,25,75,11
4,2,0,0,2,0,2,25,110,11
4,2,15,1,1,0,2,25,100,11
5,2,12,1,3,0,2,25,107,11
5,2,18,1,2,0,2,25,89,11
6,3,12,1,3,0,2,25,89,11
6,3,9,1,1,0,2,25,100,11
6,3,12,1,0,0,2,25,89,11
7,3,17,1,0,0,3,25,89,11
8,3,16,1,3,0,3,25,71,11
8,3,14,1,1,0,3,25,18,11
9,4,8,1,2,0,3,25,110,11
9,4,19,1,5,1,3,25,89,11
11,4,15,1,4,0,4,25,75,11
11,4,11,1,0,0,4,25,89,11
11,4,21,0,0,0,4,25,75,11
11,4,1,0,2,0,4,25,110,11
11,4,7,1,0,0,4,25,87,11
11,4,17,1,4,0,4,25,89,11
12,1,17,1,0,0,4,25,75,11
12,1,18,1,4,0,4,25,110,11
1,1,0,0,1,0,1,25,89,11
3,2,18,1,3,0,1,25,128,11
4,2,12,1,1,0,2,25,4,11
4,2,20,1,1,0,2,25,89,11
5,2,23,0,3,0,2,25,89,11
6,3,23,0,4,0,2,25,107,11
7,3,8,1,2,0,3,25,110,11
8,3,21,0,6,1,3,25,4,11
9,4,19,1,0,0,3,25,110,11
11,4,21,0,2,0,4,25,89,11
1,1,1,0,6,1,1,25,75,9
1,1,23,0,0,0,1,25,100,11
1,1,16,1,2,0,1,25,87,11
2,1,16,1,5,1,1,25,100,11
2,1,15,1,6,1,1,25,100,11
2,1,14,1,5,1,1,25,89,11
2,1,13,1,1,0,1,25,4,11
2,1,12,1,1,0,1,25,38,11
3,2,13,1,4,0,1,25,65,11
3,2,18,1,0,0,1,25,110,11
3,2,13,1,4,0,1,25,100,11
3,2,13,1,6,1,1,25,89,11
4,2,14,1,0,0,2,25,100,11
4,2,17,1,6,1,2,25,87,11
4,2,20,1,6,1,2,25,89,11
4,2,0,0,2,0,2,25,110,11
4,2,14,1,3,0,2,25,100,11
4,2,7,1,4,0,2,25,18,11
6,3,20,1,4,0,2,25,110,11
6,3,22,0,6,1,2,25,1,11
6,3,16,1,5,1,2,25,95,11
6,3,14,1,0,0,2,25,75,11
7,3,20,1,0,0,3,25,89,11
7,3,15,1,3,0,3,25,89,11
8,3,20,1,2,0,3,25,128,11
9,4,23,0,2,0,3,25,110,11
10,4,19,1,4,0,4,25,110,11
10,4,14,1,4,0,4,25,100,11
10,4,18,1,4,0,4,25,100,11
10,4,17,1,3,0,4,25,87,11
11,4,20,1,6,1,4,25,89,11
11,4,13,1,2,0,4,25,89,11
12,1,15,1,4,0,4,25,75,11
1,1,22,0,2,0,1,14,18,11
1,1,22,0,4,0,1,14,89,11
1,1,5,0,5,1,1,14,65,11
1,1,14,1,1,0,1,14,89,11
1,1,19,1,2,0,1,14,75,11
1,1,14,1,2,0,1,14,89,11
1,1,11,1,1,0,1,14,100,11
1,1,21,0,3,0,1,14,38,11
1,1,22,0,3,0,1,14,75,11
1,1,23,0,5,1,1,14,89,11
2,1,14,1,4,0,1,14,89,11
2,1,17,1,4,0,1,14,89,11
2,1,19,1,1,0,1,14,75,11
2,1,16,1,5,1,1,14,89,11
2,1,10,1,3,0,1,14,89,11
2,1,12,1,4,0,1,14,89,11
2,1,14,1,5,1,1,14,100,11
2,1,14,1,6,1,1,14,100,11
2,1,22,0,0,0,1,14,100,11
3,2,13,1,5,1,1,14,87,11
3,2,9,1,6,1,1,14,88,11
3,2,14,1,6,1,1,14,13,11
3,2,14,1,0,0,1,14,100,11
3,2,13,1,6,1,1,14,89,11
3,2,13,1,6,1,1,14,89,11
4,2,16,1,0,0,2,14,100,11
4,2,18,1,0,0,2,14,100,11
4,2,18,1,3,0,2,14,89,9
4,2,14,1,4,0,2,14,128,11
4,2,21,0,4,0,2,14,89,11
4,2,12,1,6,1,2,14,89,11
4,2,10,1,0,0,2,14,89,11
4,2,11,1,4,0,2,14,75,11
4,2,23,0,1,0,2,14,110,11
4,2,0,0,2,0,2,14,110,11
4,2,19,1,3,0,2,14,89,11
4,2,22,0,0,0,2,14,100,11
4,2,19,1,0,0,2,14,89,11
4,2,18,1,1,0,2,14,89,11
5,2,1,0,6,1,2,14,75,9
5,2,9,1,6,1,2,14,84,11
5,2,14,1,6,1,2,14,89,11
5,2,14,1,2,0,2,14,89,11
5,2,3,0,0,0,2,14,89,11
5,2,15,1,2,0,2,14,26,11
5,2,19,1,2,0,2,14,26,11
5,2,11,1,1,0,2,14,32,11
6,3,15,1,2,0,2,14,4,11
6,3,16,1,1,0,2,14,65,11
6,3,17,1,5,1,2,14,100,11
6,3,10,1,6,1,2,14,100,11
6,3,20,1,0,0,2,14,100,11
6,3,8,1,3,0,2,14,89,11
6,3,14,1,4,0,2,14,75,11
7,3,16,1,1,0,3,14,110,11
7,3,12,1,3,0,3,14,18,11
7,3,18,1,4,0,3,14,38,9
7,3,15,1,6,1,3,14,89,11
7,3,20,1,3,0,3,14,18,11
7,3,11,1,4,0,3,14,89,11
7,3,13,1,2,0,3,14,89,9
7,3,23,0,3,0,3,14,100,11
7,3,13,1,4,0,3,14,95,11
7,3,17,1,0,0,3,14,38,11
7,3,15,1,3,0,3,14,89,11
7,3,18,1,5,1,3,14,18,11
7,3,13,1,6,1,3,14,89,11
8,3,5,0,6,1,3,14,72,11
8,3,10,1,4,0,3,14,87,11
8,3,21,0,4,0,3,14,89,9
8,3,4,0,0,0,3,14,89,11
8,3,20,1,0,0,3,14,89,11
8,3,12,1,4,0,3,14,89,11
8,3,13,1,4,0,3,14,89,11
9,4,20,1,0,0,3,14,110,11
9,4,22,0,1,0,3,14,18,11
9,4,9,1,0,0,3,14,128,11
10,4,19,1,2,0,4,14,89,11
10,4,19,1,0,0,4,14,13,9
10,4,15,1,6,1,4,14,75,11
10,4,18,1,0,0,4,14,100,11
10,4,1,0,1,0,4,14,100,11
10,4,15,1,5,1,4,14,87,11
10,4,18,1,5,1,4,14,89,11
10,4,19,1,5,1,4,14,89,11
11,4,16,1,5,1,4,14,100,11
11,4,15,1,6,1,4,14,89,11
11,4,8,1,4,0,4,14,100,11
11,4,10,1,5,1,4,14,128,11
11,4,3,0,0,0,4,14,89,11
11,4,18,1,5,1,4,14,38,11
11,4,12,1,5,1,4,14,75,11
11,4,15,1,1,0,4,14,26,11
12,1,11,1,4,0,4,14,18,11
12,1,19,1,6,1,4,14,30,9
12,1,21,0,6,1,4,14,18,11
12,1,13,1,0,0,4,14,18,11
12,1,15,1,5,1,4,14,89,11
12,1,10,1,0,0,4,14,89,11
4,2,11,1,5,1,2,14,89,11
6,3,17,1,3,0,2,14,7,11
6,3,21,0,3,0,2,14,100,11
7,3,23,0,0,0,3,14,110,11
8,3,18,1,2,0,3,14,100,11
8,3,21,0,1,0,3,14,89,11
