@Relation urban_new_2019_fold5_train

@ATTRIBUTE f1_minas          NUMERIC  % Μήνας (1-12)
@ATTRIBUTE f2_epochi         NUMERIC  % Εποχή (1=Χειμ 2=Άνοιξ 3=Καλοκ 4=Φθιν)
@ATTRIBUTE f3_ora            NUMERIC  % Ώρα ημέρας (0-23)
@ATTRIBUTE f4_mera_nyxta     NUMERIC  % Μέρα=1 Νύχτα=0
@ATTRIBUTE f5_imera_evdom    NUMERIC  % Ημέρα εβδομάδας (0=Δευτ 6=Κυρ)
@ATTRIBUTE f6_savvatokyriako NUMERIC  % Σαββ/κο=1 Καθημ=0
@ATTRIBUTE f7_trimino        NUMERIC  % Τρίμηνο (1-4)
@ATTRIBUTE f8_nomos          NUMERIC  % Κωδικός Νομού
@ATTRIBUTE f9_typos_xorou    NUMERIC  % Κωδικός τύπου χώρου
@ATTRIBUTE class             {8,9,11} % 8=Μεγάλη 9=Μεσαία 11=Μικρή

@DATA
1,1,10,1,4,0,1,5,88,11
1,1,10,1,3,0,1,5,85,11
1,1,13,1,0,0,1,5,88,11
2,1,18,1,6,1,1,5,88,11
3,2,18,1,6,1,1,5,88,11
3,2,18,1,0,0,1,5,88,11
3,2,12,1,6,1,1,5,88,11
3,2,9,1,6,1,1,5,88,11
3,2,14,1,0,0,1,5,88,11
3,2,19,1,1,0,1,5,88,11
3,2,19,1,2,0,1,5,88,11
3,2,14,1,5,1,1,5,85,11
4,2,19,1,3,0,2,5,88,11
4,2,21,0,3,0,2,5,85,11
4,2,19,1,2,0,2,5,88,11
4,2,10,1,3,0,2,5,101,11
4,2,16,1,6,1,2,5,88,11
4,2,12,1,0,0,2,5,1,11
4,2,12,1,5,1,2,5,88,11
5,2,11,1,2,0,2,5,88,11
5,2,13,1,3,0,2,5,88,11
5,2,18,1,6,1,2,5,88,11
6,3,11,1,0,0,2,5,88,11
6,3,18,1,1,0,2,5,85,9
6,3,1,0,3,0,2,5,73,11
7,3,19,1,2,0,3,5,88,11
7,3,22,0,5,1,3,5,88,11
7,3,12,1,3,0,3,5,88,11
11,4,13,1,5,1,4,5,101,11
12,1,20,1,3,0,4,5,88,11
4,2,18,1,5,1,2,5,4,11
5,2,15,1,6,1,2,5,4,11
6,3,18,1,6,1,2,5,85,11
7,3,20,1,0,0,3,5,113,11
7,3,12,1,0,0,3,5,31,11
7,3,0,0,2,0,3,5,4,11
8,3,12,1,6,1,3,5,106,11
8,3,4,0,0,0,3,5,4,11
8,3,16,1,2,0,3,5,4,11
8,3,9,1,3,0,3,5,4,11
8,3,17,1,2,0,3,5,4,11
9,4,12,1,3,0,3,5,94,11
10,4,18,1,0,0,4,5,5,11
1,1,16,1,1,0,1,5,62,11
1,1,8,1,4,0,1,5,95,11
1,1,22,0,4,0,1,5,62,11
1,1,1,0,5,1,1,5,38,11
1,1,19,1,5,1,1,5,85,11
1,1,23,0,5,1,1,5,85,11
1,1,23,0,6,1,1,5,62,11
1,1,13,1,6,1,1,5,62,11
1,1,3,0,6,1,1,5,85,11
1,1,17,1,0,0,1,5,62,11
1,1,4,0,1,0,1,5,85,11
1,1,23,0,2,0,1,5,86,11
1,1,14,1,2,0,1,5,95,11
1,1,8,1,3,0,1,5,73,11
1,1,22,0,3,0,1,5,85,11
1,1,5,0,4,0,1,5,85,11
1,1,6,0,4,0,1,5,85,11
1,1,5,0,6,1,1,5,85,11
1,1,6,0,6,1,1,5,85,11
1,1,1,0,0,0,1,5,85,11
1,1,13,1,0,0,1,5,85,11
1,1,17,1,1,0,1,5,95,11
1,1,23,0,1,0,1,5,62,11
1,1,13,1,2,0,1,5,62,11
1,1,14,1,2,0,1,5,95,11
1,1,0,0,2,0,1,5,55,11
1,1,18,1,2,0,1,5,85,11
1,1,14,1,3,0,1,5,42,11
1,1,21,0,3,0,1,5,62,11
1,1,13,1,3,0,1,5,81,11
1,1,17,1,4,0,1,5,62,11
1,1,1,0,4,0,1,5,98,11
1,1,12,1,4,0,1,5,81,11
1,1,3,0,5,1,1,5,95,11
1,1,5,0,5,1,1,5,85,11
1,1,3,0,5,1,1,5,85,11
1,1,4,0,5,1,1,5,85,11
1,1,3,0,5,1,1,5,126,11
1,1,4,0,5,1,1,5,85,11
1,1,20,1,5,1,1,5,21,11
1,1,5,0,5,1,1,5,95,11
1,1,11,1,5,1,1,5,62,11
1,1,4,0,6,1,1,5,56,11
1,1,7,1,6,1,1,5,62,11
1,1,15,1,6,1,1,5,85,11
1,1,23,0,3,0,1,5,62,11
1,1,9,1,4,0,1,5,105,11
1,1,4,0,4,0,1,5,54,11
1,1,10,1,4,0,1,5,62,8
1,1,13,1,5,1,1,5,62,11
1,1,23,0,6,1,1,5,85,11
1,1,22,0,0,0,1,5,85,11
1,1,13,1,1,0,1,5,95,11
2,1,16,1,5,1,1,5,62,11
2,1,14,1,5,1,1,5,16,11
2,1,11,1,6,1,1,5,62,11
2,1,2,0,0,0,1,5,95,11
2,1,3,0,1,0,1,5,95,11
2,1,3,0,1,0,1,5,17,11
2,1,18,1,4,0,1,5,17,11
2,1,16,1,4,0,1,5,95,11
2,1,9,1,6,1,1,5,73,11
2,1,5,0,6,1,1,5,95,11
2,1,23,0,6,1,1,5,80,11
2,1,20,1,0,0,1,5,38,11
2,1,2,0,0,0,1,5,95,11
2,1,12,1,2,0,1,5,85,11
2,1,4,0,5,1,1,5,85,11
2,1,0,0,6,1,1,5,62,11
2,1,17,1,6,1,1,5,62,11
2,1,1,0,0,0,1,5,85,11
2,1,21,0,4,0,1,5,7,11
2,1,11,1,5,1,1,5,1,11
2,1,21,0,0,0,1,5,85,11
2,1,20,1,0,0,1,5,85,11
2,1,19,1,0,0,1,5,98,11
2,1,18,1,2,0,1,5,62,11
3,2,1,0,4,0,1,5,17,11
3,2,2,0,4,0,1,5,85,11
3,2,0,0,4,0,1,5,62,11
3,2,10,1,4,0,1,5,85,11
3,2,14,1,4,0,1,5,85,11
3,2,23,0,5,1,1,5,85,11
3,2,13,1,5,1,1,5,85,11
3,2,21,0,5,1,1,5,85,11
3,2,4,0,5,1,1,5,85,11
3,2,4,0,5,1,1,5,85,11
3,2,0,0,6,1,1,5,62,11
3,2,19,1,6,1,1,5,48,11
3,2,10,1,6,1,1,5,95,11
3,2,0,0,6,1,1,5,95,11
3,2,0,0,0,0,1,5,62,11
3,2,2,0,0,0,1,5,85,11
3,2,23,0,1,0,1,5,85,11
3,2,20,1,1,0,1,5,77,11
3,2,13,1,2,0,1,5,85,11
3,2,23,0,3,0,1,5,21,11
3,2,22,0,3,0,1,5,95,11
3,2,12,1,4,0,1,5,85,11
3,2,0,0,5,1,1,5,95,11
3,2,13,1,0,0,1,5,62,11
3,2,15,1,0,0,1,5,126,11
3,2,0,0,0,0,1,5,7,11
3,2,2,0,0,0,1,5,31,11
3,2,12,1,1,0,1,5,62,11
3,2,2,0,1,0,1,5,85,11
3,2,15,1,2,0,1,5,62,11
3,2,11,1,3,0,1,5,85,11
3,2,18,1,4,0,1,5,62,11
3,2,7,1,0,0,1,5,38,11
3,2,15,1,0,0,1,5,85,11
3,2,12,1,0,0,1,5,62,11
3,2,19,1,2,0,1,5,88,11
3,2,20,1,4,0,1,5,62,11
3,2,9,1,5,1,1,5,85,11
3,2,1,0,5,1,1,5,85,11
3,2,22,0,5,1,1,5,62,11
3,2,12,1,6,1,1,5,85,11
3,2,23,0,6,1,1,5,85,11
3,2,11,1,0,0,1,5,7,11
3,2,16,1,0,0,1,5,85,11
3,2,15,1,0,0,1,5,62,11
3,2,15,1,0,0,1,5,62,11
3,2,14,1,1,0,1,5,62,11
3,2,15,1,2,0,1,5,62,11
3,2,0,0,3,0,1,5,85,11
3,2,1,0,3,0,1,5,98,11
3,2,14,1,4,0,1,5,62,11
3,2,17,1,4,0,1,5,85,11
3,2,11,1,4,0,1,5,85,11
3,2,14,1,5,1,1,5,62,11
3,2,23,0,6,1,1,5,85,11
4,2,1,0,0,0,2,5,81,11
4,2,18,1,0,0,2,5,85,11
4,2,18,1,3,0,2,5,6,11
4,2,19,1,4,0,2,5,95,11
4,2,4,0,4,0,2,5,85,11
4,2,8,1,5,1,2,5,62,11
4,2,13,1,0,0,2,5,85,11
4,2,5,0,1,0,2,5,85,8
4,2,3,0,3,0,2,5,85,11
4,2,2,0,3,0,2,5,85,11
4,2,15,1,5,1,2,5,62,11
4,2,2,0,0,0,2,5,85,11
4,2,23,0,0,0,2,5,62,11
4,2,12,1,2,0,2,5,62,11
4,2,9,1,4,0,2,5,2,11
4,2,1,0,5,1,2,5,85,11
4,2,0,0,5,1,2,5,85,11
4,2,0,0,6,1,2,5,85,11
4,2,2,0,6,1,2,5,85,11
4,2,15,1,6,1,2,5,62,11
4,2,13,1,6,1,2,5,85,11
4,2,12,1,6,1,2,5,62,11
4,2,16,1,6,1,2,5,88,11
4,2,3,0,6,1,2,5,85,11
4,2,2,0,6,1,2,5,85,11
4,2,20,1,0,0,2,5,85,11
4,2,11,1,0,0,2,5,85,11
4,2,0,0,0,0,2,5,54,11
4,2,14,1,1,0,2,5,6,11
4,2,21,0,1,0,2,5,85,11
4,2,20,1,3,0,2,5,62,11
4,2,17,1,3,0,2,5,85,11
4,2,1,0,6,1,2,5,85,11
4,2,0,0,6,1,2,5,85,11
4,2,3,0,6,1,2,5,62,11
4,2,12,1,6,1,2,5,7,11
4,2,14,1,0,0,2,5,98,11
5,2,18,1,2,0,2,5,95,11
5,2,21,0,2,0,2,5,62,11
5,2,18,1,3,0,2,5,62,11
5,2,3,0,3,0,2,5,85,11
5,2,4,0,6,1,2,5,116,11
5,2,16,1,6,1,2,5,7,11
5,2,1,0,1,0,2,5,17,11
5,2,12,1,2,0,2,5,126,11
5,2,5,0,2,0,2,5,85,11
5,2,15,1,2,0,2,5,85,11
5,2,20,1,4,0,2,5,30,11
5,2,0,0,5,1,2,5,85,11
5,2,0,0,6,1,2,5,106,11
5,2,15,1,6,1,2,5,85,11
5,2,2,0,0,0,2,5,28,11
5,2,7,1,0,0,2,5,75,11
5,2,4,0,1,0,2,5,59,11
5,2,0,0,2,0,2,5,77,11
5,2,12,1,2,0,2,5,62,11
5,2,16,1,3,0,2,5,62,11
5,2,16,1,3,0,2,5,95,11
5,2,2,0,5,1,2,5,85,11
5,2,21,0,5,1,2,5,85,11
5,2,18,1,6,1,2,5,126,11
5,2,20,1,0,0,2,5,62,11
5,2,1,0,0,0,2,5,95,11
5,2,1,0,1,0,2,5,62,11
5,2,1,0,1,0,2,5,116,11
5,2,14,1,3,0,2,5,98,11
5,2,1,0,4,0,2,5,85,11
5,2,4,0,0,0,2,5,85,11
5,2,13,1,1,0,2,5,128,11
5,2,20,1,2,0,2,5,62,11
5,2,14,1,3,0,2,5,127,11
5,2,8,1,3,0,2,5,118,11
5,2,16,1,4,0,2,5,85,11
6,3,0,0,5,1,2,5,85,11
6,3,2,0,5,1,2,5,85,11
6,3,17,1,5,1,2,5,7,11
6,3,12,1,6,1,2,5,62,11
6,3,16,1,6,1,2,5,73,11
6,3,18,1,6,1,2,5,73,11
6,3,14,1,6,1,2,5,85,11
6,3,16,1,6,1,2,5,85,11
6,3,2,0,6,1,2,5,29,11
6,3,0,0,6,1,2,5,38,8
6,3,7,1,6,1,2,5,38,11
6,3,2,0,0,0,2,5,6,11
6,3,6,0,0,0,2,5,62,11
6,3,15,1,0,0,2,5,85,11
6,3,16,1,0,0,2,5,85,11
6,3,22,0,1,0,2,5,85,11
6,3,4,0,1,0,2,5,89,11
6,3,18,1,1,0,2,5,51,11
6,3,1,0,1,0,2,5,62,11
6,3,13,1,2,0,2,5,62,11
6,3,20,1,4,0,2,5,75,11
6,3,3,0,5,1,2,5,85,11
6,3,1,0,5,1,2,5,85,11
6,3,0,0,5,1,2,5,85,11
6,3,13,1,5,1,2,5,85,11
6,3,23,0,5,1,2,5,62,11
6,3,17,1,6,1,2,5,88,11
6,3,15,1,0,0,2,5,62,11
6,3,22,0,2,0,2,5,7,11
6,3,7,1,3,0,2,5,85,11
6,3,1,0,3,0,2,5,104,11
6,3,22,0,5,1,2,5,85,11
6,3,6,0,6,1,2,5,85,11
6,3,6,0,6,1,2,5,85,11
6,3,18,1,1,0,2,5,101,11
6,3,12,1,2,0,2,5,62,11
6,3,3,0,2,0,2,5,85,11
6,3,19,1,2,0,2,5,126,11
6,3,3,0,4,0,2,5,85,11
6,3,1,0,4,0,2,5,85,11
6,3,14,1,4,0,2,5,62,11
6,3,8,1,4,0,2,5,15,11
6,3,2,0,4,0,2,5,62,11
6,3,3,0,5,1,2,5,31,11
6,3,3,0,6,1,2,5,73,11
6,3,20,1,6,1,2,5,62,11
6,3,22,0,6,1,2,5,85,11
6,3,14,1,6,1,2,5,85,11
6,3,0,0,0,0,2,5,85,11
6,3,15,1,0,0,2,5,85,11
6,3,10,1,0,0,2,5,62,11
6,3,2,0,0,0,2,5,85,11
6,3,0,0,1,0,2,5,7,11
6,3,13,1,2,0,2,5,62,11
6,3,18,1,2,0,2,5,45,8
6,3,23,0,2,0,2,5,7,11
6,3,11,1,2,0,2,5,7,11
6,3,4,0,4,0,2,5,85,11
6,3,23,0,4,0,2,5,85,11
6,3,3,0,5,1,2,5,62,8
6,3,22,0,6,1,2,5,85,11
6,3,3,0,6,1,2,5,85,11
7,3,2,0,0,0,3,5,85,11
7,3,6,0,1,0,3,5,85,11
7,3,18,1,1,0,3,5,38,11
7,3,16,1,1,0,3,5,62,11
7,3,21,0,2,0,3,5,7,11
7,3,8,1,4,0,3,5,6,11
7,3,10,1,0,0,3,5,54,11
7,3,7,1,2,0,3,5,6,11
7,3,13,1,3,0,3,5,85,11
7,3,3,0,5,1,3,5,85,11
7,3,21,0,0,0,3,5,85,11
7,3,12,1,4,0,3,5,62,11
7,3,21,0,4,0,3,5,95,11
7,3,12,1,6,1,3,5,17,11
7,3,6,0,1,0,3,5,85,11
7,3,13,1,2,0,3,5,85,11
7,3,18,1,3,0,3,5,54,11
7,3,3,0,3,0,3,5,62,11
7,3,12,1,4,0,3,5,7,11
7,3,9,1,1,0,3,5,81,11
7,3,0,0,2,0,3,5,6,11
8,3,1,0,0,0,3,5,85,8
8,3,11,1,1,0,3,5,62,11
8,3,9,1,2,0,3,5,45,11
8,3,18,1,2,0,3,5,85,11
8,3,19,1,5,1,3,5,85,11
8,3,21,0,5,1,3,5,85,11
8,3,21,0,5,1,3,5,98,11
8,3,2,0,6,1,3,5,95,11
8,3,2,0,6,1,3,5,62,11
8,3,0,0,1,0,3,5,85,11
8,3,15,1,1,0,3,5,62,11
8,3,2,0,3,0,3,5,85,11
8,3,12,1,4,0,3,5,62,11
8,3,23,0,4,0,3,5,126,11
8,3,21,0,0,0,3,5,126,11
8,3,0,0,1,0,3,5,126,11
8,3,22,0,1,0,3,5,126,11
8,3,1,0,3,0,3,5,62,11
8,3,0,0,3,0,3,5,62,11
8,3,0,0,3,0,3,5,101,11
8,3,12,1,3,0,3,5,116,11
8,3,8,1,3,0,3,5,45,11
8,3,14,1,5,1,3,5,62,11
8,3,0,0,6,1,3,5,126,11
8,3,1,0,6,1,3,5,62,11
8,3,18,1,6,1,3,5,30,11
8,3,5,0,6,1,3,5,7,11
8,3,14,1,1,0,3,5,85,11
8,3,6,0,3,0,3,5,45,9
8,3,15,1,3,0,3,5,126,11
8,3,5,0,5,1,3,5,62,11
8,3,2,0,5,1,3,5,62,11
9,4,18,1,0,0,3,5,31,11
9,4,3,0,0,0,3,5,62,11
9,4,11,1,1,0,3,5,62,11
9,4,21,0,2,0,3,5,13,8
9,4,14,1,3,0,3,5,62,11
9,4,21,0,4,0,3,5,17,11
9,4,23,0,4,0,3,5,88,11
9,4,15,1,4,0,3,5,62,11
9,4,6,0,5,1,3,5,85,11
9,4,16,1,6,1,3,5,126,11
9,4,20,1,6,1,3,5,62,11
9,4,18,1,2,0,3,5,62,11
9,4,22,0,2,0,3,5,62,11
9,4,20,1,2,0,3,5,95,11
9,4,12,1,2,0,3,5,55,8
9,4,23,0,4,0,3,5,88,11
9,4,0,0,5,1,3,5,16,11
9,4,11,1,5,1,3,5,85,11
9,4,19,1,5,1,3,5,62,8
9,4,22,0,4,0,3,5,62,11
9,4,23,0,4,0,3,5,62,11
9,4,17,1,6,1,3,5,88,11
9,4,17,1,6,1,3,5,101,11
9,4,17,1,0,0,3,5,62,11
9,4,13,1,2,0,3,5,85,11
9,4,13,1,2,0,3,5,77,11
9,4,23,0,5,1,3,5,7,11
9,4,21,0,5,1,3,5,85,11
9,4,23,0,5,1,3,5,85,11
9,4,23,0,5,1,3,5,85,11
9,4,5,0,6,1,3,5,7,11
9,4,0,0,6,1,3,5,62,11
10,4,23,0,1,0,4,5,62,11
10,4,3,0,2,0,4,5,2,11
10,4,4,0,3,0,4,5,45,11
10,4,21,0,3,0,4,5,126,11
10,4,15,1,4,0,4,5,45,11
10,4,10,1,4,0,4,5,95,11
10,4,5,0,6,1,4,5,17,11
10,4,22,0,6,1,4,5,62,11
10,4,20,1,6,1,4,5,62,11
10,4,20,1,3,0,4,5,17,11
10,4,13,1,4,0,4,5,62,11
10,4,14,1,4,0,4,5,62,11
10,4,2,0,5,1,4,5,62,11
10,4,6,0,6,1,4,5,85,11
10,4,0,0,0,0,4,5,95,11
10,4,18,1,0,0,4,5,95,11
10,4,12,1,2,0,4,5,62,11
10,4,0,0,4,0,4,5,85,11
10,4,3,0,5,1,4,5,95,11
10,4,2,0,6,1,4,5,62,11
10,4,0,0,4,0,4,5,45,11
10,4,11,1,4,0,4,5,62,11
10,4,2,0,5,1,4,5,56,8
10,4,2,0,6,1,4,5,62,8
10,4,1,0,0,0,4,5,62,11
10,4,22,0,1,0,4,5,62,11
10,4,1,0,1,0,4,5,17,11
10,4,16,1,2,0,4,5,62,11
10,4,5,0,2,0,4,5,62,11
10,4,11,1,3,0,4,5,62,11
10,4,23,0,3,0,4,5,95,11
10,4,0,0,3,0,4,5,62,11
11,4,7,1,4,0,4,5,85,11
11,4,5,0,5,1,4,5,85,11
11,4,4,0,5,1,4,5,85,11
11,4,17,1,6,1,4,5,74,11
11,4,23,0,0,0,4,5,62,11
11,4,0,0,0,0,4,5,62,11
11,4,9,1,0,0,4,5,62,11
11,4,11,1,2,0,4,5,62,11
11,4,18,1,3,0,4,5,62,11
11,4,3,0,6,1,4,5,85,11
11,4,17,1,6,1,4,5,116,11
11,4,9,1,0,0,4,5,54,11
11,4,9,1,0,0,4,5,54,11
11,4,12,1,1,0,4,5,85,11
11,4,17,1,3,0,4,5,62,11
11,4,17,1,3,0,4,5,62,11
11,4,4,0,4,0,4,5,45,11
11,4,12,1,4,0,4,5,62,8
11,4,15,1,5,1,4,5,85,11
11,4,21,0,6,1,4,5,62,11
11,4,9,1,0,0,4,5,85,11
11,4,17,1,1,0,4,5,95,11
11,4,22,0,1,0,4,5,62,11
11,4,0,0,4,0,4,5,7,11
11,4,14,1,0,0,4,5,85,11
11,4,5,0,0,0,4,5,17,11
11,4,5,0,2,0,4,5,95,11
11,4,20,1,4,0,4,5,70,11
11,4,15,1,4,0,4,5,62,11
11,4,14,1,4,0,4,5,95,11
12,1,3,0,0,0,4,5,85,11
12,1,19,1,1,0,4,5,85,11
12,1,21,0,2,0,4,5,85,11
12,1,14,1,3,0,4,5,62,11
12,1,13,1,4,0,4,5,62,11
12,1,6,0,4,0,4,5,85,11
12,1,5,0,5,1,4,5,62,11
12,1,5,0,6,1,4,5,85,11
12,1,2,0,0,0,4,5,85,11
12,1,2,0,0,0,4,5,31,11
12,1,7,1,0,0,4,5,85,11
12,1,19,1,0,0,4,5,85,11
12,1,1,0,1,0,4,5,85,11
12,1,17,1,1,0,4,5,85,11
12,1,13,1,3,0,4,5,62,11
12,1,22,0,3,0,4,5,7,11
12,1,20,1,4,0,4,5,85,11
12,1,2,0,4,0,4,5,116,11
12,1,6,0,5,1,4,5,62,11
12,1,4,0,5,1,4,5,85,11
12,1,1,0,6,1,4,5,6,8
12,1,6,0,0,0,4,5,62,11
12,1,3,0,0,0,4,5,85,9
12,1,21,0,1,0,4,5,6,11
12,1,23,0,2,0,4,5,85,11
12,1,23,0,4,0,4,5,85,11
12,1,12,1,4,0,4,5,62,11
12,1,22,0,4,0,4,5,98,11
12,1,7,1,6,1,4,5,62,11
12,1,0,0,6,1,4,5,62,11
12,1,4,0,1,0,4,5,85,11
12,1,11,1,1,0,4,5,62,11
12,1,22,0,2,0,4,5,95,11
12,1,4,0,5,1,4,5,85,11
12,1,5,0,6,1,4,5,85,11
12,1,21,0,6,1,4,5,62,11
12,1,17,1,6,1,4,5,95,11
12,1,15,1,6,1,4,5,95,11
12,1,15,1,0,0,4,5,62,11
1,1,22,0,1,0,1,5,95,11
1,1,10,1,1,0,1,5,17,11
1,1,2,0,1,0,1,5,17,11
1,1,14,1,2,0,1,5,38,11
1,1,21,0,3,0,1,5,85,11
1,1,20,1,4,0,1,5,98,11
1,1,20,1,5,1,1,5,87,11
1,1,19,1,5,1,1,5,73,11
1,1,21,0,6,1,1,5,62,11
1,1,16,1,0,0,1,5,126,11
1,1,22,0,0,0,1,5,88,11
1,1,8,1,1,0,1,5,54,11
1,1,22,0,3,0,1,5,62,11
1,1,0,0,4,0,1,5,85,11
1,1,19,1,5,1,1,5,62,11
1,1,18,1,5,1,1,5,95,11
1,1,15,1,0,0,1,5,73,11
1,1,19,1,0,0,1,5,62,11
1,1,20,1,0,0,1,5,62,11
1,1,1,0,1,0,1,5,11,11
1,1,9,1,1,0,1,5,6,11
1,1,16,1,2,0,1,5,73,11
1,1,17,1,2,0,1,5,73,11
1,1,1,0,3,0,1,5,126,11
1,1,19,1,3,0,1,5,62,11
1,1,23,0,4,0,1,5,85,11
1,1,10,1,4,0,1,5,62,11
1,1,20,1,5,1,1,5,85,11
1,1,17,1,5,1,1,5,86,11
1,1,1,0,5,1,1,5,62,11
1,1,0,0,6,1,1,5,85,11
1,1,1,0,0,0,1,5,6,11
1,1,17,1,0,0,1,5,85,11
1,1,23,0,1,0,1,5,1,11
1,1,12,1,3,0,1,5,88,11
1,1,9,1,4,0,1,5,6,11
1,1,1,0,0,0,1,5,85,11
1,1,22,0,0,0,1,5,62,11
1,1,17,1,0,0,1,5,101,11
1,1,10,1,0,0,1,5,101,11
1,1,12,1,1,0,1,5,62,11
1,1,19,1,2,0,1,5,95,11
1,1,15,1,2,0,1,5,62,11
1,1,17,1,2,0,1,5,85,11
2,1,21,0,5,1,1,5,70,11
2,1,3,0,6,1,1,5,85,11
2,1,2,0,6,1,1,5,85,11
2,1,1,0,0,0,1,5,85,11
2,1,2,0,0,0,1,5,54,8
2,1,19,1,1,0,1,5,98,11
2,1,11,1,1,0,1,5,62,11
2,1,1,0,2,0,1,5,62,11
2,1,14,1,2,0,1,5,95,11
2,1,5,0,3,0,1,5,62,11
2,1,7,1,3,0,1,5,38,11
2,1,8,1,4,0,1,5,95,11
2,1,18,1,4,0,1,5,62,11
2,1,18,1,4,0,1,5,62,11
2,1,13,1,5,1,1,5,62,8
2,1,17,1,5,1,1,5,85,11
2,1,21,0,5,1,1,5,88,11
2,1,6,0,5,1,1,5,62,11
2,1,0,0,6,1,1,5,85,11
2,1,1,0,6,1,1,5,62,9
2,1,10,1,6,1,1,5,62,11
2,1,5,0,1,0,1,5,17,11
2,1,15,1,1,0,1,5,85,11
2,1,16,1,2,0,1,5,88,11
2,1,11,1,2,0,1,5,62,11
2,1,9,1,3,0,1,5,85,11
2,1,11,1,3,0,1,5,62,11
2,1,19,1,5,1,1,5,62,11
2,1,4,0,5,1,1,5,85,11
2,1,18,1,5,1,1,5,85,11
2,1,23,0,6,1,1,5,85,11
2,1,10,1,6,1,1,5,85,11
2,1,8,1,0,0,1,5,70,9
2,1,1,0,1,0,1,5,85,11
2,1,16,1,1,0,1,5,62,11
2,1,12,1,2,0,1,5,95,11
2,1,14,1,2,0,1,5,70,11
2,1,13,1,2,0,1,5,95,11
2,1,8,1,3,0,1,5,7,11
2,1,15,1,3,0,1,5,62,11
2,1,0,0,4,0,1,5,126,11
2,1,12,1,5,1,1,5,62,11
2,1,3,0,5,1,1,5,101,11
2,1,8,1,5,1,1,5,62,9
2,1,15,1,6,1,1,5,85,11
2,1,22,0,0,0,1,5,85,11
2,1,9,1,0,0,1,5,85,11
2,1,12,1,1,0,1,5,38,11
2,1,15,1,2,0,1,5,62,9
3,2,6,0,4,0,1,5,101,11
3,2,11,1,4,0,1,5,85,11
3,2,16,1,4,0,1,5,85,11
3,2,18,1,5,1,1,5,85,11
3,2,23,0,6,1,1,5,95,11
3,2,0,0,0,0,1,5,85,11
3,2,9,1,2,0,1,5,85,11
3,2,21,0,3,0,1,5,62,11
3,2,5,0,4,0,1,5,101,11
3,2,4,0,4,0,1,5,101,11
3,2,4,0,4,0,1,5,95,11
3,2,10,1,4,0,1,5,85,11
3,2,10,1,5,1,1,5,62,11
3,2,1,0,6,1,1,5,85,11
3,2,1,0,6,1,1,5,85,11
3,2,13,1,6,1,1,5,62,11
3,2,21,0,0,0,1,5,62,8
3,2,2,0,2,0,1,5,70,11
3,2,10,1,2,0,1,5,31,11
3,2,2,0,3,0,1,5,85,11
3,2,21,0,4,0,1,5,85,11
3,2,17,1,4,0,1,5,88,11
3,2,20,1,5,1,1,5,101,11
3,2,17,1,5,1,1,5,85,11
3,2,0,0,6,1,1,5,101,11
3,2,2,0,6,1,1,5,85,11
3,2,2,0,0,0,1,5,62,9
3,2,20,1,0,0,1,5,62,11
3,2,21,0,0,0,1,5,11,11
3,2,20,1,1,0,1,5,62,11
3,2,21,0,1,0,1,5,62,11
3,2,16,1,1,0,1,5,95,11
3,2,21,0,2,0,1,5,55,11
3,2,20,1,4,0,1,5,70,11
3,2,15,1,4,0,1,5,88,11
3,2,16,1,4,0,1,5,62,11
3,2,20,1,4,0,1,5,85,11
3,2,11,1,5,1,1,5,54,11
3,2,19,1,5,1,1,5,45,11
3,2,1,0,6,1,1,5,85,11
3,2,1,0,6,1,1,5,101,11
3,2,1,0,6,1,1,5,85,11
3,2,20,1,6,1,1,5,62,11
3,2,18,1,6,1,1,5,62,11
3,2,18,1,6,1,1,5,62,11
3,2,10,1,0,0,1,5,6,11
3,2,5,0,0,0,1,5,62,11
3,2,6,0,0,0,1,5,6,9
3,2,14,1,0,0,1,5,45,11
3,2,2,0,1,0,1,5,101,11
3,2,14,1,2,0,1,5,12,11
3,2,0,0,3,0,1,5,70,11
3,2,20,1,4,0,1,5,62,11
3,2,10,1,4,0,1,5,45,11
3,2,21,0,5,1,1,5,62,11
3,2,20,1,5,1,1,5,126,11
3,2,11,1,6,1,1,5,62,11
3,2,11,1,6,1,1,5,95,11
3,2,9,1,6,1,1,5,85,11
3,2,2,0,6,1,1,5,126,11
3,2,1,0,6,1,1,5,126,11
4,2,3,0,1,0,2,5,17,9
4,2,2,0,1,0,2,5,126,11
4,2,8,1,2,0,2,5,126,11
4,2,17,1,3,0,2,5,124,9
4,2,22,0,3,0,2,5,88,8
4,2,19,1,3,0,2,5,85,11
4,2,3,0,4,0,2,5,85,11
4,2,3,0,4,0,2,5,101,11
4,2,3,0,4,0,2,5,126,11
4,2,0,0,4,0,2,5,85,11
4,2,14,1,4,0,2,5,62,11
4,2,11,1,4,0,2,5,62,11
4,2,20,1,4,0,2,5,101,11
4,2,11,1,5,1,2,5,62,11
4,2,20,1,6,1,2,5,6,9
4,2,15,1,6,1,2,5,126,11
4,2,5,0,0,0,2,5,85,11
4,2,4,0,1,0,2,5,17,11
4,2,16,1,1,0,2,5,17,9
4,2,9,1,1,0,2,5,73,11
4,2,5,0,2,0,2,5,101,11
4,2,2,0,5,1,2,5,62,11
4,2,18,1,6,1,2,5,62,11
4,2,22,0,6,1,2,5,62,11
4,2,21,0,1,0,2,5,62,11
4,2,11,1,3,0,2,5,62,11
4,2,5,0,4,0,2,5,85,11
4,2,23,0,1,0,2,5,70,9
4,2,23,0,1,0,2,5,70,9
4,2,1,0,2,0,2,5,101,11
4,2,22,0,2,0,2,5,85,11
4,2,3,0,3,0,2,5,85,11
4,2,2,0,3,0,2,5,101,11
4,2,3,0,3,0,2,5,95,11
4,2,16,1,4,0,2,5,62,11
4,2,15,1,4,0,2,5,62,11
4,2,22,0,4,0,2,5,62,11
4,2,12,1,5,1,2,5,88,11
4,2,0,0,6,1,2,5,85,11
4,2,1,0,6,1,2,5,85,11
4,2,0,0,6,1,2,5,62,11
4,2,5,0,6,1,2,5,70,11
4,2,15,1,6,1,2,5,62,11
4,2,18,1,6,1,2,5,85,11
4,2,20,1,1,0,2,5,7,11
5,2,2,0,2,0,2,5,70,11
5,2,21,0,2,0,2,5,95,11
5,2,11,1,4,0,2,5,62,11
5,2,5,0,4,0,2,5,85,11
5,2,23,0,5,1,2,5,85,11
5,2,17,1,0,0,2,5,62,11
5,2,18,1,0,0,2,5,62,11
5,2,1,0,1,0,2,5,85,11
5,2,10,1,1,0,2,5,70,11
5,2,20,1,1,0,2,5,85,11
5,2,10,1,1,0,2,5,73,11
5,2,4,0,2,0,2,5,62,11
5,2,1,0,2,0,2,5,62,8
5,2,23,0,2,0,2,5,62,11
5,2,5,0,3,0,2,5,38,8
5,2,19,1,3,0,2,5,88,11
5,2,1,0,4,0,2,5,12,11
5,2,1,0,4,0,2,5,85,11
5,2,6,0,4,0,2,5,85,11
5,2,19,1,4,0,2,5,85,11
5,2,21,0,5,1,2,5,17,11
5,2,2,0,5,1,2,5,73,11
5,2,5,0,5,1,2,5,85,11
5,2,21,0,6,1,2,5,88,11
5,2,2,0,1,0,2,5,85,11
5,2,0,0,2,0,2,5,62,11
5,2,21,0,2,0,2,5,85,11
5,2,12,1,2,0,2,5,88,11
5,2,12,1,2,0,2,5,126,11
5,2,13,1,2,0,2,5,88,11
5,2,2,0,4,0,2,5,95,11
5,2,3,0,4,0,2,5,95,11
5,2,18,1,5,1,2,5,73,11
5,2,18,1,6,1,2,5,62,11
5,2,1,0,6,1,2,5,95,11
5,2,19,1,1,0,2,5,88,11
5,2,3,0,2,0,2,5,85,11
5,2,2,0,3,0,2,5,85,11
5,2,18,1,4,0,2,5,85,11
5,2,22,0,4,0,2,5,85,11
5,2,22,0,5,1,2,5,95,11
5,2,1,0,6,1,2,5,95,11
5,2,2,0,6,1,2,5,70,9
5,2,3,0,0,0,2,5,95,11
5,2,2,0,1,0,2,5,101,11
5,2,3,0,2,0,2,5,95,11
5,2,3,0,2,0,2,5,6,11
5,2,3,0,3,0,2,5,101,11
5,2,14,1,3,0,2,5,70,11
5,2,3,0,4,0,2,5,101,11
6,3,1,0,5,1,2,5,62,11
6,3,19,1,5,1,2,5,62,11
6,3,21,0,5,1,2,5,70,11
6,3,14,1,5,1,2,5,62,11
6,3,17,1,6,1,2,5,62,11
6,3,19,1,6,1,2,5,43,11
6,3,9,1,0,0,2,5,85,11
6,3,22,0,1,0,2,5,12,11
6,3,10,1,2,0,2,5,73,11
6,3,12,1,2,0,2,5,85,11
6,3,13,1,5,1,2,5,124,11
6,3,0,0,6,1,2,5,85,11
6,3,1,0,6,1,2,5,45,11
6,3,5,0,6,1,2,5,126,11
6,3,14,1,2,0,2,5,85,11
6,3,16,1,2,0,2,5,85,9
6,3,23,0,2,0,2,5,62,11
6,3,4,0,4,0,2,5,70,11
6,3,23,0,4,0,2,5,95,11
6,3,6,0,4,0,2,5,7,11
6,3,5,0,5,1,2,5,85,11
6,3,14,1,5,1,2,5,70,8
6,3,16,1,5,1,2,5,21,11
6,3,1,0,5,1,2,5,59,11
6,3,5,0,5,1,2,5,85,11
6,3,14,1,6,1,2,5,21,11
6,3,15,1,0,0,2,5,12,11
6,3,15,1,0,0,2,5,12,11
6,3,3,0,1,0,2,5,95,11
6,3,0,0,2,0,2,5,101,11
6,3,4,0,4,0,2,5,88,11
6,3,3,0,4,0,2,5,85,11
6,3,19,1,4,0,2,5,85,11
6,3,21,0,4,0,2,5,73,11
6,3,23,0,5,1,2,5,88,11
6,3,3,0,5,1,2,5,70,11
6,3,15,1,6,1,2,5,62,11
6,3,23,0,0,0,2,5,88,11
6,3,17,1,1,0,2,5,62,11
6,3,10,1,2,0,2,5,73,11
6,3,4,0,3,0,2,5,70,11
6,3,7,1,3,0,2,5,62,11
6,3,13,1,3,0,2,5,62,11
6,3,22,0,4,0,2,5,85,11
6,3,1,0,6,1,2,5,85,11
6,3,15,1,6,1,2,5,85,11
6,3,14,1,6,1,2,5,88,11
6,3,13,1,6,1,2,5,62,11
7,3,23,0,2,0,3,5,95,11
7,3,3,0,2,0,3,5,62,11
7,3,14,1,5,1,3,5,70,11
7,3,3,0,6,1,3,5,85,11
7,3,17,1,0,0,3,5,126,11
7,3,12,1,0,0,3,5,62,11
7,3,21,0,1,0,3,5,88,11
7,3,13,1,1,0,3,5,95,11
7,3,7,1,3,0,3,5,55,11
7,3,5,0,3,0,3,5,12,11
7,3,21,0,4,0,3,5,85,11
7,3,17,1,4,0,3,5,101,11
7,3,15,1,4,0,3,5,62,9
7,3,18,1,5,1,3,5,6,11
7,3,14,1,5,1,3,5,98,11
7,3,18,1,6,1,3,5,126,11
7,3,7,1,6,1,3,5,62,11
7,3,12,1,0,0,3,5,38,11
7,3,15,1,1,0,3,5,85,11
7,3,20,1,2,0,3,5,85,11
7,3,13,1,2,0,3,5,62,11
7,3,12,1,2,0,3,5,88,9
7,3,18,1,4,0,3,5,88,11
7,3,6,0,5,1,3,5,126,11
7,3,0,0,5,1,3,5,95,11
7,3,17,1,5,1,3,5,104,11
7,3,8,1,5,1,3,5,70,11
7,3,8,1,6,1,3,5,95,11
7,3,7,1,6,1,3,5,95,11
7,3,8,1,0,0,3,5,62,9
7,3,18,1,0,0,3,5,62,11
7,3,7,1,1,0,3,5,85,11
7,3,2,0,1,0,3,5,17,11
7,3,3,0,1,0,3,5,73,11
7,3,16,1,1,0,3,5,85,11
7,3,17,1,1,0,3,5,85,11
7,3,20,1,2,0,3,5,88,11
7,3,13,1,2,0,3,5,88,11
7,3,4,0,3,0,3,5,98,11
7,3,21,0,3,0,3,5,1,11
7,3,6,0,4,0,3,5,17,11
7,3,14,1,4,0,3,5,85,11
7,3,22,0,4,0,3,5,62,11
7,3,20,1,5,1,3,5,62,11
7,3,4,0,5,1,3,5,85,11
7,3,6,0,5,1,3,5,55,11
7,3,4,0,6,1,3,5,95,11
7,3,4,0,0,0,3,5,85,11
7,3,5,0,0,0,3,5,85,11
7,3,13,1,0,0,3,5,62,9
7,3,2,0,1,0,3,5,126,11
7,3,2,0,2,0,3,5,85,11
7,3,2,0,2,0,3,5,85,11
7,3,3,0,2,0,3,5,81,11
7,3,2,0,2,0,3,5,95,11
7,3,10,1,2,0,3,5,17,11
7,3,17,1,2,0,3,5,62,11
8,3,21,0,3,0,3,5,17,11
8,3,20,1,3,0,3,5,7,11
8,3,18,1,3,0,3,5,62,11
8,3,18,1,4,0,3,5,62,11
8,3,23,0,6,1,3,5,88,11
8,3,23,0,6,1,3,5,45,11
8,3,15,1,6,1,3,5,30,11
8,3,1,0,6,1,3,5,126,11
8,3,2,0,6,1,3,5,126,11
8,3,0,0,1,0,3,5,126,11
8,3,20,1,1,0,3,5,88,11
8,3,22,0,1,0,3,5,88,11
8,3,2,0,2,0,3,5,54,11
8,3,18,1,2,0,3,5,85,11
8,3,17,1,2,0,3,5,85,11
8,3,13,1,3,0,3,5,88,11
8,3,19,1,5,1,3,5,85,11
8,3,10,1,5,1,3,5,62,11
8,3,2,0,5,1,3,5,95,11
8,3,2,0,5,1,3,5,85,11
8,3,20,1,6,1,3,5,85,11
8,3,13,1,6,1,3,5,126,11
8,3,14,1,6,1,3,5,62,11
8,3,1,0,6,1,3,5,85,11
8,3,12,1,0,0,3,5,6,11
8,3,17,1,1,0,3,5,88,11
8,3,20,1,1,0,3,5,88,11
8,3,21,0,4,0,3,5,62,11
8,3,0,0,5,1,3,5,31,11
8,3,22,0,1,0,3,5,62,11
8,3,21,0,1,0,3,5,7,11
8,3,19,1,1,0,3,5,125,11
8,3,21,0,2,0,3,5,62,11
8,3,12,1,2,0,3,5,95,11
8,3,11,1,2,0,3,5,95,11
8,3,0,0,3,0,3,5,6,11
8,3,2,0,4,0,3,5,88,11
8,3,15,1,4,0,3,5,95,11
8,3,1,0,5,1,3,5,62,11
8,3,19,1,5,1,3,5,62,11
8,3,22,0,6,1,3,5,85,11
8,3,12,1,0,0,3,5,6,11
8,3,9,1,0,0,3,5,85,11
8,3,9,1,2,0,3,5,62,11
8,3,7,1,3,0,3,5,85,11
8,3,2,0,4,0,3,5,62,11
8,3,9,1,4,0,3,5,85,11
8,3,9,1,4,0,3,5,62,11
8,3,18,1,4,0,3,5,62,11
8,3,21,0,4,0,3,5,85,11
8,3,23,0,5,1,3,5,85,11
9,4,16,1,6,1,3,5,62,11
9,4,20,1,0,0,3,5,62,11
9,4,19,1,0,0,3,5,62,11
9,4,8,1,1,0,3,5,73,11
9,4,1,0,3,0,3,5,62,11
9,4,20,1,4,0,3,5,73,11
9,4,3,0,5,1,3,5,6,11
9,4,16,1,5,1,3,5,88,9
9,4,7,1,6,1,3,5,61,11
9,4,5,0,6,1,3,5,101,11
9,4,3,0,6,1,3,5,85,11
9,4,14,1,1,0,3,5,85,11
9,4,1,0,1,0,3,5,101,11
9,4,6,0,1,0,3,5,95,11
9,4,2,0,2,0,3,5,85,11
9,4,11,1,3,0,3,5,45,9
9,4,10,1,3,0,3,5,73,11
9,4,14,1,4,0,3,5,62,11
9,4,12,1,4,0,3,5,85,8
9,4,16,1,4,0,3,5,85,11
9,4,14,1,5,1,3,5,70,11
9,4,5,0,5,1,3,5,62,11
9,4,20,1,6,1,3,5,85,11
9,4,5,0,6,1,3,5,62,11
9,4,13,1,0,0,3,5,62,11
9,4,10,1,1,0,3,5,38,11
9,4,8,1,2,0,3,5,43,11
9,4,20,1,2,0,3,5,110,11
9,4,13,1,2,0,3,5,101,11
9,4,19,1,3,0,3,5,98,11
9,4,2,0,3,0,3,5,126,11
9,4,2,0,5,1,3,5,101,11
9,4,1,0,6,1,3,5,85,11
9,4,1,0,0,0,3,5,17,11
9,4,3,0,0,0,3,5,126,11
9,4,21,0,0,0,3,5,62,11
9,4,1,0,1,0,3,5,85,11
9,4,14,1,1,0,3,5,101,11
9,4,2,0,3,0,3,5,7,11
9,4,5,0,3,0,3,5,85,11
9,4,5,0,3,0,3,5,95,11
9,4,16,1,3,0,3,5,62,11
9,4,1,0,4,0,3,5,17,11
9,4,4,0,5,1,3,5,62,11
9,4,4,0,6,1,3,5,88,11
9,4,6,0,6,1,3,5,126,11
9,4,1,0,6,1,3,5,126,11
9,4,17,1,6,1,3,5,85,11
9,4,2,0,0,0,3,5,62,9
9,4,16,1,0,0,3,5,62,11
10,4,6,0,1,0,4,5,85,11
10,4,5,0,1,0,4,5,85,11
10,4,4,0,1,0,4,5,62,11
10,4,19,1,1,0,4,5,101,11
10,4,2,0,2,0,4,5,17,11
10,4,15,1,2,0,4,5,126,11
10,4,9,1,2,0,4,5,81,11
10,4,13,1,3,0,4,5,62,11
10,4,6,0,4,0,4,5,7,11
10,4,2,0,4,0,4,5,126,11
10,4,2,0,4,0,4,5,126,11
10,4,2,0,4,0,4,5,85,11
10,4,19,1,4,0,4,5,79,11
10,4,14,1,5,1,4,5,6,11
10,4,18,1,6,1,4,5,101,11
10,4,15,1,6,1,4,5,62,9
10,4,14,1,6,1,4,5,88,11
10,4,5,0,6,1,4,5,62,11
10,4,4,0,6,1,4,5,101,11
10,4,3,0,4,0,4,5,6,11
10,4,18,1,4,0,4,5,6,11
10,4,19,1,5,1,4,5,85,11
10,4,22,0,5,1,4,5,85,11
10,4,15,1,5,1,4,5,62,11
10,4,1,0,5,1,4,5,85,11
10,4,20,1,6,1,4,5,126,11
10,4,21,0,6,1,4,5,126,11
10,4,16,1,6,1,4,5,62,11
10,4,22,0,6,1,4,5,126,11
10,4,13,1,6,1,4,5,62,11
10,4,23,0,0,0,4,5,85,11
10,4,5,0,1,0,4,5,1,11
10,4,6,0,1,0,4,5,6,9
10,4,6,0,1,0,4,5,61,11
10,4,2,0,1,0,4,5,85,11
10,4,17,1,1,0,4,5,85,11
10,4,13,1,1,0,4,5,38,11
10,4,5,0,1,0,4,5,95,11
10,4,4,0,1,0,4,5,95,11
10,4,21,0,3,0,4,5,126,11
10,4,3,0,5,1,4,5,6,8
10,4,16,1,6,1,4,5,85,11
10,4,21,0,6,1,4,5,126,11
10,4,4,0,6,1,4,5,95,11
10,4,7,1,6,1,4,5,85,11
10,4,3,0,0,0,4,5,95,11
10,4,4,0,0,0,4,5,95,11
10,4,22,0,0,0,4,5,85,11
10,4,21,0,0,0,4,5,85,11
10,4,7,1,1,0,4,5,6,11
10,4,15,1,1,0,4,5,85,11
10,4,14,1,1,0,4,5,85,11
10,4,3,0,2,0,4,5,85,11
10,4,1,0,2,0,4,5,85,11
10,4,3,0,2,0,4,5,85,11
10,4,12,1,3,0,4,5,85,11
10,4,22,0,3,0,4,5,95,11
10,4,4,0,4,0,4,5,62,11
10,4,2,0,4,0,4,5,85,11
10,4,2,0,4,0,4,5,85,11
10,4,8,1,4,0,4,5,88,11
10,4,16,1,4,0,4,5,85,11
10,4,20,1,5,1,4,5,85,11
10,4,3,0,5,1,4,5,126,11
10,4,3,0,5,1,4,5,126,11
10,4,0,0,5,1,4,5,62,11
10,4,18,1,6,1,4,5,85,11
10,4,11,1,6,1,4,5,62,11
10,4,3,0,6,1,4,5,6,11
10,4,21,0,0,0,4,5,126,8
10,4,11,1,0,0,4,5,73,11
10,4,14,1,0,0,4,5,85,11
10,4,11,1,0,0,4,5,85,11
10,4,12,1,0,0,4,5,85,11
10,4,3,0,0,0,4,5,85,11
10,4,15,1,1,0,4,5,88,11
10,4,15,1,1,0,4,5,62,11
10,4,17,1,1,0,4,5,62,11
10,4,0,0,2,0,4,5,85,11
10,4,6,0,2,0,4,5,6,11
10,4,22,0,2,0,4,5,12,11
10,4,21,0,2,0,4,5,85,11
10,4,13,1,2,0,4,5,85,11
11,4,2,0,4,0,4,5,62,11
11,4,8,1,4,0,4,5,62,11
11,4,23,0,4,0,4,5,20,11
11,4,20,1,6,1,4,5,101,11
11,4,5,0,6,1,4,5,126,11
11,4,2,0,0,0,4,5,54,11
11,4,7,1,0,0,4,5,61,11
11,4,9,1,0,0,4,5,17,11
11,4,22,0,0,0,4,5,54,11
11,4,20,1,1,0,4,5,126,11
11,4,17,1,1,0,4,5,17,11
11,4,19,1,1,0,4,5,85,11
11,4,4,0,2,0,4,5,85,11
11,4,22,0,2,0,4,5,85,11
11,4,10,1,2,0,4,5,62,11
11,4,9,1,2,0,4,5,17,11
11,4,3,0,3,0,4,5,85,11
11,4,14,1,3,0,4,5,98,11
11,4,14,1,3,0,4,5,17,11
11,4,22,0,4,0,4,5,38,11
11,4,3,0,5,1,4,5,17,11
11,4,18,1,5,1,4,5,88,11
11,4,0,0,6,1,4,5,62,11
11,4,0,0,6,1,4,5,17,11
11,4,20,1,1,0,4,5,38,9
11,4,7,1,1,0,4,5,98,11
11,4,13,1,1,0,4,5,62,11
11,4,14,1,1,0,4,5,62,11
11,4,15,1,1,0,4,5,62,11
11,4,15,1,1,0,4,5,17,11
11,4,18,1,1,0,4,5,62,11
11,4,20,1,2,0,4,5,17,11
11,4,21,0,3,0,4,5,62,11
11,4,17,1,4,0,4,5,62,11
11,4,22,0,4,0,4,5,85,11
11,4,14,1,5,1,4,5,62,11
11,4,2,0,5,1,4,5,85,11
11,4,12,1,5,1,4,5,101,11
11,4,11,1,6,1,4,5,85,11
11,4,20,1,6,1,4,5,85,11
11,4,22,0,0,0,4,5,85,11
11,4,1,0,1,0,4,5,85,11
11,4,1,0,2,0,4,5,12,11
11,4,23,0,2,0,4,5,61,11
11,4,15,1,2,0,4,5,126,11
11,4,20,1,3,0,4,5,70,11
11,4,17,1,3,0,4,5,126,11
11,4,17,1,3,0,4,5,95,11
11,4,3,0,3,0,4,5,54,11
11,4,20,1,4,0,4,5,101,11
11,4,13,1,4,0,4,5,111,11
11,4,19,1,5,1,4,5,85,11
11,4,13,1,5,1,4,5,62,11
11,4,11,1,0,0,4,5,85,11
11,4,18,1,0,0,4,5,6,11
11,4,13,1,2,0,4,5,62,11
11,4,16,1,2,0,4,5,85,11
11,4,2,0,3,0,4,5,1,11
11,4,14,1,3,0,4,5,17,11
11,4,10,1,3,0,4,5,62,11
11,4,2,0,4,0,4,5,62,11
11,4,13,1,4,0,4,5,85,11
11,4,22,0,5,1,4,5,62,11
11,4,16,1,5,1,4,5,17,11
11,4,3,0,5,1,4,5,85,11
12,1,23,0,6,1,4,5,101,11
12,1,21,0,6,1,4,5,85,11
12,1,1,0,0,0,4,5,98,11
12,1,6,0,0,0,4,5,98,11
12,1,13,1,1,0,4,5,62,11
12,1,18,1,1,0,4,5,126,11
12,1,21,0,2,0,4,5,70,11
12,1,14,1,2,0,4,5,73,11
12,1,14,1,3,0,4,5,62,11
12,1,20,1,3,0,4,5,38,11
12,1,16,1,4,0,4,5,126,11
12,1,10,1,4,0,4,5,101,11
12,1,21,0,4,0,4,5,73,11
12,1,21,0,5,1,4,5,124,11
12,1,18,1,5,1,4,5,85,11
12,1,0,0,5,1,4,5,87,11
12,1,3,0,5,1,4,5,54,11
12,1,19,1,6,1,4,5,62,11
12,1,3,0,6,1,4,5,12,11
12,1,1,0,0,0,4,5,126,11
12,1,20,1,0,0,4,5,38,11
12,1,13,1,0,0,4,5,62,11
12,1,4,0,1,0,4,5,101,11
12,1,3,0,1,0,4,5,101,11
12,1,18,1,2,0,4,5,101,11
12,1,10,1,2,0,4,5,6,11
12,1,8,1,2,0,4,5,95,11
12,1,8,1,2,0,4,5,95,11
12,1,19,1,3,0,4,5,17,11
12,1,13,1,4,0,4,5,102,11
12,1,22,0,5,1,4,5,73,11
12,1,3,0,5,1,4,5,62,9
12,1,21,0,0,0,4,5,17,11
12,1,2,0,1,0,4,5,17,11
12,1,19,1,2,0,4,5,85,11
12,1,16,1,3,0,4,5,62,11
12,1,0,0,5,1,4,5,54,11
12,1,7,1,6,1,4,5,126,11
12,1,3,0,6,1,4,5,85,11
12,1,18,1,0,0,4,5,126,11
12,1,14,1,0,0,4,5,62,11
12,1,7,1,1,0,4,5,6,11
12,1,22,0,1,0,4,5,85,11
12,1,21,0,2,0,4,5,126,11
12,1,15,1,2,0,4,5,126,11
12,1,2,0,2,0,4,5,85,11
12,1,7,1,3,0,4,5,85,11
12,1,5,0,3,0,4,5,101,11
12,1,2,0,3,0,4,5,126,11
12,1,8,1,4,0,4,5,54,11
12,1,19,1,5,1,4,5,62,11
12,1,21,0,5,1,4,5,85,11
12,1,17,1,5,1,4,5,62,11
12,1,20,1,6,1,4,5,85,11
12,1,20,1,0,0,4,5,85,11
12,1,23,0,1,0,4,5,62,11
12,1,19,1,1,0,4,5,85,11
1,1,17,1,1,0,1,5,62,11
1,1,12,1,1,0,1,5,85,11
1,1,11,1,3,0,1,5,28,11
1,1,13,1,3,0,1,5,17,11
1,1,11,1,4,0,1,5,111,11
1,1,14,1,4,0,1,5,85,11
1,1,12,1,5,1,1,5,62,11
1,1,3,0,5,1,1,5,62,11
1,1,19,1,6,1,1,5,85,11
1,1,4,0,0,0,1,5,62,11
1,1,2,0,1,0,1,5,45,11
1,1,22,0,3,0,1,5,106,11
1,1,21,0,4,0,1,5,95,11
1,1,18,1,5,1,1,5,62,11
1,1,13,1,6,1,1,5,62,11
1,1,18,1,1,0,1,5,17,11
1,1,18,1,2,0,1,5,1,11
1,1,18,1,5,1,1,5,62,11
1,1,15,1,5,1,1,5,73,11
1,1,16,1,2,0,1,5,38,11
1,1,8,1,4,0,1,5,62,11
1,1,11,1,5,1,1,5,73,11
1,1,7,1,0,0,1,5,73,11
1,1,9,1,1,0,1,5,1,11
1,1,22,0,2,0,1,5,7,11
2,1,11,1,4,0,1,5,17,11
2,1,1,0,5,1,1,5,62,11
2,1,16,1,5,1,1,5,85,11
2,1,19,1,4,0,1,5,73,11
2,1,1,0,4,0,1,5,17,11
2,1,13,1,5,1,1,5,17,11
2,1,13,1,2,0,1,5,62,8
2,1,14,1,2,0,1,5,85,11
2,1,13,1,0,0,1,5,73,11
2,1,22,0,0,0,1,5,85,11
2,1,10,1,4,0,1,5,62,11
2,1,18,1,5,1,1,5,85,11
2,1,20,1,6,1,1,5,62,11
2,1,20,1,2,0,1,5,62,11
2,1,14,1,3,0,1,5,62,11
3,2,4,0,6,1,1,5,95,11
3,2,4,0,6,1,1,5,1,9
3,2,0,0,1,0,1,5,85,11
3,2,19,1,2,0,1,5,62,11
3,2,12,1,2,0,1,5,62,11
3,2,12,1,5,1,1,5,61,11
3,2,3,0,5,1,1,5,62,11
3,2,12,1,6,1,1,5,73,11
3,2,9,1,6,1,1,5,62,11
3,2,16,1,4,0,1,5,62,11
3,2,14,1,4,0,1,5,62,11
3,2,8,1,5,1,1,5,62,11
3,2,4,0,6,1,1,5,17,11
3,2,16,1,6,1,1,5,124,11
3,2,4,0,6,1,1,5,85,11
3,2,4,0,6,1,1,5,85,11
3,2,19,1,1,0,1,5,88,11
3,2,5,0,5,1,1,5,85,11
3,2,7,1,6,1,1,5,74,11
4,2,5,0,0,0,2,5,17,11
4,2,21,0,3,0,2,5,17,11
4,2,22,0,3,0,2,5,62,11
4,2,17,1,6,1,2,5,62,11
4,2,18,1,0,0,2,5,54,11
4,2,15,1,0,0,2,5,89,11
4,2,11,1,1,0,2,5,38,11
4,2,23,0,0,0,2,5,62,11
4,2,12,1,3,0,2,5,62,11
4,2,11,1,3,0,2,5,70,11
4,2,13,1,5,1,2,5,101,11
4,2,23,0,6,1,2,5,85,11
4,2,1,0,6,1,2,5,93,11
4,2,5,0,6,1,2,5,85,11
4,2,9,1,6,1,2,5,61,11
4,2,16,1,2,0,2,5,73,11
4,2,15,1,4,0,2,5,62,11
4,2,23,0,0,0,2,5,62,11
4,2,11,1,0,0,2,5,85,11
5,2,7,1,4,0,2,5,7,11
5,2,11,1,0,0,2,5,85,11
5,2,14,1,3,0,2,5,85,11
5,2,22,0,4,0,2,5,62,11
5,2,9,1,5,1,2,5,73,11
5,2,15,1,1,0,2,5,126,11
5,2,2,0,1,0,2,5,73,11
5,2,8,1,3,0,2,5,38,11
5,2,17,1,6,1,2,5,62,11
5,2,22,0,0,0,2,5,126,11
5,2,14,1,0,0,2,5,101,11
5,2,2,0,0,0,2,5,116,11
5,2,14,1,2,0,2,5,88,11
5,2,3,0,2,0,2,5,85,11
5,2,3,0,6,1,2,5,114,9
5,2,20,1,0,0,2,5,38,9
5,2,16,1,3,0,2,5,85,11
5,2,11,1,4,0,2,5,85,11
6,3,5,0,6,1,2,5,76,11
6,3,22,0,6,1,2,5,95,11
6,3,13,1,4,0,2,5,73,11
6,3,10,1,6,1,2,5,45,11
6,3,18,1,0,0,2,5,96,11
6,3,10,1,0,0,2,5,73,11
6,3,0,0,0,0,2,5,100,11
6,3,14,1,2,0,2,5,95,11
6,3,21,0,3,0,2,5,62,11
6,3,16,1,3,0,2,5,7,11
6,3,18,1,4,0,2,5,85,11
6,3,8,1,5,1,2,5,62,11
6,3,4,0,4,0,2,5,17,11
6,3,4,0,4,0,2,5,101,11
6,3,10,1,5,1,2,5,54,11
6,3,21,0,1,0,2,5,95,11
6,3,3,0,2,0,2,5,61,11
6,3,10,1,2,0,2,5,62,11
6,3,5,0,4,0,2,5,85,11
7,3,15,1,0,0,3,5,101,11
7,3,15,1,2,0,3,5,101,11
7,3,10,1,2,0,3,5,85,11
7,3,12,1,4,0,3,5,17,11
7,3,3,0,4,0,3,5,85,11
7,3,1,0,6,1,3,5,73,11
7,3,20,1,6,1,3,5,62,11
7,3,12,1,0,0,3,5,62,11
7,3,14,1,1,0,3,5,17,11
7,3,23,0,2,0,3,5,85,11
7,3,19,1,2,0,3,5,62,11
7,3,11,1,4,0,3,5,62,11
7,3,23,0,1,0,3,5,62,11
7,3,22,0,3,0,3,5,38,11
7,3,21,0,4,0,3,5,38,11
7,3,23,0,1,0,3,5,7,11
7,3,23,0,1,0,3,5,95,11
7,3,22,0,2,0,3,5,95,11
7,3,23,0,3,0,3,5,85,11
7,3,11,1,3,0,3,5,85,11
7,3,4,0,5,1,3,5,95,11
7,3,10,1,1,0,3,5,17,11
8,3,21,0,3,0,3,5,38,11
8,3,21,0,3,0,3,5,95,11
8,3,21,0,3,0,3,5,126,11
8,3,13,1,4,0,3,5,62,11
8,3,1,0,0,0,3,5,7,11
8,3,0,0,1,0,3,5,85,11
8,3,7,1,1,0,3,5,88,11
8,3,5,0,4,0,3,5,98,11
8,3,20,1,4,0,3,5,62,11
8,3,15,1,5,1,3,5,101,11
8,3,1,0,5,1,3,5,85,11
8,3,2,0,6,1,3,5,70,11
8,3,16,1,1,0,3,5,38,11
8,3,11,1,2,0,3,5,28,11
8,3,16,1,2,0,3,5,62,11
8,3,21,0,5,1,3,5,88,11
8,3,18,1,6,1,3,5,95,11
8,3,21,0,2,0,3,5,88,9
8,3,2,0,5,1,3,5,62,11
8,3,2,0,6,1,3,5,38,11
8,3,14,1,0,0,3,5,88,11
8,3,3,0,1,0,3,5,62,11
8,3,13,1,5,1,3,5,62,11
9,4,10,1,1,0,3,5,62,11
9,4,10,1,2,0,3,5,62,9
9,4,13,1,4,0,3,5,85,11
9,4,15,1,5,1,3,5,88,9
9,4,11,1,5,1,3,5,17,9
9,4,3,0,5,1,3,5,85,11
9,4,16,1,6,1,3,5,106,11
9,4,22,0,1,0,3,5,62,11
9,4,21,0,3,0,3,5,101,11
9,4,14,1,4,0,3,5,85,11
9,4,13,1,5,1,3,5,101,11
9,4,10,1,5,1,3,5,62,11
9,4,2,0,5,1,3,5,85,11
9,4,14,1,5,1,3,5,78,11
9,4,14,1,0,0,3,5,101,11
9,4,18,1,1,0,3,5,76,11
9,4,2,0,4,0,3,5,62,11
9,4,16,1,6,1,3,5,62,11
9,4,21,0,1,0,3,5,62,11
9,4,23,0,1,0,3,5,62,11
9,4,8,1,2,0,3,5,62,11
9,4,20,1,5,1,3,5,38,11
9,4,5,0,5,1,3,5,85,11
10,4,2,0,1,0,4,5,38,11
10,4,23,0,3,0,4,5,62,11
10,4,21,0,4,0,4,5,61,11
10,4,20,1,5,1,4,5,45,11
10,4,19,1,3,0,4,5,62,11
10,4,12,1,0,0,4,5,1,11
10,4,9,1,0,0,4,5,85,11
10,4,5,0,0,0,4,5,38,11
10,4,2,0,4,0,4,5,62,11
10,4,1,0,6,1,4,5,85,11
10,4,9,1,2,0,4,5,62,11
10,4,23,0,4,0,4,5,7,9
10,4,6,0,5,1,4,5,7,11
10,4,5,0,5,1,4,5,7,11
11,4,4,0,0,0,4,5,85,11
11,4,5,0,1,0,4,5,74,11
11,4,18,1,2,0,4,5,73,11
11,4,20,1,4,0,4,5,62,11
11,4,15,1,4,0,4,5,62,11
11,4,21,0,6,1,4,5,62,11
11,4,11,1,6,1,4,5,62,11
11,4,23,0,0,0,4,5,62,11
11,4,10,1,1,0,4,5,62,11
11,4,2,0,3,0,4,5,95,11
11,4,13,1,4,0,4,5,1,11
11,4,2,0,0,0,4,5,62,11
11,4,22,0,1,0,4,5,124,11
11,4,3,0,2,0,4,5,116,11
11,4,1,0,3,0,4,5,17,11
12,1,5,0,6,1,4,5,85,11
12,1,5,0,6,1,4,5,126,11
12,1,14,1,3,0,4,5,62,9
12,1,8,1,3,0,4,5,17,11
12,1,20,1,4,0,4,5,62,11
12,1,16,1,4,0,4,5,61,11
12,1,16,1,6,1,4,5,62,11
12,1,11,1,6,1,4,5,88,11
12,1,4,0,6,1,4,5,17,11
12,1,9,1,0,0,4,5,85,11
12,1,23,0,2,0,4,5,62,11
12,1,9,1,3,0,4,5,17,11
12,1,12,1,6,1,4,5,62,11
12,1,21,0,6,1,4,5,62,11
12,1,11,1,1,0,4,5,1,11
12,1,14,1,3,0,4,5,85,11
12,1,9,1,3,0,4,5,85,11
12,1,18,1,3,0,4,5,1,11
12,1,19,1,3,0,4,5,1,11
12,1,13,1,0,0,4,5,50,11
12,1,21,0,1,0,4,5,70,11
12,1,13,1,1,0,4,5,73,11
12,1,20,1,5,1,4,5,38,11
12,1,8,1,6,1,4,5,62,11
12,1,10,1,6,1,4,5,42,8
12,1,0,0,1,0,4,5,62,11
1,1,16,1,1,0,1,5,109,11
1,1,14,1,6,1,1,5,88,11
1,1,13,1,6,1,1,5,85,11
2,1,14,1,5,1,1,5,85,11
3,2,0,0,4,0,1,5,38,11
3,2,18,1,0,0,1,5,88,11
3,2,21,0,0,0,1,5,38,11
4,2,16,1,0,0,2,5,101,11
4,2,17,1,2,0,2,5,88,11
4,2,3,0,4,0,2,5,17,11
4,2,18,1,0,0,2,5,17,11
4,2,17,1,3,0,2,5,101,11
4,2,15,1,3,0,2,5,88,11
4,2,12,1,3,0,2,5,88,11
5,2,11,1,5,1,2,5,73,11
5,2,19,1,5,1,2,5,88,11
6,3,14,1,1,0,2,5,101,11
6,3,19,1,2,0,2,5,17,11
7,3,0,0,3,0,3,5,61,11
7,3,19,1,4,0,3,5,88,9
8,3,20,1,6,1,3,5,88,8
8,3,12,1,3,0,3,5,38,11
8,3,12,1,6,1,3,5,17,11
9,4,19,1,3,0,3,5,62,11
9,4,19,1,5,1,3,5,88,11
9,4,7,1,1,0,3,5,62,11
10,4,18,1,6,1,4,5,88,11
10,4,23,0,5,1,4,5,101,11
12,1,17,1,4,0,4,5,88,11
12,1,11,1,1,0,4,5,85,11
1,1,14,1,2,0,1,5,85,11
1,1,14,1,4,0,1,5,85,11
1,1,18,1,6,1,1,5,95,11
1,1,21,0,0,0,1,5,85,11
1,1,10,1,1,0,1,5,62,11
1,1,11,1,4,0,1,5,17,11
1,1,14,1,4,0,1,5,101,11
1,1,16,1,5,1,1,5,62,11
1,1,13,1,5,1,1,5,85,11
1,1,7,1,5,1,1,5,38,11
1,1,2,0,0,0,1,5,95,11
1,1,3,0,0,0,1,5,54,8
2,1,11,1,5,1,1,5,85,11
2,1,4,0,0,0,1,5,38,9
2,1,13,1,2,0,1,5,45,11
2,1,23,0,5,1,1,5,95,11
2,1,10,1,5,1,1,5,62,11
2,1,20,1,6,1,1,5,62,11
2,1,3,0,6,1,1,5,85,11
2,1,1,0,6,1,1,5,85,11
2,1,1,0,6,1,1,5,85,11
2,1,0,0,6,1,1,5,85,11
2,1,3,0,2,0,1,5,62,11
2,1,15,1,4,0,1,5,85,11
2,1,23,0,3,0,1,5,28,11
2,1,13,1,2,0,1,5,76,11
3,2,20,1,5,1,1,5,69,11
3,2,2,0,6,1,1,5,85,11
3,2,2,0,6,1,1,5,85,11
3,2,4,0,0,0,1,5,95,11
3,2,4,0,0,0,1,5,95,11
3,2,13,1,2,0,1,5,50,11
3,2,11,1,3,0,1,5,17,11
3,2,9,1,0,0,1,5,85,11
3,2,14,1,3,0,1,5,70,11
3,2,15,1,6,1,1,5,85,11
3,2,8,1,0,0,1,5,95,11
3,2,0,0,2,0,1,5,95,11
3,2,11,1,3,0,1,5,70,11
3,2,13,1,5,1,1,5,73,11
3,2,14,1,6,1,1,5,70,11
3,2,4,0,5,1,1,5,85,11
3,2,18,1,5,1,1,5,62,11
4,2,8,1,1,0,2,5,17,11
4,2,21,0,3,0,2,5,85,11
4,2,13,1,6,1,2,5,62,11
4,2,4,0,1,0,2,5,95,11
4,2,12,1,2,0,2,5,62,11
4,2,10,1,2,0,2,5,70,11
4,2,21,0,2,0,2,5,95,11
4,2,7,1,1,0,2,5,73,11
4,2,14,1,4,0,2,5,45,11
4,2,2,0,4,0,2,5,31,11
4,2,17,1,5,1,2,5,85,11
4,2,22,0,6,1,2,5,62,11
4,2,12,1,3,0,2,5,69,11
4,2,3,0,6,1,2,5,62,11
4,2,23,0,1,0,2,5,95,11
5,2,6,0,2,0,2,5,62,11
5,2,23,0,4,0,2,5,95,11
5,2,1,0,0,0,2,5,61,11
5,2,15,1,5,1,2,5,38,11
5,2,1,0,6,1,2,5,70,11
5,2,10,1,1,0,2,5,95,11
6,3,16,1,5,1,2,5,95,11
6,3,6,0,2,0,2,5,62,11
6,3,1,0,4,0,2,5,85,11
6,3,13,1,0,0,2,5,95,11
6,3,16,1,3,0,2,5,95,11
6,3,9,1,5,1,2,5,62,11
6,3,22,0,0,0,2,5,62,9
6,3,4,0,0,0,2,5,62,11
6,3,3,0,1,0,2,5,62,11
6,3,15,1,1,0,2,5,62,11
6,3,0,0,2,0,2,5,85,11
6,3,23,0,2,0,2,5,7,11
6,3,16,1,5,1,2,5,85,11
6,3,16,1,6,1,2,5,85,11
6,3,16,1,6,1,2,5,85,11
6,3,16,1,6,1,2,5,85,11
6,3,21,0,6,1,2,5,62,11
7,3,22,0,5,1,3,5,62,11
7,3,18,1,5,1,3,5,70,11
7,3,21,0,2,0,3,5,88,11
7,3,14,1,0,0,3,5,42,11
7,3,5,0,1,0,3,5,62,11
7,3,13,1,5,1,3,5,95,11
7,3,20,1,2,0,3,5,62,11
7,3,0,0,3,0,3,5,95,11
7,3,13,1,4,0,3,5,62,11
7,3,11,1,5,1,3,5,71,11
7,3,17,1,6,1,3,5,62,11
8,3,19,1,2,0,3,5,62,11
8,3,19,1,3,0,3,5,85,11
8,3,10,1,4,0,3,5,6,11
8,3,3,0,6,1,3,5,85,11
8,3,4,0,0,0,3,5,6,11
8,3,9,1,4,0,3,5,62,11
8,3,12,1,5,1,3,5,95,11
8,3,20,1,6,1,3,5,85,11
8,3,13,1,2,0,3,5,6,11
8,3,0,0,3,0,3,5,95,11
8,3,18,1,4,0,3,5,95,11
8,3,18,1,4,0,3,5,95,11
8,3,17,1,5,1,3,5,73,11
8,3,5,0,3,0,3,5,62,11
8,3,17,1,4,0,3,5,85,11
9,4,17,1,0,0,3,5,62,11
9,4,11,1,2,0,3,5,73,11
9,4,18,1,6,1,3,5,85,11
9,4,6,0,6,1,3,5,85,11
9,4,9,1,2,0,3,5,70,11
9,4,8,1,2,0,3,5,73,11
9,4,22,0,5,1,3,5,95,11
9,4,12,1,6,1,3,5,62,11
9,4,16,1,6,1,3,5,85,11
9,4,0,0,6,1,3,5,85,11
9,4,14,1,4,0,3,5,62,11
9,4,3,0,4,0,3,5,101,11
9,4,2,0,4,0,3,5,85,11
9,4,13,1,5,1,3,5,62,11
9,4,19,1,6,1,3,5,70,11
9,4,16,1,0,0,3,5,95,11
9,4,17,1,1,0,3,5,101,11
10,4,0,0,2,0,4,5,95,11
10,4,10,1,2,0,4,5,95,11
10,4,15,1,3,0,4,5,62,11
10,4,15,1,3,0,4,5,62,11
10,4,21,0,5,1,4,5,125,11
10,4,11,1,6,1,4,5,62,11
10,4,15,1,6,1,4,5,17,11
10,4,2,0,3,0,4,5,70,11
10,4,1,0,5,1,4,5,95,11
10,4,1,0,5,1,4,5,95,11
10,4,2,0,0,0,4,5,17,11
11,4,19,1,6,1,4,5,85,11
11,4,16,1,0,0,4,5,95,11
11,4,11,1,0,0,4,5,95,11
11,4,4,0,1,0,4,5,106,11
11,4,13,1,3,0,4,5,62,11
11,4,10,1,4,0,4,5,95,11
12,1,5,0,6,1,4,5,95,11
12,1,1,0,2,0,4,5,17,11
12,1,0,0,3,0,4,5,95,11
12,1,14,1,3,0,4,5,62,8
12,1,17,1,1,0,4,5,62,11
12,1,12,1,3,0,4,5,17,11
12,1,20,1,6,1,4,5,62,11
12,1,15,1,1,0,4,5,62,11
12,1,17,1,3,0,4,5,95,11
12,1,2,0,5,1,4,5,95,11
12,1,1,0,6,1,4,5,95,11
12,1,5,0,6,1,4,5,95,11
12,1,3,0,0,0,4,5,62,11
12,1,23,0,0,0,4,5,62,11
12,1,4,0,3,0,4,5,45,11
12,1,15,1,4,0,4,5,95,11
12,1,17,1,4,0,4,5,45,11
12,1,18,1,4,0,4,5,45,11
12,1,23,0,5,1,4,5,62,8
12,1,17,1,1,0,4,5,62,11
12,1,17,1,1,0,4,5,95,11
1,1,21,0,4,0,1,5,101,11
1,1,2,0,5,1,1,5,73,11
1,1,22,0,6,1,1,5,38,8
1,1,6,0,0,0,1,5,101,11
1,1,19,1,1,0,1,5,101,11
1,1,1,0,2,0,1,5,101,11
1,1,0,0,6,1,1,5,88,11
1,1,5,0,0,0,1,5,85,11
1,1,18,1,1,0,1,5,73,11
1,1,17,1,2,0,1,5,88,11
1,1,0,0,3,0,1,5,88,11
1,1,8,1,3,0,1,5,88,11
1,1,8,1,3,0,1,5,73,11
1,1,17,1,4,0,1,5,17,11
1,1,10,1,6,1,1,5,101,11
1,1,21,0,6,1,1,5,85,11
1,1,11,1,6,1,1,5,101,11
1,1,6,0,3,0,1,5,85,11
2,1,0,0,6,1,1,5,85,11
2,1,18,1,1,0,1,5,85,11
2,1,18,1,1,0,1,5,101,11
2,1,3,0,2,0,1,5,73,11
2,1,2,0,2,0,1,5,17,11
2,1,23,0,3,0,1,5,88,11
2,1,3,0,5,1,1,5,88,11
2,1,23,0,6,1,1,5,101,11
2,1,23,0,6,1,1,5,88,11
2,1,14,1,0,0,1,5,88,11
2,1,17,1,1,0,1,5,88,11
2,1,13,1,3,0,1,5,70,11
2,1,7,1,3,0,1,5,85,11
2,1,21,0,4,0,1,5,6,11
2,1,16,1,5,1,1,5,73,11
2,1,23,0,6,1,1,5,101,11
2,1,18,1,6,1,1,5,101,11
2,1,13,1,1,0,1,5,88,11
2,1,20,1,3,0,1,5,85,11
2,1,4,0,5,1,1,5,85,11
2,1,9,1,6,1,1,5,88,11
2,1,2,0,2,0,1,5,88,11
2,1,11,1,3,0,1,5,88,11
3,2,4,0,4,0,1,5,85,11
3,2,15,1,4,0,1,5,88,11
3,2,1,0,5,1,1,5,70,11
3,2,19,1,5,1,1,5,70,11
3,2,20,1,5,1,1,5,101,11
3,2,12,1,6,1,1,5,88,11
3,2,17,1,6,1,1,5,101,11
3,2,11,1,1,0,1,5,85,11
3,2,13,1,2,0,1,5,101,11
3,2,2,0,3,0,1,5,73,11
3,2,17,1,3,0,1,5,88,11
3,2,19,1,3,0,1,5,88,11
3,2,13,1,4,0,1,5,73,11
3,2,22,0,5,1,1,5,88,11
3,2,3,0,6,1,1,5,85,11
3,2,22,0,0,0,1,5,101,11
3,2,16,1,0,0,1,5,88,11
3,2,11,1,0,0,1,5,101,11
3,2,0,0,1,0,1,5,17,11
3,2,3,0,4,0,1,5,88,11
3,2,17,1,6,1,1,5,88,11
3,2,0,0,0,0,1,5,28,11
3,2,12,1,0,0,1,5,88,11
3,2,2,0,2,0,1,5,85,11
3,2,4,0,3,0,1,5,70,11
3,2,21,0,4,0,1,5,85,11
3,2,13,1,5,1,1,5,85,11
3,2,22,0,6,1,1,5,88,11
3,2,9,1,6,1,1,5,85,11
3,2,5,0,0,0,1,5,85,11
3,2,0,0,3,0,1,5,12,11
3,2,15,1,3,0,1,5,88,11
3,2,18,1,3,0,1,5,62,11
3,2,19,1,3,0,1,5,88,11
3,2,23,0,4,0,1,5,85,11
3,2,14,1,5,1,1,5,85,11
3,2,11,1,6,1,1,5,85,11
4,2,9,1,3,0,2,5,88,11
4,2,22,0,4,0,2,5,88,11
4,2,15,1,5,1,2,5,85,11
4,2,1,0,6,1,2,5,85,11
4,2,12,1,6,1,2,5,85,11
4,2,21,0,0,0,2,5,85,11
4,2,20,1,0,0,2,5,88,11
4,2,12,1,0,0,2,5,85,11
4,2,12,1,0,0,2,5,101,11
4,2,22,0,1,0,2,5,85,11
4,2,20,1,1,0,2,5,85,11
4,2,20,1,2,0,2,5,85,11
4,2,1,0,3,0,2,5,85,11
4,2,19,1,5,1,2,5,101,11
4,2,7,1,5,1,2,5,17,11
4,2,19,1,0,0,2,5,88,11
4,2,5,0,2,0,2,5,70,11
4,2,21,0,2,0,2,5,85,11
4,2,21,0,2,0,2,5,88,11
4,2,19,1,4,0,2,5,88,11
4,2,8,1,5,1,2,5,17,11
4,2,0,0,5,1,2,5,85,11
4,2,21,0,6,1,2,5,85,11
4,2,15,1,6,1,2,5,43,11
4,2,5,0,0,0,2,5,88,11
4,2,3,0,0,0,2,5,101,11
4,2,0,0,1,0,2,5,85,8
4,2,22,0,1,0,2,5,85,8
4,2,19,1,3,0,2,5,85,11
4,2,3,0,3,0,2,5,85,11
4,2,3,0,3,0,2,5,85,11
4,2,3,0,3,0,2,5,101,11
4,2,22,0,4,0,2,5,85,11
4,2,2,0,5,1,2,5,85,11
4,2,21,0,5,1,2,5,101,11
4,2,22,0,5,1,2,5,101,11
4,2,23,0,5,1,2,5,101,11
4,2,15,1,5,1,2,5,85,11
4,2,20,1,5,1,2,5,73,9
4,2,20,1,6,1,2,5,85,11
4,2,13,1,0,0,2,5,88,11
4,2,22,0,0,0,2,5,85,11
4,2,22,0,0,0,2,5,85,11
4,2,22,0,0,0,2,5,85,11
4,2,22,0,0,0,2,5,85,11
4,2,22,0,0,0,2,5,85,11
4,2,18,1,0,0,2,5,85,11
4,2,21,0,0,0,2,5,85,11
4,2,10,1,0,0,2,5,88,11
4,2,7,1,1,0,2,5,88,11
4,2,13,1,1,0,2,5,101,11
4,2,22,0,1,0,2,5,88,11
5,2,21,0,2,0,2,5,85,11
5,2,22,0,3,0,2,5,85,11
5,2,23,0,3,0,2,5,88,11
5,2,21,0,3,0,2,5,88,11
5,2,23,0,6,1,2,5,85,11
5,2,3,0,0,0,2,5,85,11
5,2,15,1,2,0,2,5,101,11
5,2,13,1,3,0,2,5,88,11
5,2,11,1,4,0,2,5,88,11
5,2,18,1,5,1,2,5,85,11
5,2,1,0,5,1,2,5,85,11
5,2,9,1,6,1,2,5,88,11
5,2,21,0,6,1,2,5,73,11
5,2,9,1,0,0,2,5,88,11
5,2,21,0,1,0,2,5,73,11
5,2,20,1,1,0,2,5,85,11
5,2,11,1,2,0,2,5,88,11
5,2,15,1,2,0,2,5,88,11
5,2,3,0,3,0,2,5,85,11
5,2,2,0,4,0,2,5,85,11
5,2,2,0,5,1,2,5,85,11
5,2,21,0,5,1,2,5,85,11
5,2,23,0,6,1,2,5,85,11
5,2,20,1,6,1,2,5,85,11
5,2,12,1,0,0,2,5,62,11
5,2,23,0,1,0,2,5,31,11
5,2,5,0,2,0,2,5,85,11
5,2,2,0,2,0,2,5,32,11
5,2,17,1,2,0,2,5,88,11
5,2,1,0,3,0,2,5,62,11
5,2,22,0,4,0,2,5,88,11
5,2,5,0,5,1,2,5,17,11
5,2,19,1,6,1,2,5,88,11
5,2,21,0,6,1,2,5,101,11
5,2,22,0,6,1,2,5,101,11
5,2,23,0,0,0,2,5,101,11
5,2,19,1,2,0,2,5,88,11
5,2,13,1,2,0,2,5,1,11
5,2,18,1,2,0,2,5,88,11
5,2,15,1,3,0,2,5,88,11
5,2,16,1,3,0,2,5,101,11
6,3,12,1,6,1,2,5,88,11
6,3,2,0,1,0,2,5,70,11
6,3,23,0,1,0,2,5,101,11
6,3,21,0,1,0,2,5,88,11
6,3,18,1,1,0,2,5,88,11
6,3,23,0,2,0,2,5,88,11
6,3,20,1,2,0,2,5,88,11
6,3,0,0,2,0,2,5,101,11
6,3,12,1,3,0,2,5,88,11
6,3,18,1,3,0,2,5,10,11
6,3,19,1,3,0,2,5,88,11
6,3,21,0,4,0,2,5,88,11
6,3,15,1,5,1,2,5,88,9
6,3,11,1,6,1,2,5,101,11
6,3,10,1,6,1,2,5,85,11
6,3,3,0,0,0,2,5,70,11
6,3,11,1,0,0,2,5,73,11
6,3,1,0,1,0,2,5,101,11
6,3,12,1,1,0,2,5,88,11
6,3,0,0,2,0,2,5,21,11
6,3,10,1,3,0,2,5,88,11
6,3,9,1,3,0,2,5,17,11
6,3,18,1,4,0,2,5,88,11
6,3,20,1,4,0,2,5,85,11
6,3,11,1,4,0,2,5,17,11
6,3,11,1,4,0,2,5,17,11
6,3,2,0,5,1,2,5,88,11
6,3,11,1,6,1,2,5,88,11
6,3,20,1,0,0,2,5,88,11
6,3,5,0,0,0,2,5,88,11
6,3,22,0,0,0,2,5,88,11
6,3,4,0,1,0,2,5,88,11
6,3,2,0,1,0,2,5,88,11
6,3,0,0,2,0,2,5,85,11
6,3,11,1,2,0,2,5,126,11
6,3,23,0,3,0,2,5,126,11
6,3,2,0,3,0,2,5,85,11
6,3,17,1,3,0,2,5,88,11
6,3,10,1,5,1,2,5,88,11
6,3,16,1,6,1,2,5,101,11
6,3,9,1,6,1,2,5,88,11
6,3,23,0,0,0,2,5,88,11
6,3,23,0,0,0,2,5,126,11
6,3,11,1,0,0,2,5,101,11
6,3,21,0,1,0,2,5,88,11
6,3,11,1,1,0,2,5,88,11
6,3,21,0,2,0,2,5,88,11
6,3,6,0,3,0,2,5,88,11
6,3,1,0,3,0,2,5,88,11
6,3,3,0,4,0,2,5,17,11
6,3,17,1,4,0,2,5,88,11
6,3,11,1,4,0,2,5,88,11
6,3,17,1,5,1,2,5,88,11
6,3,14,1,5,1,2,5,88,11
6,3,7,1,5,1,2,5,73,11
6,3,9,1,5,1,2,5,88,11
6,3,0,0,5,1,2,5,88,11
7,3,19,1,0,0,3,5,54,11
7,3,21,0,0,0,3,5,88,11
7,3,23,0,1,0,3,5,88,11
7,3,4,0,1,0,3,5,17,11
7,3,17,1,1,0,3,5,88,11
7,3,12,1,1,0,3,5,88,11
7,3,15,1,2,0,3,5,88,11
7,3,2,0,3,0,3,5,88,11
7,3,20,1,3,0,3,5,88,11
7,3,22,0,4,0,3,5,88,11
7,3,14,1,6,1,3,5,88,11
7,3,23,0,0,0,3,5,88,11
7,3,14,1,0,0,3,5,88,8
7,3,16,1,0,0,3,5,7,9
7,3,4,0,1,0,3,5,85,11
7,3,14,1,1,0,3,5,105,9
7,3,18,1,1,0,3,5,88,11
7,3,12,1,1,0,3,5,88,9
7,3,14,1,1,0,3,5,88,11
7,3,20,1,2,0,3,5,88,11
7,3,11,1,2,0,3,5,88,11
7,3,12,1,3,0,3,5,73,11
7,3,11,1,3,0,3,5,88,11
7,3,21,0,3,0,3,5,88,11
7,3,13,1,3,0,3,5,88,11
7,3,1,0,4,0,3,5,88,11
7,3,14,1,4,0,3,5,85,11
7,3,13,1,4,0,3,5,85,11
7,3,23,0,4,0,3,5,85,11
7,3,18,1,5,1,3,5,88,11
7,3,15,1,5,1,3,5,88,11
7,3,4,0,6,1,3,5,17,11
7,3,12,1,0,0,3,5,85,11
7,3,2,0,1,0,3,5,17,11
7,3,20,1,1,0,3,5,85,11
7,3,17,1,1,0,3,5,85,11
7,3,12,1,1,0,3,5,62,11
7,3,11,1,1,0,3,5,101,11
7,3,11,1,2,0,3,5,88,11
7,3,18,1,3,0,3,5,101,11
7,3,4,0,4,0,3,5,70,11
7,3,1,0,5,1,3,5,101,11
7,3,11,1,6,1,3,5,76,11
7,3,15,1,6,1,3,5,85,11
7,3,20,1,0,0,3,5,38,11
7,3,15,1,1,0,3,5,88,11
7,3,19,1,2,0,3,5,85,11
7,3,11,1,3,0,3,5,88,11
7,3,0,0,3,0,3,5,85,11
7,3,20,1,3,0,3,5,85,11
7,3,22,0,3,0,3,5,122,11
7,3,14,1,4,0,3,5,85,11
7,3,0,0,4,0,3,5,126,11
7,3,2,0,5,1,3,5,85,11
7,3,11,1,6,1,3,5,88,11
7,3,23,0,6,1,3,5,85,9
7,3,21,0,6,1,3,5,88,11
7,3,20,1,6,1,3,5,85,11
7,3,19,1,6,1,3,5,85,11
7,3,15,1,6,1,3,5,88,8
7,3,21,0,0,0,3,5,88,11
7,3,14,1,0,0,3,5,101,11
7,3,15,1,0,0,3,5,88,11
7,3,16,1,0,0,3,5,85,8
7,3,19,1,1,0,3,5,101,11
7,3,18,1,1,0,3,5,85,11
7,3,12,1,1,0,3,5,88,11
7,3,14,1,2,0,3,5,88,11
8,3,6,0,3,0,3,5,126,11
8,3,12,1,3,0,3,5,85,11
8,3,9,1,4,0,3,5,88,8
8,3,12,1,5,1,3,5,88,11
8,3,19,1,5,1,3,5,88,11
8,3,9,1,6,1,3,5,101,11
8,3,20,1,6,1,3,5,88,11
8,3,18,1,6,1,3,5,88,11
8,3,5,0,0,0,3,5,70,11
8,3,15,1,1,0,3,5,88,11
8,3,21,0,1,0,3,5,88,11
8,3,20,1,2,0,3,5,88,11
8,3,13,1,3,0,3,5,62,11
8,3,21,0,3,0,3,5,85,11
8,3,12,1,3,0,3,5,88,11
8,3,15,1,4,0,3,5,88,11
8,3,0,0,5,1,3,5,85,11
8,3,22,0,5,1,3,5,88,11
8,3,21,0,5,1,3,5,88,11
8,3,13,1,5,1,3,5,88,11
8,3,9,1,5,1,3,5,88,11
8,3,2,0,5,1,3,5,85,11
8,3,0,0,5,1,3,5,88,11
8,3,6,0,6,1,3,5,88,11
8,3,11,1,0,0,3,5,73,11
8,3,21,0,0,0,3,5,88,11
8,3,19,1,0,0,3,5,88,11
8,3,13,1,0,0,3,5,88,11
8,3,13,1,0,0,3,5,70,11
8,3,6,0,1,0,3,5,101,11
8,3,1,0,1,0,3,5,88,11
8,3,12,1,1,0,3,5,88,11
8,3,5,0,2,0,3,5,101,11
8,3,18,1,2,0,3,5,54,11
8,3,12,1,3,0,3,5,101,11
8,3,12,1,6,1,3,5,101,11
8,3,2,0,1,0,3,5,88,11
8,3,23,0,2,0,3,5,101,11
8,3,17,1,3,0,3,5,88,11
8,3,21,0,3,0,3,5,88,11
8,3,10,1,4,0,3,5,88,11
8,3,17,1,6,1,3,5,6,11
8,3,9,1,0,0,3,5,62,8
8,3,16,1,0,0,3,5,88,11
8,3,10,1,0,0,3,5,88,11
8,3,16,1,1,0,3,5,101,11
8,3,17,1,2,0,3,5,88,11
8,3,17,1,4,0,3,5,88,11
8,3,13,1,4,0,3,5,101,11
8,3,22,0,5,1,3,5,88,9
8,3,6,0,5,1,3,5,88,8
9,4,16,1,0,0,3,5,88,11
9,4,18,1,0,0,3,5,88,11
9,4,11,1,1,0,3,5,88,11
9,4,12,1,1,0,3,5,85,11
9,4,5,0,2,0,3,5,88,11
9,4,22,0,3,0,3,5,85,11
9,4,1,0,4,0,3,5,88,11
9,4,0,0,4,0,3,5,101,11
9,4,21,0,4,0,3,5,101,11
9,4,17,1,4,0,3,5,88,9
9,4,8,1,4,0,3,5,17,11
9,4,22,0,4,0,3,5,101,11
9,4,19,1,4,0,3,5,88,11
9,4,3,0,5,1,3,5,125,11
9,4,1,0,5,1,3,5,88,11
9,4,22,0,6,1,3,5,88,11
9,4,16,1,6,1,3,5,101,11
9,4,12,1,6,1,3,5,101,11
9,4,13,1,6,1,3,5,88,11
9,4,16,1,0,0,3,5,88,11
9,4,23,0,0,0,3,5,126,11
9,4,22,0,1,0,3,5,88,11
9,4,21,0,1,0,3,5,88,11
9,4,23,0,1,0,3,5,85,11
9,4,11,1,2,0,3,5,73,11
9,4,22,0,2,0,3,5,40,11
9,4,17,1,2,0,3,5,17,11
9,4,14,1,2,0,3,5,88,8
9,4,20,1,3,0,3,5,101,11
9,4,12,1,3,0,3,5,53,9
9,4,16,1,3,0,3,5,86,11
9,4,14,1,3,0,3,5,101,11
9,4,11,1,3,0,3,5,88,11
9,4,7,1,5,1,3,5,88,8
9,4,20,1,5,1,3,5,101,11
9,4,20,1,5,1,3,5,88,11
9,4,19,1,6,1,3,5,88,11
9,4,7,1,0,0,3,5,101,11
9,4,21,0,0,0,3,5,88,11
9,4,19,1,0,0,3,5,101,11
9,4,12,1,1,0,3,5,101,11
9,4,13,1,2,0,3,5,101,11
9,4,21,0,4,0,3,5,88,11
9,4,21,0,4,0,3,5,85,11
9,4,22,0,4,0,3,5,85,11
9,4,0,0,5,1,3,5,88,11
9,4,11,1,5,1,3,5,34,11
9,4,14,1,5,1,3,5,70,11
9,4,1,0,6,1,3,5,88,11
9,4,11,1,6,1,3,5,88,11
9,4,15,1,6,1,3,5,101,11
9,4,17,1,6,1,3,5,88,11
9,4,18,1,6,1,3,5,88,11
9,4,23,0,6,1,3,5,101,11
9,4,21,0,6,1,3,5,88,11
9,4,22,0,0,0,3,5,88,11
9,4,10,1,0,0,3,5,17,11
9,4,19,1,1,0,3,5,73,11
9,4,13,1,1,0,3,5,88,11
9,4,4,0,5,1,3,5,17,11
9,4,17,1,5,1,3,5,54,11
10,4,17,1,1,0,4,5,17,11
10,4,0,0,2,0,4,5,101,11
10,4,11,1,2,0,4,5,88,11
10,4,22,0,2,0,4,5,73,11
10,4,18,1,6,1,4,5,101,11
10,4,17,1,6,1,4,5,88,11
10,4,8,1,6,1,4,5,101,11
10,4,13,1,0,0,4,5,88,11
10,4,14,1,2,0,4,5,88,11
10,4,15,1,4,0,4,5,62,11
10,4,10,1,6,1,4,5,73,8
10,4,13,1,6,1,4,5,101,11
10,4,22,0,0,0,4,5,101,11
10,4,21,0,0,0,4,5,101,11
10,4,21,0,0,0,4,5,101,11
10,4,18,1,1,0,4,5,85,11
10,4,23,0,2,0,4,5,101,11
10,4,12,1,3,0,4,5,59,8
10,4,0,0,4,0,4,5,101,11
10,4,13,1,6,1,4,5,88,11
10,4,6,0,1,0,4,5,101,11
10,4,16,1,2,0,4,5,88,11
10,4,6,0,3,0,4,5,101,11
10,4,21,0,3,0,4,5,101,11
10,4,3,0,4,0,4,5,17,11
10,4,6,0,5,1,4,5,88,11
10,4,11,1,6,1,4,5,85,11
10,4,23,0,6,1,4,5,101,11
10,4,17,1,6,1,4,5,88,11
10,4,14,1,6,1,4,5,101,11
10,4,10,1,6,1,4,5,101,11
10,4,0,0,0,0,4,5,95,11
10,4,10,1,2,0,4,5,101,11
11,4,11,1,4,0,4,5,49,11
11,4,18,1,5,1,4,5,101,11
11,4,17,1,5,1,4,5,88,11
11,4,14,1,5,1,4,5,88,11
11,4,13,1,5,1,4,5,101,11
11,4,22,0,6,1,4,5,101,11
11,4,14,1,6,1,4,5,101,11
11,4,11,1,6,1,4,5,101,11
11,4,5,0,6,1,4,5,101,11
11,4,20,1,1,0,4,5,101,11
11,4,13,1,1,0,4,5,101,11
11,4,19,1,2,0,4,5,17,11
11,4,23,0,3,0,4,5,101,11
11,4,8,1,3,0,4,5,88,11
11,4,6,0,6,1,4,5,85,11
11,4,16,1,0,0,4,5,88,11
11,4,21,0,1,0,4,5,101,11
11,4,20,1,2,0,4,5,101,11
11,4,16,1,2,0,4,5,62,11
11,4,17,1,3,0,4,5,101,11
11,4,0,0,4,0,4,5,88,11
11,4,10,1,6,1,4,5,88,11
11,4,12,1,6,1,4,5,38,11
11,4,23,0,6,1,4,5,17,11
11,4,21,0,1,0,4,5,17,11
11,4,14,1,2,0,4,5,88,11
11,4,17,1,4,0,4,5,88,11
11,4,22,0,5,1,4,5,101,11
11,4,18,1,5,1,4,5,88,11
11,4,15,1,2,0,4,5,12,11
11,4,15,1,3,0,4,5,85,11
11,4,19,1,4,0,4,5,17,11
11,4,15,1,5,1,4,5,62,11
11,4,14,1,5,1,4,5,101,11
11,4,11,1,5,1,4,5,101,11
11,4,9,1,5,1,4,5,88,11
11,4,4,0,5,1,4,5,101,11
12,1,22,0,6,1,4,5,73,11
12,1,11,1,6,1,4,5,101,11
12,1,14,1,0,0,4,5,62,11
12,1,9,1,0,0,4,5,88,11
12,1,14,1,0,0,4,5,101,11
12,1,19,1,1,0,4,5,101,11
12,1,1,0,6,1,4,5,88,11
12,1,4,0,6,1,4,5,17,11
12,1,7,1,6,1,4,5,88,11
12,1,18,1,0,0,4,5,101,11
12,1,17,1,0,0,4,5,88,11
12,1,0,0,4,0,4,5,101,11
12,1,14,1,4,0,4,5,101,11
12,1,20,1,0,0,4,5,95,11
12,1,22,0,1,0,4,5,101,11
12,1,18,1,1,0,4,5,88,11
12,1,3,0,5,1,4,5,101,11
12,1,18,1,2,0,4,5,101,11
12,1,21,0,3,0,4,5,73,11
12,1,1,0,4,0,4,5,88,11
12,1,9,1,4,0,4,5,62,11
12,1,20,1,5,1,4,5,54,11
12,1,19,1,6,1,4,5,38,11
12,1,2,0,0,0,4,5,38,11
1,1,17,1,1,0,1,5,85,11
1,1,12,1,1,0,1,5,85,11
1,1,3,0,2,0,1,5,85,11
1,1,14,1,2,0,1,5,85,11
1,1,15,1,5,1,1,5,62,11
1,1,11,1,6,1,1,5,85,11
1,1,13,1,6,1,1,5,62,11
1,1,23,0,0,0,1,5,62,11
1,1,16,1,2,0,1,5,85,11
1,1,12,1,3,0,1,5,62,11
1,1,17,1,6,1,1,5,38,11
1,1,20,1,0,0,1,5,7,11
1,1,20,1,0,0,1,5,62,11
1,1,1,0,2,0,1,5,85,11
1,1,13,1,3,0,1,5,62,11
1,1,21,0,3,0,1,5,124,11
1,1,17,1,1,0,1,5,73,11
1,1,23,0,4,0,1,5,62,11
1,1,7,1,5,1,1,5,85,11
1,1,12,1,6,1,1,5,62,11
1,1,20,1,1,0,1,5,38,11
1,1,18,1,1,0,1,5,85,11
1,1,3,0,3,0,1,5,45,8
2,1,11,1,4,0,1,5,85,11
2,1,10,1,6,1,1,5,38,11
2,1,15,1,3,0,1,5,21,11
2,1,1,0,6,1,1,5,85,11
2,1,3,0,6,1,1,5,1,11
2,1,23,0,6,1,1,5,85,11
2,1,18,1,0,0,1,5,85,11
2,1,8,1,0,0,1,5,62,11
2,1,14,1,1,0,1,5,85,11
2,1,11,1,2,0,1,5,38,11
2,1,19,1,2,0,1,5,62,11
2,1,17,1,2,0,1,5,62,11
2,1,19,1,6,1,1,5,85,11
2,1,10,1,6,1,1,5,85,11
2,1,5,0,6,1,1,5,85,11
2,1,20,1,1,0,1,5,62,11
2,1,22,0,2,0,1,5,85,11
2,1,10,1,4,0,1,5,85,11
2,1,19,1,4,0,1,5,62,11
2,1,13,1,4,0,1,5,85,11
2,1,18,1,6,1,1,5,85,11
2,1,10,1,2,0,1,5,85,11
2,1,9,1,3,0,1,5,85,11
3,2,16,1,4,0,1,5,62,11
3,2,14,1,6,1,1,5,38,11
3,2,11,1,0,0,1,5,54,11
3,2,22,0,4,0,1,5,126,11
3,2,18,1,5,1,1,5,21,11
3,2,1,0,2,0,1,5,73,9
3,2,17,1,2,0,1,5,73,9
3,2,9,1,2,0,1,5,85,11
3,2,22,0,5,1,1,5,45,11
3,2,13,1,6,1,1,5,62,11
3,2,23,0,1,0,1,5,7,11
3,2,13,1,2,0,1,5,38,11
3,2,5,0,6,1,1,5,85,11
3,2,11,1,0,0,1,5,85,11
3,2,17,1,5,1,1,5,95,11
3,2,18,1,6,1,1,5,38,11
4,2,13,1,4,0,2,5,54,11
4,2,12,1,0,0,2,5,106,11
4,2,20,1,2,0,2,5,61,11
4,2,21,0,6,1,2,5,79,11
4,2,5,0,0,0,2,5,21,11
4,2,18,1,2,0,2,5,85,11
4,2,17,1,2,0,2,5,62,11
4,2,0,0,4,0,2,5,126,11
4,2,21,0,0,0,2,5,62,11
4,2,0,0,2,0,2,5,98,11
4,2,3,0,6,1,2,5,62,11
4,2,3,0,6,1,2,5,62,11
4,2,17,1,0,0,2,5,62,11
4,2,11,1,0,0,2,5,101,11
4,2,2,0,1,0,2,5,95,11
4,2,1,0,1,0,2,5,85,11
4,2,10,1,1,0,2,5,38,11
4,2,14,1,1,0,2,5,62,11
4,2,18,1,1,0,2,5,85,11
5,2,0,0,2,0,2,5,85,11
5,2,21,0,3,0,2,5,95,11
5,2,13,1,5,1,2,5,62,11
5,2,13,1,5,1,2,5,62,11
5,2,2,0,0,0,2,5,54,11
5,2,10,1,5,1,2,5,12,11
5,2,19,1,5,1,2,5,12,11
5,2,1,0,0,0,2,5,85,11
5,2,4,0,0,0,2,5,116,11
5,2,9,1,0,0,2,5,54,11
5,2,22,0,1,0,2,5,17,11
5,2,9,1,4,0,2,5,62,11
5,2,1,0,0,0,2,5,32,11
5,2,12,1,0,0,2,5,124,11
5,2,9,1,2,0,2,5,38,11
5,2,20,1,1,0,2,5,95,11
5,2,4,0,3,0,2,5,85,11
5,2,22,0,4,0,2,5,31,11
6,3,1,0,6,1,2,5,17,11
6,3,12,1,0,0,2,5,62,11
6,3,5,0,1,0,2,5,85,11
6,3,21,0,2,0,2,5,88,11
6,3,17,1,2,0,2,5,17,11
6,3,21,0,3,0,2,5,85,11
6,3,18,1,5,1,2,5,85,11
6,3,10,1,6,1,2,5,17,11
6,3,15,1,0,0,2,5,62,11
6,3,9,1,2,0,2,5,62,11
6,3,16,1,4,0,2,5,62,8
6,3,2,0,2,0,2,5,85,11
6,3,21,0,6,1,2,5,77,11
6,3,12,1,6,1,2,5,62,11
6,3,7,1,2,0,2,5,62,11
6,3,0,0,4,0,2,5,85,11
7,3,23,0,1,0,3,5,1,11
7,3,0,0,2,0,3,5,85,11
7,3,9,1,3,0,3,5,62,11
7,3,7,1,3,0,3,5,56,11
7,3,22,0,0,0,3,5,61,11
7,3,14,1,1,0,3,5,62,11
7,3,0,0,2,0,3,5,85,11
7,3,2,0,5,1,3,5,74,11
7,3,19,1,1,0,3,5,62,11
7,3,4,0,3,0,3,5,85,11
7,3,9,1,5,1,3,5,62,8
7,3,13,1,6,1,3,5,85,11
7,3,22,0,1,0,3,5,85,11
7,3,11,1,2,0,3,5,62,11
7,3,2,0,3,0,3,5,85,11
7,3,15,1,2,0,3,5,62,11
8,3,11,1,3,0,3,5,38,8
8,3,22,0,4,0,3,5,38,11
8,3,19,1,4,0,3,5,62,11
8,3,5,0,0,0,3,5,12,11
8,3,5,0,1,0,3,5,62,11
8,3,17,1,2,0,3,5,62,11
8,3,17,1,3,0,3,5,110,11
8,3,10,1,3,0,3,5,88,11
8,3,16,1,5,1,3,5,85,11
8,3,12,1,6,1,3,5,85,11
8,3,4,0,6,1,3,5,85,11
8,3,14,1,0,0,3,5,88,11
8,3,16,1,1,0,3,5,38,11
8,3,16,1,1,0,3,5,73,11
8,3,4,0,1,0,3,5,54,11
8,3,11,1,4,0,3,5,85,11
8,3,20,1,1,0,3,5,62,11
8,3,4,0,3,0,3,5,45,11
8,3,17,1,4,0,3,5,85,11
9,4,23,0,6,1,3,5,62,11
9,4,21,0,0,0,3,5,62,11
9,4,20,1,1,0,3,5,62,11
9,4,20,1,2,0,3,5,85,11
9,4,13,1,3,0,3,5,62,9
9,4,5,0,4,0,3,5,85,11
9,4,1,0,6,1,3,5,85,11
9,4,16,1,0,0,3,5,54,8
9,4,3,0,1,0,3,5,70,11
9,4,4,0,2,0,3,5,73,11
9,4,3,0,3,0,3,5,62,11
9,4,11,1,3,0,3,5,16,11
9,4,9,1,3,0,3,5,73,11
9,4,14,1,4,0,3,5,85,11
9,4,1,0,5,1,3,5,85,11
9,4,1,0,6,1,3,5,7,11
9,4,17,1,6,1,3,5,85,11
9,4,12,1,0,0,3,5,17,11
9,4,21,0,4,0,3,5,85,11
9,4,17,1,5,1,3,5,85,11
9,4,19,1,6,1,3,5,85,11
9,4,4,0,0,0,3,5,85,11
10,4,21,0,5,1,4,5,85,11
10,4,18,1,5,1,4,5,85,11
10,4,15,1,0,0,4,5,73,11
10,4,12,1,2,0,4,5,62,11
10,4,22,0,3,0,4,5,61,11
10,4,8,1,3,0,4,5,85,11
10,4,21,0,5,1,4,5,61,11
10,4,2,0,5,1,4,5,85,11
11,4,2,0,2,0,4,5,85,11
11,4,0,0,3,0,4,5,62,11
11,4,11,1,3,0,4,5,54,11
11,4,2,0,0,0,4,5,17,11
11,4,3,0,0,0,4,5,85,11
11,4,14,1,0,0,4,5,62,11
11,4,13,1,2,0,4,5,17,11
11,4,3,0,3,0,4,5,45,11
11,4,19,1,4,0,4,5,62,11
11,4,18,1,6,1,4,5,85,11
11,4,22,0,0,0,4,5,85,11
11,4,22,0,0,0,4,5,38,11
11,4,1,0,2,0,4,5,17,11
11,4,21,0,2,0,4,5,85,11
11,4,3,0,5,1,4,5,54,11
12,1,16,1,6,1,4,5,38,11
12,1,17,1,0,0,4,5,85,11
12,1,23,0,5,1,4,5,85,11
12,1,12,1,6,1,4,5,85,11
12,1,4,0,1,0,4,5,69,8
12,1,8,1,2,0,4,5,62,11
12,1,21,0,3,0,4,5,62,11
12,1,3,0,3,0,4,5,62,11
12,1,0,0,6,1,4,5,45,11
12,1,18,1,0,0,4,5,17,11
12,1,21,0,2,0,4,5,73,11
12,1,21,0,3,0,4,5,62,11
12,1,7,1,3,0,4,5,62,11
12,1,17,1,6,1,4,5,73,11
12,1,11,1,3,0,4,5,85,11
12,1,4,0,3,0,4,5,73,8
12,1,16,1,5,1,4,5,62,11
12,1,14,1,6,1,4,5,85,11
12,1,21,0,1,0,4,5,62,11
1,1,22,0,2,0,1,5,73,8
1,1,4,0,3,0,1,5,62,11
1,1,1,0,3,0,1,5,62,11
1,1,19,1,3,0,1,5,126,11
1,1,19,1,4,0,1,5,62,11
1,1,21,0,5,1,1,5,62,11
1,1,18,1,5,1,1,5,126,11
1,1,10,1,0,0,1,5,126,11
1,1,15,1,0,0,1,5,126,11
1,1,17,1,1,0,1,5,109,11
1,1,14,1,1,0,1,5,126,11
1,1,8,1,2,0,1,5,101,11
1,1,18,1,2,0,1,5,126,11
1,1,13,1,3,0,1,5,62,11
1,1,19,1,5,1,1,5,1,11
1,1,0,0,1,0,1,5,17,11
1,1,18,1,5,1,1,5,126,11
1,1,2,0,1,0,1,5,126,11
1,1,16,1,2,0,1,5,58,11
1,1,18,1,3,0,1,5,17,11
1,1,14,1,4,0,1,5,62,11
1,1,15,1,5,1,1,5,101,11
1,1,11,1,2,0,1,5,126,11
1,1,20,1,2,0,1,5,62,11
2,1,0,0,6,1,1,5,126,11
2,1,0,0,6,1,1,5,17,11
2,1,13,1,3,0,1,5,107,11
2,1,2,0,4,0,1,5,38,11
2,1,12,1,4,0,1,5,6,11
2,1,18,1,6,1,1,5,109,11
2,1,10,1,5,1,1,5,126,11
2,1,18,1,5,1,1,5,126,11
2,1,20,1,2,0,1,5,126,11
2,1,7,1,2,0,1,5,17,11
2,1,20,1,3,0,1,5,126,11
2,1,11,1,5,1,1,5,126,11
2,1,15,1,6,1,1,5,38,11
2,1,20,1,0,0,1,5,126,11
2,1,19,1,0,0,1,5,62,11
2,1,18,1,0,0,1,5,126,11
2,1,13,1,1,0,1,5,126,11
2,1,8,1,2,0,1,5,126,11
2,1,16,1,3,0,1,5,17,11
2,1,1,0,3,0,1,5,62,11
3,2,1,0,4,0,1,5,126,11
3,2,10,1,4,0,1,5,17,11
3,2,22,0,4,0,1,5,62,11
3,2,17,1,2,0,1,5,126,11
3,2,18,1,2,0,1,5,73,11
3,2,8,1,3,0,1,5,62,11
3,2,2,0,5,1,1,5,126,11
3,2,2,0,6,1,1,5,62,11
3,2,15,1,0,0,1,5,126,11
3,2,13,1,0,0,1,5,62,11
3,2,23,0,1,0,1,5,88,11
3,2,9,1,4,0,1,5,62,11
3,2,15,1,0,0,1,5,88,11
3,2,6,0,2,0,1,5,7,11
3,2,1,0,3,0,1,5,17,9
3,2,12,1,5,1,1,5,86,11
4,2,4,0,4,0,2,5,95,11
4,2,6,0,5,1,2,5,109,11
4,2,12,1,6,1,2,5,17,11
4,2,20,1,0,0,2,5,95,11
4,2,18,1,3,0,2,5,88,11
4,2,17,1,1,0,2,5,85,11
4,2,2,0,4,0,2,5,85,11
4,2,3,0,2,0,2,5,85,11
4,2,15,1,3,0,2,5,17,8
4,2,13,1,6,1,2,5,101,11
4,2,19,1,6,1,2,5,101,11
4,2,3,0,6,1,2,5,62,11
4,2,13,1,6,1,2,5,101,11
4,2,13,1,6,1,2,5,101,11
4,2,21,0,1,0,2,5,95,11
5,2,18,1,5,1,2,5,62,11
5,2,22,0,6,1,2,5,95,11
5,2,13,1,3,0,2,5,88,11
5,2,3,0,5,1,2,5,101,11
5,2,2,0,6,1,2,5,11,11
5,2,4,0,6,1,2,5,55,11
5,2,17,1,6,1,2,5,54,11
5,2,23,0,0,0,2,5,95,11
5,2,16,1,0,0,2,5,101,11
5,2,8,1,1,0,2,5,70,11
5,2,6,0,3,0,2,5,95,11
5,2,13,1,3,0,2,5,62,11
5,2,8,1,4,0,2,5,44,11
5,2,0,0,5,1,2,5,40,11
5,2,6,0,5,1,2,5,40,11
5,2,12,1,5,1,2,5,85,11
5,2,1,0,0,0,2,5,116,11
5,2,20,1,4,0,2,5,85,11
5,2,7,1,4,0,2,5,101,11
5,2,13,1,5,1,2,5,109,11
5,2,3,0,6,1,2,5,17,11
5,2,1,0,0,0,2,5,85,11
5,2,15,1,2,0,2,5,62,11
5,2,9,1,3,0,2,5,95,11
5,2,11,1,3,0,2,5,4,11
5,2,10,1,3,0,2,5,62,11
6,3,10,1,5,1,2,5,88,11
6,3,0,0,1,0,2,5,17,11
6,3,3,0,2,0,2,5,88,11
6,3,11,1,3,0,2,5,54,11
6,3,23,0,4,0,2,5,47,11
6,3,19,1,0,0,2,5,54,11
6,3,19,1,1,0,2,5,88,11
6,3,16,1,5,1,2,5,62,11
6,3,10,1,5,1,2,5,101,11
6,3,13,1,4,0,2,5,88,11
6,3,10,1,2,0,2,5,101,11
6,3,21,0,2,0,2,5,17,11
6,3,17,1,4,0,2,5,17,11
7,3,15,1,0,0,3,5,95,11
7,3,14,1,2,0,3,5,17,11
7,3,2,0,5,1,3,5,12,11
7,3,3,0,5,1,3,5,17,11
7,3,15,1,2,0,3,5,62,8
7,3,21,0,5,1,3,5,17,11
7,3,19,1,5,1,3,5,85,11
7,3,11,1,6,1,3,5,54,8
7,3,1,0,4,0,3,5,17,11
7,3,9,1,4,0,3,5,17,11
7,3,12,1,6,1,3,5,62,9
7,3,12,1,0,0,3,5,95,11
7,3,0,0,1,0,3,5,76,11
8,3,13,1,4,0,3,5,62,11
8,3,12,1,5,1,3,5,85,11
8,3,22,0,0,0,3,5,85,11
8,3,7,1,1,0,3,5,73,11
8,3,11,1,1,0,3,5,99,8
8,3,4,0,2,0,3,5,17,11
8,3,20,1,2,0,3,5,88,11
8,3,2,0,3,0,3,5,73,11
8,3,7,1,4,0,3,5,101,11
8,3,16,1,6,1,3,5,54,11
8,3,16,1,1,0,3,5,17,11
8,3,20,1,1,0,3,5,88,11
8,3,1,0,2,0,3,5,15,8
8,3,17,1,2,0,3,5,17,11
8,3,23,0,4,0,3,5,6,11
8,3,21,0,5,1,3,5,101,11
8,3,20,1,5,1,3,5,47,11
9,4,18,1,2,0,3,5,95,11
9,4,10,1,2,0,3,5,62,11
9,4,12,1,3,0,3,5,111,11
9,4,13,1,5,1,3,5,47,11
9,4,13,1,1,0,3,5,62,11
9,4,14,1,2,0,3,5,101,11
9,4,7,1,3,0,3,5,111,11
9,4,13,1,4,0,3,5,88,11
9,4,12,1,4,0,3,5,95,11
9,4,11,1,4,0,3,5,62,11
9,4,16,1,6,1,3,5,50,11
9,4,17,1,4,0,3,5,85,11
9,4,10,1,5,1,3,5,88,11
9,4,3,0,5,1,3,5,85,11
9,4,9,1,1,0,3,5,62,11
9,4,12,1,2,0,3,5,88,11
9,4,23,0,4,0,3,5,81,11
10,4,17,1,3,0,4,5,85,11
10,4,18,1,4,0,4,5,62,11
10,4,17,1,5,1,4,5,62,11
10,4,2,0,6,1,4,5,101,11
10,4,2,0,6,1,4,5,101,11
10,4,0,0,2,0,4,5,62,11
10,4,10,1,6,1,4,5,85,11
10,4,5,0,6,1,4,5,17,11
10,4,18,1,0,0,4,5,56,11
10,4,0,0,1,0,4,5,6,11
10,4,23,0,1,0,4,5,85,11
10,4,16,1,1,0,4,5,6,11
10,4,2,0,4,0,4,5,38,9
10,4,14,1,0,0,4,5,88,11
10,4,12,1,0,0,4,5,54,11
10,4,20,1,3,0,4,5,85,11
10,4,14,1,3,0,4,5,88,11
11,4,19,1,6,1,4,5,85,11
11,4,11,1,2,0,4,5,88,11
11,4,22,0,0,0,4,5,98,11
11,4,7,1,3,0,4,5,99,8
11,4,23,0,6,1,4,5,62,11
11,4,7,1,0,0,4,5,62,9
12,1,8,1,2,0,4,5,88,11
12,1,9,1,3,0,4,5,88,11
12,1,11,1,4,0,4,5,88,11
12,1,20,1,4,0,4,5,55,11
12,1,0,0,5,1,4,5,17,11
12,1,12,1,5,1,4,5,85,11
12,1,22,0,6,1,4,5,85,9
12,1,19,1,0,0,4,5,88,11
12,1,13,1,2,0,4,5,54,8
12,1,12,1,2,0,4,5,73,11
12,1,15,1,2,0,4,5,88,11
12,1,13,1,4,0,4,5,85,11
12,1,11,1,5,1,4,5,38,11
12,1,21,0,6,1,4,5,62,11
12,1,3,0,0,0,4,5,17,11
12,1,18,1,1,0,4,5,101,11
12,1,5,0,3,0,4,5,62,11
12,1,16,1,6,1,4,5,38,11
12,1,16,1,0,0,4,5,62,11
1,1,2,0,1,0,1,5,62,11
1,1,9,1,1,0,1,5,85,11
1,1,2,0,2,0,1,5,85,11
1,1,15,1,2,0,1,5,85,11
1,1,16,1,2,0,1,5,62,11
1,1,21,0,2,0,1,5,85,11
1,1,17,1,3,0,1,5,62,11
1,1,2,0,4,0,1,5,62,11
1,1,13,1,4,0,1,5,55,11
1,1,13,1,4,0,1,5,62,11
1,1,13,1,5,1,1,5,85,11
1,1,16,1,5,1,1,5,73,11
1,1,17,1,5,1,1,5,88,11
1,1,20,1,5,1,1,5,105,9
1,1,19,1,6,1,1,5,85,11
1,1,22,0,6,1,1,5,62,11
1,1,1,0,0,0,1,5,70,11
1,1,22,0,0,0,1,5,85,11
1,1,7,1,1,0,1,5,62,11
1,1,21,0,1,0,1,5,70,8
1,1,13,1,1,0,1,5,62,11
1,1,14,1,1,0,1,5,62,11
1,1,2,0,1,0,1,5,62,11
1,1,21,0,1,0,1,5,70,11
1,1,0,0,2,0,1,5,62,11
1,1,7,1,3,0,1,5,109,11
1,1,14,1,3,0,1,5,101,11
1,1,18,1,3,0,1,5,38,11
1,1,8,1,4,0,1,5,62,11
1,1,15,1,4,0,1,5,62,11
1,1,4,0,6,1,1,5,101,11
1,1,4,0,6,1,1,5,101,11
1,1,4,0,6,1,1,5,101,11
1,1,5,0,6,1,1,5,101,11
1,1,4,0,6,1,1,5,101,11
1,1,13,1,6,1,1,5,73,11
1,1,21,0,6,1,1,5,62,11
1,1,13,1,1,0,1,5,101,11
1,1,19,1,1,0,1,5,45,11
1,1,15,1,1,0,1,5,101,11
1,1,18,1,2,0,1,5,62,11
1,1,12,1,2,0,1,5,1,11
1,1,11,1,2,0,1,5,109,11
1,1,17,1,2,0,1,5,73,11
1,1,22,0,2,0,1,5,109,11
1,1,17,1,2,0,1,5,101,11
1,1,13,1,3,0,1,5,62,11
1,1,8,1,3,0,1,5,85,11
1,1,9,1,4,0,1,5,43,11
1,1,20,1,4,0,1,5,120,11
1,1,9,1,5,1,1,5,101,11
1,1,7,1,5,1,1,5,73,11
1,1,11,1,5,1,1,5,88,11
1,1,17,1,6,1,1,5,85,11
1,1,5,0,0,0,1,5,85,11
1,1,18,1,0,0,1,5,85,11
1,1,21,0,0,0,1,5,101,11
1,1,18,1,3,0,1,5,95,11
1,1,10,1,4,0,1,5,95,11
1,1,18,1,4,0,1,5,62,11
1,1,11,1,4,0,1,5,62,11
1,1,12,1,4,0,1,5,62,9
1,1,3,0,6,1,1,5,62,11
1,1,0,0,0,0,1,5,62,11
1,1,23,0,0,0,1,5,6,11
1,1,20,1,0,0,1,5,62,11
1,1,18,1,0,0,1,5,101,11
1,1,14,1,0,0,1,5,6,9
1,1,18,1,0,0,1,5,62,11
1,1,17,1,2,0,1,5,62,9
1,1,14,1,3,0,1,5,61,11
1,1,16,1,3,0,1,5,62,11
2,1,22,0,4,0,1,5,62,11
2,1,7,1,5,1,1,5,101,11
2,1,21,0,6,1,1,5,62,11
2,1,21,0,0,0,1,5,62,11
2,1,19,1,1,0,1,5,73,11
2,1,2,0,4,0,1,5,116,11
2,1,1,0,5,1,1,5,101,11
2,1,1,0,5,1,1,5,101,11
2,1,21,0,5,1,1,5,38,11
2,1,20,1,5,1,1,5,62,11
2,1,14,1,6,1,1,5,62,11
2,1,16,1,6,1,1,5,101,11
2,1,10,1,6,1,1,5,101,11
2,1,15,1,0,0,1,5,17,11
2,1,18,1,1,0,1,5,6,11
2,1,19,1,3,0,1,5,38,11
2,1,19,1,3,0,1,5,62,11
2,1,8,1,5,1,1,5,124,11
2,1,18,1,5,1,1,5,109,11
2,1,8,1,5,1,1,5,124,11
2,1,10,1,6,1,1,5,101,11
2,1,18,1,6,1,1,5,101,11
2,1,19,1,6,1,1,5,62,11
2,1,20,1,6,1,1,5,62,11
2,1,16,1,0,0,1,5,73,11
2,1,1,0,0,0,1,5,85,11
2,1,19,1,1,0,1,5,73,11
2,1,12,1,4,0,1,5,17,11
2,1,12,1,5,1,1,5,62,11
2,1,15,1,5,1,1,5,101,11
2,1,17,1,6,1,1,5,62,11
2,1,11,1,6,1,1,5,101,11
2,1,14,1,6,1,1,5,6,11
2,1,20,1,6,1,1,5,62,11
2,1,10,1,6,1,1,5,85,11
2,1,14,1,0,0,1,5,17,11
2,1,10,1,0,0,1,5,101,11
2,1,13,1,0,0,1,5,101,11
2,1,22,0,1,0,1,5,6,11
2,1,15,1,1,0,1,5,98,11
2,1,10,1,2,0,1,5,62,11
2,1,21,0,2,0,1,5,7,11
2,1,22,0,3,0,1,5,62,11
2,1,21,0,3,0,1,5,62,11
2,1,21,0,3,0,1,5,62,11
3,2,4,0,4,0,1,5,17,11
3,2,6,0,4,0,1,5,73,11
3,2,13,1,4,0,1,5,62,11
3,2,23,0,5,1,1,5,62,11
3,2,16,1,5,1,1,5,101,11
3,2,11,1,6,1,1,5,62,11
3,2,19,1,6,1,1,5,85,11
3,2,20,1,6,1,1,5,7,11
3,2,8,1,0,0,1,5,73,11
3,2,16,1,1,0,1,5,62,11
3,2,12,1,2,0,1,5,38,11
3,2,15,1,2,0,1,5,62,11
3,2,18,1,2,0,1,5,62,11
3,2,20,1,2,0,1,5,62,11
3,2,7,1,2,0,1,5,62,11
3,2,14,1,3,0,1,5,62,11
3,2,16,1,3,0,1,5,62,11
3,2,13,1,4,0,1,5,17,11
3,2,19,1,4,0,1,5,73,11
3,2,18,1,4,0,1,5,17,11
3,2,22,0,5,1,1,5,88,11
3,2,23,0,6,1,1,5,98,11
3,2,8,1,6,1,1,5,17,11
3,2,0,0,0,0,1,5,62,11
3,2,16,1,2,0,1,5,54,8
3,2,18,1,2,0,1,5,62,11
3,2,12,1,3,0,1,5,62,11
3,2,18,1,4,0,1,5,45,11
3,2,0,0,4,0,1,5,17,11
3,2,23,0,4,0,1,5,17,11
3,2,1,0,5,1,1,5,73,11
3,2,23,0,5,1,1,5,17,11
3,2,14,1,6,1,1,5,62,11
3,2,21,0,6,1,1,5,62,11
3,2,17,1,0,0,1,5,73,11
3,2,14,1,0,0,1,5,3,11
3,2,14,1,1,0,1,5,73,11
3,2,11,1,3,0,1,5,73,11
3,2,23,0,3,0,1,5,88,11
3,2,10,1,4,0,1,5,125,11
3,2,21,0,5,1,1,5,37,9
3,2,21,0,5,1,1,5,86,11
3,2,9,1,6,1,1,5,62,11
3,2,20,1,6,1,1,5,62,11
3,2,13,1,0,0,1,5,62,11
3,2,18,1,1,0,1,5,73,11
3,2,16,1,2,0,1,5,62,11
3,2,20,1,2,0,1,5,73,11
3,2,2,0,4,0,1,5,85,11
3,2,19,1,4,0,1,5,62,11
3,2,4,0,5,1,1,5,17,11
3,2,10,1,5,1,1,5,88,11
3,2,18,1,5,1,1,5,62,11
3,2,22,0,6,1,1,5,62,11
4,2,11,1,1,0,2,5,73,11
4,2,12,1,1,0,2,5,62,11
4,2,13,1,2,0,2,5,88,11
4,2,20,1,2,0,2,5,13,11
4,2,8,1,3,0,2,5,18,11
4,2,13,1,3,0,2,5,6,11
4,2,14,1,3,0,2,5,62,11
4,2,18,1,3,0,2,5,88,11
4,2,15,1,4,0,2,5,73,11
4,2,5,0,4,0,2,5,63,11
4,2,3,0,5,1,2,5,17,11
4,2,13,1,5,1,2,5,6,11
4,2,22,0,6,1,2,5,117,11
4,2,18,1,6,1,2,5,88,11
4,2,6,0,3,0,2,5,85,11
4,2,21,0,3,0,2,5,62,11
4,2,7,1,5,1,2,5,17,11
4,2,21,0,0,0,2,5,62,11
4,2,23,0,1,0,2,5,62,11
4,2,10,1,1,0,2,5,62,11
4,2,2,0,2,0,2,5,18,11
4,2,16,1,3,0,2,5,101,11
4,2,10,1,5,1,2,5,62,11
4,2,23,0,5,1,2,5,17,11
4,2,1,0,0,0,2,5,101,11
4,2,20,1,1,0,2,5,101,11
4,2,7,1,1,0,2,5,88,11
4,2,20,1,3,0,2,5,101,11
4,2,9,1,3,0,2,5,62,11
4,2,19,1,5,1,2,5,86,11
4,2,19,1,5,1,2,5,62,11
4,2,13,1,5,1,2,5,88,11
4,2,7,1,6,1,2,5,38,9
4,2,3,0,6,1,2,5,62,11
4,2,4,0,6,1,2,5,7,11
4,2,5,0,6,1,2,5,62,11
4,2,20,1,6,1,2,5,101,11
4,2,22,0,6,1,2,5,106,11
4,2,1,0,1,0,2,5,85,11
5,2,18,1,2,0,2,5,88,11
5,2,10,1,4,0,2,5,62,11
5,2,22,0,4,0,2,5,6,11
5,2,1,0,5,1,2,5,17,11
5,2,12,1,5,1,2,5,17,11
5,2,0,0,6,1,2,5,32,11
5,2,16,1,6,1,2,5,17,11
5,2,22,0,6,1,2,5,62,11
5,2,5,0,6,1,2,5,85,11
5,2,18,1,0,0,2,5,85,11
5,2,14,1,0,0,2,5,6,11
5,2,13,1,1,0,2,5,43,11
5,2,16,1,1,0,2,5,1,11
5,2,0,0,3,0,2,5,17,11
5,2,18,1,4,0,2,5,86,11
5,2,9,1,6,1,2,5,73,11
5,2,3,0,6,1,2,5,101,11
5,2,2,0,6,1,2,5,101,11
5,2,13,1,6,1,2,5,1,11
5,2,17,1,6,1,2,5,62,11
5,2,4,0,0,0,2,5,62,11
5,2,19,1,0,0,2,5,6,11
5,2,2,0,2,0,2,5,101,11
5,2,11,1,2,0,2,5,62,11
5,2,20,1,4,0,2,5,61,11
5,2,2,0,5,1,2,5,101,11
5,2,2,0,5,1,2,5,101,11
5,2,2,0,5,1,2,5,101,11
5,2,5,0,5,1,2,5,101,11
5,2,16,1,6,1,2,5,54,11
5,2,7,1,6,1,2,5,74,11
5,2,22,0,0,0,2,5,62,11
5,2,1,0,0,0,2,5,32,11
5,2,6,0,0,0,2,5,73,11
5,2,11,1,1,0,2,5,17,11
5,2,16,1,1,0,2,5,1,11
5,2,16,1,3,0,2,5,17,11
5,2,22,0,4,0,2,5,101,11
5,2,5,0,5,1,2,5,101,11
5,2,2,0,5,1,2,5,101,11
5,2,23,0,5,1,2,5,54,11
5,2,16,1,5,1,2,5,62,11
5,2,11,1,6,1,2,5,109,11
5,2,18,1,6,1,2,5,1,11
5,2,23,0,6,1,2,5,109,11
5,2,21,0,6,1,2,5,95,11
5,2,0,0,0,0,2,5,101,11
5,2,20,1,1,0,2,5,17,11
5,2,23,0,1,0,2,5,73,11
5,2,23,0,1,0,2,5,31,11
5,2,7,1,1,0,2,5,73,11
5,2,9,1,1,0,2,5,62,11
5,2,1,0,3,0,2,5,62,11
5,2,19,1,3,0,2,5,73,11
6,3,23,0,5,1,2,5,85,11
6,3,5,0,5,1,2,5,101,11
6,3,22,0,5,1,2,5,85,11
6,3,21,0,6,1,2,5,88,11
6,3,13,1,1,0,2,5,17,11
6,3,12,1,2,0,2,5,109,11
6,3,15,1,2,0,2,5,101,11
6,3,11,1,3,0,2,5,6,11
6,3,18,1,3,0,2,5,62,11
6,3,17,1,4,0,2,5,37,11
6,3,11,1,4,0,2,5,95,11
6,3,23,0,4,0,2,5,101,11
6,3,5,0,5,1,2,5,62,11
6,3,7,1,5,1,2,5,98,11
6,3,12,1,5,1,2,5,109,11
6,3,0,0,6,1,2,5,62,11
6,3,0,0,0,0,2,5,101,11
6,3,17,1,1,0,2,5,62,11
6,3,17,1,1,0,2,5,62,11
6,3,23,0,2,0,2,5,85,11
6,3,23,0,2,0,2,5,85,11
6,3,9,1,3,0,2,5,73,11
6,3,20,1,3,0,2,5,61,11
6,3,13,1,3,0,2,5,111,11
6,3,0,0,4,0,2,5,62,11
6,3,20,1,4,0,2,5,95,11
6,3,15,1,5,1,2,5,17,11
6,3,15,1,5,1,2,5,31,11
6,3,22,0,5,1,2,5,62,11
6,3,11,1,6,1,2,5,88,11
6,3,12,1,0,0,2,5,62,11
6,3,16,1,1,0,2,5,6,11
6,3,9,1,3,0,2,5,73,11
6,3,7,1,3,0,2,5,101,11
6,3,14,1,5,1,2,5,95,11
6,3,22,0,6,1,2,5,62,11
6,3,22,0,6,1,2,5,7,11
6,3,21,0,6,1,2,5,85,11
6,3,12,1,0,0,2,5,109,11
6,3,19,1,1,0,2,5,80,11
6,3,20,1,1,0,2,5,85,11
6,3,2,0,1,0,2,5,88,11
6,3,11,1,1,0,2,5,62,11
6,3,13,1,2,0,2,5,1,11
6,3,19,1,2,0,2,5,62,11
6,3,13,1,2,0,2,5,88,9
6,3,17,1,3,0,2,5,62,11
6,3,8,1,4,0,2,5,88,11
6,3,16,1,4,0,2,5,98,11
6,3,12,1,5,1,2,5,62,11
6,3,16,1,5,1,2,5,45,11
6,3,3,0,5,1,2,5,101,11
6,3,5,0,5,1,2,5,17,11
6,3,2,0,6,1,2,5,88,11
7,3,16,1,0,0,3,5,85,11
7,3,15,1,1,0,3,5,17,11
7,3,16,1,1,0,3,5,17,11
7,3,20,1,1,0,3,5,101,11
7,3,15,1,2,0,3,5,101,11
7,3,12,1,3,0,3,5,37,11
7,3,22,0,3,0,3,5,38,11
7,3,23,0,3,0,3,5,62,11
7,3,14,1,4,0,3,5,54,11
7,3,12,1,5,1,3,5,17,11
7,3,23,0,5,1,3,5,31,11
7,3,9,1,5,1,3,5,37,9
7,3,7,1,6,1,3,5,88,11
7,3,0,0,0,0,3,5,101,11
7,3,15,1,0,0,3,5,6,11
7,3,12,1,2,0,3,5,101,11
7,3,21,0,3,0,3,5,17,11
7,3,0,0,4,0,3,5,101,11
7,3,0,0,4,0,3,5,62,11
7,3,19,1,6,1,3,5,62,9
7,3,10,1,6,1,3,5,85,11
7,3,13,1,6,1,3,5,62,11
7,3,3,0,0,0,3,5,73,9
7,3,13,1,3,0,3,5,85,11
7,3,3,0,4,0,3,5,85,11
7,3,15,1,4,0,3,5,85,11
7,3,19,1,4,0,3,5,45,11
7,3,19,1,5,1,3,5,85,11
7,3,23,0,5,1,3,5,85,11
7,3,12,1,5,1,3,5,62,11
7,3,21,0,5,1,3,5,45,11
7,3,23,0,6,1,3,5,85,11
7,3,4,0,0,0,3,5,70,11
7,3,19,1,0,0,3,5,85,11
7,3,9,1,1,0,3,5,88,11
7,3,12,1,2,0,3,5,88,11
7,3,2,0,3,0,3,5,70,11
7,3,12,1,3,0,3,5,126,11
7,3,20,1,6,1,3,5,85,11
7,3,18,1,6,1,3,5,88,8
7,3,12,1,1,0,3,5,85,11
8,3,4,0,3,0,3,5,54,9
8,3,14,1,3,0,3,5,88,9
8,3,17,1,5,1,3,5,85,11
8,3,1,0,6,1,3,5,126,11
8,3,19,1,2,0,3,5,126,11
8,3,14,1,2,0,3,5,126,11
8,3,13,1,3,0,3,5,88,11
8,3,18,1,5,1,3,5,85,9
8,3,19,1,5,1,3,5,85,9
8,3,20,1,5,1,3,5,85,11
8,3,4,0,6,1,3,5,85,11
8,3,5,0,6,1,3,5,88,11
8,3,6,0,6,1,3,5,101,8
8,3,20,1,0,0,3,5,88,11
8,3,0,0,1,0,3,5,101,11
8,3,22,0,3,0,3,5,73,11
8,3,9,1,4,0,3,5,85,11
8,3,11,1,4,0,3,5,62,9
8,3,1,0,6,1,3,5,62,11
8,3,3,0,6,1,3,5,38,11
8,3,4,0,0,0,3,5,88,9
8,3,16,1,1,0,3,5,12,9
8,3,9,1,1,0,3,5,88,9
8,3,2,0,2,0,3,5,95,11
8,3,21,0,3,0,3,5,88,11
8,3,10,1,4,0,3,5,62,11
8,3,2,0,6,1,3,5,17,11
8,3,3,0,6,1,3,5,85,11
8,3,22,0,6,1,3,5,54,11
8,3,20,1,0,0,3,5,62,11
8,3,8,1,1,0,3,5,88,11
8,3,21,0,1,0,3,5,62,11
8,3,17,1,2,0,3,5,38,11
8,3,0,0,3,0,3,5,73,11
8,3,3,0,3,0,3,5,85,11
8,3,11,1,3,0,3,5,62,11
8,3,13,1,3,0,3,5,126,11
8,3,13,1,4,0,3,5,62,11
8,3,16,1,4,0,3,5,101,11
8,3,23,0,5,1,3,5,85,11
8,3,17,1,5,1,3,5,70,9
8,3,21,0,5,1,3,5,62,11
9,4,8,1,0,0,3,5,74,11
9,4,3,0,0,0,3,5,7,9
9,4,22,0,1,0,3,5,7,11
9,4,16,1,2,0,3,5,88,11
9,4,11,1,2,0,3,5,73,11
9,4,15,1,3,0,3,5,85,11
9,4,12,1,3,0,3,5,17,11
9,4,9,1,4,0,3,5,95,11
9,4,13,1,4,0,3,5,88,11
9,4,23,0,0,0,3,5,85,11
9,4,16,1,3,0,3,5,61,11
9,4,14,1,4,0,3,5,85,11
9,4,14,1,4,0,3,5,88,11
9,4,23,0,5,1,3,5,85,11
9,4,13,1,5,1,3,5,17,11
9,4,14,1,6,1,3,5,62,11
9,4,18,1,6,1,3,5,88,11
9,4,5,0,6,1,3,5,62,11
9,4,12,1,0,0,3,5,62,11
9,4,15,1,2,0,3,5,101,11
9,4,4,0,2,0,3,5,126,11
9,4,1,0,5,1,3,5,62,11
9,4,12,1,6,1,3,5,62,11
9,4,18,1,0,0,3,5,21,11
9,4,21,0,0,0,3,5,88,11
9,4,8,1,0,0,3,5,62,11
9,4,15,1,1,0,3,5,109,11
9,4,11,1,2,0,3,5,86,11
9,4,3,0,3,0,3,5,17,11
9,4,14,1,4,0,3,5,73,11
10,4,1,0,1,0,4,5,85,11
10,4,15,1,2,0,4,5,62,11
10,4,12,1,4,0,4,5,124,9
10,4,20,1,4,0,4,5,85,11
10,4,2,0,5,1,4,5,85,11
10,4,13,1,6,1,4,5,85,11
10,4,4,0,3,0,4,5,85,11
10,4,11,1,4,0,4,5,85,11
10,4,6,0,6,1,4,5,85,11
10,4,9,1,0,0,4,5,62,11
10,4,12,1,6,1,4,5,62,11
10,4,17,1,0,0,4,5,62,11
10,4,10,1,1,0,4,5,28,11
10,4,14,1,1,0,4,5,101,11
10,4,22,0,1,0,4,5,95,11
10,4,1,0,1,0,4,5,85,11
10,4,8,1,2,0,4,5,7,11
10,4,15,1,2,0,4,5,85,11
10,4,19,1,5,1,4,5,101,11
10,4,4,0,5,1,4,5,62,11
10,4,11,1,5,1,4,5,101,11
10,4,1,0,6,1,4,5,85,11
10,4,21,0,6,1,4,5,45,11
10,4,1,0,6,1,4,5,17,11
10,4,1,0,6,1,4,5,95,11
10,4,20,1,0,0,4,5,62,11
10,4,20,1,0,0,4,5,101,11
10,4,0,0,1,0,4,5,61,11
10,4,11,1,1,0,4,5,101,11
10,4,18,1,1,0,4,5,21,11
10,4,18,1,3,0,4,5,85,11
10,4,18,1,3,0,4,5,85,11
10,4,16,1,3,0,4,5,88,11
10,4,14,1,3,0,4,5,95,11
11,4,20,1,5,1,4,5,62,11
11,4,19,1,2,0,4,5,17,11
11,4,9,1,3,0,4,5,85,11
11,4,2,0,5,1,4,5,17,11
11,4,1,0,6,1,4,5,85,11
11,4,21,0,0,0,4,5,17,11
11,4,19,1,2,0,4,5,1,11
11,4,3,0,4,0,4,5,17,11
11,4,1,0,6,1,4,5,62,8
11,4,16,1,0,0,4,5,1,11
11,4,14,1,0,0,4,5,17,11
11,4,16,1,1,0,4,5,85,11
11,4,15,1,4,0,4,5,73,11
11,4,4,0,5,1,4,5,74,11
11,4,11,1,6,1,4,5,109,11
11,4,19,1,6,1,4,5,1,11
11,4,13,1,1,0,4,5,17,11
11,4,18,1,3,0,4,5,85,11
11,4,10,1,5,1,4,5,17,11
11,4,13,1,5,1,4,5,120,11
12,1,3,0,6,1,4,5,85,11
12,1,15,1,0,0,4,5,17,9
12,1,22,0,2,0,4,5,73,11
12,1,18,1,3,0,4,5,73,11
12,1,22,0,3,0,4,5,62,11
12,1,16,1,4,0,4,5,126,11
12,1,14,1,4,0,4,5,126,11
12,1,20,1,5,1,4,5,62,11
12,1,18,1,5,1,4,5,126,11
12,1,20,1,5,1,4,5,73,11
12,1,17,1,5,1,4,5,62,11
12,1,18,1,6,1,4,5,1,11
12,1,16,1,6,1,4,5,17,11
12,1,14,1,6,1,4,5,88,11
12,1,15,1,0,0,4,5,1,11
12,1,16,1,2,0,4,5,62,11
12,1,2,0,3,0,4,5,62,11
12,1,22,0,4,0,4,5,73,9
12,1,19,1,4,0,4,5,62,11
12,1,22,0,4,0,4,5,59,11
12,1,11,1,4,0,4,5,38,11
12,1,14,1,6,1,4,5,85,11
12,1,3,0,6,1,4,5,85,11
12,1,20,1,0,0,4,5,85,11
12,1,18,1,0,0,4,5,85,11
12,1,15,1,0,0,4,5,85,11
12,1,17,1,2,0,4,5,62,11
12,1,16,1,3,0,4,5,77,11
12,1,15,1,3,0,4,5,88,11
12,1,19,1,5,1,4,5,73,11
12,1,11,1,2,0,4,5,126,11
12,1,20,1,2,0,4,5,62,11
12,1,17,1,3,0,4,5,73,11
12,1,3,0,4,0,4,5,61,11
12,1,22,0,4,0,4,5,62,11
12,1,19,1,5,1,4,5,85,11
12,1,18,1,5,1,4,5,62,11
12,1,19,1,6,1,4,5,88,11
12,1,13,1,6,1,4,5,62,11
12,1,21,0,0,0,4,5,62,11
12,1,20,1,1,0,4,5,126,11
1,1,23,0,1,0,1,5,101,11
1,1,14,1,2,0,1,5,126,11
1,1,13,1,3,0,1,5,126,11
1,1,0,0,5,1,1,5,126,11
1,1,23,0,1,0,1,5,126,11
1,1,21,0,3,0,1,5,126,11
1,1,6,0,4,0,1,5,70,11
1,1,14,1,4,0,1,5,70,11
1,1,16,1,6,1,1,5,126,11
1,1,4,0,6,1,1,5,125,11
1,1,19,1,0,0,1,5,126,11
1,1,0,0,2,0,1,5,70,11
1,1,14,1,2,0,1,5,86,11
1,1,21,0,2,0,1,5,62,11
1,1,19,1,2,0,1,5,86,11
1,1,20,1,3,0,1,5,70,11
1,1,17,1,3,0,1,5,126,11
1,1,13,1,3,0,1,5,70,11
1,1,0,0,4,0,1,5,70,11
1,1,18,1,2,0,1,5,62,11
1,1,4,0,2,0,1,5,62,11
1,1,11,1,3,0,1,5,126,11
1,1,18,1,5,1,1,5,38,11
1,1,12,1,6,1,1,5,95,11
1,1,16,1,6,1,1,5,6,11
1,1,19,1,0,0,1,5,126,11
1,1,20,1,0,0,1,5,70,11
1,1,15,1,2,0,1,5,70,11
1,1,1,0,3,0,1,5,70,11
1,1,21,0,3,0,1,5,126,11
2,1,5,0,4,0,1,5,70,11
2,1,17,1,6,1,1,5,126,11
2,1,2,0,6,1,1,5,70,11
2,1,22,0,1,0,1,5,70,11
2,1,14,1,2,0,1,5,73,11
2,1,2,0,4,0,1,5,70,11
2,1,20,1,4,0,1,5,62,11
2,1,22,0,6,1,1,5,126,11
2,1,5,0,6,1,1,5,126,11
2,1,16,1,0,0,1,5,88,11
2,1,14,1,1,0,1,5,88,11
2,1,23,0,2,0,1,5,70,11
2,1,18,1,2,0,1,5,54,11
2,1,13,1,2,0,1,5,126,11
2,1,13,1,3,0,1,5,61,11
2,1,3,0,5,1,1,5,126,11
2,1,13,1,6,1,1,5,126,11
2,1,12,1,6,1,1,5,85,11
2,1,8,1,2,0,1,5,101,11
2,1,21,0,3,0,1,5,126,11
2,1,12,1,3,0,1,5,88,11
2,1,0,0,4,0,1,5,126,11
2,1,21,0,4,0,1,5,62,11
2,1,15,1,5,1,1,5,62,11
2,1,3,0,5,1,1,5,70,11
2,1,8,1,6,1,1,5,85,11
2,1,9,1,6,1,1,5,73,11
2,1,17,1,6,1,1,5,62,11
2,1,20,1,2,0,1,5,126,11
2,1,15,1,3,0,1,5,126,11
3,2,17,1,4,0,1,5,73,11
3,2,19,1,5,1,1,5,126,11
3,2,19,1,5,1,1,5,95,11
3,2,21,0,5,1,1,5,126,11
3,2,8,1,6,1,1,5,126,11
3,2,11,1,6,1,1,5,88,11
3,2,6,0,0,0,1,5,70,11
3,2,6,0,0,0,1,5,70,9
3,2,12,1,0,0,1,5,38,11
3,2,19,1,1,0,1,5,109,11
3,2,5,0,1,0,1,5,70,11
3,2,18,1,3,0,1,5,88,11
3,2,11,1,4,0,1,5,6,11
3,2,19,1,5,1,1,5,61,11
3,2,13,1,5,1,1,5,126,11
3,2,10,1,5,1,1,5,62,11
3,2,18,1,6,1,1,5,126,11
3,2,4,0,0,0,1,5,54,11
3,2,1,0,0,0,1,5,88,11
3,2,16,1,2,0,1,5,38,11
3,2,8,1,3,0,1,5,70,9
3,2,16,1,4,0,1,5,95,11
3,2,18,1,6,1,1,5,62,11
3,2,20,1,6,1,1,5,88,9
3,2,20,1,6,1,1,5,88,11
3,2,19,1,6,1,1,5,88,11
3,2,0,0,6,1,1,5,126,11
3,2,18,1,0,0,1,5,126,11
3,2,19,1,0,0,1,5,88,11
3,2,17,1,0,0,1,5,125,11
3,2,13,1,1,0,1,5,62,11
3,2,11,1,2,0,1,5,88,11
3,2,13,1,2,0,1,5,70,11
3,2,12,1,3,0,1,5,88,11
3,2,13,1,5,1,1,5,126,11
3,2,15,1,5,1,1,5,126,11
3,2,17,1,0,0,1,5,88,11
3,2,14,1,0,0,1,5,62,9
3,2,0,0,0,0,1,5,88,11
3,2,12,1,1,0,1,5,61,11
3,2,2,0,2,0,1,5,126,11
3,2,23,0,2,0,1,5,126,11
3,2,17,1,2,0,1,5,88,9
3,2,15,1,2,0,1,5,62,11
3,2,1,0,3,0,1,5,88,11
3,2,19,1,3,0,1,5,62,11
3,2,2,0,4,0,1,5,88,11
3,2,12,1,4,0,1,5,88,11
3,2,6,0,4,0,1,5,88,9
3,2,22,0,5,1,1,5,62,11
3,2,22,0,5,1,1,5,88,11
3,2,17,1,5,1,1,5,88,11
3,2,14,1,5,1,1,5,85,11
3,2,23,0,6,1,1,5,126,11
3,2,20,1,6,1,1,5,73,11
3,2,6,0,6,1,1,5,88,11
4,2,2,0,0,0,2,5,88,11
4,2,1,0,0,0,2,5,85,11
4,2,18,1,0,0,2,5,85,11
4,2,19,1,0,0,2,5,62,11
4,2,5,0,0,0,2,5,73,11
4,2,10,1,0,0,2,5,62,8
4,2,0,0,2,0,2,5,85,11
4,2,16,1,2,0,2,5,85,11
4,2,8,1,2,0,2,5,88,11
4,2,20,1,4,0,2,5,85,11
4,2,8,1,4,0,2,5,95,11
4,2,0,0,6,1,2,5,85,11
4,2,18,1,6,1,2,5,88,11
4,2,19,1,0,0,2,5,62,11
4,2,3,0,1,0,2,5,85,11
4,2,13,1,1,0,2,5,73,11
4,2,5,0,2,0,2,5,85,11
4,2,19,1,3,0,2,5,85,11
4,2,12,1,3,0,2,5,85,11
4,2,3,0,4,0,2,5,85,11
4,2,20,1,4,0,2,5,6,11
4,2,18,1,5,1,2,5,62,11
4,2,13,1,5,1,2,5,54,8
4,2,1,0,5,1,2,5,88,11
4,2,20,1,6,1,2,5,85,11
4,2,3,0,6,1,2,5,85,11
4,2,13,1,1,0,2,5,6,11
4,2,8,1,1,0,2,5,88,9
4,2,11,1,1,0,2,5,62,11
4,2,8,1,1,0,2,5,54,11
4,2,7,1,2,0,2,5,88,9
4,2,23,0,3,0,2,5,88,11
4,2,17,1,3,0,2,5,62,11
4,2,15,1,4,0,2,5,85,11
4,2,22,0,6,1,2,5,73,11
4,2,3,0,6,1,2,5,105,11
4,2,21,0,0,0,2,5,85,11
4,2,3,0,2,0,2,5,124,11
4,2,13,1,2,0,2,5,6,11
4,2,17,1,2,0,2,5,38,11
4,2,7,1,3,0,2,5,85,11
4,2,14,1,3,0,2,5,54,11
4,2,23,0,4,0,2,5,85,11
4,2,23,0,4,0,2,5,85,11
4,2,21,0,6,1,2,5,85,11
4,2,13,1,6,1,2,5,85,11
4,2,7,1,6,1,2,5,62,11
4,2,12,1,0,0,2,5,88,11
4,2,22,0,0,0,2,5,88,11
4,2,0,0,1,0,2,5,73,11
4,2,1,0,1,0,2,5,85,9
5,2,1,0,2,0,2,5,88,11
5,2,15,1,2,0,2,5,88,11
5,2,15,1,2,0,2,5,88,11
5,2,10,1,2,0,2,5,88,11
5,2,16,1,2,0,2,5,88,11
5,2,19,1,2,0,2,5,88,11
5,2,3,0,5,1,2,5,85,11
5,2,0,0,5,1,2,5,85,11
5,2,11,1,5,1,2,5,85,11
5,2,1,0,6,1,2,5,88,11
5,2,12,1,1,0,2,5,7,11
5,2,13,1,1,0,2,5,38,11
5,2,0,0,1,0,2,5,62,11
5,2,19,1,2,0,2,5,88,11
5,2,20,1,2,0,2,5,88,11
5,2,11,1,2,0,2,5,6,11
5,2,8,1,2,0,2,5,88,11
5,2,17,1,2,0,2,5,62,11
5,2,13,1,2,0,2,5,85,11
5,2,15,1,3,0,2,5,38,8
5,2,19,1,4,0,2,5,62,11
5,2,7,1,4,0,2,5,85,11
5,2,8,1,5,1,2,5,62,11
5,2,16,1,5,1,2,5,88,11
5,2,19,1,5,1,2,5,85,11
5,2,23,0,5,1,2,5,85,11
5,2,5,0,0,0,2,5,85,11
5,2,22,0,0,0,2,5,73,11
5,2,5,0,1,0,2,5,54,8
5,2,20,1,1,0,2,5,85,11
5,2,4,0,2,0,2,5,55,9
5,2,16,1,2,0,2,5,85,11
5,2,3,0,4,0,2,5,32,9
5,2,1,0,4,0,2,5,88,11
5,2,2,0,4,0,2,5,85,11
5,2,0,0,4,0,2,5,85,11
5,2,0,0,6,1,2,5,85,11
5,2,2,0,6,1,2,5,116,11
5,2,1,0,0,0,2,5,17,11
5,2,5,0,1,0,2,5,17,9
5,2,15,1,2,0,2,5,88,11
5,2,23,0,3,0,2,5,61,11
5,2,12,1,3,0,2,5,88,11
5,2,17,1,3,0,2,5,88,11
5,2,15,1,3,0,2,5,85,11
5,2,12,1,3,0,2,5,85,11
5,2,0,0,4,0,2,5,85,11
5,2,3,0,4,0,2,5,95,11
5,2,13,1,4,0,2,5,62,11
5,2,14,1,5,1,2,5,85,11
5,2,10,1,5,1,2,5,62,11
5,2,4,0,5,1,2,5,85,11
5,2,3,0,5,1,2,5,6,11
5,2,20,1,6,1,2,5,88,11
5,2,9,1,0,0,2,5,88,9
5,2,6,0,0,0,2,5,88,11
5,2,1,0,1,0,2,5,62,11
5,2,23,0,1,0,2,5,61,11
5,2,23,0,2,0,2,5,88,11
5,2,12,1,2,0,2,5,38,11
5,2,12,1,2,0,2,5,88,11
5,2,22,0,3,0,2,5,95,11
5,2,8,1,3,0,2,5,88,9
5,2,4,0,4,0,2,5,85,11
5,2,11,1,4,0,2,5,88,11
5,2,15,1,4,0,2,5,88,11
5,2,17,1,4,0,2,5,85,11
5,2,11,1,4,0,2,5,62,11
6,3,14,1,6,1,2,5,70,11
6,3,22,0,6,1,2,5,88,11
6,3,13,1,6,1,2,5,21,8
6,3,23,0,0,0,2,5,105,11
6,3,15,1,0,0,2,5,88,11
6,3,14,1,1,0,2,5,85,11
6,3,12,1,1,0,2,5,98,11
6,3,1,0,2,0,2,5,85,11
6,3,5,0,2,0,2,5,62,11
6,3,21,0,2,0,2,5,88,11
6,3,11,1,2,0,2,5,88,9
6,3,11,1,2,0,2,5,45,11
6,3,22,0,3,0,2,5,88,11
6,3,22,0,4,0,2,5,88,11
6,3,22,0,4,0,2,5,88,11
6,3,11,1,4,0,2,5,88,11
6,3,10,1,4,0,2,5,88,11
6,3,23,0,5,1,2,5,88,11
6,3,17,1,5,1,2,5,88,11
6,3,23,0,6,1,2,5,88,11
6,3,17,1,6,1,2,5,88,11
6,3,13,1,6,1,2,5,88,11
6,3,10,1,6,1,2,5,88,11
6,3,21,0,6,1,2,5,85,11
6,3,17,1,0,0,2,5,88,11
6,3,18,1,0,0,2,5,88,11
6,3,18,1,0,0,2,5,88,11
6,3,22,0,0,0,2,5,85,11
6,3,8,1,1,0,2,5,85,11
6,3,17,1,3,0,2,5,7,9
6,3,19,1,4,0,2,5,88,11
6,3,3,0,5,1,2,5,21,11
6,3,6,0,5,1,2,5,70,11
6,3,9,1,5,1,2,5,88,11
6,3,15,1,5,1,2,5,88,9
6,3,21,0,5,1,2,5,88,11
6,3,0,0,6,1,2,5,85,11
6,3,10,1,6,1,2,5,88,9
6,3,16,1,6,1,2,5,88,11
6,3,23,0,6,1,2,5,88,11
6,3,18,1,0,0,2,5,70,11
6,3,23,0,1,0,2,5,70,11
6,3,21,0,1,0,2,5,7,11
6,3,13,1,1,0,2,5,62,11
6,3,23,0,1,0,2,5,88,9
6,3,1,0,2,0,2,5,88,9
6,3,17,1,2,0,2,5,88,11
6,3,23,0,2,0,2,5,70,11
6,3,21,0,3,0,2,5,88,11
6,3,2,0,4,0,2,5,88,11
6,3,21,0,4,0,2,5,62,11
6,3,14,1,5,1,2,5,38,11
6,3,21,0,5,1,2,5,61,11
6,3,12,1,6,1,2,5,88,11
6,3,15,1,6,1,2,5,85,11
6,3,20,1,1,0,2,5,88,11
6,3,12,1,1,0,2,5,88,11
6,3,11,1,3,0,2,5,38,11
6,3,21,0,3,0,2,5,88,11
6,3,18,1,3,0,2,5,88,11
6,3,23,0,3,0,2,5,70,11
6,3,19,1,4,0,2,5,70,11
6,3,8,1,4,0,2,5,88,11
6,3,10,1,4,0,2,5,62,11
6,3,23,0,4,0,2,5,88,11
6,3,20,1,4,0,2,5,85,11
6,3,20,1,5,1,2,5,88,9
6,3,12,1,5,1,2,5,88,11
6,3,0,0,5,1,2,5,70,11
6,3,0,0,6,1,2,5,88,11
7,3,14,1,0,0,3,5,88,11
7,3,18,1,0,0,3,5,85,11
7,3,3,0,1,0,3,5,88,11
7,3,11,1,2,0,3,5,70,11
7,3,9,1,3,0,3,5,88,9
7,3,20,1,3,0,3,5,88,11
7,3,20,1,3,0,3,5,38,11
7,3,18,1,4,0,3,5,88,11
7,3,10,1,4,0,3,5,85,11
7,3,9,1,4,0,3,5,109,11
7,3,18,1,4,0,3,5,88,11
7,3,12,1,6,1,3,5,88,11
7,3,13,1,6,1,3,5,88,11
7,3,13,1,6,1,3,5,6,11
7,3,11,1,6,1,3,5,88,11
7,3,10,1,6,1,3,5,6,11
7,3,8,1,6,1,3,5,38,11
7,3,7,1,0,0,3,5,96,11
7,3,0,0,1,0,3,5,88,11
7,3,0,0,1,0,3,5,70,11
7,3,3,0,2,0,3,5,70,11
7,3,20,1,2,0,3,5,70,11
7,3,19,1,2,0,3,5,101,11
7,3,11,1,2,0,3,5,109,11
7,3,12,1,3,0,3,5,62,11
7,3,11,1,3,0,3,5,88,11
7,3,3,0,4,0,3,5,38,9
7,3,3,0,4,0,3,5,70,11
7,3,22,0,4,0,3,5,21,11
7,3,15,1,4,0,3,5,70,11
7,3,1,0,4,0,3,5,101,11
7,3,5,0,5,1,3,5,70,11
7,3,3,0,5,1,3,5,88,11
7,3,1,0,5,1,3,5,38,11
7,3,18,1,5,1,3,5,88,11
7,3,16,1,5,1,3,5,88,11
7,3,23,0,5,1,3,5,101,11
7,3,2,0,6,1,3,5,102,11
7,3,22,0,1,0,3,5,88,11
7,3,19,1,3,0,3,5,88,11
7,3,14,1,3,0,3,5,88,11
7,3,14,1,4,0,3,5,62,11
7,3,21,0,4,0,3,5,88,11
7,3,0,0,5,1,3,5,88,11
7,3,18,1,5,1,3,5,70,11
7,3,17,1,5,1,3,5,88,11
7,3,13,1,6,1,3,5,85,11
7,3,0,0,6,1,3,5,70,11
7,3,11,1,0,0,3,5,62,11
7,3,17,1,0,0,3,5,62,11
7,3,0,0,1,0,3,5,88,11
7,3,15,1,1,0,3,5,85,11
7,3,20,1,1,0,3,5,88,11
7,3,16,1,1,0,3,5,85,11
7,3,18,1,3,0,3,5,88,11
7,3,14,1,3,0,3,5,85,11
7,3,9,1,3,0,3,5,54,11
7,3,18,1,4,0,3,5,85,11
7,3,16,1,5,1,3,5,88,11
7,3,15,1,5,1,3,5,62,9
7,3,7,1,6,1,3,5,88,11
7,3,10,1,6,1,3,5,88,11
7,3,16,1,1,0,3,5,38,9
7,3,1,0,1,0,3,5,85,11
7,3,3,0,1,0,3,5,38,11
7,3,15,1,2,0,3,5,38,11
7,3,18,1,2,0,3,5,38,11
8,3,20,1,3,0,3,5,124,11
8,3,4,0,4,0,3,5,88,11
8,3,14,1,4,0,3,5,38,11
8,3,22,0,5,1,3,5,88,11
8,3,21,0,6,1,3,5,54,11
8,3,11,1,6,1,3,5,101,11
8,3,12,1,0,0,3,5,85,11
8,3,0,0,1,0,3,5,88,11
8,3,20,1,1,0,3,5,111,9
8,3,12,1,2,0,3,5,54,11
8,3,21,0,4,0,3,5,88,11
8,3,9,1,4,0,3,5,88,11
8,3,4,0,4,0,3,5,88,11
8,3,20,1,6,1,3,5,85,11
8,3,13,1,6,1,3,5,38,11
8,3,2,0,0,0,3,5,70,11
8,3,10,1,0,0,3,5,88,11
8,3,17,1,1,0,3,5,6,11
8,3,10,1,2,0,3,5,38,11
8,3,4,0,3,0,3,5,6,11
8,3,15,1,3,0,3,5,85,11
8,3,12,1,3,0,3,5,38,11
8,3,2,0,3,0,3,5,88,11
8,3,2,0,3,0,3,5,88,11
8,3,3,0,3,0,3,5,70,11
8,3,22,0,4,0,3,5,21,11
8,3,18,1,4,0,3,5,88,11
8,3,15,1,4,0,3,5,21,9
8,3,23,0,0,0,3,5,88,11
8,3,15,1,0,0,3,5,70,11
8,3,20,1,1,0,3,5,62,11
8,3,21,0,3,0,3,5,88,11
8,3,8,1,3,0,3,5,88,11
8,3,5,0,3,0,3,5,85,11
8,3,18,1,4,0,3,5,88,11
8,3,3,0,4,0,3,5,88,11
8,3,13,1,5,1,3,5,88,11
8,3,21,0,6,1,3,5,88,11
8,3,14,1,6,1,3,5,6,11
8,3,13,1,6,1,3,5,101,11
8,3,14,1,6,1,3,5,88,11
8,3,15,1,0,0,3,5,88,11
8,3,1,0,0,0,3,5,88,11
8,3,9,1,0,0,3,5,85,11
8,3,0,0,1,0,3,5,88,11
8,3,23,0,1,0,3,5,88,11
8,3,10,1,2,0,3,5,62,11
8,3,8,1,2,0,3,5,70,11
8,3,13,1,3,0,3,5,88,11
8,3,21,0,3,0,3,5,88,11
8,3,0,0,5,1,3,5,70,11
8,3,4,0,5,1,3,5,88,11
8,3,14,1,5,1,3,5,38,11
9,4,5,0,6,1,3,5,88,11
9,4,4,0,6,1,3,5,88,11
9,4,19,1,0,0,3,5,88,11
9,4,17,1,0,0,3,5,101,11
9,4,8,1,0,0,3,5,61,11
9,4,21,0,1,0,3,5,85,11
9,4,23,0,1,0,3,5,38,11
9,4,18,1,1,0,3,5,88,11
9,4,14,1,1,0,3,5,88,11
9,4,16,1,2,0,3,5,62,11
9,4,23,0,2,0,3,5,88,11
9,4,19,1,3,0,3,5,88,11
9,4,0,0,4,0,3,5,88,11
9,4,21,0,5,1,3,5,88,11
9,4,9,1,5,1,3,5,88,11
9,4,21,0,6,1,3,5,85,11
9,4,14,1,6,1,3,5,88,11
9,4,19,1,6,1,3,5,88,11
9,4,13,1,0,0,3,5,38,9
9,4,20,1,0,0,3,5,85,11
9,4,18,1,0,0,3,5,88,11
9,4,17,1,1,0,3,5,101,11
9,4,0,0,1,0,3,5,88,11
9,4,1,0,1,0,3,5,70,11
9,4,3,0,1,0,3,5,85,11
9,4,2,0,1,0,3,5,70,11
9,4,5,0,1,0,3,5,85,11
9,4,12,1,2,0,3,5,38,11
9,4,13,1,3,0,3,5,38,11
9,4,15,1,4,0,3,5,38,11
9,4,17,1,4,0,3,5,85,11
9,4,7,1,5,1,3,5,85,11
9,4,4,0,5,1,3,5,85,11
9,4,4,0,5,1,3,5,85,11
9,4,4,0,5,1,3,5,85,11
9,4,4,0,5,1,3,5,85,11
9,4,0,0,5,1,3,5,101,11
9,4,10,1,5,1,3,5,88,11
9,4,14,1,5,1,3,5,101,11
9,4,10,1,6,1,3,5,38,11
9,4,19,1,6,1,3,5,88,11
9,4,8,1,0,0,3,5,101,11
9,4,22,0,1,0,3,5,88,11
9,4,22,0,2,0,3,5,88,9
9,4,1,0,2,0,3,5,38,11
9,4,20,1,2,0,3,5,88,11
9,4,19,1,4,0,3,5,101,11
9,4,10,1,5,1,3,5,88,11
9,4,22,0,6,1,3,5,101,11
9,4,7,1,6,1,3,5,88,11
9,4,19,1,0,0,3,5,6,11
9,4,21,0,1,0,3,5,88,11
9,4,13,1,2,0,3,5,62,11
9,4,10,1,2,0,3,5,62,11
9,4,20,1,2,0,3,5,88,11
9,4,14,1,2,0,3,5,101,11
9,4,18,1,5,1,3,5,88,11
9,4,21,0,6,1,3,5,86,11
9,4,21,0,6,1,3,5,38,11
9,4,13,1,6,1,3,5,88,11
9,4,22,0,0,0,3,5,88,11
10,4,14,1,1,0,4,5,38,11
10,4,12,1,3,0,4,5,38,11
10,4,4,0,4,0,4,5,85,11
10,4,0,0,5,1,4,5,70,11
10,4,17,1,6,1,4,5,123,11
10,4,6,0,6,1,4,5,123,11
10,4,20,1,1,0,4,5,70,11
10,4,8,1,2,0,4,5,70,11
10,4,18,1,3,0,4,5,62,11
10,4,14,1,4,0,4,5,38,11
10,4,20,1,5,1,4,5,88,11
10,4,15,1,5,1,4,5,88,11
10,4,12,1,5,1,4,5,70,11
10,4,1,0,6,1,4,5,88,11
10,4,13,1,6,1,4,5,88,11
10,4,9,1,1,0,4,5,88,11
10,4,14,1,1,0,4,5,88,11
10,4,22,0,2,0,4,5,88,9
10,4,16,1,2,0,4,5,88,11
10,4,0,0,3,0,4,5,123,11
10,4,17,1,4,0,4,5,88,11
10,4,14,1,4,0,4,5,38,11
10,4,20,1,4,0,4,5,38,11
10,4,16,1,5,1,4,5,38,11
10,4,20,1,0,0,4,5,70,11
10,4,7,1,0,0,4,5,70,11
10,4,16,1,0,0,4,5,61,11
10,4,8,1,0,0,4,5,88,11
10,4,17,1,2,0,4,5,7,11
10,4,14,1,2,0,4,5,85,11
10,4,13,1,2,0,4,5,38,11
10,4,20,1,2,0,4,5,85,11
10,4,20,1,2,0,4,5,43,9
10,4,14,1,3,0,4,5,88,9
10,4,8,1,3,0,4,5,43,11
10,4,14,1,3,0,4,5,38,11
10,4,19,1,4,0,4,5,1,11
10,4,19,1,4,0,4,5,88,11
10,4,4,0,4,0,4,5,85,11
10,4,3,0,4,0,4,5,95,11
10,4,22,0,5,1,4,5,88,11
10,4,3,0,6,1,4,5,88,11
10,4,21,0,6,1,4,5,88,11
10,4,19,1,0,0,4,5,88,11
10,4,14,1,0,0,4,5,62,11
10,4,2,0,0,0,4,5,45,11
10,4,21,0,1,0,4,5,6,11
11,4,4,0,4,0,4,5,88,11
11,4,12,1,5,1,4,5,85,11
11,4,17,1,5,1,4,5,88,11
11,4,2,0,5,1,4,5,70,11
11,4,16,1,6,1,4,5,12,11
11,4,20,1,0,0,4,5,122,11
11,4,0,0,3,0,4,5,62,11
11,4,0,0,3,0,4,5,70,11
11,4,15,1,3,0,4,5,88,11
11,4,17,1,3,0,4,5,62,11
11,4,0,0,4,0,4,5,38,11
11,4,0,0,5,1,4,5,62,11
11,4,19,1,5,1,4,5,88,11
11,4,19,1,5,1,4,5,95,11
11,4,10,1,6,1,4,5,38,11
11,4,20,1,0,0,4,5,88,11
11,4,2,0,1,0,4,5,95,11
11,4,19,1,1,0,4,5,85,11
11,4,2,0,2,0,4,5,95,11
11,4,21,0,2,0,4,5,6,11
11,4,3,0,4,0,4,5,104,11
11,4,12,1,5,1,4,5,38,11
11,4,20,1,6,1,4,5,85,11
11,4,23,0,0,0,4,5,70,11
11,4,18,1,2,0,4,5,85,11
11,4,0,0,3,0,4,5,55,11
11,4,20,1,3,0,4,5,38,11
11,4,14,1,4,0,4,5,88,11
11,4,23,0,4,0,4,5,70,11
11,4,8,1,5,1,4,5,38,11
11,4,3,0,5,1,4,5,70,11
11,4,16,1,6,1,4,5,126,11
11,4,4,0,6,1,4,5,70,9
11,4,22,0,1,0,4,5,86,11
11,4,0,0,2,0,4,5,95,11
11,4,6,0,4,0,4,5,73,11
11,4,14,1,4,0,4,5,88,11
12,1,15,1,6,1,4,5,95,11
12,1,12,1,0,0,4,5,95,11
12,1,18,1,0,0,4,5,88,11
12,1,17,1,0,0,4,5,85,11
12,1,15,1,2,0,4,5,70,11
12,1,20,1,3,0,4,5,88,11
12,1,21,0,4,0,4,5,38,11
12,1,10,1,5,1,4,5,88,11
12,1,22,0,5,1,4,5,101,11
12,1,23,0,5,1,4,5,61,11
12,1,22,0,6,1,4,5,85,11
12,1,21,0,6,1,4,5,70,11
12,1,20,1,6,1,4,5,62,11
12,1,17,1,0,0,4,5,88,11
12,1,10,1,0,0,4,5,126,11
12,1,17,1,0,0,4,5,62,11
12,1,18,1,2,0,4,5,38,11
12,1,19,1,3,0,4,5,123,9
12,1,18,1,4,0,4,5,85,11
12,1,21,0,4,0,4,5,38,11
12,1,18,1,4,0,4,5,70,11
12,1,10,1,5,1,4,5,62,11
12,1,1,0,1,0,4,5,88,11
12,1,0,0,1,0,4,5,38,11
12,1,22,0,1,0,4,5,124,11
12,1,7,1,1,0,4,5,62,11
12,1,2,0,4,0,4,5,85,11
12,1,17,1,4,0,4,5,70,11
12,1,22,0,4,0,4,5,101,11
12,1,23,0,4,0,4,5,38,11
12,1,23,0,5,1,4,5,38,11
12,1,10,1,5,1,4,5,56,11
12,1,21,0,0,0,4,5,85,11
12,1,14,1,0,0,4,5,124,11
12,1,20,1,1,0,4,5,124,11
12,1,14,1,1,0,4,5,21,11
12,1,16,1,2,0,4,5,85,11
12,1,13,1,2,0,4,5,38,11
12,1,12,1,2,0,4,5,38,11
12,1,6,0,2,0,4,5,126,9
12,1,16,1,3,0,4,5,38,11
12,1,9,1,3,0,4,5,85,11
12,1,3,0,3,0,4,5,70,11
12,1,13,1,4,0,4,5,126,11
12,1,18,1,5,1,4,5,101,11
12,1,11,1,5,1,4,5,95,11
12,1,22,0,6,1,4,5,126,11
12,1,22,0,6,1,4,5,38,11
12,1,20,1,6,1,4,5,38,11
12,1,12,1,6,1,4,5,38,11
12,1,20,1,6,1,4,5,85,11
12,1,15,1,0,0,4,5,73,11
12,1,19,1,1,0,4,5,101,11
12,1,18,1,1,0,4,5,85,11
12,1,7,1,1,0,4,5,54,11
1,1,20,1,2,0,1,5,38,11
1,1,7,1,4,0,1,5,85,11
1,1,17,1,4,0,1,5,85,11
1,1,14,1,4,0,1,5,85,11
1,1,15,1,5,1,1,5,85,11
1,1,21,0,5,1,1,5,38,11
1,1,20,1,0,0,1,5,62,11
1,1,17,1,0,0,1,5,73,11
1,1,15,1,1,0,1,5,62,11
1,1,14,1,1,0,1,5,85,11
1,1,19,1,1,0,1,5,109,11
1,1,20,1,3,0,1,5,85,11
1,1,12,1,4,0,1,5,62,11
1,1,22,0,6,1,1,5,85,11
1,1,22,0,0,0,1,5,88,11
1,1,10,1,1,0,1,5,85,11
1,1,6,0,2,0,1,5,85,11
1,1,12,1,3,0,1,5,85,11
1,1,3,0,3,0,1,5,85,11
1,1,8,1,3,0,1,5,126,11
1,1,18,1,3,0,1,5,73,8
1,1,11,1,4,0,1,5,85,11
1,1,7,1,4,0,1,5,73,11
1,1,21,0,4,0,1,5,62,11
1,1,17,1,5,1,1,5,38,11
1,1,19,1,5,1,1,5,85,11
1,1,13,1,5,1,1,5,73,11
1,1,20,1,6,1,1,5,70,11
1,1,9,1,0,0,1,5,85,11
1,1,9,1,1,0,1,5,73,11
1,1,20,1,1,0,1,5,73,11
2,1,16,1,4,0,1,5,88,11
2,1,16,1,5,1,1,5,88,11
2,1,14,1,0,0,1,5,85,11
2,1,0,0,1,0,1,5,62,11
2,1,19,1,1,0,1,5,73,11
2,1,22,0,5,1,1,5,85,11
2,1,13,1,6,1,1,5,38,11
2,1,18,1,6,1,1,5,73,11
2,1,23,0,3,0,1,5,73,11
2,1,11,1,4,0,1,5,108,11
2,1,22,0,5,1,1,5,62,11
2,1,19,1,5,1,1,5,62,11
2,1,21,0,5,1,1,5,85,11
2,1,14,1,6,1,1,5,85,11
2,1,20,1,0,0,1,5,85,11
2,1,12,1,1,0,1,5,85,11
2,1,18,1,4,0,1,5,73,11
2,1,11,1,5,1,1,5,73,11
2,1,16,1,0,0,1,5,73,11
2,1,7,1,0,0,1,5,85,11
2,1,17,1,1,0,1,5,88,11
2,1,8,1,1,0,1,5,12,11
2,1,14,1,1,0,1,5,85,11
2,1,13,1,2,0,1,5,88,11
2,1,19,1,3,0,1,5,62,11
3,2,16,1,6,1,1,5,85,11
3,2,1,0,1,0,1,5,62,11
3,2,18,1,2,0,1,5,88,11
3,2,10,1,2,0,1,5,62,11
3,2,19,1,3,0,1,5,88,11
3,2,12,1,4,0,1,5,88,11
3,2,13,1,0,0,1,5,85,11
3,2,12,1,1,0,1,5,73,11
3,2,12,1,1,0,1,5,85,11
3,2,14,1,3,0,1,5,88,11
3,2,20,1,5,1,1,5,73,11
3,2,12,1,5,1,1,5,62,11
3,2,15,1,6,1,1,5,85,11
3,2,14,1,0,0,1,5,12,8
3,2,8,1,1,0,1,5,85,11
3,2,11,1,3,0,1,5,38,11
3,2,22,0,3,0,1,5,38,11
3,2,21,0,3,0,1,5,73,11
3,2,21,0,3,0,1,5,101,11
3,2,1,0,5,1,1,5,88,11
3,2,20,1,5,1,1,5,38,11
3,2,21,0,6,1,1,5,62,11
3,2,20,1,6,1,1,5,73,11
3,2,22,0,2,0,1,5,70,11
3,2,19,1,2,0,1,5,85,11
3,2,13,1,6,1,1,5,85,11
4,2,11,1,0,0,2,5,85,11
4,2,21,0,0,0,2,5,88,11
4,2,21,0,0,0,2,5,85,11
4,2,21,0,1,0,2,5,85,11
4,2,8,1,1,0,2,5,88,11
4,2,23,0,4,0,2,5,85,11
4,2,13,1,4,0,2,5,85,11
4,2,23,0,4,0,2,5,73,11
4,2,21,0,6,1,2,5,85,11
4,2,20,1,6,1,2,5,88,11
4,2,19,1,6,1,2,5,85,11
4,2,13,1,0,0,2,5,38,11
4,2,16,1,5,1,2,5,38,11
4,2,19,1,6,1,2,5,73,11
4,2,23,0,0,0,2,5,62,11
4,2,18,1,3,0,2,5,88,11
4,2,19,1,4,0,2,5,73,11
4,2,17,1,4,0,2,5,62,11
4,2,22,0,5,1,2,5,62,11
4,2,1,0,6,1,2,5,101,11
4,2,23,0,2,0,2,5,17,11
4,2,22,0,2,0,2,5,62,11
4,2,18,1,2,0,2,5,88,11
4,2,22,0,3,0,2,5,88,11
4,2,22,0,4,0,2,5,98,11
4,2,22,0,4,0,2,5,38,11
4,2,12,1,5,1,2,5,12,11
4,2,10,1,6,1,2,5,73,11
5,2,16,1,2,0,2,5,62,11
5,2,3,0,5,1,2,5,93,11
5,2,7,1,1,0,2,5,85,11
5,2,8,1,3,0,2,5,88,11
5,2,13,1,5,1,2,5,85,11
5,2,18,1,2,0,2,5,88,11
5,2,9,1,4,0,2,5,17,11
5,2,21,0,5,1,2,5,12,9
5,2,0,0,5,1,2,5,85,11
5,2,20,1,1,0,2,5,85,11
5,2,13,1,2,0,2,5,85,11
5,2,10,1,6,1,2,5,88,11
5,2,14,1,6,1,2,5,61,11
5,2,15,1,0,0,2,5,85,11
5,2,15,1,0,0,2,5,85,11
5,2,15,1,0,0,2,5,88,11
5,2,15,1,3,0,2,5,85,11
5,2,14,1,3,0,2,5,85,11
5,2,9,1,4,0,2,5,95,11
6,3,9,1,0,0,2,5,85,11
6,3,22,0,0,0,2,5,85,11
6,3,9,1,0,0,2,5,70,8
6,3,22,0,2,0,2,5,85,11
6,3,18,1,1,0,2,5,73,11
6,3,18,1,4,0,2,5,88,11
6,3,13,1,2,0,2,5,85,11
6,3,11,1,5,1,2,5,73,11
6,3,18,1,5,1,2,5,73,11
6,3,20,1,0,0,2,5,88,11
6,3,8,1,0,0,2,5,88,11
7,3,13,1,1,0,3,5,101,11
7,3,14,1,2,0,3,5,92,11
7,3,14,1,3,0,3,5,17,11
7,3,14,1,4,0,3,5,17,11
7,3,17,1,6,1,3,5,17,8
7,3,12,1,1,0,3,5,88,11
7,3,23,0,5,1,3,5,7,11
7,3,19,1,4,0,3,5,85,11
7,3,14,1,4,0,3,5,85,11
7,3,14,1,2,0,3,5,123,11
7,3,12,1,3,0,3,5,123,11
7,3,12,1,4,0,3,5,45,8
7,3,19,1,4,0,3,5,73,8
7,3,13,1,5,1,3,5,85,11
7,3,11,1,1,0,3,5,62,11
7,3,9,1,1,0,3,5,3,11
8,3,9,1,3,0,3,5,88,11
8,3,10,1,3,0,3,5,88,11
8,3,11,1,1,0,3,5,62,11
8,3,22,0,1,0,3,5,88,11
8,3,15,1,3,0,3,5,88,11
8,3,16,1,3,0,3,5,62,8
8,3,13,1,6,1,3,5,88,11
8,3,9,1,2,0,3,5,38,11
8,3,10,1,3,0,3,5,17,11
8,3,21,0,5,1,3,5,88,11
8,3,11,1,1,0,3,5,88,11
8,3,14,1,1,0,3,5,38,11
8,3,21,0,1,0,3,5,38,11
8,3,3,0,2,0,3,5,101,11
8,3,13,1,5,1,3,5,88,11
9,4,8,1,0,0,3,5,88,11
9,4,23,0,0,0,3,5,88,11
9,4,23,0,2,0,3,5,101,11
9,4,17,1,4,0,3,5,88,11
9,4,12,1,1,0,3,5,85,11
9,4,15,1,2,0,3,5,88,11
9,4,18,1,5,1,3,5,85,11
10,4,20,1,2,0,4,5,85,11
10,4,16,1,3,0,4,5,88,11
10,4,13,1,0,0,4,5,88,11
10,4,10,1,2,0,4,5,62,11
10,4,16,1,3,0,4,5,88,11
10,4,7,1,6,1,4,5,17,11
10,4,13,1,0,0,4,5,74,11
10,4,16,1,6,1,4,5,88,11
10,4,10,1,6,1,4,5,88,11
10,4,20,1,0,0,4,5,85,11
10,4,15,1,1,0,4,5,62,11
10,4,18,1,1,0,4,5,62,11
10,4,8,1,3,0,4,5,88,11
10,4,12,1,3,0,4,5,88,11
11,4,17,1,4,0,4,5,73,11
11,4,17,1,4,0,4,5,88,11
11,4,17,1,4,0,4,5,85,11
11,4,9,1,5,1,4,5,88,11
11,4,13,1,6,1,4,5,88,11
11,4,12,1,1,0,4,5,88,11
11,4,2,0,3,0,4,5,17,9
11,4,19,1,6,1,4,5,88,11
11,4,16,1,6,1,4,5,88,11
11,4,8,1,6,1,4,5,88,11
11,4,12,1,1,0,4,5,17,9
11,4,10,1,5,1,4,5,88,11
11,4,15,1,5,1,4,5,73,8
12,1,8,1,4,0,4,5,88,11
12,1,14,1,4,0,4,5,88,11
12,1,9,1,0,0,4,5,60,11
12,1,12,1,4,0,4,5,85,11
12,1,16,1,0,0,4,5,85,11
12,1,8,1,2,0,4,5,88,11
12,1,19,1,0,0,4,5,85,11
12,1,20,1,1,0,4,5,98,11
12,1,18,1,2,0,4,5,85,11
12,1,16,1,2,0,4,5,85,11
12,1,15,1,3,0,4,5,85,11
12,1,11,1,3,0,4,5,54,11
12,1,10,1,3,0,4,5,85,11
12,1,10,1,5,1,4,5,85,11
12,1,10,1,5,1,4,5,85,11
12,1,22,0,0,0,4,5,38,11
12,1,16,1,0,0,4,5,85,11
12,1,11,1,1,0,4,5,62,11
1,1,19,1,3,0,1,5,126,11
1,1,17,1,0,0,1,5,101,11
1,1,6,0,3,0,1,5,85,11
1,1,19,1,6,1,1,5,12,11
2,1,19,1,5,1,1,5,88,11
2,1,22,0,5,1,1,5,62,11
2,1,3,0,6,1,1,5,85,11
3,2,13,1,5,1,1,5,101,11
3,2,13,1,6,1,1,5,88,11
4,2,8,1,1,0,2,5,63,11
4,2,20,1,4,0,2,5,73,11
4,2,18,1,3,0,2,5,88,11
4,2,17,1,3,0,2,5,101,11
4,2,13,1,0,0,2,5,88,11
4,2,9,1,1,0,2,5,88,11
4,2,4,0,6,1,2,5,17,11
4,2,20,1,6,1,2,5,62,11
4,2,3,0,5,1,2,5,101,11
4,2,12,1,6,1,2,5,88,11
4,2,4,0,6,1,2,5,98,11
4,2,23,0,1,0,2,5,88,11
5,2,8,1,2,0,2,5,88,11
5,2,18,1,3,0,2,5,88,11
5,2,20,1,5,1,2,5,88,11
5,2,13,1,2,0,2,5,73,11
5,2,16,1,2,0,2,5,88,11
5,2,8,1,5,1,2,5,73,11
5,2,23,0,2,0,2,5,101,11
5,2,18,1,4,0,2,5,88,11
5,2,18,1,4,0,2,5,73,11
6,3,23,0,5,1,2,5,45,11
6,3,20,1,1,0,2,5,88,11
6,3,21,0,2,0,2,5,109,11
6,3,17,1,4,0,2,5,73,11
6,3,19,1,5,1,2,5,88,9
6,3,18,1,0,0,2,5,63,11
6,3,21,0,4,0,2,5,88,11
6,3,10,1,5,1,2,5,73,11
6,3,16,1,2,0,2,5,88,11
6,3,11,1,1,0,2,5,63,9
6,3,21,0,1,0,2,5,88,11
6,3,18,1,1,0,2,5,88,11
6,3,0,0,5,1,2,5,101,11
7,3,7,1,6,1,3,5,101,11
7,3,13,1,2,0,3,5,70,11
7,3,20,1,2,0,3,5,63,11
7,3,15,1,1,0,3,5,88,11
7,3,18,1,4,0,3,5,63,11
7,3,2,0,1,0,3,5,62,11
7,3,14,1,4,0,3,5,88,11
7,3,0,0,4,0,3,5,95,11
7,3,14,1,6,1,3,5,17,11
7,3,3,0,0,0,3,5,101,11
7,3,3,0,0,0,3,5,17,11
7,3,14,1,0,0,3,5,101,11
7,3,15,1,0,0,3,5,73,11
8,3,2,0,3,0,3,5,73,11
8,3,9,1,4,0,3,5,73,11
8,3,22,0,5,1,3,5,47,11
8,3,22,0,5,1,3,5,73,11
8,3,14,1,6,1,3,5,73,11
8,3,14,1,0,0,3,5,88,11
8,3,8,1,4,0,3,5,31,11
8,3,21,0,5,1,3,5,73,11
8,3,14,1,5,1,3,5,88,9
8,3,19,1,5,1,3,5,73,11
8,3,14,1,6,1,3,5,73,11
8,3,23,0,1,0,3,5,70,11
8,3,20,1,1,0,3,5,126,11
8,3,15,1,5,1,3,5,88,8
8,3,8,1,5,1,3,5,73,11
8,3,15,1,5,1,3,5,73,11
8,3,10,1,2,0,3,5,73,11
8,3,9,1,4,0,3,5,88,11
8,3,17,1,5,1,3,5,88,11
9,4,20,1,1,0,3,5,101,9
9,4,16,1,5,1,3,5,73,11
9,4,21,0,5,1,3,5,73,11
9,4,13,1,6,1,3,5,88,11
9,4,15,1,6,1,3,5,88,11
9,4,9,1,6,1,3,5,88,11
9,4,20,1,0,0,3,5,73,11
9,4,19,1,0,0,3,5,73,11
9,4,21,0,1,0,3,5,70,11
10,4,23,0,2,0,4,5,104,11
10,4,17,1,2,0,4,5,88,11
10,4,16,1,2,0,4,5,101,11
10,4,1,0,4,0,4,5,126,11
10,4,13,1,6,1,4,5,73,11
10,4,17,1,6,1,4,5,88,11
10,4,13,1,6,1,4,5,126,11
10,4,1,0,6,1,4,5,85,11
10,4,17,1,6,1,4,5,73,11
11,4,12,1,5,1,4,5,3,11
11,4,15,1,6,1,4,5,3,11
11,4,12,1,6,1,4,5,3,11
11,4,16,1,1,0,4,5,3,11
11,4,13,1,4,0,4,5,3,11
11,4,12,1,3,0,4,5,3,11
11,4,17,1,0,0,4,5,73,11
11,4,15,1,0,0,4,5,3,11
11,4,18,1,3,0,4,5,88,11
12,1,14,1,1,0,4,5,85,11
12,1,12,1,5,1,4,5,88,11
12,1,16,1,0,0,4,5,88,11
12,1,14,1,5,1,4,5,88,11
12,1,6,0,0,0,4,5,88,11
12,1,20,1,1,0,4,5,73,11
12,1,2,0,3,0,4,5,101,11
2,1,11,1,5,1,1,5,126,11
2,1,17,1,0,0,1,5,88,11
3,2,18,1,0,0,1,5,88,11
3,2,22,0,1,0,1,5,88,11
3,2,12,1,1,0,1,5,101,11
3,2,15,1,1,0,1,5,88,11
4,2,12,1,4,0,2,5,69,9
4,2,21,0,1,0,2,5,101,11
4,2,0,0,2,0,2,5,101,11
5,2,13,1,5,1,2,5,88,8
6,3,19,1,1,0,2,5,126,11
6,3,0,0,5,1,2,5,88,11
6,3,12,1,1,0,2,5,126,11
8,3,13,1,5,1,3,5,85,11
9,4,7,1,6,1,3,5,17,11
9,4,11,1,6,1,3,5,69,11
9,4,18,1,6,1,3,5,86,11
10,4,16,1,2,0,4,5,88,11
11,4,4,0,5,1,4,5,126,11
11,4,12,1,4,0,4,5,88,11
12,1,16,1,6,1,4,5,88,11
12,1,19,1,4,0,4,5,101,11
12,1,21,0,3,0,4,5,85,9
12,1,12,1,0,0,4,5,85,11
1,1,1,0,1,0,1,5,38,11
1,1,8,1,4,0,1,5,54,11
1,1,21,0,5,1,1,5,62,11
1,1,12,1,1,0,1,5,62,11
1,1,19,1,2,0,1,5,85,11
1,1,14,1,6,1,1,5,85,11
1,1,13,1,0,0,1,5,62,11
1,1,12,1,2,0,1,5,38,11
1,1,17,1,2,0,1,5,54,11
1,1,2,0,3,0,1,5,98,11
1,1,13,1,5,1,1,5,88,11
1,1,14,1,6,1,1,5,62,11
2,1,6,0,5,1,1,5,85,11
2,1,11,1,6,1,1,5,85,11
2,1,15,1,4,0,1,5,85,11
2,1,11,1,4,0,1,5,85,11
2,1,0,0,4,0,1,5,85,11
2,1,9,1,5,1,1,5,88,11
2,1,16,1,5,1,1,5,62,11
3,2,1,0,5,1,1,5,85,11
3,2,10,1,5,1,1,5,106,8
3,2,16,1,5,1,1,5,85,11
3,2,2,0,5,1,1,5,85,11
3,2,23,0,0,0,1,5,85,11
3,2,15,1,4,0,1,5,85,11
3,2,5,0,0,0,1,5,85,11
3,2,0,0,1,0,1,5,85,11
3,2,5,0,4,0,1,5,98,11
4,2,14,1,2,0,2,5,73,9
4,2,19,1,0,0,2,5,85,11
5,2,8,1,0,0,2,5,85,11
5,2,6,0,0,0,2,5,85,11
5,2,23,0,0,0,2,5,85,11
5,2,23,0,2,0,2,5,61,11
5,2,20,1,5,1,2,5,85,11
5,2,13,1,4,0,2,5,85,11
6,3,11,1,2,0,2,5,6,11
6,3,2,0,3,0,2,5,54,11
6,3,11,1,5,1,2,5,85,11
6,3,4,0,6,1,2,5,85,11
6,3,4,0,0,0,2,5,62,11
6,3,11,1,4,0,2,5,85,11
6,3,7,1,6,1,2,5,85,11
6,3,12,1,3,0,2,5,62,11
6,3,2,0,3,0,2,5,115,11
7,3,16,1,1,0,3,5,62,11
7,3,13,1,1,0,3,5,62,11
7,3,22,0,5,1,3,5,85,11
7,3,15,1,3,0,3,5,85,11
7,3,13,1,2,0,3,5,85,11
8,3,11,1,6,1,3,5,85,11
8,3,19,1,0,0,3,5,62,9
8,3,14,1,0,0,3,5,62,11
8,3,13,1,5,1,3,5,88,8
8,3,20,1,0,0,3,5,88,11
8,3,20,1,0,0,3,5,88,11
8,3,6,0,2,0,3,5,73,11
8,3,23,0,2,0,3,5,88,11
8,3,10,1,3,0,3,5,85,11
8,3,14,1,3,0,3,5,88,11
8,3,7,1,4,0,3,5,85,11
8,3,10,1,1,0,3,5,88,11
8,3,23,0,3,0,3,5,21,11
8,3,19,1,4,0,3,5,88,9
8,3,13,1,0,0,3,5,62,11
8,3,21,0,5,1,3,5,85,11
9,4,11,1,0,0,3,5,88,11
9,4,10,1,5,1,3,5,88,11
9,4,9,1,0,0,3,5,85,11
9,4,12,1,0,0,3,5,13,11
9,4,3,0,0,0,3,5,62,11
9,4,19,1,5,1,3,5,85,11
10,4,18,1,1,0,4,5,6,11
10,4,17,1,2,0,4,5,101,11
10,4,18,1,5,1,4,5,62,11
10,4,18,1,2,0,4,5,98,11
11,4,9,1,6,1,4,5,54,11
11,4,0,0,4,0,4,5,85,11
11,4,7,1,2,0,4,5,21,11
11,4,3,0,3,0,4,5,85,11
11,4,12,1,3,0,4,5,85,11
12,1,12,1,6,1,4,5,62,11
12,1,18,1,6,1,4,5,85,11
12,1,19,1,4,0,4,5,85,11
12,1,13,1,6,1,4,5,6,11
12,1,21,0,6,1,4,5,70,11
12,1,16,1,0,0,4,5,85,11
12,1,0,0,1,0,4,5,85,11
12,1,5,0,1,0,4,5,85,11
1,1,20,1,3,0,1,5,62,9
1,1,13,1,4,0,1,5,43,11
1,1,12,1,4,0,1,5,62,11
1,1,10,1,3,0,1,5,62,11
1,1,20,1,3,0,1,5,44,11
1,1,3,0,4,0,1,5,62,9
2,1,1,0,1,0,1,5,85,11
2,1,17,1,3,0,1,5,85,11
2,1,18,1,2,0,1,5,85,11
2,1,21,0,2,0,1,5,85,11
2,1,0,0,3,0,1,5,85,11
2,1,0,0,6,1,1,5,85,11
2,1,15,1,1,0,1,5,85,11
3,2,20,1,4,0,1,5,85,11
3,2,21,0,3,0,1,5,62,11
4,2,5,0,6,1,2,5,62,11
5,2,23,0,0,0,2,5,62,9
5,2,4,0,4,0,2,5,85,9
5,2,19,1,1,0,2,5,85,11
5,2,0,0,5,1,2,5,62,11
5,2,15,1,2,0,2,5,6,11
6,3,9,1,5,1,2,5,62,11
6,3,13,1,3,0,2,5,85,11
6,3,1,0,3,0,2,5,56,11
6,3,17,1,6,1,2,5,85,11
7,3,14,1,1,0,3,5,6,11
7,3,18,1,4,0,3,5,85,11
7,3,14,1,6,1,3,5,107,11
7,3,13,1,1,0,3,5,88,11
7,3,10,1,6,1,3,5,62,11
7,3,7,1,2,0,3,5,85,11
7,3,13,1,2,0,3,5,114,11
8,3,19,1,5,1,3,5,85,9
8,3,19,1,0,0,3,5,85,11
8,3,18,1,2,0,3,5,85,11
8,3,5,0,3,0,3,5,105,11
8,3,2,0,4,0,3,5,85,11
8,3,20,1,5,1,3,5,88,11
8,3,7,1,0,0,3,5,17,11
8,3,2,0,4,0,3,5,96,11
8,3,3,0,4,0,3,5,85,11
8,3,12,1,0,0,3,5,54,9
8,3,17,1,1,0,3,5,62,11
8,3,15,1,2,0,3,5,54,11
8,3,15,1,5,1,3,5,62,11
9,4,20,1,1,0,3,5,95,11
9,4,11,1,3,0,3,5,6,11
9,4,11,1,4,0,3,5,85,11
9,4,16,1,1,0,3,5,85,11
10,4,0,0,1,0,4,5,21,11
10,4,21,0,6,1,4,5,62,11
10,4,1,0,2,0,4,5,6,9
10,4,13,1,3,0,4,5,38,11
10,4,0,0,6,1,4,5,45,11
10,4,4,0,3,0,4,5,52,9
10,4,20,1,3,0,4,5,62,11
11,4,11,1,5,1,4,5,62,11
11,4,14,1,2,0,4,5,106,11
11,4,23,0,2,0,4,5,85,11
11,4,5,0,3,0,4,5,62,9
11,4,22,0,4,0,4,5,85,9
11,4,21,0,4,0,4,5,85,11
12,1,21,0,3,0,4,5,6,11
12,1,22,0,6,1,4,5,70,11
12,1,18,1,6,1,4,5,85,11
12,1,10,1,0,0,4,5,12,9
12,1,18,1,0,0,4,5,85,11
12,1,18,1,3,0,4,5,62,9
12,1,20,1,6,1,4,5,126,11
1,1,15,1,1,0,1,5,50,11
1,1,15,1,3,0,1,5,88,11
1,1,3,0,2,0,1,5,111,8
1,1,18,1,5,1,1,5,62,11
1,1,18,1,0,0,1,5,73,11
1,1,21,0,2,0,1,5,62,9
2,1,10,1,4,0,1,5,17,11
2,1,14,1,1,0,1,5,109,11
2,1,3,0,4,0,1,5,17,11
2,1,14,1,6,1,1,5,73,8
2,1,2,0,0,0,1,5,73,11
2,1,17,1,0,0,1,5,126,11
3,2,3,0,6,1,1,5,62,11
3,2,0,0,1,0,1,5,85,11
3,2,1,0,0,0,1,5,2,11
3,2,2,0,1,0,1,5,85,11
3,2,18,1,4,0,1,5,38,11
3,2,12,1,0,0,1,5,73,11
3,2,6,0,3,0,1,5,85,11
3,2,11,1,4,0,1,5,67,11
4,2,13,1,6,1,2,5,62,11
4,2,15,1,3,0,2,5,62,11
4,2,16,1,5,1,2,5,17,11
5,2,12,1,4,0,2,5,84,9
5,2,10,1,0,0,2,5,109,11
5,2,2,0,2,0,2,5,17,11
5,2,16,1,3,0,2,5,126,11
5,2,16,1,4,0,2,5,38,11
5,2,4,0,4,0,2,5,17,11
5,2,23,0,4,0,2,5,126,11
5,2,17,1,1,0,2,5,78,11
5,2,11,1,3,0,2,5,99,9
6,3,13,1,4,0,2,5,7,11
6,3,14,1,4,0,2,5,38,9
6,3,18,1,4,0,2,5,101,11
6,3,16,1,2,0,2,5,101,11
6,3,17,1,2,0,2,5,17,11
7,3,17,1,4,0,3,5,88,11
7,3,19,1,5,1,3,5,62,11
8,3,1,0,3,0,3,5,126,11
8,3,15,1,2,0,3,5,62,11
8,3,11,1,4,0,3,5,17,11
8,3,1,0,4,0,3,5,62,11
9,4,20,1,1,0,3,5,45,11
9,4,14,1,2,0,3,5,85,11
9,4,12,1,4,0,3,5,88,11
9,4,12,1,5,1,3,5,85,11
9,4,23,0,2,0,3,5,17,11
9,4,21,0,2,0,3,5,73,8
9,4,13,1,3,0,3,5,126,11
9,4,23,0,2,0,3,5,17,11
10,4,1,0,3,0,4,5,68,11
10,4,23,0,5,1,4,5,62,9
10,4,12,1,3,0,4,5,62,11
10,4,17,1,0,0,4,5,62,11
10,4,23,0,0,0,4,5,73,11
10,4,22,0,3,0,4,5,90,11
10,4,3,0,4,0,4,5,95,11
10,4,17,1,1,0,4,5,62,11
11,4,13,1,6,1,4,5,88,11
11,4,1,0,3,0,4,5,95,11
11,4,17,1,5,1,4,5,17,11
11,4,4,0,4,0,4,5,62,11
12,1,17,1,6,1,4,5,88,11
12,1,4,0,0,0,4,5,17,11
12,1,14,1,4,0,4,5,38,11
12,1,18,1,6,1,4,5,73,11
1,1,2,0,5,1,1,5,74,11
1,1,11,1,0,0,1,5,62,11
1,1,16,1,2,0,1,5,62,11
2,1,5,0,6,1,1,5,17,11
2,1,23,0,0,0,1,5,38,9
2,1,4,0,0,0,1,5,17,11
3,2,21,0,5,1,1,5,62,11
3,2,14,1,4,0,1,5,62,11
3,2,13,1,6,1,1,5,62,11
3,2,17,1,3,0,1,5,62,9
3,2,12,1,0,0,1,5,73,11
3,2,4,0,4,0,1,5,88,11
3,2,18,1,6,1,1,5,62,11
3,2,12,1,1,0,1,5,101,11
3,2,2,0,6,1,1,5,88,9
4,2,22,0,1,0,2,5,62,11
4,2,4,0,2,0,2,5,62,9
4,2,15,1,5,1,2,5,62,11
4,2,13,1,0,0,2,5,62,11
4,2,20,1,5,1,2,5,88,11
4,2,9,1,2,0,2,5,85,11
4,2,20,1,0,0,2,5,61,11
5,2,23,0,1,0,2,5,85,11
5,2,11,1,5,1,2,5,2,11
5,2,11,1,0,0,2,5,88,11
5,2,18,1,6,1,2,5,88,11
5,2,15,1,2,0,2,5,88,11
5,2,17,1,5,1,2,5,88,11
5,2,1,0,6,1,2,5,109,11
6,3,5,0,5,1,2,5,85,11
6,3,20,1,0,0,2,5,70,11
6,3,22,0,4,0,2,5,88,11
6,3,13,1,2,0,2,5,18,11
6,3,0,0,5,1,2,5,18,11
6,3,20,1,6,1,2,5,85,11
6,3,18,1,0,0,2,5,88,11
6,3,0,0,1,0,2,5,17,11
6,3,15,1,3,0,2,5,88,11
7,3,14,1,3,0,3,5,78,11
7,3,19,1,2,0,3,5,17,11
7,3,21,0,2,0,3,5,35,9
8,3,19,1,3,0,3,5,78,9
8,3,17,1,3,0,3,5,88,11
8,3,21,0,1,0,3,5,62,11
8,3,12,1,1,0,3,5,6,11
9,4,3,0,2,0,3,5,73,11
9,4,19,1,5,1,3,5,88,9
9,4,4,0,5,1,3,5,62,11
9,4,8,1,6,1,3,5,88,11
9,4,16,1,5,1,3,5,38,11
10,4,22,0,0,0,4,5,1,11
10,4,1,0,1,0,4,5,85,11
10,4,12,1,1,0,4,5,62,11
11,4,22,0,0,0,4,5,101,11
11,4,14,1,3,0,4,5,62,11
11,4,1,0,4,0,4,5,101,11
11,4,14,1,6,1,4,5,62,11
11,4,13,1,6,1,4,5,101,11
11,4,12,1,5,1,4,5,88,11
12,1,3,0,3,0,4,5,70,11
12,1,23,0,0,0,4,5,50,11
12,1,17,1,1,0,4,5,101,11
12,1,10,1,2,0,4,5,61,11
12,1,6,0,3,0,4,5,62,11
12,1,15,1,3,0,4,5,85,11
12,1,20,1,1,0,4,5,62,11
7,3,13,1,6,1,3,5,99,8
9,4,11,1,6,1,3,5,99,8
1,1,18,1,5,1,1,5,101,11
1,1,11,1,0,0,1,5,73,11
1,1,8,1,2,0,1,5,126,11
1,1,23,0,3,0,1,5,17,11
1,1,22,0,6,1,1,5,101,11
1,1,1,0,1,0,1,5,101,11
1,1,0,0,2,0,1,5,12,8
2,1,15,1,6,1,1,5,12,11
2,1,2,0,1,0,1,5,17,9
2,1,3,0,4,0,1,5,101,11
2,1,3,0,6,1,1,5,101,11
2,1,21,0,0,0,1,5,88,11
2,1,20,1,5,1,1,5,38,11
2,1,2,0,2,0,1,5,85,11
2,1,20,1,2,0,1,5,73,11
3,2,19,1,0,0,1,5,85,11
3,2,0,0,4,0,1,5,17,11
3,2,0,0,4,0,1,5,17,11
3,2,22,0,5,1,1,5,101,11
3,2,8,1,6,1,1,5,88,11
3,2,17,1,3,0,1,5,88,11
3,2,13,1,5,1,1,5,17,11
3,2,7,1,6,1,1,5,88,11
3,2,12,1,2,0,1,5,124,9
3,2,13,1,2,0,1,5,6,11
3,2,12,1,3,0,1,5,88,11
3,2,13,1,3,0,1,5,88,11
3,2,19,1,0,0,1,5,73,11
3,2,0,0,4,0,1,5,88,11
4,2,10,1,1,0,2,5,12,11
4,2,17,1,0,0,2,5,73,11
4,2,9,1,1,0,2,5,17,11
4,2,12,1,3,0,2,5,62,11
4,2,2,0,5,1,2,5,101,11
4,2,4,0,6,1,2,5,101,11
4,2,16,1,0,0,2,5,17,11
5,2,15,1,2,0,2,5,70,11
5,2,4,0,6,1,2,5,85,11
5,2,12,1,6,1,2,5,88,9
5,2,1,0,0,0,2,5,17,11
5,2,6,0,2,0,2,5,70,11
5,2,22,0,4,0,2,5,12,11
5,2,23,0,4,0,2,5,70,11
5,2,21,0,6,1,2,5,126,11
5,2,23,0,6,1,2,5,12,11
5,2,15,1,1,0,2,5,88,9
5,2,12,1,3,0,2,5,88,9
5,2,16,1,3,0,2,5,88,9
5,2,10,1,4,0,2,5,70,11
5,2,0,0,4,0,2,5,101,11
5,2,11,1,5,1,2,5,88,11
5,2,15,1,5,1,2,5,88,11
5,2,3,0,6,1,2,5,85,11
5,2,16,1,2,0,2,5,17,11
5,2,16,1,2,0,2,5,73,11
5,2,11,1,3,0,2,5,123,11
5,2,10,1,4,0,2,5,6,11
5,2,18,1,4,0,2,5,88,11
5,2,20,1,4,0,2,5,88,11
5,2,3,0,6,1,2,5,98,11
5,2,17,1,0,0,2,5,88,11
5,2,11,1,1,0,2,5,88,11
5,2,17,1,2,0,2,5,88,11
5,2,3,0,3,0,2,5,21,9
5,2,13,1,3,0,2,5,88,11
6,3,17,1,5,1,2,5,88,11
6,3,20,1,5,1,2,5,123,11
6,3,4,0,6,1,2,5,85,11
6,3,11,1,6,1,2,5,88,11
6,3,12,1,6,1,2,5,123,11
6,3,17,1,6,1,2,5,88,11
6,3,12,1,6,1,2,5,88,11
6,3,14,1,1,0,2,5,12,9
6,3,14,1,2,0,2,5,101,11
6,3,15,1,2,0,2,5,88,9
6,3,23,0,2,0,2,5,88,11
6,3,21,0,3,0,2,5,17,11
6,3,0,0,3,0,2,5,88,11
6,3,19,1,4,0,2,5,73,11
6,3,16,1,4,0,2,5,123,9
6,3,12,1,5,1,2,5,88,11
6,3,15,1,6,1,2,5,88,9
6,3,16,1,0,0,2,5,88,11
6,3,13,1,1,0,2,5,88,11
6,3,14,1,1,0,2,5,88,9
6,3,12,1,2,0,2,5,88,11
6,3,17,1,2,0,2,5,88,9
6,3,17,1,2,0,2,5,88,11
6,3,13,1,3,0,2,5,88,11
6,3,14,1,3,0,2,5,88,11
6,3,14,1,4,0,2,5,88,11
6,3,16,1,4,0,2,5,123,9
6,3,18,1,4,0,2,5,88,11
6,3,0,0,5,1,2,5,101,9
6,3,13,1,5,1,2,5,88,9
6,3,22,0,5,1,2,5,88,11
6,3,12,1,6,1,2,5,88,11
6,3,14,1,6,1,2,5,88,9
6,3,4,0,1,0,2,5,88,11
6,3,18,1,1,0,2,5,103,11
6,3,18,1,1,0,2,5,17,11
6,3,7,1,2,0,2,5,103,11
6,3,10,1,3,0,2,5,88,11
6,3,11,1,3,0,2,5,17,11
6,3,12,1,5,1,2,5,88,11
6,3,15,1,5,1,2,5,88,11
6,3,15,1,5,1,2,5,88,11
6,3,0,0,6,1,2,5,88,11
6,3,11,1,6,1,2,5,88,11
6,3,14,1,6,1,2,5,88,11
6,3,11,1,6,1,2,5,88,11
6,3,10,1,0,0,2,5,88,11
6,3,12,1,0,0,2,5,88,11
6,3,15,1,0,0,2,5,88,11
6,3,17,1,0,0,2,5,88,9
6,3,2,0,1,0,2,5,88,11
6,3,11,1,1,0,2,5,88,11
6,3,9,1,1,0,2,5,88,9
6,3,21,0,1,0,2,5,88,11
6,3,19,1,3,0,2,5,70,11
6,3,22,0,4,0,2,5,88,11
6,3,21,0,4,0,2,5,88,11
6,3,22,0,4,0,2,5,88,9
6,3,23,0,4,0,2,5,88,11
6,3,10,1,5,1,2,5,88,11
6,3,14,1,5,1,2,5,88,11
6,3,16,1,5,1,2,5,88,11
6,3,17,1,5,1,2,5,88,9
6,3,16,1,5,1,2,5,1,11
6,3,7,1,6,1,2,5,88,9
6,3,21,0,6,1,2,5,88,11
7,3,9,1,1,0,3,5,88,11
7,3,12,1,1,0,3,5,88,11
7,3,17,1,1,0,3,5,88,11
7,3,12,1,1,0,3,5,88,11
7,3,0,0,4,0,3,5,17,11
7,3,13,1,4,0,3,5,88,9
7,3,13,1,0,0,3,5,88,11
7,3,19,1,0,0,3,5,88,11
7,3,4,0,1,0,3,5,17,11
7,3,13,1,1,0,3,5,88,11
7,3,5,0,2,0,3,5,70,11
7,3,17,1,2,0,3,5,88,11
7,3,3,0,3,0,3,5,76,11
7,3,16,1,3,0,3,5,88,11
7,3,20,1,4,0,3,5,70,9
7,3,6,0,5,1,3,5,17,11
7,3,9,1,0,0,3,5,88,11
7,3,12,1,1,0,3,5,101,11
7,3,0,0,2,0,3,5,88,11
7,3,2,0,3,0,3,5,88,11
7,3,4,0,3,0,3,5,17,11
7,3,9,1,3,0,3,5,85,11
7,3,22,0,4,0,3,5,70,11
7,3,20,1,6,1,3,5,88,11
7,3,14,1,1,0,3,5,88,11
7,3,15,1,2,0,3,5,62,11
7,3,16,1,2,0,3,5,101,9
7,3,23,0,2,0,3,5,73,11
7,3,0,0,2,0,3,5,88,9
7,3,20,1,4,0,3,5,88,11
7,3,0,0,5,1,3,5,88,11
7,3,12,1,6,1,3,5,88,11
8,3,3,0,3,0,3,5,85,11
8,3,7,1,3,0,3,5,88,11
8,3,12,1,3,0,3,5,88,9
8,3,12,1,5,1,3,5,43,11
8,3,13,1,5,1,3,5,88,9
8,3,22,0,0,0,3,5,73,11
8,3,23,0,2,0,3,5,88,11
8,3,10,1,3,0,3,5,12,11
8,3,2,0,3,0,3,5,70,11
8,3,0,0,3,0,3,5,88,11
8,3,16,1,5,1,3,5,88,11
8,3,14,1,5,1,3,5,88,11
8,3,4,0,5,1,3,5,43,8
8,3,8,1,6,1,3,5,88,11
8,3,11,1,6,1,3,5,11,9
8,3,0,0,0,0,3,5,70,11
8,3,17,1,1,0,3,5,88,11
8,3,11,1,3,0,3,5,88,11
8,3,14,1,3,0,3,5,85,11
8,3,7,1,6,1,3,5,126,11
8,3,19,1,6,1,3,5,88,11
8,3,5,0,1,0,3,5,88,11
8,3,3,0,3,0,3,5,88,11
8,3,5,0,3,0,3,5,125,11
8,3,16,1,3,0,3,5,88,9
8,3,9,1,3,0,3,5,125,11
8,3,14,1,4,0,3,5,88,11
8,3,12,1,5,1,3,5,88,11
8,3,5,0,6,1,3,5,88,11
8,3,12,1,6,1,3,5,88,11
8,3,22,0,6,1,3,5,88,11
8,3,10,1,1,0,3,5,88,11
8,3,16,1,1,0,3,5,88,11
8,3,12,1,1,0,3,5,88,9
8,3,21,0,2,0,3,5,76,11
8,3,11,1,2,0,3,5,88,11
8,3,13,1,2,0,3,5,88,11
8,3,9,1,2,0,3,5,88,11
8,3,5,0,4,0,3,5,88,11
8,3,7,1,4,0,3,5,12,11
8,3,14,1,4,0,3,5,88,11
8,3,21,0,5,1,3,5,88,11
9,4,8,1,0,0,3,5,97,11
9,4,7,1,0,0,3,5,85,11
9,4,21,0,0,0,3,5,88,11
9,4,18,1,1,0,3,5,70,11
9,4,20,1,1,0,3,5,88,11
9,4,1,0,2,0,3,5,60,11
9,4,2,0,2,0,3,5,106,11
9,4,17,1,3,0,3,5,88,9
9,4,15,1,3,0,3,5,88,11
9,4,18,1,4,0,3,5,101,9
9,4,0,0,5,1,3,5,88,11
9,4,11,1,5,1,3,5,12,9
9,4,12,1,5,1,3,5,21,8
9,4,2,0,0,0,3,5,17,11
9,4,20,1,3,0,3,5,17,11
9,4,17,1,4,0,3,5,108,11
9,4,18,1,4,0,3,5,88,8
9,4,14,1,6,1,3,5,17,11
9,4,7,1,1,0,3,5,88,11
9,4,8,1,0,0,3,5,61,11
9,4,4,0,1,0,3,5,70,11
9,4,12,1,1,0,3,5,88,9
9,4,14,1,1,0,3,5,88,11
9,4,16,1,1,0,3,5,109,11
9,4,5,0,2,0,3,5,88,9
9,4,10,1,3,0,3,5,73,11
9,4,7,1,3,0,3,5,17,11
9,4,18,1,4,0,3,5,88,11
9,4,14,1,5,1,3,5,88,11
9,4,12,1,0,0,3,5,88,9
9,4,21,0,0,0,3,5,88,11
10,4,6,0,1,0,4,5,88,11
10,4,16,1,2,0,4,5,74,11
10,4,6,0,3,0,4,5,88,11
10,4,21,0,1,0,4,5,109,11
10,4,12,1,1,0,4,5,17,11
10,4,20,1,3,0,4,5,70,11
10,4,10,1,5,1,4,5,88,9
10,4,13,1,5,1,4,5,88,9
10,4,19,1,5,1,4,5,88,11
10,4,4,0,0,0,4,5,70,11
10,4,18,1,0,0,4,5,126,11
10,4,18,1,1,0,4,5,85,11
10,4,15,1,3,0,4,5,88,9
10,4,19,1,4,0,4,5,88,11
10,4,19,1,4,0,4,5,88,11
10,4,10,1,3,0,4,5,88,11
10,4,19,1,3,0,4,5,88,11
10,4,20,1,3,0,4,5,88,9
10,4,17,1,4,0,4,5,6,11
10,4,10,1,6,1,4,5,88,9
11,4,21,0,0,0,4,5,70,11
11,4,19,1,1,0,4,5,88,9
11,4,22,0,3,0,4,5,88,11
11,4,15,1,5,1,4,5,126,9
11,4,11,1,0,0,4,5,88,11
11,4,1,0,6,1,4,5,17,11
11,4,14,1,1,0,4,5,70,11
11,4,7,1,0,0,4,5,21,11
11,4,10,1,4,0,4,5,88,11
12,1,19,1,0,0,4,5,88,11
12,1,22,0,0,0,4,5,70,11
12,1,9,1,2,0,4,5,70,11
12,1,20,1,3,0,4,5,101,11
12,1,20,1,5,1,4,5,12,11
12,1,16,1,1,0,4,5,70,11
12,1,10,1,5,1,4,5,73,9
12,1,14,1,2,0,4,5,73,11
12,1,0,0,3,0,4,5,126,11
12,1,19,1,3,0,4,5,85,11
12,1,18,1,4,0,4,5,88,11
12,1,18,1,6,1,4,5,70,11
12,1,18,1,3,0,4,5,101,11
12,1,19,1,3,0,4,5,88,11
12,1,0,0,4,0,4,5,17,11
12,1,19,1,5,1,4,5,17,11
12,1,22,0,6,1,4,5,88,11
1,1,11,1,5,1,1,5,38,11
1,1,14,1,5,1,1,5,38,11
1,1,6,0,2,0,1,5,74,11
1,1,2,0,2,0,1,5,88,11
1,1,9,1,6,1,1,5,126,11
1,1,13,1,1,0,1,5,17,11
1,1,13,1,4,0,1,5,88,8
2,1,0,0,4,0,1,5,110,11
2,1,18,1,0,0,1,5,73,11
2,1,15,1,3,0,1,5,85,11
3,2,1,0,4,0,1,5,17,11
3,2,13,1,1,0,1,5,101,11
3,2,15,1,1,0,1,5,101,11
3,2,9,1,4,0,1,5,3,11
3,2,11,1,6,1,1,5,101,11
4,2,1,0,6,1,2,5,62,11
4,2,22,0,5,1,2,5,86,11
4,2,9,1,3,0,2,5,21,11
4,2,20,1,5,1,2,5,88,11
4,2,0,0,6,1,2,5,88,11
4,2,21,0,6,1,2,5,101,11
4,2,22,0,0,0,2,5,101,11
4,2,2,0,1,0,2,5,101,11
4,2,12,1,1,0,2,5,88,11
4,2,21,0,1,0,2,5,88,11
5,2,12,1,4,0,2,5,38,11
5,2,9,1,6,1,2,5,101,11
5,2,20,1,1,0,2,5,85,11
5,2,19,1,5,1,2,5,88,11
5,2,20,1,0,0,2,5,88,11
5,2,18,1,3,0,2,5,73,11
5,2,18,1,3,0,2,5,88,11
5,2,12,1,2,0,2,5,77,11
5,2,15,1,3,0,2,5,88,11
5,2,15,1,4,0,2,5,88,11
5,2,18,1,6,1,2,5,3,11
5,2,18,1,6,1,2,5,88,11
5,2,20,1,1,0,2,5,12,9
6,3,19,1,6,1,2,5,88,11
6,3,13,1,0,0,2,5,88,9
6,3,22,0,0,0,2,5,62,11
6,3,11,1,2,0,2,5,101,11
6,3,15,1,3,0,2,5,88,11
6,3,21,0,3,0,2,5,88,11
6,3,12,1,3,0,2,5,88,11
6,3,13,1,5,1,2,5,88,11
6,3,19,1,6,1,2,5,88,9
6,3,18,1,1,0,2,5,88,11
6,3,17,1,4,0,2,5,43,11
6,3,12,1,0,0,2,5,88,11
6,3,17,1,1,0,2,5,88,11
6,3,20,1,4,0,2,5,88,11
6,3,9,1,6,1,2,5,3,11
6,3,14,1,6,1,2,5,88,11
6,3,12,1,6,1,2,5,88,11
6,3,17,1,6,1,2,5,123,11
6,3,16,1,6,1,2,5,101,11
6,3,16,1,6,1,2,5,101,9
6,3,7,1,6,1,2,5,88,9
7,3,14,1,0,0,3,5,88,11
7,3,23,0,1,0,3,5,73,11
7,3,8,1,2,0,3,5,3,9
7,3,2,0,3,0,3,5,73,11
7,3,8,1,4,0,3,5,101,11
7,3,17,1,5,1,3,5,88,11
7,3,5,0,0,0,3,5,21,11
7,3,11,1,4,0,3,5,88,9
7,3,9,1,1,0,3,5,3,11
7,3,23,0,1,0,3,5,101,11
7,3,0,0,2,0,3,5,101,11
7,3,20,1,4,0,3,5,107,11
7,3,14,1,5,1,3,5,62,9
7,3,19,1,5,1,3,5,88,11
7,3,14,1,6,1,3,5,88,11
7,3,18,1,6,1,3,5,3,11
7,3,22,0,0,0,3,5,126,11
7,3,12,1,1,0,3,5,88,9
7,3,15,1,2,0,3,5,88,11
8,3,20,1,6,1,3,5,17,11
8,3,13,1,4,0,3,5,88,11
8,3,17,1,5,1,3,5,88,11
8,3,15,1,3,0,3,5,73,11
8,3,20,1,6,1,3,5,88,11
8,3,0,0,0,0,3,5,88,11
8,3,20,1,1,0,3,5,88,11
8,3,12,1,4,0,3,5,85,11
8,3,12,1,4,0,3,5,85,11
8,3,17,1,4,0,3,5,62,11
8,3,19,1,4,0,3,5,85,11
8,3,7,1,4,0,3,5,11,11
8,3,0,0,6,1,3,5,126,11
8,3,21,0,1,0,3,5,6,11
8,3,17,1,2,0,3,5,101,11
9,4,7,1,0,0,3,5,88,11
9,4,9,1,3,0,3,5,101,11
9,4,16,1,5,1,3,5,3,11
9,4,1,0,0,0,3,5,88,9
9,4,14,1,6,1,3,5,101,11
10,4,19,1,6,1,4,5,88,11
10,4,17,1,6,1,4,5,88,11
10,4,0,0,0,0,4,5,11,11
10,4,5,0,2,0,4,5,63,11
10,4,12,1,3,0,4,5,73,9
10,4,17,1,5,1,4,5,101,11
10,4,14,1,0,0,4,5,88,11
10,4,6,0,3,0,4,5,101,11
10,4,15,1,4,0,4,5,3,11
10,4,13,1,5,1,4,5,73,11
10,4,18,1,5,1,4,5,88,11
10,4,15,1,0,0,4,5,88,11
10,4,11,1,2,0,4,5,26,11
10,4,15,1,2,0,4,5,73,11
10,4,15,1,2,0,4,5,109,11
10,4,17,1,3,0,4,5,88,11
10,4,23,0,3,0,4,5,88,11
11,4,14,1,4,0,4,5,106,11
11,4,10,1,5,1,4,5,88,11
11,4,14,1,5,1,4,5,60,9
11,4,17,1,6,1,4,5,88,11
11,4,17,1,2,0,4,5,88,9
11,4,20,1,1,0,4,5,70,11
11,4,19,1,5,1,4,5,88,11
11,4,17,1,0,0,4,5,86,11
11,4,17,1,3,0,4,5,88,11
12,1,11,1,6,1,4,5,101,11
12,1,18,1,6,1,4,5,101,11
12,1,1,0,0,0,4,5,73,11
12,1,11,1,0,0,4,5,1,9
12,1,15,1,6,1,4,5,88,9
2,1,12,1,2,0,1,5,73,11
3,2,9,1,0,0,1,5,101,11
4,2,12,1,3,0,2,5,53,11
9,4,11,1,6,1,3,5,17,11
11,4,13,1,6,1,4,5,88,11
1,1,16,1,1,0,1,5,85,11
1,1,18,1,2,0,1,5,85,11
1,1,21,0,2,0,1,5,70,11
3,2,14,1,5,1,1,5,17,11
6,3,20,1,6,1,2,5,101,11
6,3,0,0,5,1,2,5,101,11
8,3,11,1,4,0,3,5,85,11
11,4,7,1,6,1,4,5,85,11
1,1,12,1,6,1,1,5,85,11
1,1,20,1,0,0,1,5,85,11
1,1,20,1,4,0,1,5,85,11
2,1,12,1,4,0,1,5,73,8
2,1,4,0,3,0,1,5,17,11
2,1,16,1,3,0,1,5,85,11
2,1,16,1,6,1,1,5,85,11
2,1,18,1,1,0,1,5,88,11
2,1,21,0,2,0,1,5,73,11
2,1,11,1,6,1,1,5,109,11
3,2,15,1,6,1,1,5,109,11
3,2,14,1,6,1,1,5,88,11
3,2,11,1,2,0,1,5,85,11
3,2,12,1,5,1,1,5,101,11
3,2,17,1,6,1,1,5,73,11
3,2,12,1,6,1,1,5,73,11
3,2,22,0,2,0,1,5,45,11
3,2,8,1,6,1,1,5,85,11
4,2,17,1,0,0,2,5,85,11
4,2,9,1,3,0,2,5,73,11
4,2,2,0,3,0,2,5,73,11
4,2,20,1,1,0,2,5,16,11
4,2,21,0,1,0,2,5,88,11
5,2,9,1,6,1,2,5,88,11
5,2,19,1,6,1,2,5,17,11
5,2,16,1,5,1,2,5,88,11
6,3,14,1,4,0,2,5,88,11
6,3,8,1,6,1,2,5,101,11
7,3,12,1,1,0,3,5,16,11
7,3,19,1,1,0,3,5,101,11
7,3,19,1,6,1,3,5,110,9
7,3,15,1,2,0,3,5,17,11
8,3,22,0,5,1,3,5,15,11
8,3,6,0,5,1,3,5,88,11
8,3,21,0,3,0,3,5,17,11
8,3,22,0,6,1,3,5,88,11
8,3,11,1,1,0,3,5,73,11
8,3,22,0,2,0,3,5,88,11
8,3,18,1,3,0,3,5,73,11
9,4,3,0,0,0,3,5,85,11
9,4,23,0,1,0,3,5,101,11
9,4,4,0,3,0,3,5,17,8
9,4,12,1,6,1,3,5,73,11
9,4,12,1,0,0,3,5,88,11
9,4,16,1,1,0,3,5,88,9
9,4,15,1,0,0,3,5,88,11
9,4,16,1,0,0,3,5,88,11
10,4,16,1,1,0,4,5,73,11
10,4,14,1,5,1,4,5,85,11
10,4,15,1,5,1,4,5,88,11
10,4,16,1,1,0,4,5,85,11
10,4,0,0,2,0,4,5,17,9
10,4,14,1,6,1,4,5,101,11
11,4,2,0,5,1,4,5,85,11
11,4,18,1,0,0,4,5,38,11
11,4,5,0,3,0,4,5,96,11
1,1,19,1,1,0,1,5,85,11
1,1,22,0,1,0,1,5,85,11
1,1,18,1,2,0,1,5,85,11
1,1,14,1,3,0,1,5,73,11
1,1,9,1,6,1,1,5,88,11
1,1,15,1,6,1,1,5,88,11
1,1,13,1,3,0,1,5,85,11
1,1,18,1,5,1,1,5,101,11
1,1,20,1,3,0,1,5,73,11
1,1,14,1,4,0,1,5,88,11
1,1,15,1,5,1,1,5,88,11
1,1,22,0,6,1,1,5,126,11
1,1,5,0,0,0,1,5,116,11
1,1,15,1,3,0,1,5,85,11
1,1,15,1,6,1,1,5,88,11
2,1,17,1,6,1,1,5,73,11
2,1,21,0,3,0,1,5,73,11
2,1,16,1,0,0,1,5,54,11
2,1,18,1,6,1,1,5,101,11
2,1,20,1,0,0,1,5,88,11
2,1,14,1,2,0,1,5,38,11
2,1,15,1,3,0,1,5,88,11
2,1,7,1,2,0,1,5,85,11
2,1,20,1,2,0,1,5,73,11
3,2,21,0,5,1,1,5,73,11
3,2,14,1,6,1,1,5,38,11
3,2,9,1,0,0,1,5,88,11
3,2,15,1,1,0,1,5,126,11
3,2,19,1,1,0,1,5,73,11
3,2,12,1,2,0,1,5,17,11
3,2,19,1,2,0,1,5,88,11
3,2,19,1,3,0,1,5,88,11
3,2,10,1,4,0,1,5,88,11
3,2,7,1,6,1,1,5,88,11
3,2,0,0,3,0,1,5,88,11
3,2,20,1,4,0,1,5,101,11
3,2,15,1,5,1,1,5,88,11
3,2,11,1,1,0,1,5,88,11
3,2,13,1,2,0,1,5,88,11
3,2,12,1,4,0,1,5,88,11
3,2,9,1,5,1,1,5,88,11
3,2,16,1,0,0,1,5,88,11
3,2,4,0,2,0,1,5,17,11
3,2,12,1,3,0,1,5,88,11
3,2,23,0,4,0,1,5,73,11
3,2,17,1,5,1,1,5,73,11
4,2,10,1,0,0,2,5,88,11
4,2,20,1,2,0,2,5,73,11
4,2,13,1,3,0,2,5,88,11
4,2,13,1,5,1,2,5,73,11
4,2,10,1,1,0,2,5,101,11
4,2,18,1,2,0,2,5,88,11
4,2,6,0,3,0,2,5,88,11
4,2,16,1,3,0,2,5,88,11
4,2,11,1,4,0,2,5,88,11
4,2,20,1,6,1,2,5,85,11
4,2,10,1,0,0,2,5,85,11
4,2,11,1,0,0,2,5,101,11
4,2,20,1,1,0,2,5,88,11
4,2,13,1,5,1,2,5,88,11
4,2,15,1,5,1,2,5,101,11
4,2,10,1,1,0,2,5,88,11
4,2,11,1,1,0,2,5,88,11
4,2,17,1,1,0,2,5,88,11
5,2,12,1,3,0,2,5,88,11
5,2,17,1,4,0,2,5,88,11
5,2,17,1,6,1,2,5,88,11
5,2,14,1,0,0,2,5,101,11
5,2,20,1,4,0,2,5,109,11
6,3,17,1,6,1,2,5,88,11
6,3,9,1,2,0,2,5,73,11
6,3,20,1,4,0,2,5,73,11
6,3,10,1,5,1,2,5,101,11
6,3,22,0,6,1,2,5,26,11
6,3,8,1,3,0,2,5,38,11
6,3,15,1,5,1,2,5,88,11
6,3,8,1,6,1,2,5,101,11
6,3,13,1,1,0,2,5,12,11
7,3,8,1,2,0,3,5,101,11
7,3,19,1,2,0,3,5,105,11
7,3,17,1,5,1,3,5,101,11
7,3,7,1,6,1,3,5,21,11
7,3,12,1,6,1,3,5,88,11
7,3,19,1,6,1,3,5,88,11
7,3,15,1,1,0,3,5,88,11
7,3,2,0,2,0,3,5,54,11
7,3,13,1,2,0,3,5,126,11
7,3,18,1,3,0,3,5,77,11
7,3,21,0,4,0,3,5,88,11
7,3,8,1,0,0,3,5,81,11
8,3,14,1,5,1,3,5,88,11
8,3,5,0,2,0,3,5,88,11
8,3,9,1,0,0,3,5,88,11
8,3,21,0,4,0,3,5,88,11
8,3,12,1,0,0,3,5,88,11
8,3,8,1,3,0,3,5,85,11
8,3,7,1,4,0,3,5,88,11
8,3,11,1,6,1,3,5,88,11
8,3,7,1,0,0,3,5,85,11
8,3,14,1,2,0,3,5,101,11
9,4,4,0,6,1,3,5,88,11
9,4,15,1,6,1,3,5,101,11
9,4,16,1,5,1,3,5,101,11
9,4,19,1,5,1,3,5,88,11
9,4,20,1,1,0,3,5,88,11
9,4,15,1,1,0,3,5,88,11
9,4,10,1,4,0,3,5,88,11
9,4,20,1,5,1,3,5,101,11
9,4,11,1,5,1,3,5,73,11
9,4,15,1,1,0,3,5,88,11
10,4,10,1,1,0,4,5,88,11
10,4,18,1,1,0,4,5,88,11
10,4,8,1,2,0,4,5,88,11
10,4,17,1,3,0,4,5,26,11
10,4,9,1,4,0,4,5,88,11
10,4,10,1,5,1,4,5,88,11
10,4,19,1,5,1,4,5,17,11
10,4,15,1,6,1,4,5,88,11
10,4,19,1,2,0,4,5,88,11
10,4,19,1,5,1,4,5,88,11
10,4,19,1,6,1,4,5,88,11
10,4,17,1,1,0,4,5,88,11
10,4,21,0,2,0,4,5,109,11
10,4,10,1,2,0,4,5,101,11
10,4,9,1,5,1,4,5,88,11
10,4,10,1,1,0,4,5,88,11
10,4,9,1,2,0,4,5,88,11
11,4,16,1,0,0,4,5,38,11
11,4,18,1,3,0,4,5,88,11
11,4,23,0,3,0,4,5,88,11
11,4,19,1,4,0,4,5,88,11
11,4,15,1,0,0,4,5,88,11
11,4,18,1,0,0,4,5,88,11
11,4,23,0,0,0,4,5,88,11
11,4,14,1,1,0,4,5,88,11
11,4,19,1,1,0,4,5,53,11
11,4,10,1,5,1,4,5,88,11
11,4,17,1,6,1,4,5,88,11
11,4,21,0,2,0,4,5,88,11
11,4,10,1,4,0,4,5,101,9
11,4,17,1,1,0,4,5,88,11
11,4,23,0,1,0,4,5,17,11
11,4,9,1,5,1,4,5,88,11
11,4,12,1,5,1,4,5,38,11
12,1,18,1,0,0,4,5,73,11
12,1,16,1,3,0,4,5,38,11
12,1,0,0,4,0,4,5,88,11
12,1,17,1,4,0,4,5,126,11
12,1,19,1,5,1,4,5,38,11
12,1,6,0,0,0,4,5,73,11
12,1,7,1,1,0,4,5,73,11
12,1,14,1,3,0,4,5,88,11
12,1,15,1,4,0,4,5,126,11
12,1,18,1,4,0,4,5,73,11
12,1,21,0,4,0,4,5,73,11
12,1,19,1,0,0,4,5,45,11
1,1,12,1,2,0,1,5,101,11
1,1,8,1,5,1,1,5,85,11
1,1,3,0,0,0,1,5,62,11
1,1,3,0,3,0,1,5,101,11
1,1,15,1,3,0,1,5,62,11
1,1,9,1,4,0,1,5,88,11
1,1,15,1,3,0,1,5,101,11
1,1,21,0,3,0,1,5,62,11
1,1,12,1,6,1,1,5,88,11
2,1,13,1,4,0,1,5,17,11
2,1,9,1,6,1,1,5,88,11
2,1,18,1,1,0,1,5,17,11
2,1,17,1,5,1,1,5,73,11
2,1,16,1,6,1,1,5,62,9
2,1,15,1,1,0,1,5,45,11
2,1,1,0,2,0,1,5,85,11
2,1,0,0,6,1,1,5,73,11
2,1,10,1,0,0,1,5,74,11
2,1,11,1,0,0,1,5,88,11
2,1,18,1,0,0,1,5,88,11
2,1,5,0,3,0,1,5,88,11
3,2,19,1,5,1,1,5,88,9
3,2,8,1,6,1,1,5,12,11
3,2,9,1,2,0,1,5,88,11
3,2,14,1,2,0,1,5,88,11
3,2,14,1,3,0,1,5,88,11
3,2,10,1,6,1,1,5,73,11
3,2,23,0,1,0,1,5,85,11
3,2,11,1,4,0,1,5,19,11
3,2,16,1,5,1,1,5,88,11
3,2,19,1,2,0,1,5,88,11
3,2,18,1,3,0,1,5,62,11
3,2,19,1,3,0,1,5,88,11
3,2,6,0,4,0,1,5,85,11
3,2,13,1,4,0,1,5,88,11
3,2,20,1,6,1,1,5,62,11
3,2,15,1,1,0,1,5,88,11
3,2,11,1,3,0,1,5,88,11
3,2,20,1,5,1,1,5,88,9
3,2,6,0,6,1,1,5,12,8
3,2,22,0,6,1,1,5,85,11
4,2,14,1,0,0,2,5,88,11
4,2,16,1,1,0,2,5,85,9
4,2,20,1,1,0,2,5,88,11
4,2,21,0,3,0,2,5,88,11
4,2,19,1,4,0,2,5,88,11
4,2,20,1,3,0,2,5,88,11
4,2,17,1,4,0,2,5,12,8
4,2,21,0,0,0,2,5,85,11
4,2,20,1,4,0,2,5,88,11
4,2,12,1,4,0,2,5,88,11
5,2,18,1,5,1,2,5,85,11
5,2,10,1,0,0,2,5,88,11
5,2,14,1,2,0,2,5,88,9
5,2,1,0,4,0,2,5,88,11
5,2,21,0,4,0,2,5,88,11
6,3,12,1,6,1,2,5,88,9
6,3,14,1,6,1,2,5,62,11
6,3,11,1,1,0,2,5,88,11
6,3,13,1,1,0,2,5,88,11
6,3,9,1,5,1,2,5,101,11
6,3,1,0,6,1,2,5,88,11
6,3,12,1,0,0,2,5,88,11
6,3,21,0,0,0,2,5,88,11
6,3,20,1,1,0,2,5,88,11
6,3,13,1,4,0,2,5,88,11
6,3,15,1,6,1,2,5,88,11
6,3,8,1,0,0,2,5,88,11
6,3,20,1,0,0,2,5,88,11
6,3,14,1,4,0,2,5,88,11
6,3,20,1,4,0,2,5,88,11
6,3,15,1,0,0,2,5,88,11
6,3,12,1,1,0,2,5,88,11
7,3,20,1,1,0,3,5,88,11
7,3,19,1,2,0,3,5,88,11
7,3,15,1,5,1,3,5,88,9
7,3,10,1,0,0,3,5,88,11
7,3,18,1,0,0,3,5,88,11
7,3,21,0,1,0,3,5,88,11
7,3,10,1,2,0,3,5,88,11
7,3,12,1,2,0,3,5,88,11
7,3,21,0,4,0,3,5,88,11
7,3,19,1,0,0,3,5,88,11
7,3,14,1,3,0,3,5,88,9
7,3,20,1,6,1,3,5,88,11
7,3,22,0,0,0,3,5,88,11
7,3,10,1,1,0,3,5,88,11
7,3,18,1,2,0,3,5,88,11
8,3,4,0,4,0,3,5,88,11
8,3,20,1,5,1,3,5,62,11
8,3,14,1,6,1,3,5,62,11
8,3,19,1,1,0,3,5,88,11
8,3,19,1,2,0,3,5,62,9
8,3,19,1,6,1,3,5,54,11
8,3,21,0,0,0,3,5,74,11
8,3,10,1,3,0,3,5,88,11
8,3,22,0,3,0,3,5,88,11
8,3,18,1,6,1,3,5,62,11
8,3,18,1,3,0,3,5,88,11
8,3,16,1,4,0,3,5,101,11
9,4,0,0,2,0,3,5,88,11
9,4,20,1,2,0,3,5,73,11
9,4,17,1,3,0,3,5,88,11
9,4,13,1,5,1,3,5,88,11
9,4,10,1,2,0,3,5,88,11
9,4,8,1,4,0,3,5,88,9
9,4,12,1,5,1,3,5,88,11
9,4,17,1,5,1,3,5,126,9
9,4,12,1,6,1,3,5,88,9
9,4,20,1,6,1,3,5,62,11
9,4,18,1,1,0,3,5,85,11
9,4,6,0,2,0,3,5,88,11
9,4,14,1,4,0,3,5,56,11
9,4,11,1,0,0,3,5,62,9
9,4,22,0,0,0,3,5,88,11
10,4,6,0,3,0,4,5,88,11
10,4,8,1,3,0,4,5,12,11
10,4,19,1,4,0,4,5,88,11
10,4,20,1,0,0,4,5,73,11
10,4,13,1,1,0,4,5,88,9
10,4,18,1,3,0,4,5,88,11
10,4,1,0,4,0,4,5,85,11
10,4,11,1,6,1,4,5,54,9
10,4,7,1,4,0,4,5,88,11
10,4,13,1,6,1,4,5,88,11
10,4,1,0,2,0,4,5,73,11
10,4,9,1,2,0,4,5,88,9
10,4,21,0,2,0,4,5,85,9
10,4,0,0,6,1,4,5,88,11
10,4,16,1,6,1,4,5,88,9
10,4,14,1,1,0,4,5,88,9
10,4,12,1,3,0,4,5,88,11
11,4,15,1,1,0,4,5,88,11
11,4,19,1,6,1,4,5,85,11
11,4,19,1,0,0,4,5,88,9
11,4,2,0,2,0,4,5,88,11
11,4,0,0,3,0,4,5,85,11
12,1,5,0,3,0,4,5,62,9
12,1,9,1,4,0,4,5,85,11
12,1,20,1,5,1,4,5,62,11
12,1,18,1,0,0,4,5,85,11
12,1,10,1,3,0,4,5,88,11
12,1,23,0,3,0,4,5,62,11
12,1,16,1,5,1,4,5,101,11
12,1,21,0,5,1,4,5,101,11
1,1,23,0,1,0,1,5,17,11
1,1,14,1,1,0,1,5,101,11
1,1,10,1,3,0,1,5,101,11
1,1,13,1,2,0,1,5,101,11
1,1,5,0,6,1,1,5,88,11
1,1,19,1,3,0,1,5,88,11
1,1,15,1,4,0,1,5,85,11
1,1,12,1,4,0,1,5,85,11
1,1,0,0,0,0,1,5,88,11
1,1,18,1,2,0,1,5,88,11
2,1,10,1,0,0,1,5,17,11
2,1,19,1,2,0,1,5,85,11
2,1,3,0,5,1,1,5,101,11
2,1,14,1,3,0,1,5,88,11
2,1,16,1,5,1,1,5,101,11
2,1,12,1,6,1,1,5,88,11
2,1,11,1,0,0,1,5,85,11
3,2,16,1,1,0,1,5,62,11
3,2,8,1,3,0,1,5,88,11
3,2,13,1,0,0,1,5,101,11
3,2,16,1,6,1,1,5,88,11
3,2,17,1,6,1,1,5,70,11
3,2,17,1,6,1,1,5,88,11
3,2,16,1,0,0,1,5,38,11
1,1,4,0,2,0,1,42,85,11
1,1,12,1,2,0,1,42,101,11
1,1,4,0,4,0,1,42,85,11
1,1,15,1,4,0,1,42,101,11
1,1,1,0,5,1,1,42,38,11
1,1,21,0,5,1,1,42,85,11
1,1,9,1,3,0,1,42,54,8
1,1,16,1,1,0,1,42,62,11
1,1,17,1,1,0,1,42,62,11
1,1,19,1,2,0,1,42,38,11
1,1,8,1,4,0,1,42,81,11
1,1,20,1,6,1,1,42,84,8
1,1,5,0,0,0,1,42,84,11
1,1,9,1,2,0,1,42,73,11
1,1,17,1,3,0,1,42,12,11
1,1,6,0,6,1,1,42,85,11
1,1,22,0,3,0,1,42,88,11
2,1,12,1,0,0,1,42,85,11
2,1,16,1,3,0,1,42,88,11
2,1,18,1,4,0,1,42,101,11
2,1,17,1,1,0,1,42,101,11
2,1,11,1,3,0,1,42,101,11
2,1,20,1,4,0,1,42,62,11
2,1,14,1,5,1,1,42,3,11
2,1,16,1,5,1,1,42,88,11
2,1,16,1,5,1,1,42,3,11
2,1,16,1,6,1,1,42,101,11
2,1,22,0,6,1,1,42,3,11
2,1,22,0,4,0,1,42,101,11
2,1,22,0,5,1,1,42,17,11
2,1,3,0,0,0,1,42,73,11
2,1,8,1,0,0,1,42,88,11
2,1,8,1,1,0,1,42,12,11
2,1,17,1,3,0,1,42,17,11
3,2,14,1,4,0,1,42,101,11
3,2,17,1,0,0,1,42,101,11
3,2,13,1,1,0,1,42,101,11
3,2,15,1,1,0,1,42,101,11
3,2,0,0,3,0,1,42,24,11
3,2,12,1,4,0,1,42,101,11
3,2,13,1,6,1,1,42,88,11
3,2,16,1,6,1,1,42,101,11
3,2,14,1,0,0,1,42,101,11
3,2,4,0,2,0,1,42,85,11
3,2,20,1,3,0,1,42,101,11
3,2,14,1,4,0,1,42,101,11
3,2,13,1,1,0,1,42,73,11
3,2,16,1,2,0,1,42,101,11
3,2,11,1,3,0,1,42,103,11
3,2,11,1,6,1,1,42,101,11
3,2,12,1,6,1,1,42,88,11
3,2,16,1,1,0,1,42,85,11
3,2,16,1,3,0,1,42,73,9
3,2,17,1,4,0,1,42,101,11
3,2,22,0,5,1,1,42,17,11
4,2,0,0,1,0,2,42,38,8
4,2,13,1,1,0,2,42,88,11
4,2,2,0,2,0,2,42,85,11
4,2,3,0,2,0,2,42,85,11
4,2,20,1,2,0,2,42,101,11
4,2,9,1,5,1,2,42,74,11
4,2,12,1,5,1,2,42,85,11
4,2,14,1,5,1,2,42,88,11
4,2,1,0,1,0,2,42,73,11
5,2,3,0,4,0,2,42,85,11
5,2,15,1,4,0,2,42,17,11
5,2,15,1,6,1,2,42,85,11
5,2,22,0,1,0,2,42,3,11
5,2,2,0,2,0,2,42,85,11
5,2,20,1,1,0,2,42,12,11
6,3,14,1,3,0,2,42,101,11
6,3,20,1,0,0,2,42,38,11
6,3,6,0,0,0,2,42,85,11
6,3,10,1,5,1,2,42,17,11
6,3,12,1,0,0,2,42,62,9
6,3,13,1,6,1,2,42,12,11
7,3,12,1,1,0,3,42,85,11
7,3,18,1,5,1,3,42,61,11
7,3,11,1,2,0,3,42,85,11
8,3,20,1,3,0,3,42,73,11
8,3,15,1,5,1,3,42,73,9
8,3,19,1,3,0,3,42,101,11
8,3,10,1,5,1,3,42,101,11
8,3,12,1,0,0,3,42,108,9
8,3,23,0,5,1,3,42,73,11
8,3,22,0,2,0,3,42,73,11
8,3,10,1,3,0,3,42,17,11
8,3,15,1,5,1,3,42,88,11
8,3,22,0,1,0,3,42,101,11
8,3,19,1,2,0,3,42,88,11
8,3,15,1,5,1,3,42,101,11
9,4,15,1,6,1,3,42,3,11
9,4,12,1,1,0,3,42,101,11
9,4,14,1,4,0,3,42,101,11
9,4,12,1,6,1,3,42,45,9
9,4,11,1,0,0,3,42,101,11
9,4,21,0,2,0,3,42,85,11
9,4,18,1,6,1,3,42,73,9
9,4,9,1,0,0,3,42,24,11
9,4,9,1,2,0,3,42,101,11
9,4,11,1,2,0,3,42,101,11
9,4,19,1,3,0,3,42,24,11
9,4,7,1,4,0,3,42,109,11
10,4,17,1,2,0,4,42,24,11
10,4,0,0,2,0,4,42,17,11
10,4,16,1,3,0,4,42,88,11
10,4,22,0,5,1,4,42,88,11
10,4,3,0,4,0,4,42,17,11
10,4,16,1,5,1,4,42,62,11
10,4,17,1,3,0,4,42,101,11
11,4,14,1,6,1,4,42,24,11
11,4,16,1,6,1,4,42,88,11
11,4,19,1,6,1,4,42,101,11
11,4,9,1,0,0,4,42,109,11
11,4,18,1,0,0,4,42,101,11
11,4,14,1,5,1,4,42,123,11
11,4,21,0,0,0,4,42,78,11
11,4,0,0,2,0,4,42,101,11
12,1,0,0,0,0,4,42,2,11
12,1,1,0,0,0,4,42,85,11
12,1,3,0,3,0,4,42,85,11
12,1,13,1,4,0,4,42,3,11
12,1,20,1,1,0,4,42,3,11
12,1,1,0,2,0,4,42,62,11
12,1,1,0,4,0,4,42,85,11
12,1,4,0,3,0,4,42,17,11
12,1,2,0,2,0,4,42,12,11
12,1,11,1,5,1,4,42,85,11
12,1,0,0,0,0,4,42,121,11
12,1,17,1,0,0,4,42,88,11
2,1,18,1,3,0,1,42,85,11
2,1,1,0,0,0,1,42,17,11
3,2,9,1,4,0,1,42,85,11
3,2,15,1,6,1,1,42,101,11
4,2,2,0,1,0,2,42,109,11
4,2,23,0,3,0,2,42,73,8
5,2,13,1,4,0,2,42,109,11
6,3,23,0,3,0,2,42,17,11
7,3,14,1,3,0,3,42,17,11
8,3,16,1,5,1,3,42,3,11
9,4,16,1,1,0,3,42,88,11
9,4,11,1,6,1,3,42,101,11
9,4,21,0,2,0,3,42,17,11
10,4,19,1,2,0,4,42,3,11
11,4,3,0,5,1,4,42,17,11
11,4,8,1,4,0,4,42,85,11
11,4,12,1,5,1,4,42,85,11
12,1,17,1,5,1,4,42,85,11
12,1,7,1,6,1,4,42,85,11
1,1,17,1,3,0,1,42,109,11
1,1,13,1,2,0,1,42,101,11
1,1,13,1,3,0,1,42,41,11
2,1,19,1,1,0,1,42,101,11
4,2,16,1,0,0,2,42,88,9
4,2,17,1,1,0,2,42,101,11
5,2,2,0,0,0,2,42,17,11
7,3,2,0,4,0,3,42,17,11
7,3,6,0,1,0,3,42,73,9
8,3,5,0,3,0,3,42,17,11
8,3,14,1,5,1,3,42,101,11
8,3,6,0,1,0,3,42,17,11
9,4,5,0,4,0,3,42,3,11
2,1,15,1,6,1,1,42,88,11
2,1,17,1,2,0,1,42,73,11
3,2,21,0,3,0,1,42,17,11
7,3,20,1,3,0,3,42,39,11
8,3,15,1,4,0,3,42,101,11
8,3,16,1,4,0,3,42,101,11
8,3,12,1,5,1,3,42,88,11
9,4,17,1,1,0,3,42,101,11
9,4,14,1,5,1,3,42,101,11
10,4,11,1,2,0,4,42,101,11
10,4,23,0,2,0,4,42,88,11
11,4,17,1,4,0,4,42,73,11
1,1,21,0,1,0,1,21,73,11
1,1,0,0,6,1,1,21,62,11
1,1,13,1,1,0,1,21,85,11
1,1,22,0,2,0,1,21,73,11
1,1,13,1,3,0,1,21,38,9
1,1,10,1,6,1,1,21,70,11
1,1,10,1,6,1,1,21,45,11
2,1,8,1,2,0,1,21,73,11
2,1,13,1,1,0,1,21,95,11
2,1,12,1,3,0,1,21,45,11
2,1,12,1,3,0,1,21,101,11
2,1,22,0,4,0,1,21,73,11
2,1,18,1,4,0,1,21,109,11
2,1,15,1,5,1,1,21,101,11
2,1,9,1,0,0,1,21,73,8
2,1,2,0,2,0,1,21,85,11
2,1,2,0,2,0,1,21,85,11
2,1,20,1,2,0,1,21,106,11
3,2,12,1,4,0,1,21,101,11
3,2,13,1,6,1,1,21,62,11
3,2,12,1,4,0,1,21,85,11
3,2,16,1,6,1,1,21,85,11
3,2,3,0,2,0,1,21,70,11
3,2,23,0,6,1,1,21,38,11
3,2,17,1,0,0,1,21,101,11
3,2,13,1,2,0,1,21,45,11
3,2,17,1,3,0,1,21,101,11
3,2,20,1,6,1,1,21,101,11
3,2,11,1,6,1,1,21,101,11
4,2,21,0,0,0,2,21,38,8
4,2,21,0,1,0,2,21,101,11
4,2,12,1,5,1,2,21,95,11
4,2,23,0,0,0,2,21,88,11
4,2,22,0,2,0,2,21,95,11
4,2,22,0,2,0,2,21,62,11
4,2,20,1,5,1,2,21,17,11
4,2,21,0,0,0,2,21,47,11
4,2,16,1,4,0,2,21,101,11
4,2,18,1,5,1,2,21,101,11
5,2,21,0,3,0,2,21,73,11
5,2,8,1,1,0,2,21,62,11
6,3,17,1,5,1,2,21,62,11
6,3,10,1,6,1,2,21,63,11
6,3,11,1,4,0,2,21,101,11
6,3,22,0,5,1,2,21,73,11
6,3,15,1,2,0,2,21,88,11
6,3,12,1,3,0,2,21,88,11
7,3,12,1,5,1,3,21,62,11
7,3,18,1,4,0,3,21,88,11
7,3,17,1,5,1,3,21,70,11
7,3,10,1,2,0,3,21,62,11
8,3,20,1,5,1,3,21,109,11
8,3,10,1,5,1,3,21,70,11
8,3,15,1,2,0,3,21,62,11
8,3,11,1,0,0,3,21,70,8
8,3,1,0,6,1,3,21,62,11
8,3,19,1,1,0,3,21,62,11
8,3,7,1,3,0,3,21,70,11
8,3,16,1,4,0,3,21,70,11
8,3,19,1,0,0,3,21,126,11
8,3,2,0,1,0,3,21,101,11
8,3,9,1,3,0,3,21,62,11
9,4,20,1,6,1,3,21,109,11
9,4,13,1,0,0,3,21,73,9
9,4,15,1,0,0,3,21,21,8
9,4,15,1,3,0,3,21,62,11
9,4,8,1,4,0,3,21,109,11
9,4,1,0,1,0,3,21,62,11
10,4,20,1,1,0,4,21,101,11
10,4,22,0,6,1,4,21,70,11
10,4,23,0,2,0,4,21,1,11
10,4,23,0,6,1,4,21,101,11
10,4,10,1,2,0,4,21,61,11
10,4,14,1,6,1,4,21,62,11
11,4,0,0,6,1,4,21,73,11
11,4,22,0,0,0,4,21,88,11
11,4,20,1,2,0,4,21,73,11
11,4,9,1,6,1,4,21,62,11
11,4,16,1,3,0,4,21,109,11
12,1,23,0,6,1,4,21,21,11
12,1,15,1,2,0,4,21,70,11
12,1,11,1,3,0,4,21,126,11
12,1,11,1,3,0,4,21,38,11
12,1,8,1,4,0,4,21,70,11
12,1,11,1,5,1,4,21,88,11
12,1,6,0,5,1,4,21,54,11
12,1,1,0,6,1,4,21,88,11
12,1,2,0,6,1,4,21,62,11
12,1,14,1,1,0,4,21,62,11
12,1,19,1,1,0,4,21,85,11
12,1,19,1,2,0,4,21,62,11
12,1,10,1,5,1,4,21,55,11
1,1,18,1,4,0,1,21,101,11
1,1,20,1,0,0,1,21,54,11
1,1,13,1,5,1,1,21,38,9
4,2,19,1,0,0,2,21,88,11
6,3,21,0,1,0,2,21,73,11
6,3,0,0,1,0,2,21,109,11
7,3,12,1,5,1,3,21,45,11
7,3,11,1,2,0,3,21,73,11
8,3,23,0,5,1,3,21,11,9
9,4,18,1,5,1,3,21,73,11
9,4,18,1,4,0,3,21,85,11
10,4,10,1,0,0,4,21,88,11
11,4,9,1,3,0,4,21,45,11
12,1,16,1,2,0,4,21,70,9
12,1,8,1,4,0,4,21,111,11
12,1,21,0,1,0,4,21,85,11
1,1,12,1,4,0,1,21,70,11
1,1,23,0,4,0,1,21,126,11
1,1,14,1,0,0,1,21,73,11
1,1,14,1,4,0,1,21,73,11
1,1,6,0,2,0,1,21,73,11
2,1,19,1,1,0,1,21,73,11
2,1,6,0,1,0,1,21,43,11
2,1,13,1,2,0,1,21,73,11
2,1,18,1,1,0,1,21,38,11
2,1,11,1,2,0,1,21,101,11
2,1,12,1,3,0,1,21,3,11
3,2,2,0,5,1,1,21,70,9
3,2,15,1,4,0,1,21,38,11
3,2,18,1,0,0,1,21,64,11
3,2,11,1,5,1,1,21,88,11
3,2,13,1,5,1,1,21,73,11
3,2,13,1,6,1,1,21,73,11
4,2,20,1,6,1,2,21,73,11
4,2,7,1,0,0,2,21,73,11
4,2,6,0,6,1,2,21,12,9
5,2,20,1,2,0,2,21,12,11
5,2,3,0,6,1,2,21,70,11
5,2,11,1,3,0,2,21,88,11
6,3,12,1,6,1,2,21,73,11
6,3,19,1,0,0,2,21,88,11
6,3,9,1,1,0,2,21,73,8
7,3,21,0,5,1,3,21,101,11
7,3,6,0,6,1,3,21,85,9
7,3,21,0,1,0,3,21,109,11
7,3,13,1,1,0,3,21,70,11
7,3,13,1,5,1,3,21,73,11
7,3,12,1,1,0,3,21,88,11
7,3,20,1,2,0,3,21,88,11
8,3,19,1,1,0,3,21,45,11
8,3,10,1,0,0,3,21,88,11
8,3,9,1,5,1,3,21,88,11
9,4,17,1,5,1,3,21,21,11
9,4,17,1,5,1,3,21,24,11
9,4,13,1,6,1,3,21,73,11
9,4,19,1,6,1,3,21,101,11
10,4,19,1,2,0,4,21,101,11
10,4,23,0,4,0,4,21,73,11
10,4,12,1,2,0,4,21,88,11
10,4,20,1,5,1,4,21,77,11
11,4,11,1,5,1,4,21,12,11
11,4,21,0,1,0,4,21,101,11
12,1,15,1,6,1,4,21,126,11
12,1,19,1,3,0,4,21,73,11
12,1,20,1,3,0,4,21,12,11
1,1,17,1,3,0,1,21,126,11
1,1,18,1,0,0,1,21,73,11
1,1,4,0,1,0,1,21,17,9
2,1,20,1,2,0,1,21,125,11
2,1,21,0,6,1,1,21,12,11
2,1,14,1,0,0,1,21,88,9
2,1,13,1,6,1,1,21,101,11
3,2,10,1,0,0,1,21,88,8
3,2,15,1,0,0,1,21,88,8
3,2,14,1,4,0,1,21,38,11
3,2,19,1,1,0,1,21,85,11
3,2,13,1,4,0,1,21,101,11
3,2,20,1,4,0,1,21,24,8
3,2,14,1,4,0,1,21,88,8
3,2,20,1,6,1,1,21,101,11
4,2,21,0,0,0,2,21,126,11
4,2,0,0,2,0,2,21,70,11
4,2,21,0,6,1,2,21,73,11
4,2,0,0,0,0,2,21,85,11
5,2,10,1,1,0,2,21,70,9
5,2,10,1,4,0,2,21,73,8
7,3,11,1,2,0,3,21,73,11
7,3,20,1,2,0,3,21,88,11
9,4,4,0,1,0,3,21,55,11
9,4,13,1,1,0,3,21,88,11
9,4,13,1,5,1,3,21,54,11
10,4,6,0,0,0,4,21,85,9
12,1,16,1,2,0,4,21,73,11
1,1,9,1,0,0,1,9,126,11
1,1,21,0,0,0,1,9,126,11
1,1,20,1,2,0,1,9,73,11
1,1,7,1,6,1,1,9,73,11
1,1,14,1,0,0,1,9,126,11
1,1,15,1,3,0,1,9,126,11
1,1,22,0,3,0,1,9,73,8
1,1,3,0,5,1,1,9,126,11
1,1,9,1,5,1,1,9,12,11
1,1,8,1,6,1,1,9,126,11
1,1,0,0,3,0,1,9,108,11
1,1,5,0,3,0,1,9,17,11
1,1,19,1,5,1,1,9,126,11
1,1,16,1,6,1,1,9,126,11
2,1,15,1,1,0,1,9,54,11
2,1,20,1,6,1,1,9,62,11
2,1,19,1,2,0,1,9,38,11
2,1,12,1,5,1,1,9,101,11
2,1,18,1,6,1,1,9,101,11
2,1,10,1,1,0,1,9,101,11
2,1,19,1,2,0,1,9,126,11
2,1,17,1,3,0,1,9,101,11
2,1,16,1,6,1,1,9,126,11
2,1,10,1,0,0,1,9,73,11
2,1,19,1,0,0,1,9,126,11
2,1,19,1,1,0,1,9,101,11
2,1,16,1,3,0,1,9,101,11
3,2,7,1,6,1,1,9,17,11
3,2,16,1,0,0,1,9,101,11
3,2,16,1,0,0,1,9,11,11
3,2,22,0,3,0,1,9,11,11
3,2,19,1,5,1,1,9,101,11
3,2,16,1,5,1,1,9,101,11
3,2,18,1,5,1,1,9,101,11
3,2,22,0,5,1,1,9,101,11
3,2,10,1,6,1,1,9,101,11
3,2,10,1,0,0,1,9,88,11
3,2,18,1,1,0,1,9,101,11
3,2,18,1,4,0,1,9,101,11
4,2,0,0,1,0,2,9,88,11
4,2,3,0,4,0,2,9,73,8
4,2,13,1,4,0,2,9,101,11
4,2,18,1,5,1,2,9,101,11
4,2,23,0,5,1,2,9,88,11
4,2,10,1,0,0,2,9,62,11
4,2,18,1,3,0,2,9,73,9
4,2,0,0,4,0,2,9,126,11
4,2,2,0,4,0,2,9,126,11
4,2,12,1,5,1,2,9,101,11
4,2,14,1,6,1,2,9,101,11
4,2,11,1,1,0,2,9,68,11
4,2,3,0,0,0,2,9,73,8
5,2,21,0,2,0,2,9,62,11
5,2,16,1,2,0,2,9,88,11
5,2,10,1,3,0,2,9,101,11
5,2,18,1,2,0,2,9,101,11
5,2,21,0,5,1,2,9,101,11
5,2,16,1,1,0,2,9,101,11
5,2,3,0,2,0,2,9,73,11
5,2,8,1,2,0,2,9,73,11
5,2,8,1,4,0,2,9,17,11
5,2,0,0,5,1,2,9,88,11
5,2,22,0,0,0,2,9,101,11
5,2,13,1,1,0,2,9,126,11
5,2,17,1,3,0,2,9,73,11
6,3,8,1,6,1,2,9,1,11
6,3,23,0,0,0,2,9,126,11
6,3,23,0,1,0,2,9,126,11
6,3,13,1,2,0,2,9,88,11
6,3,21,0,1,0,2,9,61,11
6,3,15,1,6,1,2,9,126,11
6,3,16,1,0,0,2,9,88,11
6,3,21,0,0,0,2,9,17,11
6,3,4,0,4,0,2,9,101,11
6,3,21,0,4,0,2,9,109,11
7,3,16,1,1,0,3,9,115,9
7,3,16,1,4,0,3,9,73,11
7,3,20,1,5,1,3,9,3,11
7,3,1,0,5,1,3,9,85,11
7,3,12,1,2,0,3,9,62,11
8,3,9,1,5,1,3,9,62,11
8,3,20,1,6,1,3,9,109,11
8,3,21,0,1,0,3,9,60,11
8,3,20,1,2,0,3,9,101,11
8,3,22,0,2,0,3,9,54,11
8,3,14,1,4,0,3,9,54,11
8,3,14,1,4,0,3,9,101,11
8,3,18,1,6,1,3,9,101,11
8,3,21,0,3,0,3,9,88,11
8,3,22,0,6,1,3,9,101,11
8,3,17,1,0,0,3,9,101,11
8,3,12,1,3,0,3,9,17,11
8,3,20,1,4,0,3,9,101,11
8,3,4,0,5,1,3,9,88,11
8,3,20,1,5,1,3,9,101,11
8,3,23,0,6,1,3,9,101,11
8,3,23,0,6,1,3,9,101,11
8,3,23,0,1,0,3,9,62,11
8,3,18,1,4,0,3,9,101,11
9,4,9,1,1,0,3,9,17,11
9,4,12,1,3,0,3,9,73,11
9,4,17,1,3,0,3,9,88,11
9,4,2,0,3,0,3,9,17,11
9,4,13,1,1,0,3,9,88,11
9,4,12,1,2,0,3,9,17,11
9,4,23,0,4,0,3,9,88,11
9,4,16,1,3,0,3,9,88,11
9,4,20,1,1,0,3,9,109,11
9,4,16,1,5,1,3,9,101,11
10,4,14,1,1,0,4,9,24,11
10,4,9,1,4,0,4,9,62,11
10,4,4,0,0,0,4,9,11,8
10,4,18,1,2,0,4,9,101,11
10,4,14,1,1,0,4,9,17,11
10,4,19,1,4,0,4,9,101,11
10,4,2,0,4,0,4,9,101,11
10,4,18,1,0,0,4,9,101,11
10,4,18,1,2,0,4,9,101,11
10,4,19,1,2,0,4,9,24,11
10,4,12,1,2,0,4,9,17,11
11,4,1,0,5,1,4,9,125,11
11,4,14,1,5,1,4,9,73,11
11,4,8,1,3,0,4,9,62,9
11,4,19,1,4,0,4,9,73,9
11,4,12,1,2,0,4,9,70,9
11,4,10,1,0,0,4,9,126,11
11,4,9,1,3,0,4,9,73,11
12,1,21,0,4,0,4,9,126,11
12,1,11,1,6,1,4,9,126,11
12,1,5,0,3,0,4,9,73,9
12,1,0,0,4,0,4,9,73,11
12,1,11,1,2,0,4,9,62,11
12,1,9,1,0,0,4,9,38,11
2,1,15,1,5,1,1,9,73,11
2,1,18,1,5,1,1,9,38,11
3,2,12,1,4,0,1,9,88,11
3,2,15,1,6,1,1,9,88,11
3,2,20,1,5,1,1,9,109,11
3,2,12,1,0,0,1,9,88,11
3,2,22,0,1,0,1,9,17,11
3,2,12,1,4,0,1,9,101,11
3,2,12,1,4,0,1,9,101,11
3,2,14,1,0,0,1,9,24,11
3,2,19,1,4,0,1,9,101,11
4,2,12,1,0,0,2,9,24,11
4,2,17,1,2,0,2,9,101,11
4,2,4,0,5,1,2,9,60,9
5,2,19,1,4,0,2,9,17,9
8,3,12,1,0,0,3,9,88,11
8,3,20,1,0,0,3,9,21,9
9,4,15,1,6,1,3,9,11,9
9,4,14,1,0,0,3,9,88,9
10,4,14,1,2,0,4,9,88,11
11,4,22,0,5,1,4,9,24,11
11,4,0,0,0,0,4,9,38,11
11,4,20,1,5,1,4,9,12,11
12,1,1,0,1,0,4,9,85,11
1,1,15,1,4,0,1,9,88,11
5,2,21,0,6,1,2,9,73,11
12,1,7,1,2,0,4,9,126,11
12,1,13,1,3,0,4,9,60,11
12,1,15,1,3,0,4,9,85,11
1,1,1,0,2,0,1,37,95,11
1,1,12,1,3,0,1,37,38,11
1,1,17,1,3,0,1,37,101,11
1,1,13,1,3,0,1,37,104,8
1,1,18,1,4,0,1,37,62,11
1,1,19,1,2,0,1,37,95,11
1,1,16,1,3,0,1,37,101,11
1,1,8,1,5,1,1,37,55,11
1,1,9,1,6,1,1,37,95,11
1,1,18,1,6,1,1,37,95,11
1,1,8,1,2,0,1,37,88,11
1,1,19,1,2,0,1,37,95,11
1,1,10,1,3,0,1,37,101,11
1,1,13,1,5,1,1,37,88,11
1,1,22,0,5,1,1,37,17,11
1,1,2,0,1,0,1,37,17,11
1,1,9,1,3,0,1,37,62,11
1,1,12,1,6,1,1,37,17,11
1,1,7,1,0,0,1,37,95,11
1,1,13,1,1,0,1,37,54,11
1,1,19,1,2,0,1,37,62,11
1,1,21,0,2,0,1,37,38,11
2,1,9,1,5,1,1,37,62,11
2,1,19,1,5,1,1,37,38,11
2,1,14,1,1,0,1,37,62,11
2,1,8,1,2,0,1,37,38,11
2,1,13,1,4,0,1,37,38,11
2,1,21,0,6,1,1,37,85,11
2,1,23,0,6,1,1,37,85,11
2,1,2,0,2,0,1,37,12,11
2,1,15,1,2,0,1,37,1,11
2,1,17,1,2,0,1,37,85,11
2,1,23,0,4,0,1,37,95,11
2,1,14,1,5,1,1,37,95,11
2,1,15,1,5,1,1,37,101,11
2,1,23,0,5,1,1,37,38,11
2,1,13,1,6,1,1,37,101,11
2,1,19,1,1,0,1,37,101,11
2,1,13,1,2,0,1,37,17,11
2,1,12,1,3,0,1,37,88,11
2,1,9,1,5,1,1,37,38,11
2,1,10,1,5,1,1,37,62,11
2,1,11,1,5,1,1,37,109,11
2,1,12,1,5,1,1,37,21,11
2,1,20,1,6,1,1,37,88,11
2,1,22,0,1,0,1,37,17,11
2,1,13,1,2,0,1,37,17,11
2,1,20,1,2,0,1,37,17,11
2,1,16,1,3,0,1,37,88,11
3,2,15,1,4,0,1,37,88,11
3,2,16,1,4,0,1,37,101,11
3,2,18,1,4,0,1,37,101,11
3,2,12,1,5,1,1,37,88,11
3,2,15,1,5,1,1,37,88,11
3,2,19,1,6,1,1,37,101,11
3,2,21,0,3,0,1,37,101,11
3,2,0,0,5,1,1,37,73,11
3,2,0,0,6,1,1,37,101,11
3,2,0,0,0,0,1,37,98,11
3,2,21,0,1,0,1,37,73,11
3,2,8,1,2,0,1,37,101,11
3,2,15,1,2,0,1,37,62,11
3,2,17,1,4,0,1,37,62,11
3,2,19,1,4,0,1,37,73,11
3,2,18,1,6,1,1,37,77,11
3,2,19,1,5,1,1,37,101,11
3,2,21,0,5,1,1,37,38,11
3,2,14,1,6,1,1,37,101,11
3,2,8,1,1,0,1,37,62,11
3,2,21,0,1,0,1,37,101,11
3,2,5,0,4,0,1,37,62,11
3,2,21,0,5,1,1,37,95,11
3,2,13,1,6,1,1,37,101,11
3,2,14,1,6,1,1,37,101,11
3,2,15,1,6,1,1,37,101,11
3,2,16,1,6,1,1,37,88,11
4,2,12,1,1,0,2,37,101,11
4,2,21,0,2,0,2,37,73,11
4,2,11,1,3,0,2,37,88,11
4,2,16,1,4,0,2,37,101,11
4,2,11,1,5,1,2,37,101,11
4,2,15,1,5,1,2,37,101,11
4,2,19,1,5,1,2,37,62,11
4,2,23,0,5,1,2,37,101,11
4,2,21,0,1,0,2,37,62,11
4,2,17,1,2,0,2,37,101,11
4,2,0,0,3,0,2,37,62,11
4,2,10,1,4,0,2,37,17,11
4,2,12,1,2,0,2,37,101,11
4,2,21,0,3,0,2,37,62,11
4,2,21,0,4,0,2,37,73,11
4,2,18,1,5,1,2,37,38,11
4,2,10,1,6,1,2,37,43,9
4,2,19,1,6,1,2,37,101,11
4,2,14,1,2,0,2,37,101,11
4,2,12,1,3,0,2,37,88,11
4,2,18,1,3,0,2,37,62,11
4,2,12,1,4,0,2,37,101,11
4,2,20,1,4,0,2,37,101,11
4,2,18,1,4,0,2,37,101,11
4,2,15,1,4,0,2,37,101,11
4,2,18,1,5,1,2,37,101,11
4,2,18,1,0,0,2,37,85,11
4,2,2,0,0,0,2,37,62,11
5,2,13,1,2,0,2,37,101,11
5,2,14,1,3,0,2,37,101,11
5,2,10,1,5,1,2,37,88,11
5,2,0,0,2,0,2,37,62,11
5,2,8,1,5,1,2,37,62,11
5,2,19,1,4,0,2,37,101,11
5,2,16,1,5,1,2,37,101,11
5,2,8,1,0,0,2,37,62,11
5,2,20,1,1,0,2,37,101,11
5,2,20,1,1,0,2,37,101,11
5,2,18,1,6,1,2,37,101,11
5,2,0,0,0,0,2,37,101,11
5,2,15,1,2,0,2,37,101,11
6,3,12,1,5,1,2,37,11,8
6,3,23,0,5,1,2,37,73,11
6,3,17,1,6,1,2,37,101,11
6,3,15,1,6,1,2,37,101,11
6,3,19,1,4,0,2,37,101,11
6,3,7,1,5,1,2,37,101,11
6,3,11,1,5,1,2,37,101,11
6,3,20,1,5,1,2,37,101,11
6,3,17,1,6,1,2,37,17,11
6,3,12,1,0,0,2,37,12,11
6,3,12,1,1,0,2,37,101,11
6,3,0,0,2,0,2,37,109,11
6,3,9,1,2,0,2,37,101,11
6,3,13,1,3,0,2,37,88,11
6,3,22,0,5,1,2,37,101,11
6,3,15,1,6,1,2,37,11,11
6,3,18,1,1,0,2,37,88,11
6,3,19,1,2,0,2,37,88,11
6,3,23,0,2,0,2,37,95,11
6,3,9,1,3,0,2,37,101,11
6,3,12,1,3,0,2,37,38,11
6,3,11,1,5,1,2,37,101,11
6,3,12,1,5,1,2,37,33,11
7,3,13,1,1,0,3,37,88,11
7,3,18,1,3,0,3,37,3,11
7,3,9,1,4,0,3,37,101,11
7,3,22,0,4,0,3,37,101,11
7,3,12,1,0,0,3,37,101,11
7,3,15,1,1,0,3,37,101,11
7,3,2,0,2,0,3,37,109,11
7,3,10,1,3,0,3,37,17,11
7,3,14,1,3,0,3,37,73,11
7,3,16,1,4,0,3,37,101,11
7,3,20,1,2,0,3,37,101,11
7,3,18,1,3,0,3,37,101,11
7,3,20,1,3,0,3,37,101,11
7,3,17,1,6,1,3,37,101,11
7,3,15,1,0,0,3,37,101,11
7,3,16,1,2,0,3,37,101,11
7,3,19,1,0,0,3,37,101,11
7,3,21,0,0,0,3,37,101,11
7,3,11,1,1,0,3,37,101,11
8,3,10,1,3,0,3,37,43,9
8,3,19,1,4,0,3,37,101,11
8,3,20,1,4,0,3,37,101,11
8,3,16,1,2,0,3,37,101,11
8,3,15,1,1,0,3,37,12,11
8,3,5,0,0,0,3,37,70,11
8,3,17,1,1,0,3,37,2,11
8,3,13,1,3,0,3,37,88,11
8,3,15,1,3,0,3,37,101,11
8,3,15,1,3,0,3,37,101,11
8,3,14,1,6,1,3,37,101,11
8,3,13,1,1,0,3,37,101,11
8,3,18,1,2,0,3,37,126,11
8,3,5,0,3,0,3,37,17,11
8,3,7,1,3,0,3,37,101,11
8,3,15,1,5,1,3,37,88,11
9,4,19,1,6,1,3,37,17,11
9,4,21,0,0,0,3,37,101,11
9,4,2,0,1,0,3,37,17,11
9,4,15,1,1,0,3,37,101,11
9,4,19,1,1,0,3,37,43,11
9,4,20,1,1,0,3,37,101,11
9,4,13,1,2,0,3,37,88,11
9,4,20,1,2,0,3,37,101,11
9,4,14,1,4,0,3,37,101,11
9,4,12,1,5,1,3,37,101,11
9,4,12,1,6,1,3,37,101,11
9,4,17,1,6,1,3,37,101,11
9,4,19,1,6,1,3,37,101,11
9,4,11,1,0,0,3,37,101,11
9,4,21,0,0,0,3,37,101,11
9,4,19,1,1,0,3,37,101,11
9,4,23,0,2,0,3,37,101,11
9,4,15,1,4,0,3,37,12,11
9,4,17,1,0,0,3,37,88,11
9,4,11,1,3,0,3,37,18,11
9,4,15,1,3,0,3,37,88,11
9,4,16,1,3,0,3,37,30,11
9,4,17,1,4,0,3,37,101,11
9,4,19,1,4,0,3,37,88,11
9,4,12,1,5,1,3,37,101,11
9,4,13,1,5,1,3,37,101,11
9,4,16,1,5,1,3,37,3,11
9,4,19,1,5,1,3,37,101,11
9,4,16,1,6,1,3,37,101,11
9,4,21,0,6,1,3,37,95,11
9,4,17,1,0,0,3,37,101,11
10,4,12,1,1,0,4,37,101,11
10,4,14,1,2,0,4,37,101,11
10,4,17,1,2,0,4,37,101,11
10,4,10,1,2,0,4,37,101,11
10,4,14,1,6,1,4,37,73,11
10,4,13,1,1,0,4,37,21,11
10,4,12,1,4,0,4,37,101,11
10,4,15,1,4,0,4,37,101,11
10,4,5,0,0,0,4,37,11,11
10,4,15,1,2,0,4,37,101,11
10,4,12,1,4,0,4,37,101,11
10,4,12,1,4,0,4,37,88,11
10,4,15,1,4,0,4,37,101,11
10,4,18,1,5,1,4,37,101,11
10,4,17,1,6,1,4,37,108,11
10,4,13,1,0,0,4,37,88,11
10,4,0,0,2,0,4,37,95,11
10,4,14,1,2,0,4,37,101,11
10,4,17,1,2,0,4,37,101,11
11,4,8,1,4,0,4,37,101,11
11,4,4,0,5,1,4,37,101,11
11,4,14,1,6,1,4,37,101,11
11,4,21,0,6,1,4,37,101,11
11,4,16,1,5,1,4,37,17,11
11,4,15,1,3,0,4,37,17,11
11,4,0,0,4,0,4,37,73,11
11,4,4,0,6,1,4,37,95,11
11,4,4,0,6,1,4,37,31,11
11,4,18,1,6,1,4,37,62,11
11,4,19,1,1,0,4,37,124,11
11,4,11,1,5,1,4,37,88,11
11,4,13,1,5,1,4,37,88,11
12,1,18,1,6,1,4,37,38,11
12,1,16,1,3,0,4,37,62,11
12,1,13,1,5,1,4,37,109,11
12,1,15,1,5,1,4,37,17,11
12,1,9,1,6,1,4,37,101,11
12,1,11,1,6,1,4,37,73,11
12,1,13,1,2,0,4,37,101,11
12,1,21,0,2,0,4,37,62,11
12,1,21,0,6,1,4,37,95,11
12,1,17,1,1,0,4,37,70,11
12,1,15,1,5,1,4,37,12,11
12,1,14,1,6,1,4,37,62,9
12,1,17,1,6,1,4,37,101,11
12,1,13,1,3,0,4,37,70,11
12,1,10,1,4,0,4,37,12,11
12,1,11,1,6,1,4,37,95,11
12,1,20,1,6,1,4,37,62,11
12,1,23,0,6,1,4,37,73,11
12,1,16,1,6,1,4,37,101,11
12,1,13,1,0,0,4,37,101,11
12,1,16,1,0,0,4,37,38,11
12,1,21,0,0,0,4,37,11,11
12,1,19,1,1,0,4,37,95,11
1,1,13,1,1,0,1,37,38,11
4,2,12,1,5,1,2,37,88,11
6,3,17,1,4,0,2,37,109,11
6,3,8,1,6,1,2,37,108,11
8,3,20,1,4,0,3,37,101,11
8,3,21,0,5,1,3,37,3,11
12,1,15,1,5,1,4,37,70,11
1,1,12,1,2,0,1,37,101,11
1,1,5,0,2,0,1,37,11,8
1,1,14,1,5,1,1,37,60,9
2,1,12,1,3,0,1,37,101,11
2,1,15,1,3,0,1,37,101,11
2,1,16,1,3,0,1,37,101,11
3,2,17,1,2,0,1,37,88,11
3,2,10,1,4,0,1,37,6,9
4,2,10,1,1,0,2,37,17,11
4,2,14,1,3,0,2,37,77,11
6,3,18,1,2,0,2,37,85,11
8,3,2,0,1,0,3,37,101,11
9,4,12,1,6,1,3,37,17,11
9,4,16,1,2,0,3,37,88,11
9,4,19,1,3,0,3,37,101,11
9,4,13,1,0,0,3,37,101,11
10,4,17,1,2,0,4,37,17,11
11,4,14,1,2,0,4,37,101,11
11,4,8,1,3,0,4,37,109,11
11,4,23,0,4,0,4,37,38,11
1,1,0,0,1,0,1,11,85,11
1,1,18,1,1,0,1,11,17,11
1,1,18,1,2,0,1,11,95,11
1,1,19,1,5,1,1,11,126,11
1,1,11,1,6,1,1,11,126,11
1,1,21,0,2,0,1,11,85,11
1,1,0,0,3,0,1,11,85,11
1,1,15,1,6,1,1,11,60,9
1,1,13,1,3,0,1,11,101,11
1,1,10,1,6,1,1,11,88,11
1,1,10,1,2,0,1,11,85,11
1,1,8,1,3,0,1,11,109,11
1,1,11,1,6,1,1,11,85,11
1,1,16,1,0,0,1,11,62,11
2,1,20,1,6,1,1,11,85,11
2,1,11,1,6,1,1,11,88,11
2,1,21,0,6,1,1,11,85,11
2,1,12,1,0,0,1,11,62,11
2,1,19,1,1,0,1,11,62,11
2,1,21,0,5,1,1,11,10,11
2,1,21,0,6,1,1,11,85,11
2,1,10,1,1,0,1,11,85,11
2,1,21,0,1,0,1,11,85,11
2,1,14,1,3,0,1,11,38,11
2,1,10,1,4,0,1,11,17,11
2,1,22,0,5,1,1,11,12,11
2,1,14,1,6,1,1,11,38,11
2,1,22,0,6,1,1,11,126,11
2,1,9,1,5,1,1,11,44,11
2,1,12,1,6,1,1,11,54,9
2,1,21,0,6,1,1,11,126,11
2,1,11,1,1,0,1,11,60,9
2,1,7,1,3,0,1,11,126,11
2,1,19,1,3,0,1,11,88,11
3,2,12,1,2,0,1,11,85,11
3,2,22,0,2,0,1,11,101,11
3,2,12,1,5,1,1,11,62,11
3,2,9,1,2,0,1,11,38,11
3,2,21,0,5,1,1,11,85,11
3,2,3,0,5,1,1,11,88,11
3,2,16,1,2,0,1,11,88,11
3,2,8,1,4,0,1,11,110,11
3,2,20,1,4,0,1,11,79,11
4,2,17,1,0,0,2,11,85,11
4,2,10,1,1,0,2,11,88,11
4,2,8,1,4,0,2,11,62,11
4,2,23,0,6,1,2,11,101,11
4,2,14,1,6,1,2,11,85,11
4,2,0,0,0,0,2,11,73,9
4,2,19,1,4,0,2,11,62,11
4,2,13,1,3,0,2,11,126,11
4,2,16,1,6,1,2,11,38,11
4,2,15,1,0,0,2,11,126,11
4,2,15,1,0,0,2,11,126,11
4,2,6,0,6,1,2,11,62,11
4,2,1,0,0,0,2,11,3,11
4,2,21,0,1,0,2,11,88,11
5,2,18,1,3,0,2,11,62,11
5,2,14,1,4,0,2,11,62,11
5,2,19,1,6,1,2,11,85,11
5,2,18,1,0,0,2,11,17,11
5,2,12,1,1,0,2,11,101,11
5,2,20,1,2,0,2,11,101,11
5,2,15,1,6,1,2,11,81,11
6,3,2,0,5,1,2,11,80,11
6,3,20,1,6,1,2,11,61,11
6,3,18,1,0,0,2,11,54,11
6,3,18,1,0,0,2,11,61,11
6,3,9,1,3,0,2,11,28,11
6,3,15,1,6,1,2,11,101,11
6,3,21,0,1,0,2,11,85,11
6,3,18,1,2,0,2,11,62,11
6,3,0,0,5,1,2,11,101,11
6,3,8,1,2,0,2,11,62,11
6,3,10,1,2,0,2,11,85,11
6,3,0,0,3,0,2,11,62,11
6,3,0,0,5,1,2,11,85,11
6,3,23,0,5,1,2,11,85,11
6,3,9,1,6,1,2,11,62,11
7,3,17,1,0,0,3,11,102,11
7,3,18,1,0,0,3,11,85,11
7,3,18,1,1,0,3,11,62,11
7,3,2,0,2,0,3,11,85,11
7,3,17,1,4,0,3,11,85,11
7,3,17,1,4,0,3,11,85,11
7,3,20,1,4,0,3,11,73,11
7,3,17,1,4,0,3,11,73,11
7,3,17,1,4,0,3,11,85,11
7,3,17,1,4,0,3,11,85,11
7,3,17,1,4,0,3,11,115,11
7,3,13,1,0,0,3,11,62,11
7,3,20,1,2,0,3,11,85,11
7,3,19,1,2,0,3,11,85,11
7,3,21,0,2,0,3,11,85,11
7,3,20,1,2,0,3,11,85,11
7,3,20,1,2,0,3,11,85,11
7,3,14,1,2,0,3,11,62,11
7,3,18,1,2,0,3,11,85,11
7,3,13,1,5,1,3,11,101,11
7,3,18,1,6,1,3,11,109,11
7,3,17,1,1,0,3,11,17,11
7,3,19,1,0,0,3,11,73,11
7,3,0,0,1,0,3,11,62,11
7,3,18,1,0,0,3,11,109,11
7,3,4,0,2,0,3,11,17,11
8,3,12,1,6,1,3,11,126,11
8,3,12,1,0,0,3,11,60,11
8,3,1,0,4,0,3,11,101,11
8,3,7,1,4,0,3,11,85,11
8,3,0,0,2,0,3,11,28,11
8,3,2,0,4,0,3,11,101,11
8,3,11,1,4,0,3,11,62,11
9,4,23,0,6,1,3,11,62,11
9,4,2,0,6,1,3,11,101,11
9,4,6,0,4,0,3,11,95,11
9,4,23,0,6,1,3,11,85,11
9,4,4,0,6,1,3,11,104,11
9,4,11,1,1,0,3,11,85,11
9,4,14,1,3,0,3,11,98,11
9,4,17,1,5,1,3,11,85,11
9,4,17,1,6,1,3,11,85,8
9,4,19,1,0,0,3,11,101,11
9,4,12,1,5,1,3,11,62,11
9,4,13,1,0,0,3,11,24,11
9,4,0,0,4,0,3,11,101,11
9,4,18,1,6,1,3,11,85,11
9,4,19,1,0,0,3,11,85,11
10,4,11,1,2,0,4,11,110,11
10,4,15,1,3,0,4,11,85,9
10,4,15,1,0,0,4,11,62,11
10,4,14,1,0,0,4,11,54,11
10,4,5,0,1,0,4,11,70,11
10,4,15,1,1,0,4,11,73,9
10,4,20,1,4,0,4,11,73,11
10,4,19,1,4,0,4,11,62,11
10,4,18,1,4,0,4,11,62,11
10,4,17,1,0,0,4,11,70,9
10,4,13,1,5,1,4,11,115,11
10,4,18,1,0,0,4,11,85,11
10,4,8,1,1,0,4,11,62,11
10,4,12,1,1,0,4,11,101,11
10,4,18,1,1,0,4,11,62,11
11,4,19,1,4,0,4,11,85,11
11,4,21,0,3,0,4,11,126,11
11,4,3,0,1,0,4,11,70,11
11,4,19,1,4,0,4,11,85,11
11,4,14,1,1,0,4,11,62,11
11,4,17,1,1,0,4,11,38,9
11,4,21,0,3,0,4,11,11,9
11,4,14,1,4,0,4,11,17,11
12,1,8,1,0,0,4,11,85,11
12,1,8,1,0,0,4,11,17,11
12,1,15,1,1,0,4,11,85,11
12,1,6,0,4,0,4,11,126,11
12,1,19,1,0,0,4,11,85,11
12,1,7,1,0,0,4,11,11,9
12,1,4,0,2,0,4,11,17,11
12,1,20,1,3,0,4,11,85,11
12,1,20,1,3,0,4,11,62,11
12,1,12,1,5,1,4,11,85,11
12,1,7,1,0,0,4,11,95,11
12,1,18,1,3,0,4,11,70,9
12,1,20,1,6,1,4,11,95,11
12,1,20,1,6,1,4,11,85,11
12,1,7,1,0,0,4,11,81,11
12,1,14,1,1,0,4,11,24,11
12,1,13,1,2,0,4,11,62,9
12,1,17,1,5,1,4,11,126,11
1,1,9,1,5,1,1,11,85,11
1,1,6,0,6,1,1,11,110,11
1,1,11,1,0,0,1,11,85,11
3,2,8,1,0,0,1,11,33,11
3,2,19,1,4,0,1,11,33,11
3,2,9,1,5,1,1,11,33,11
4,2,7,1,1,0,2,11,110,11
6,3,16,1,0,0,2,11,85,11
6,3,10,1,0,0,2,11,77,11
6,3,19,1,3,0,2,11,85,11
6,3,19,1,3,0,2,11,85,11
7,3,11,1,1,0,3,11,85,11
7,3,14,1,2,0,3,11,85,11
7,3,15,1,2,0,3,11,73,11
8,3,6,0,4,0,3,11,101,11
9,4,10,1,6,1,3,11,110,11
9,4,9,1,0,0,3,11,110,11
10,4,12,1,2,0,4,11,110,11
10,4,15,1,3,0,4,11,110,9
12,1,17,1,0,0,4,11,17,11
2,1,13,1,6,1,1,11,73,11
3,2,14,1,1,0,1,11,109,11
5,2,8,1,4,0,2,11,24,11
11,4,12,1,4,0,4,11,73,11
1,1,10,1,3,0,1,11,126,11
1,1,18,1,3,0,1,11,62,11
1,1,1,0,0,0,1,11,126,11
1,1,16,1,2,0,1,11,126,11
1,1,11,1,5,1,1,11,126,11
1,1,16,1,6,1,1,11,126,11
1,1,18,1,6,1,1,11,126,11
1,1,19,1,6,1,1,11,62,11
1,1,0,0,2,0,1,11,52,11
1,1,10,1,0,0,1,11,17,8
1,1,18,1,5,1,1,11,126,11
2,1,20,1,6,1,1,11,70,11
2,1,13,1,0,0,1,11,126,11
2,1,12,1,3,0,1,11,101,11
3,2,13,1,4,0,1,11,126,11
3,2,15,1,2,0,1,11,12,11
3,2,4,0,5,1,1,11,45,11
3,2,14,1,6,1,1,11,101,11
3,2,21,0,4,0,1,11,24,8
3,2,16,1,1,0,1,11,125,11
4,2,7,1,1,0,2,11,73,8
4,2,15,1,3,0,2,11,88,11
4,2,21,0,3,0,2,11,59,11
4,2,18,1,0,0,2,11,115,11
5,2,18,1,2,0,2,11,21,11
5,2,11,1,4,0,2,11,101,11
6,3,10,1,6,1,2,11,101,11
6,3,22,0,6,1,2,11,109,11
6,3,18,1,2,0,2,11,101,11
6,3,22,0,3,0,2,11,73,8
6,3,11,1,4,0,2,11,88,11
6,3,8,1,3,0,2,11,24,11
7,3,16,1,5,1,3,11,109,11
7,3,16,1,4,0,3,11,88,11
7,3,13,1,5,1,3,11,88,11
8,3,0,0,5,1,3,11,62,11
8,3,21,0,3,0,3,11,101,11
8,3,1,0,0,0,3,11,66,11
8,3,14,1,3,0,3,11,88,8
9,4,23,0,0,0,3,11,73,11
9,4,23,0,1,0,3,11,88,11
9,4,7,1,3,0,3,11,12,11
9,4,2,0,5,1,3,11,12,9
9,4,20,1,2,0,3,11,24,11
9,4,15,1,6,1,3,11,12,11
9,4,16,1,6,1,3,11,88,11
9,4,19,1,0,0,3,11,88,11
10,4,13,1,3,0,4,11,88,9
10,4,23,0,3,0,4,11,101,11
10,4,19,1,6,1,4,11,17,11
10,4,16,1,0,0,4,11,24,11
10,4,12,1,6,1,4,11,24,11
11,4,19,1,0,0,4,11,126,11
11,4,4,0,4,0,4,11,126,11
11,4,7,1,5,1,4,11,126,11
12,1,8,1,4,0,4,11,126,11
12,1,18,1,6,1,4,11,62,11
12,1,19,1,6,1,4,11,126,11
1,1,22,0,4,0,1,11,17,11
2,1,2,0,0,0,1,11,73,9
4,2,20,1,5,1,2,11,73,8
6,3,6,0,1,0,2,11,17,11
8,3,17,1,6,1,3,11,11,8
8,3,19,1,5,1,3,11,85,11
1,1,16,1,3,0,1,11,95,11
1,1,18,1,3,0,1,11,38,11
1,1,13,1,1,0,1,11,126,11
1,1,17,1,0,0,1,11,73,11
2,1,8,1,5,1,1,11,73,9
2,1,10,1,5,1,1,11,95,11
2,1,5,0,3,0,1,11,12,11
2,1,20,1,3,0,1,11,73,11
2,1,8,1,0,0,1,11,73,11
2,1,13,1,4,0,1,11,73,11
2,1,16,1,5,1,1,11,62,11
2,1,7,1,3,0,1,11,55,11
3,2,1,0,4,0,1,11,73,11
3,2,15,1,5,1,1,11,73,11
4,2,13,1,6,1,2,11,73,11
5,2,13,1,4,0,2,11,88,11
5,2,20,1,2,0,2,11,73,11
5,2,12,1,3,0,2,11,38,11
5,2,14,1,3,0,2,11,101,11
6,3,15,1,0,0,2,11,88,11
6,3,1,0,2,0,2,11,88,11
6,3,17,1,1,0,2,11,45,11
6,3,9,1,2,0,2,11,73,8
7,3,16,1,2,0,3,11,12,11
7,3,20,1,0,0,3,11,73,11
7,3,16,1,0,0,3,11,88,9
7,3,17,1,2,0,3,11,88,11
8,3,4,0,3,0,3,11,101,11
8,3,2,0,4,0,3,11,12,11
9,4,14,1,0,0,3,11,88,11
10,4,11,1,1,0,4,11,101,11
10,4,13,1,1,0,4,11,124,11
10,4,11,1,3,0,4,11,24,9
10,4,14,1,6,1,4,11,73,11
10,4,11,1,2,0,4,11,73,11
10,4,13,1,1,0,4,11,88,11
11,4,17,1,6,1,4,11,70,11
11,4,20,1,0,0,4,11,88,11
11,4,11,1,5,1,4,11,73,11
12,1,10,1,4,0,4,11,73,11
12,1,5,0,3,0,4,11,12,11
12,1,15,1,4,0,4,11,11,11
12,1,13,1,0,0,4,11,55,11
1,1,1,0,3,0,1,11,108,11
1,1,13,1,5,1,1,11,73,11
4,2,6,0,6,1,2,11,17,11
4,2,19,1,4,0,2,11,109,11
8,3,14,1,4,0,3,11,3,11
9,4,2,0,3,0,3,11,36,11
11,4,21,0,6,1,4,11,73,11
12,1,18,1,0,0,4,11,60,11
12,1,12,1,5,1,4,11,108,9
1,1,18,1,1,0,1,19,62,11
1,1,1,0,1,0,1,19,126,11
1,1,0,0,1,0,1,19,62,11
1,1,6,0,6,1,1,19,126,11
1,1,21,0,4,0,1,19,126,11
1,1,5,0,5,1,1,19,126,11
1,1,10,1,5,1,1,19,70,11
1,1,16,1,5,1,1,19,38,8
1,1,2,0,5,1,1,19,62,11
1,1,9,1,6,1,1,19,62,9
1,1,1,0,2,0,1,19,54,11
1,1,19,1,3,0,1,19,106,11
1,1,17,1,1,0,1,19,62,8
1,1,0,0,2,0,1,19,62,11
1,1,21,0,3,0,1,19,62,11
1,1,1,0,2,0,1,19,126,11
2,1,13,1,6,1,1,19,73,9
2,1,16,1,5,1,1,19,73,11
2,1,20,1,5,1,1,19,54,11
2,1,21,0,6,1,1,19,17,11
2,1,12,1,2,0,1,19,38,11
2,1,23,0,3,0,1,19,73,9
2,1,23,0,4,0,1,19,62,11
2,1,6,0,4,0,1,19,126,11
2,1,1,0,5,1,1,19,116,11
2,1,4,0,5,1,1,19,17,11
2,1,0,0,5,1,1,19,126,11
2,1,4,0,2,0,1,19,116,11
2,1,20,1,0,0,1,19,62,11
2,1,6,0,2,0,1,19,126,9
2,1,11,1,2,0,1,19,126,11
3,2,6,0,4,0,1,19,126,11
3,2,19,1,0,0,1,19,62,11
3,2,2,0,1,0,1,19,70,11
3,2,6,0,2,0,1,19,126,11
3,2,9,1,3,0,1,19,126,11
3,2,5,0,4,0,1,19,126,11
3,2,4,0,6,1,1,19,126,11
3,2,1,0,0,0,1,19,62,9
3,2,7,1,1,0,1,19,126,11
3,2,23,0,2,0,1,19,73,11
3,2,11,1,5,1,1,19,61,11
3,2,5,0,0,0,1,19,126,11
3,2,5,0,0,0,1,19,126,11
3,2,5,0,0,0,1,19,126,11
3,2,6,0,4,0,1,19,126,11
3,2,3,0,4,0,1,19,56,11
3,2,20,1,4,0,1,19,62,11
3,2,3,0,6,1,1,19,126,11
3,2,14,1,5,1,1,19,85,11
4,2,0,0,0,0,2,19,62,11
4,2,8,1,5,1,2,19,61,11
4,2,12,1,2,0,2,19,7,11
4,2,23,0,2,0,2,19,62,11
4,2,9,1,2,0,2,19,62,11
4,2,10,1,2,0,2,19,76,11
4,2,7,1,4,0,2,19,126,11
4,2,8,1,5,1,2,19,126,9
4,2,11,1,5,1,2,19,54,11
4,2,13,1,6,1,2,19,74,11
4,2,2,0,0,0,2,19,126,11
4,2,2,0,0,0,2,19,126,11
4,2,3,0,0,0,2,19,126,11
4,2,3,0,0,0,2,19,126,11
4,2,4,0,0,0,2,19,126,11
4,2,9,1,3,0,2,19,61,9
4,2,17,1,0,0,2,19,54,11
5,2,15,1,5,1,2,19,126,11
5,2,20,1,2,0,2,19,62,11
5,2,14,1,5,1,2,19,62,8
5,2,1,0,6,1,2,19,126,11
5,2,4,0,6,1,2,19,126,11
5,2,4,0,6,1,2,19,126,11
5,2,5,0,6,1,2,19,126,11
5,2,22,0,3,0,2,19,17,11
5,2,22,0,3,0,2,19,126,11
5,2,2,0,5,1,2,19,44,11
6,3,4,0,0,0,2,19,17,11
6,3,13,1,2,0,2,19,88,11
6,3,21,0,1,0,2,19,70,11
6,3,5,0,1,0,2,19,95,11
6,3,5,0,4,0,2,19,126,11
6,3,11,1,5,1,2,19,73,9
6,3,2,0,2,0,2,19,38,9
6,3,11,1,3,0,2,19,62,11
6,3,4,0,3,0,2,19,62,11
6,3,4,0,5,1,2,19,126,11
7,3,2,0,2,0,3,19,101,11
7,3,2,0,1,0,3,19,62,11
7,3,19,1,4,0,3,19,7,11
7,3,14,1,6,1,3,19,85,11
7,3,12,1,4,0,3,19,101,11
7,3,13,1,5,1,3,19,62,11
7,3,10,1,0,0,3,19,38,11
7,3,1,0,2,0,3,19,70,11
7,3,15,1,2,0,3,19,73,11
7,3,23,0,4,0,3,19,73,8
7,3,12,1,2,0,3,19,62,11
8,3,9,1,4,0,3,19,62,11
8,3,5,0,1,0,3,19,88,11
8,3,13,1,2,0,3,19,126,11
8,3,22,0,2,0,3,19,13,11
8,3,15,1,4,0,3,19,85,11
8,3,16,1,5,1,3,19,62,11
8,3,18,1,0,0,3,19,62,11
8,3,20,1,0,0,3,19,98,11
8,3,7,1,5,1,3,19,73,11
8,3,7,1,6,1,3,19,126,11
8,3,2,0,0,0,3,19,73,8
8,3,18,1,1,0,3,19,17,11
8,3,1,0,2,0,3,19,73,11
9,4,9,1,1,0,3,19,17,11
9,4,17,1,2,0,3,19,62,11
9,4,0,0,4,0,3,19,55,11
9,4,13,1,6,1,3,19,62,11
9,4,10,1,2,0,3,19,45,11
9,4,23,0,6,1,3,19,62,11
9,4,6,0,5,1,3,19,126,11
9,4,13,1,0,0,3,19,62,11
10,4,14,1,2,0,4,19,70,11
10,4,21,0,2,0,4,19,126,11
10,4,16,1,5,1,4,19,62,11
10,4,20,1,6,1,4,19,70,11
10,4,23,0,0,0,4,19,126,11
10,4,21,0,1,0,4,19,98,11
10,4,11,1,1,0,4,19,95,11
10,4,16,1,2,0,4,19,62,11
10,4,1,0,3,0,4,19,62,11
10,4,11,1,3,0,4,19,17,11
11,4,8,1,5,1,4,19,62,11
11,4,18,1,6,1,4,19,85,11
11,4,18,1,4,0,4,19,73,11
11,4,4,0,0,0,4,19,126,11
11,4,4,0,0,0,4,19,126,11
11,4,12,1,4,0,4,19,126,11
11,4,9,1,2,0,4,19,62,8
11,4,17,1,3,0,4,19,62,11
11,4,16,1,4,0,4,19,62,11
11,4,12,1,4,0,4,19,62,11
11,4,3,0,1,0,4,19,70,11
11,4,9,1,1,0,4,19,62,11
11,4,8,1,1,0,4,19,54,11
11,4,21,0,1,0,4,19,62,11
11,4,10,1,4,0,4,19,62,11
12,1,13,1,6,1,4,19,73,11
12,1,19,1,6,1,4,19,126,11
12,1,0,0,5,1,4,19,62,11
12,1,22,0,6,1,4,19,17,11
12,1,17,1,0,0,4,19,45,11
12,1,4,0,3,0,4,19,18,11
12,1,3,0,4,0,4,19,116,11
12,1,19,1,6,1,4,19,62,11
12,1,2,0,0,0,4,19,17,11
12,1,6,0,0,0,4,19,62,11
12,1,0,0,4,0,4,19,62,11
12,1,20,1,5,1,4,19,95,11
12,1,20,1,0,0,4,19,62,11
1,1,7,1,1,0,1,19,6,9
1,1,17,1,2,0,1,19,101,11
1,1,13,1,4,0,1,19,73,11
1,1,5,0,0,0,1,19,62,11
1,1,22,0,0,0,1,19,6,11
1,1,10,1,1,0,1,19,62,11
1,1,15,1,1,0,1,19,73,11
1,1,21,0,0,0,1,19,73,11
1,1,22,0,0,0,1,19,38,11
1,1,19,1,0,0,1,19,62,11
1,1,11,1,1,0,1,19,19,11
1,1,17,1,2,0,1,19,88,11
1,1,13,1,2,0,1,19,62,11
1,1,4,0,2,0,1,19,73,11
1,1,19,1,3,0,1,19,101,11
1,1,18,1,3,0,1,19,62,11
1,1,15,1,3,0,1,19,88,11
1,1,15,1,4,0,1,19,88,11
1,1,19,1,4,0,1,19,95,11
1,1,21,0,5,1,1,19,73,11
1,1,6,0,6,1,1,19,62,11
1,1,13,1,6,1,1,19,62,11
1,1,18,1,6,1,1,19,95,11
1,1,22,0,1,0,1,19,62,11
1,1,2,0,2,0,1,19,17,11
1,1,3,0,2,0,1,19,55,11
1,1,23,0,4,0,1,19,62,11
1,1,7,1,5,1,1,19,17,11
1,1,13,1,6,1,1,19,38,11
1,1,3,0,6,1,1,19,17,11
1,1,6,0,6,1,1,19,73,11
1,1,22,0,0,0,1,19,62,11
1,1,21,0,0,0,1,19,62,11
1,1,12,1,0,0,1,19,62,11
1,1,3,0,3,0,1,19,73,11
2,1,18,1,4,0,1,19,88,11
2,1,19,1,6,1,1,19,6,11
2,1,16,1,6,1,1,19,72,11
2,1,13,1,6,1,1,19,6,11
2,1,12,1,1,0,1,19,101,11
2,1,15,1,2,0,1,19,12,9
2,1,19,1,4,0,1,19,6,11
2,1,12,1,4,0,1,19,62,9
2,1,16,1,5,1,1,19,126,9
2,1,12,1,5,1,1,19,101,11
2,1,14,1,6,1,1,19,73,11
2,1,2,0,6,1,1,19,17,9
2,1,10,1,6,1,1,19,95,11
2,1,18,1,1,0,1,19,73,11
2,1,15,1,1,0,1,19,101,11
2,1,20,1,1,0,1,19,62,11
2,1,4,0,2,0,1,19,17,11
2,1,13,1,2,0,1,19,62,11
2,1,20,1,2,0,1,19,38,11
2,1,19,1,5,1,1,19,43,11
2,1,23,0,6,1,1,19,101,11
2,1,17,1,6,1,1,19,101,11
2,1,22,0,0,0,1,19,88,11
2,1,1,0,1,0,1,19,62,11
2,1,11,1,1,0,1,19,101,11
2,1,15,1,3,0,1,19,38,11
2,1,1,0,3,0,1,19,101,11
2,1,15,1,4,0,1,19,88,11
2,1,10,1,4,0,1,19,101,11
2,1,9,1,4,0,1,19,88,11
2,1,15,1,6,1,1,19,95,11
2,1,4,0,0,0,1,19,95,11
2,1,19,1,1,0,1,19,73,11
2,1,5,0,2,0,1,19,62,11
2,1,3,0,3,0,1,19,17,11
2,1,13,1,3,0,1,19,17,11
2,1,12,1,3,0,1,19,62,11
3,2,16,1,4,0,1,19,45,11
3,2,15,1,5,1,1,19,88,11
3,2,19,1,6,1,1,19,62,11
3,2,15,1,0,0,1,19,62,11
3,2,2,0,0,0,1,19,17,11
3,2,18,1,1,0,1,19,101,11
3,2,19,1,1,0,1,19,126,11
3,2,18,1,1,0,1,19,88,11
3,2,14,1,1,0,1,19,62,11
3,2,21,0,2,0,1,19,17,11
3,2,13,1,2,0,1,19,110,11
3,2,18,1,4,0,1,19,62,11
3,2,12,1,5,1,1,19,88,11
3,2,9,1,4,0,1,19,38,11
3,2,19,1,4,0,1,19,101,11
3,2,14,1,5,1,1,19,62,11
3,2,14,1,5,1,1,19,62,11
3,2,23,0,5,1,1,19,95,11
3,2,23,0,6,1,1,19,95,11
3,2,21,0,6,1,1,19,88,11
3,2,0,0,0,0,1,19,101,11
3,2,10,1,0,0,1,19,62,11
3,2,2,0,1,0,1,19,17,11
3,2,5,0,1,0,1,19,73,9
3,2,4,0,2,0,1,19,70,11
3,2,13,1,3,0,1,19,126,11
3,2,15,1,4,0,1,19,64,11
3,2,3,0,4,0,1,19,17,11
3,2,20,1,5,1,1,19,61,11
3,2,12,1,6,1,1,19,88,11
3,2,14,1,6,1,1,19,62,11
3,2,19,1,6,1,1,19,38,11
3,2,19,1,4,0,1,19,17,11
3,2,2,0,6,1,1,19,38,11
3,2,4,0,6,1,1,19,17,11
4,2,23,0,0,0,2,19,61,11
4,2,19,1,0,0,2,19,101,11
4,2,18,1,0,0,2,19,115,11
4,2,21,0,1,0,2,19,101,11
4,2,16,1,1,0,2,19,101,11
4,2,23,0,4,0,2,19,101,11
4,2,0,0,4,0,2,19,17,11
4,2,23,0,4,0,2,19,126,9
4,2,21,0,5,1,2,19,95,11
4,2,0,0,6,1,2,19,101,11
4,2,23,0,0,0,2,19,62,11
4,2,8,1,2,0,2,19,38,11
4,2,21,0,2,0,2,19,6,11
4,2,0,0,2,0,2,19,74,11
4,2,7,1,5,1,2,19,6,11
4,2,17,1,1,0,2,19,13,11
4,2,9,1,1,0,2,19,21,11
4,2,7,1,1,0,2,19,3,11
4,2,9,1,4,0,2,19,17,11
4,2,11,1,5,1,2,19,101,11
4,2,1,0,1,0,2,19,3,11
4,2,4,0,2,0,2,19,38,9
4,2,15,1,3,0,2,19,62,11
4,2,14,1,4,0,2,19,62,11
4,2,20,1,5,1,2,19,6,11
4,2,20,1,6,1,2,19,101,11
5,2,2,0,4,0,2,19,101,11
5,2,5,0,4,0,2,19,17,11
5,2,16,1,5,1,2,19,95,11
5,2,4,0,2,0,2,19,73,9
5,2,12,1,2,0,2,19,38,11
5,2,17,1,2,0,2,19,101,11
5,2,12,1,2,0,2,19,38,11
5,2,15,1,2,0,2,19,88,11
5,2,1,0,4,0,2,19,95,11
5,2,1,0,4,0,2,19,95,11
5,2,15,1,6,1,2,19,88,9
5,2,9,1,0,0,2,19,88,11
5,2,20,1,0,0,2,19,6,11
5,2,23,0,2,0,2,19,88,11
5,2,2,0,2,0,2,19,126,11
5,2,10,1,3,0,2,19,17,11
5,2,23,0,3,0,2,19,88,11
5,2,20,1,6,1,2,19,61,11
5,2,1,0,0,0,2,19,101,11
5,2,19,1,2,0,2,19,26,11
5,2,6,0,2,0,2,19,17,11
5,2,20,1,3,0,2,19,110,11
5,2,21,0,3,0,2,19,17,11
5,2,12,1,4,0,2,19,17,11
5,2,8,1,5,1,2,19,88,11
5,2,0,0,6,1,2,19,126,11
5,2,15,1,0,0,2,19,88,11
5,2,9,1,0,0,2,19,17,11
5,2,13,1,1,0,2,19,45,11
5,2,18,1,2,0,2,19,62,11
6,3,0,0,5,1,2,19,62,11
6,3,10,1,5,1,2,19,17,11
6,3,23,0,0,0,2,19,88,11
6,3,0,0,1,0,2,19,88,11
6,3,13,1,2,0,2,19,88,11
6,3,13,1,2,0,2,19,17,11
6,3,21,0,3,0,2,19,101,11
6,3,21,0,3,0,2,19,101,11
6,3,23,0,4,0,2,19,88,11
6,3,15,1,4,0,2,19,23,11
6,3,23,0,4,0,2,19,115,11
6,3,8,1,5,1,2,19,17,11
6,3,22,0,0,0,2,19,17,11
6,3,3,0,1,0,2,19,115,11
6,3,17,1,2,0,2,19,88,11
6,3,5,0,3,0,2,19,88,11
6,3,20,1,3,0,2,19,88,11
6,3,1,0,4,0,2,19,73,11
6,3,16,1,5,1,2,19,88,11
6,3,12,1,6,1,2,19,62,11
6,3,21,0,1,0,2,19,88,11
6,3,16,1,1,0,2,19,88,11
6,3,15,1,1,0,2,19,101,11
6,3,13,1,1,0,2,19,62,11
6,3,14,1,2,0,2,19,88,11
6,3,19,1,2,0,2,19,88,11
6,3,1,0,3,0,2,19,54,11
6,3,16,1,4,0,2,19,101,11
6,3,14,1,4,0,2,19,88,11
6,3,12,1,4,0,2,19,101,11
6,3,17,1,5,1,2,19,101,11
6,3,14,1,6,1,2,19,74,11
6,3,2,0,6,1,2,19,101,11
6,3,0,0,0,0,2,19,88,11
6,3,17,1,1,0,2,19,88,11
6,3,13,1,3,0,2,19,88,11
6,3,15,1,3,0,2,19,12,11
6,3,22,0,3,0,2,19,6,11
6,3,20,1,3,0,2,19,101,11
6,3,4,0,4,0,2,19,6,11
6,3,13,1,5,1,2,19,62,11
6,3,21,0,6,1,2,19,21,11
7,3,16,1,0,0,3,19,17,11
7,3,17,1,1,0,3,19,88,11
7,3,21,0,1,0,3,19,6,11
7,3,7,1,2,0,3,19,17,11
7,3,21,0,2,0,3,19,62,11
7,3,8,1,2,0,3,19,101,11
7,3,9,1,2,0,3,19,73,11
7,3,9,1,4,0,3,19,115,9
7,3,14,1,5,1,3,19,33,11
7,3,6,0,6,1,3,19,95,11
7,3,16,1,1,0,3,19,88,11
7,3,18,1,1,0,3,19,62,11
7,3,13,1,2,0,3,19,17,11
7,3,12,1,2,0,3,19,88,11
7,3,21,0,2,0,3,19,38,11
7,3,8,1,2,0,3,19,88,11
7,3,17,1,4,0,3,19,101,11
7,3,17,1,4,0,3,19,88,11
7,3,4,0,5,1,3,19,73,11
7,3,17,1,6,1,3,19,62,11
7,3,10,1,0,0,3,19,88,11
7,3,21,0,3,0,3,19,88,11
7,3,20,1,4,0,3,19,17,11
7,3,15,1,5,1,3,19,88,11
7,3,12,1,6,1,3,19,55,11
7,3,17,1,0,0,3,19,88,11
7,3,3,0,3,0,3,19,17,11
7,3,17,1,3,0,3,19,88,11
7,3,16,1,4,0,3,19,88,11
7,3,2,0,4,0,3,19,94,11
7,3,1,0,5,1,3,19,126,9
7,3,4,0,6,1,3,19,17,11
7,3,2,0,6,1,3,19,126,11
7,3,20,1,6,1,3,19,115,9
7,3,18,1,6,1,3,19,17,11
7,3,19,1,0,0,3,19,88,11
7,3,15,1,0,0,3,19,88,11
7,3,10,1,1,0,3,19,126,11
8,3,23,0,4,0,3,19,62,11
8,3,3,0,6,1,3,19,95,11
8,3,19,1,0,0,3,19,45,11
8,3,19,1,0,0,3,19,95,11
8,3,5,0,1,0,3,19,88,11
8,3,15,1,1,0,3,19,88,11
8,3,10,1,2,0,3,19,88,11
8,3,12,1,3,0,3,19,88,11
8,3,22,0,3,0,3,19,12,11
8,3,23,0,3,0,3,19,101,11
8,3,16,1,3,0,3,19,95,11
8,3,14,1,3,0,3,19,88,11
8,3,20,1,6,1,3,19,129,11
8,3,6,0,0,0,3,19,5,11
8,3,20,1,1,0,3,19,38,11
8,3,3,0,1,0,3,19,17,11
8,3,18,1,2,0,3,19,88,11
8,3,11,1,3,0,3,19,101,11
8,3,23,0,4,0,3,19,12,11
8,3,20,1,5,1,3,19,88,11
8,3,21,0,1,0,3,19,74,11
8,3,1,0,1,0,3,19,17,11
8,3,18,1,2,0,3,19,101,11
8,3,10,1,2,0,3,19,17,11
8,3,1,0,3,0,3,19,56,11
8,3,11,1,3,0,3,19,88,11
8,3,11,1,4,0,3,19,45,11
8,3,5,0,4,0,3,19,12,11
8,3,3,0,4,0,3,19,17,11
8,3,22,0,6,1,3,19,62,11
8,3,20,1,6,1,3,19,62,11
8,3,16,1,0,0,3,19,17,11
8,3,15,1,0,0,3,19,88,11
8,3,2,0,0,0,3,19,126,11
8,3,19,1,0,0,3,19,74,11
8,3,4,0,1,0,3,19,21,11
8,3,18,1,2,0,3,19,88,11
8,3,20,1,2,0,3,19,62,11
8,3,18,1,2,0,3,19,55,11
8,3,4,0,3,0,3,19,54,11
8,3,2,0,4,0,3,19,17,9
9,4,1,0,6,1,3,19,62,11
9,4,21,0,2,0,3,19,88,9
9,4,19,1,2,0,3,19,88,11
9,4,13,1,4,0,3,19,101,11
9,4,5,0,4,0,3,19,101,11
9,4,5,0,4,0,3,19,101,11
9,4,1,0,4,0,3,19,88,11
9,4,15,1,5,1,3,19,88,9
9,4,0,0,6,1,3,19,6,11
9,4,16,1,6,1,3,19,88,11
9,4,13,1,0,0,3,19,88,11
9,4,10,1,1,0,3,19,88,11
9,4,14,1,1,0,3,19,21,11
9,4,4,0,2,0,3,19,6,11
9,4,17,1,2,0,3,19,95,11
9,4,18,1,2,0,3,19,6,11
9,4,12,1,3,0,3,19,45,11
9,4,20,1,3,0,3,19,101,11
9,4,23,0,4,0,3,19,126,9
9,4,13,1,4,0,3,19,101,11
9,4,15,1,4,0,3,19,101,11
9,4,15,1,4,0,3,19,17,11
9,4,12,1,5,1,3,19,101,11
9,4,9,1,6,1,3,19,88,11
9,4,2,0,0,0,3,19,88,11
9,4,21,0,1,0,3,19,101,11
9,4,8,1,1,0,3,19,62,11
9,4,0,0,2,0,3,19,101,11
9,4,2,0,3,0,3,19,101,11
9,4,10,1,4,0,3,19,88,11
9,4,16,1,4,0,3,19,88,11
9,4,17,1,4,0,3,19,110,11
9,4,23,0,4,0,3,19,101,11
9,4,14,1,4,0,3,19,17,11
9,4,17,1,5,1,3,19,7,11
9,4,4,0,5,1,3,19,115,11
9,4,22,0,6,1,3,19,3,11
9,4,1,0,0,0,3,19,3,11
9,4,3,0,0,0,3,19,73,11
9,4,22,0,1,0,3,19,17,11
9,4,13,1,1,0,3,19,62,11
9,4,6,0,3,0,3,19,17,11
9,4,15,1,4,0,3,19,88,11
9,4,0,0,6,1,3,19,62,11
9,4,14,1,0,0,3,19,62,11
10,4,8,1,3,0,4,19,62,11
10,4,6,0,5,1,4,19,21,9
10,4,2,0,5,1,4,19,73,9
10,4,18,1,5,1,4,19,17,11
10,4,1,0,0,0,4,19,115,9
10,4,23,0,0,0,4,19,17,11
10,4,18,1,0,0,4,19,17,11
10,4,0,0,1,0,4,19,62,11
10,4,22,0,4,0,4,19,115,9
10,4,21,0,6,1,4,19,43,8
10,4,12,1,6,1,4,19,17,11
10,4,2,0,6,1,4,19,13,9
10,4,17,1,0,0,4,19,95,11
10,4,20,1,0,0,4,19,43,11
10,4,4,0,1,0,4,19,126,11
10,4,19,1,2,0,4,19,17,11
10,4,21,0,2,0,4,19,101,11
10,4,15,1,2,0,4,19,6,11
10,4,17,1,3,0,4,19,43,11
10,4,16,1,5,1,4,19,17,11
10,4,15,1,5,1,4,19,38,11
10,4,16,1,6,1,4,19,101,11
10,4,20,1,6,1,4,19,88,11
10,4,13,1,0,0,4,19,12,11
10,4,10,1,0,0,4,19,17,11
10,4,3,0,0,0,4,19,17,11
10,4,3,0,1,0,4,19,95,11
10,4,21,0,2,0,4,19,101,11
10,4,22,0,3,0,4,19,124,11
10,4,21,0,3,0,4,19,111,11
10,4,5,0,5,1,4,19,17,11
10,4,20,1,6,1,4,19,95,11
10,4,5,0,0,0,4,19,115,9
10,4,7,1,0,0,4,19,17,11
10,4,13,1,1,0,4,19,17,11
10,4,8,1,1,0,4,19,54,11
10,4,20,1,2,0,4,19,43,11
11,4,9,1,4,0,4,19,62,9
11,4,0,0,4,0,4,19,101,11
11,4,17,1,6,1,4,19,62,11
11,4,12,1,6,1,4,19,101,11
11,4,1,0,0,0,4,19,43,11
11,4,9,1,4,0,4,19,62,11
11,4,11,1,4,0,4,19,88,11
11,4,0,0,5,1,4,19,110,11
11,4,10,1,5,1,4,19,62,11
11,4,18,1,1,0,4,19,101,11
11,4,20,1,1,0,4,19,101,11
11,4,21,0,1,0,4,19,101,11
11,4,7,1,4,0,4,19,17,11
11,4,11,1,5,1,4,19,54,11
11,4,16,1,5,1,4,19,62,11
11,4,10,1,6,1,4,19,63,9
11,4,10,1,6,1,4,19,88,9
11,4,2,0,2,0,4,19,95,11
11,4,18,1,3,0,4,19,101,11
11,4,1,0,4,0,4,19,42,11
11,4,11,1,4,0,4,19,12,11
11,4,13,1,6,1,4,19,38,9
11,4,7,1,0,0,4,19,101,11
11,4,9,1,0,0,4,19,17,11
11,4,0,0,3,0,4,19,6,11
11,4,12,1,4,0,4,19,62,11
11,4,0,0,4,0,4,19,17,11
11,4,18,1,5,1,4,19,62,11
12,1,14,1,6,1,4,19,38,11
12,1,17,1,6,1,4,19,73,11
12,1,3,0,6,1,4,19,88,11
12,1,13,1,1,0,4,19,73,11
12,1,3,0,2,0,4,19,54,11
12,1,17,1,3,0,4,19,88,11
12,1,16,1,3,0,4,19,115,9
12,1,21,0,3,0,4,19,38,11
12,1,18,1,4,0,4,19,110,11
12,1,19,1,5,1,4,19,62,11
12,1,7,1,6,1,4,19,17,11
12,1,1,0,1,0,4,19,6,11
12,1,18,1,3,0,4,19,17,11
12,1,7,1,3,0,4,19,17,11
12,1,11,1,5,1,4,19,6,11
12,1,17,1,1,0,4,19,95,11
12,1,15,1,1,0,4,19,45,11
12,1,8,1,2,0,4,19,101,11
12,1,4,0,3,0,4,19,95,11
12,1,0,0,4,0,4,19,62,11
12,1,4,0,6,1,4,19,17,11
12,1,5,0,6,1,4,19,101,11
12,1,2,0,6,1,4,19,101,11
12,1,19,1,0,0,4,19,101,11
12,1,23,0,0,0,4,19,17,11
12,1,22,0,1,0,4,19,38,11
12,1,18,1,2,0,4,19,62,11
12,1,7,1,4,0,4,19,55,11
12,1,19,1,4,0,4,19,88,11
12,1,20,1,4,0,4,19,73,11
12,1,2,0,5,1,4,19,95,11
12,1,1,0,0,0,4,19,88,11
12,1,22,0,0,0,4,19,6,11
12,1,16,1,0,0,4,19,101,11
1,1,16,1,4,0,1,19,101,11
1,1,9,1,2,0,1,19,38,11
1,1,22,0,3,0,1,19,73,11
1,1,14,1,3,0,1,19,95,11
2,1,16,1,4,0,1,19,95,11
2,1,14,1,3,0,1,19,38,11
2,1,0,0,4,0,1,19,38,11
2,1,15,1,2,0,1,19,101,11
2,1,20,1,3,0,1,19,101,11
2,1,10,1,3,0,1,19,38,11
2,1,22,0,5,1,1,19,38,11
2,1,18,1,6,1,1,19,101,11
2,1,13,1,6,1,1,19,95,11
2,1,22,0,1,0,1,19,38,11
2,1,17,1,4,0,1,19,88,11
2,1,12,1,0,0,1,19,101,11
2,1,20,1,1,0,1,19,101,11
2,1,20,1,3,0,1,19,101,11
3,2,12,1,4,0,1,19,101,11
3,2,20,1,4,0,1,19,73,11
3,2,12,1,4,0,1,19,101,11
3,2,14,1,2,0,1,19,3,11
3,2,8,1,2,0,1,19,95,11
3,2,9,1,3,0,1,19,73,11
3,2,15,1,4,0,1,19,101,11
3,2,19,1,0,0,1,19,82,11
3,2,12,1,1,0,1,19,101,11
3,2,15,1,3,0,1,19,101,11
3,2,17,1,5,1,1,19,101,11
3,2,0,0,4,0,1,19,101,11
3,2,16,1,5,1,1,19,101,11
3,2,19,1,1,0,1,19,101,11
3,2,14,1,1,0,1,19,82,11
3,2,18,1,2,0,1,19,73,11
3,2,10,1,2,0,1,19,88,11
3,2,23,0,4,0,1,19,11,11
3,2,10,1,4,0,1,19,101,11
3,2,11,1,4,0,1,19,101,9
4,2,13,1,0,0,2,19,101,11
4,2,14,1,0,0,2,19,101,11
4,2,19,1,1,0,2,19,3,11
4,2,12,1,1,0,2,19,101,11
4,2,13,1,2,0,2,19,101,11
4,2,0,0,4,0,2,19,95,11
4,2,22,0,5,1,2,19,38,9
4,2,17,1,3,0,2,19,101,11
5,2,20,1,2,0,2,19,88,11
5,2,10,1,2,0,2,19,3,11
5,2,8,1,4,0,2,19,45,11
6,3,0,0,6,1,2,19,76,9
6,3,5,0,1,0,2,19,95,11
6,3,3,0,1,0,2,19,95,11
6,3,14,1,3,0,2,19,117,11
6,3,22,0,6,1,2,19,3,11
6,3,13,1,6,1,2,19,3,11
6,3,16,1,0,0,2,19,73,11
6,3,14,1,4,0,2,19,101,11
6,3,14,1,5,1,2,19,95,11
7,3,10,1,1,0,3,19,101,11
7,3,7,1,2,0,3,19,17,11
7,3,20,1,3,0,3,19,101,11
7,3,20,1,6,1,3,19,17,11
7,3,18,1,1,0,3,19,101,11
8,3,21,0,3,0,3,19,17,11
8,3,20,1,3,0,3,19,101,11
8,3,1,0,2,0,3,19,88,11
8,3,13,1,2,0,3,19,88,11
8,3,15,1,0,0,3,19,101,11
8,3,8,1,3,0,3,19,38,11
8,3,14,1,4,0,3,19,88,11
9,4,15,1,1,0,3,19,73,11
9,4,15,1,1,0,3,19,88,11
9,4,13,1,2,0,3,19,3,11
9,4,11,1,4,0,3,19,88,9
9,4,11,1,5,1,3,19,88,11
9,4,2,0,1,0,3,19,17,9
9,4,15,1,0,0,3,19,17,11
10,4,7,1,1,0,4,19,117,11
10,4,14,1,1,0,4,19,101,11
10,4,0,0,2,0,4,19,95,11
11,4,15,1,2,0,4,19,101,11
11,4,19,1,1,0,4,19,95,11
11,4,21,0,3,0,4,19,17,11
12,1,12,1,3,0,4,19,95,11
12,1,15,1,1,0,4,19,101,11
1,1,17,1,1,0,1,19,49,11
1,1,2,0,2,0,1,19,17,11
1,1,14,1,2,0,1,19,101,11
1,1,19,1,2,0,1,19,73,11
1,1,16,1,3,0,1,19,73,11
1,1,23,0,5,1,1,19,64,11
1,1,4,0,2,0,1,19,38,11
1,1,11,1,4,0,1,19,54,11
1,1,17,1,4,0,1,19,73,11
1,1,5,0,5,1,1,19,12,11
2,1,18,1,4,0,1,19,62,11
2,1,15,1,5,1,1,19,101,11
2,1,18,1,1,0,1,19,101,11
2,1,9,1,2,0,1,19,126,11
2,1,10,1,4,0,1,19,88,11
2,1,8,1,4,0,1,19,88,11
2,1,14,1,4,0,1,19,3,11
2,1,17,1,5,1,1,19,3,11
2,1,14,1,5,1,1,19,3,11
2,1,18,1,5,1,1,19,3,11
2,1,15,1,6,1,1,19,101,11
2,1,15,1,0,0,1,19,101,11
2,1,18,1,0,0,1,19,101,11
2,1,9,1,0,0,1,19,88,11
2,1,19,1,3,0,1,19,101,11
2,1,11,1,3,0,1,19,101,11
2,1,15,1,3,0,1,19,101,11
2,1,15,1,4,0,1,19,101,11
2,1,12,1,4,0,1,19,101,11
2,1,17,1,4,0,1,19,101,11
2,1,19,1,4,0,1,19,3,11
2,1,20,1,4,0,1,19,73,11
2,1,19,1,1,0,1,19,101,11
2,1,11,1,2,0,1,19,38,11
2,1,21,0,2,0,1,19,88,11
2,1,18,1,3,0,1,19,126,11
3,2,14,1,4,0,1,19,17,11
3,2,13,1,5,1,1,19,101,11
3,2,17,1,5,1,1,19,88,11
3,2,2,0,6,1,1,19,17,11
3,2,13,1,0,0,1,19,101,11
3,2,17,1,0,0,1,19,101,11
3,2,20,1,1,0,1,19,38,11
3,2,20,1,1,0,1,19,38,11
3,2,15,1,4,0,1,19,101,11
3,2,18,1,4,0,1,19,88,11
3,2,16,1,5,1,1,19,101,11
3,2,17,1,0,0,1,19,101,11
3,2,19,1,0,0,1,19,3,9
3,2,9,1,0,0,1,19,101,11
3,2,16,1,6,1,1,19,101,11
3,2,20,1,6,1,1,19,88,11
3,2,12,1,0,0,1,19,101,11
3,2,0,0,0,0,1,19,17,11
3,2,13,1,1,0,1,19,88,11
3,2,14,1,1,0,1,19,101,11
3,2,16,1,3,0,1,19,45,11
3,2,19,1,4,0,1,19,101,11
3,2,18,1,5,1,1,19,88,11
3,2,15,1,5,1,1,19,101,11
3,2,20,1,6,1,1,19,126,11
3,2,17,1,6,1,1,19,101,11
3,2,12,1,6,1,1,19,73,11
3,2,19,1,1,0,1,19,101,11
3,2,18,1,3,0,1,19,101,11
3,2,15,1,4,0,1,19,38,9
3,2,11,1,4,0,1,19,101,11
3,2,23,0,4,0,1,19,62,11
3,2,10,1,5,1,1,19,101,11
3,2,12,1,5,1,1,19,101,11
3,2,14,1,5,1,1,19,88,11
4,2,11,1,1,0,2,19,101,11
4,2,23,0,2,0,2,19,3,11
4,2,14,1,3,0,2,19,101,11
4,2,18,1,3,0,2,19,101,11
4,2,13,1,3,0,2,19,101,11
4,2,14,1,3,0,2,19,3,11
4,2,13,1,4,0,2,19,3,11
4,2,20,1,6,1,2,19,101,11
4,2,13,1,6,1,2,19,101,11
4,2,11,1,1,0,2,19,17,11
4,2,20,1,5,1,2,19,101,11
4,2,14,1,5,1,2,19,88,11
4,2,22,0,2,0,2,19,54,11
4,2,23,0,3,0,2,19,17,9
4,2,17,1,6,1,2,19,88,11
5,2,19,1,5,1,2,19,101,11
5,2,15,1,4,0,2,19,19,9
5,2,3,0,4,0,2,19,88,11
5,2,9,1,4,0,2,19,88,11
5,2,12,1,1,0,2,19,101,11
5,2,15,1,2,0,2,19,88,11
5,2,18,1,5,1,2,19,17,9
5,2,21,0,1,0,2,19,17,11
5,2,15,1,2,0,2,19,88,11
5,2,17,1,2,0,2,19,88,11
6,3,15,1,5,1,2,19,59,11
6,3,11,1,0,0,2,19,38,11
6,3,7,1,1,0,2,19,101,11
6,3,13,1,5,1,2,19,3,11
6,3,15,1,6,1,2,19,17,9
6,3,16,1,6,1,2,19,3,11
6,3,12,1,0,0,2,19,101,11
6,3,20,1,3,0,2,19,101,11
6,3,20,1,5,1,2,19,17,11
6,3,5,0,0,0,2,19,88,11
6,3,17,1,6,1,2,19,24,11
6,3,7,1,6,1,2,19,65,11
6,3,16,1,0,0,2,19,101,11
6,3,18,1,1,0,2,19,17,11
6,3,21,0,4,0,2,19,17,11
6,3,22,0,6,1,2,19,101,11
7,3,0,0,0,0,3,19,17,11
7,3,11,1,0,0,3,19,88,11
7,3,1,0,1,0,3,19,3,11
7,3,20,1,2,0,3,19,17,11
7,3,10,1,4,0,3,19,3,11
7,3,22,0,4,0,3,19,101,11
7,3,17,1,0,0,3,19,101,11
7,3,21,0,0,0,3,19,88,11
7,3,11,1,1,0,3,19,101,11
7,3,13,1,1,0,3,19,101,11
7,3,17,1,3,0,3,19,101,11
7,3,18,1,3,0,3,19,101,11
7,3,23,0,3,0,3,19,101,11
7,3,15,1,6,1,3,19,101,11
7,3,18,1,0,0,3,19,101,11
7,3,18,1,1,0,3,19,101,11
7,3,17,1,2,0,3,19,101,11
8,3,9,1,3,0,3,19,101,11
8,3,10,1,5,1,3,19,3,11
8,3,17,1,6,1,3,19,101,11
8,3,15,1,2,0,3,19,101,11
8,3,14,1,2,0,3,19,88,11
8,3,20,1,4,0,3,19,3,11
8,3,8,1,0,0,3,19,17,11
8,3,16,1,0,0,3,19,17,11
8,3,2,0,1,0,3,19,126,11
8,3,19,1,0,0,3,19,88,9
8,3,18,1,2,0,3,19,101,11
8,3,5,0,4,0,3,19,101,11
8,3,16,1,4,0,3,19,101,11
8,3,15,1,5,1,3,19,38,11
8,3,15,1,6,1,3,19,101,11
8,3,19,1,6,1,3,19,101,11
8,3,18,1,0,0,3,19,88,11
8,3,11,1,1,0,3,19,17,11
8,3,12,1,3,0,3,19,17,11
8,3,20,1,3,0,3,19,17,11
8,3,18,1,4,0,3,19,101,11
8,3,13,1,4,0,3,19,88,11
9,4,8,1,6,1,3,19,101,11
9,4,20,1,0,0,3,19,101,11
9,4,17,1,4,0,3,19,101,11
9,4,5,0,6,1,3,19,17,11
9,4,14,1,6,1,3,19,3,11
9,4,16,1,0,0,3,19,88,11
9,4,19,1,4,0,3,19,101,11
9,4,17,1,6,1,3,19,3,11
9,4,16,1,6,1,3,19,101,11
9,4,18,1,0,0,3,19,3,9
9,4,15,1,0,0,3,19,88,11
9,4,17,1,0,0,3,19,3,11
9,4,10,1,1,0,3,19,101,11
9,4,14,1,2,0,3,19,101,11
9,4,13,1,6,1,3,19,3,11
9,4,18,1,6,1,3,19,3,11
9,4,13,1,4,0,3,19,73,11
9,4,0,0,4,0,3,19,88,11
9,4,16,1,5,1,3,19,17,11
10,4,12,1,6,1,4,19,101,11
10,4,0,0,6,1,4,19,12,11
10,4,20,1,3,0,4,19,88,11
10,4,18,1,0,0,4,19,101,11
10,4,19,1,2,0,4,19,88,11
10,4,12,1,5,1,4,19,88,11
10,4,18,1,1,0,4,19,88,11
10,4,14,1,1,0,4,19,18,11
10,4,18,1,2,0,4,19,101,11
10,4,17,1,2,0,4,19,126,11
11,4,21,0,4,0,4,19,62,11
11,4,20,1,0,0,4,19,101,11
11,4,13,1,0,0,4,19,62,11
11,4,17,1,0,0,4,19,3,11
11,4,10,1,1,0,4,19,17,11
11,4,20,1,6,1,4,19,95,11
11,4,14,1,2,0,4,19,73,11
11,4,21,0,0,0,4,19,3,11
11,4,23,0,2,0,4,19,17,11
12,1,14,1,6,1,4,19,101,11
12,1,20,1,3,0,4,19,73,11
12,1,21,0,6,1,4,19,117,9
12,1,16,1,6,1,4,19,101,11
12,1,6,0,3,0,4,19,17,11
12,1,0,0,6,1,4,19,17,11
12,1,12,1,3,0,4,19,73,11
12,1,18,1,6,1,4,19,101,11
12,1,15,1,0,0,4,19,38,11
12,1,14,1,0,0,4,19,73,11
1,1,19,1,2,0,1,19,62,11
1,1,2,0,2,0,1,19,62,11
1,1,17,1,3,0,1,19,95,11
1,1,14,1,4,0,1,19,70,9
1,1,20,1,6,1,1,19,95,11
1,1,18,1,2,0,1,19,88,11
1,1,14,1,3,0,1,19,95,11
1,1,18,1,4,0,1,19,73,11
1,1,14,1,5,1,1,19,45,11
1,1,8,1,0,0,1,19,77,11
1,1,14,1,1,0,1,19,62,11
1,1,14,1,3,0,1,19,95,11
1,1,23,0,1,0,1,19,88,11
1,1,9,1,3,0,1,19,95,11
2,1,1,0,6,1,1,19,101,11
2,1,5,0,6,1,1,19,95,11
2,1,5,0,6,1,1,19,95,11
2,1,16,1,1,0,1,19,21,9
2,1,4,0,1,0,1,19,70,11
2,1,13,1,5,1,1,19,88,11
2,1,18,1,5,1,1,19,62,11
2,1,17,1,5,1,1,19,3,11
2,1,23,0,1,0,1,19,62,11
2,1,19,1,3,0,1,19,85,11
2,1,11,1,4,0,1,19,62,11
2,1,16,1,4,0,1,19,62,11
2,1,19,1,6,1,1,19,3,11
2,1,14,1,6,1,1,19,101,11
2,1,16,1,1,0,1,19,62,9
2,1,20,1,2,0,1,19,70,11
2,1,11,1,3,0,1,19,95,11
2,1,23,0,3,0,1,19,95,11
2,1,15,1,6,1,1,19,62,11
2,1,7,1,6,1,1,19,62,9
2,1,20,1,0,0,1,19,98,11
2,1,12,1,1,0,1,19,70,11
2,1,9,1,2,0,1,19,111,11
3,2,5,0,6,1,1,19,95,11
3,2,15,1,1,0,1,19,62,9
3,2,7,1,1,0,1,19,70,11
3,2,8,1,2,0,1,19,126,9
3,2,19,1,3,0,1,19,62,11
3,2,13,1,3,0,1,19,3,11
3,2,13,1,4,0,1,19,101,11
3,2,9,1,5,1,1,19,3,11
3,2,13,1,6,1,1,19,3,11
3,2,15,1,6,1,1,19,3,11
3,2,14,1,0,0,1,19,95,11
3,2,14,1,1,0,1,19,62,11
3,2,0,0,5,1,1,19,62,11
3,2,23,0,6,1,1,19,124,11
3,2,15,1,0,0,1,19,62,11
3,2,9,1,5,1,1,19,88,11
4,2,15,1,3,0,2,19,62,11
4,2,7,1,5,1,2,19,95,11
4,2,13,1,5,1,2,19,88,11
4,2,13,1,6,1,2,19,101,11
4,2,10,1,6,1,2,19,95,11
4,2,6,0,6,1,2,19,62,11
4,2,2,0,6,1,2,19,95,11
4,2,9,1,1,0,2,19,95,11
4,2,3,0,3,0,2,19,95,11
4,2,15,1,5,1,2,19,70,11
4,2,4,0,6,1,2,19,70,11
4,2,23,0,0,0,2,19,95,11
4,2,14,1,5,1,2,19,70,11
4,2,12,1,6,1,2,19,62,11
5,2,1,0,2,0,2,19,95,11
5,2,21,0,5,1,2,19,95,11
5,2,19,1,0,0,2,19,62,11
5,2,16,1,0,0,2,19,88,11
5,2,20,1,3,0,2,19,88,11
5,2,22,0,3,0,2,19,45,11
5,2,4,0,3,0,2,19,70,9
5,2,8,1,4,0,2,19,101,11
5,2,17,1,5,1,2,19,7,9
5,2,18,1,6,1,2,19,88,11
5,2,20,1,6,1,2,19,88,11
5,2,18,1,2,0,2,19,62,11
5,2,9,1,2,0,2,19,23,11
5,2,19,1,4,0,2,19,62,11
5,2,20,1,4,0,2,19,54,9
5,2,23,0,5,1,2,19,88,11
5,2,0,0,5,1,2,19,124,11
5,2,11,1,2,0,2,19,62,11
5,2,13,1,2,0,2,19,47,11
5,2,12,1,4,0,2,19,62,11
5,2,4,0,2,0,2,19,17,11
5,2,9,1,3,0,2,19,104,11
5,2,7,1,3,0,2,19,62,11
6,3,8,1,5,1,2,19,62,11
6,3,14,1,0,0,2,19,62,11
6,3,7,1,0,0,2,19,70,11
6,3,0,0,0,0,2,19,95,11
6,3,15,1,1,0,2,19,88,11
6,3,9,1,2,0,2,19,62,11
6,3,4,0,3,0,2,19,70,9
6,3,8,1,4,0,2,19,38,11
6,3,15,1,6,1,2,19,95,11
6,3,4,0,0,0,2,19,70,11
6,3,12,1,3,0,2,19,70,11
6,3,21,0,4,0,2,19,101,11
6,3,22,0,5,1,2,19,62,11
6,3,0,0,6,1,2,19,31,11
6,3,19,1,1,0,2,19,70,11
6,3,9,1,2,0,2,19,62,11
7,3,14,1,0,0,3,19,70,11
7,3,13,1,0,0,3,19,70,11
7,3,21,0,3,0,3,19,62,11
7,3,21,0,4,0,3,19,62,11
7,3,4,0,5,1,3,19,62,11
7,3,22,0,5,1,3,19,70,11
7,3,14,1,1,0,3,19,62,11
7,3,22,0,2,0,3,19,95,11
7,3,23,0,5,1,3,19,62,9
7,3,6,0,5,1,3,19,95,11
7,3,23,0,4,0,3,19,62,11
7,3,4,0,6,1,3,19,95,11
7,3,6,0,6,1,3,19,70,11
7,3,2,0,3,0,3,19,27,11
7,3,13,1,4,0,3,19,101,11
7,3,22,0,5,1,3,19,3,11
7,3,6,0,0,0,3,19,95,11
8,3,10,1,3,0,3,19,70,9
8,3,13,1,6,1,3,19,73,11
8,3,9,1,2,0,3,19,62,11
8,3,11,1,5,1,3,19,70,11
8,3,5,0,0,0,3,19,105,11
8,3,10,1,4,0,3,19,11,9
8,3,19,1,2,0,3,19,101,11
8,3,19,1,2,0,3,19,101,11
8,3,21,0,4,0,3,19,88,11
9,4,14,1,6,1,3,19,62,11
9,4,21,0,2,0,3,19,88,11
9,4,7,1,3,0,3,19,62,11
9,4,19,1,4,0,3,19,62,11
9,4,23,0,5,1,3,19,70,11
9,4,18,1,6,1,3,19,62,11
9,4,11,1,6,1,3,19,62,11
9,4,13,1,1,0,3,19,101,11
9,4,2,0,2,0,3,19,62,11
9,4,16,1,6,1,3,19,95,11
9,4,17,1,6,1,3,19,88,11
9,4,16,1,6,1,3,19,88,11
9,4,17,1,5,1,3,19,62,11
10,4,17,1,1,0,4,19,88,11
10,4,20,1,4,0,4,19,62,11
10,4,14,1,6,1,4,19,70,9
10,4,16,1,1,0,4,19,101,11
10,4,20,1,2,0,4,19,62,11
10,4,2,0,1,0,4,19,62,11
10,4,19,1,1,0,4,19,95,11
10,4,22,0,2,0,4,19,89,11
10,4,14,1,6,1,4,19,62,9
10,4,12,1,0,0,4,19,62,11
10,4,21,0,6,1,4,19,79,11
10,4,6,0,0,0,4,19,70,9
11,4,20,1,5,1,4,19,70,11
11,4,14,1,0,0,4,19,70,11
11,4,17,1,0,0,4,19,62,11
11,4,17,1,0,0,4,19,3,11
11,4,10,1,1,0,4,19,62,11
11,4,21,0,2,0,4,19,62,9
11,4,23,0,5,1,4,19,38,9
11,4,11,1,5,1,4,19,45,9
11,4,2,0,5,1,4,19,95,11
11,4,23,0,2,0,4,19,101,11
11,4,14,1,3,0,4,19,62,11
11,4,6,0,0,0,4,19,109,11
11,4,20,1,3,0,4,19,62,11
11,4,20,1,4,0,4,19,76,11
12,1,21,0,3,0,4,19,51,11
12,1,16,1,0,0,4,19,95,11
12,1,11,1,6,1,4,19,86,11
12,1,4,0,0,0,4,19,70,11
12,1,23,0,1,0,4,19,79,11
12,1,20,1,3,0,4,19,88,11
12,1,0,0,5,1,4,19,62,11
12,1,15,1,3,0,4,19,62,11
12,1,17,1,3,0,4,19,88,11
12,1,12,1,3,0,4,19,95,11
12,1,23,0,4,0,4,19,62,11
12,1,0,0,4,0,4,19,62,11
12,1,16,1,5,1,4,19,3,11
12,1,19,1,0,0,4,19,95,11
12,1,20,1,1,0,4,19,73,11
9,4,12,1,6,1,3,19,99,11
6,3,19,1,1,0,2,19,4,11
6,3,11,1,4,0,2,19,101,11
1,1,18,1,2,0,1,19,126,9
1,1,2,0,2,0,1,19,126,11
1,1,8,1,5,1,1,19,88,11
1,1,17,1,5,1,1,19,73,11
1,1,13,1,6,1,1,19,111,8
1,1,2,0,2,0,1,19,12,11
1,1,14,1,4,0,1,19,73,11
1,1,15,1,1,0,1,19,126,11
1,1,7,1,1,0,1,19,102,11
1,1,6,0,1,0,1,19,70,9
1,1,14,1,2,0,1,19,73,11
2,1,15,1,5,1,1,19,88,11
2,1,20,1,1,0,1,19,70,11
2,1,9,1,5,1,1,19,85,11
2,1,17,1,5,1,1,19,3,11
2,1,0,0,0,0,1,19,101,11
2,1,5,0,0,0,1,19,70,9
2,1,13,1,1,0,1,19,101,11
2,1,17,1,2,0,1,19,101,11
2,1,15,1,4,0,1,19,3,11
2,1,11,1,5,1,1,19,101,11
2,1,15,1,5,1,1,19,3,11
2,1,19,1,5,1,1,19,101,11
2,1,16,1,6,1,1,19,88,11
2,1,5,0,6,1,1,19,17,11
2,1,15,1,0,0,1,19,101,11
2,1,14,1,0,0,1,19,21,11
2,1,13,1,1,0,1,19,3,11
2,1,18,1,1,0,1,19,3,11
2,1,17,1,1,0,1,19,3,9
2,1,10,1,1,0,1,19,101,11
2,1,20,1,1,0,1,19,101,11
2,1,16,1,1,0,1,19,101,11
2,1,18,1,2,0,1,19,73,11
2,1,0,0,3,0,1,19,70,11
2,1,20,1,3,0,1,19,101,11
2,1,13,1,3,0,1,19,101,11
2,1,15,1,4,0,1,19,101,9
2,1,15,1,6,1,1,19,70,11
2,1,13,1,0,0,1,19,3,11
2,1,4,0,0,0,1,19,88,11
2,1,9,1,2,0,1,19,101,11
2,1,12,1,2,0,1,19,88,11
2,1,16,1,3,0,1,19,88,11
2,1,18,1,3,0,1,19,88,11
2,1,13,1,3,0,1,19,88,9
2,1,11,1,3,0,1,19,88,11
3,2,13,1,4,0,1,19,101,8
3,2,22,0,5,1,1,19,3,11
3,2,16,1,5,1,1,19,3,8
3,2,11,1,5,1,1,19,3,11
3,2,14,1,5,1,1,19,101,9
3,2,15,1,6,1,1,19,101,11
3,2,17,1,6,1,1,19,101,11
3,2,17,1,6,1,1,19,101,9
3,2,13,1,0,0,1,19,101,11
3,2,18,1,0,0,1,19,78,11
3,2,23,0,1,0,1,19,70,11
3,2,23,0,1,0,1,19,12,11
3,2,12,1,1,0,1,19,70,11
3,2,9,1,1,0,1,19,70,9
3,2,13,1,2,0,1,19,126,11
3,2,16,1,2,0,1,19,88,9
3,2,0,0,2,0,1,19,3,11
3,2,14,1,3,0,1,19,101,11
3,2,13,1,3,0,1,19,101,11
3,2,12,1,4,0,1,19,70,11
3,2,16,1,6,1,1,19,101,11
3,2,18,1,6,1,1,19,88,11
3,2,2,0,6,1,1,19,117,11
3,2,3,0,6,1,1,19,17,11
3,2,20,1,0,0,1,19,101,11
3,2,15,1,0,0,1,19,101,11
3,2,11,1,0,0,1,19,88,11
3,2,12,1,0,0,1,19,88,8
3,2,5,0,3,0,1,19,55,9
3,2,10,1,3,0,1,19,101,11
3,2,19,1,3,0,1,19,62,11
3,2,17,1,4,0,1,19,101,11
3,2,17,1,1,0,1,19,38,11
3,2,20,1,2,0,1,19,101,11
3,2,12,1,3,0,1,19,3,11
3,2,14,1,3,0,1,19,101,11
3,2,14,1,3,0,1,19,94,11
3,2,11,1,4,0,1,19,12,9
3,2,13,1,5,1,1,19,88,11
3,2,21,0,5,1,1,19,38,11
3,2,18,1,6,1,1,19,126,9
3,2,17,1,6,1,1,19,101,11
3,2,16,1,6,1,1,19,101,11
3,2,22,0,0,0,1,19,101,11
3,2,20,1,0,0,1,19,12,9
3,2,20,1,1,0,1,19,101,11
3,2,19,1,1,0,1,19,101,11
3,2,13,1,1,0,1,19,101,11
3,2,11,1,1,0,1,19,101,11
3,2,22,0,1,0,1,19,88,11
3,2,10,1,2,0,1,19,88,11
3,2,16,1,2,0,1,19,101,11
3,2,14,1,4,0,1,19,101,11
3,2,12,1,4,0,1,19,101,11
3,2,20,1,4,0,1,19,73,11
3,2,14,1,4,0,1,19,101,11
4,2,13,1,0,0,2,19,101,11
4,2,10,1,1,0,2,19,3,9
4,2,15,1,3,0,2,19,126,9
4,2,20,1,3,0,2,19,123,9
4,2,5,0,4,0,2,19,17,11
4,2,10,1,5,1,2,19,38,11
4,2,23,0,3,0,2,19,101,11
4,2,20,1,2,0,2,19,126,11
4,2,22,0,2,0,2,19,88,9
4,2,21,0,3,0,2,19,101,11
4,2,5,0,4,0,2,19,101,11
4,2,21,0,4,0,2,19,101,11
4,2,18,1,4,0,2,19,88,11
4,2,13,1,5,1,2,19,3,11
4,2,9,1,6,1,2,19,88,11
4,2,3,0,0,0,2,19,17,11
4,2,17,1,0,0,2,19,126,11
4,2,11,1,4,0,2,19,70,11
4,2,21,0,4,0,2,19,43,9
4,2,18,1,5,1,2,19,126,11
5,2,11,1,2,0,2,19,126,9
5,2,17,1,2,0,2,19,123,9
5,2,21,0,3,0,2,19,101,11
5,2,15,1,4,0,2,19,101,11
5,2,22,0,5,1,2,19,126,9
5,2,16,1,6,1,2,19,101,11
5,2,23,0,6,1,2,19,109,11
5,2,21,0,0,0,2,19,101,11
5,2,4,0,2,0,2,19,70,11
5,2,19,1,4,0,2,19,17,11
5,2,13,1,4,0,2,19,101,11
5,2,13,1,5,1,2,19,101,11
5,2,6,0,5,1,2,19,17,11
5,2,15,1,6,1,2,19,3,11
5,2,16,1,6,1,2,19,101,11
5,2,3,0,0,0,2,19,73,11
5,2,19,1,0,0,2,19,101,11
5,2,17,1,1,0,2,19,126,11
5,2,22,0,6,1,2,19,126,11
5,2,10,1,6,1,2,19,126,11
5,2,17,1,2,0,2,19,43,9
5,2,22,0,3,0,2,19,126,11
5,2,14,1,6,1,2,19,88,9
5,2,2,0,0,0,2,19,126,9
5,2,4,0,1,0,2,19,88,11
5,2,8,1,2,0,2,19,126,11
6,3,16,1,5,1,2,19,126,11
6,3,15,1,0,0,2,19,17,11
6,3,14,1,0,0,2,19,88,9
6,3,4,0,4,0,2,19,88,11
6,3,9,1,4,0,2,19,101,11
6,3,17,1,5,1,2,19,126,11
6,3,12,1,6,1,2,19,88,11
6,3,10,1,6,1,2,19,101,11
6,3,22,0,0,0,2,19,101,11
6,3,19,1,0,0,2,19,115,11
6,3,10,1,0,0,2,19,45,11
6,3,14,1,0,0,2,19,101,11
6,3,22,0,2,0,2,19,73,11
6,3,1,0,3,0,2,19,126,11
6,3,16,1,5,1,2,19,88,11
6,3,22,0,5,1,2,19,88,11
6,3,13,1,5,1,2,19,101,11
6,3,13,1,4,0,2,19,88,11
6,3,5,0,5,1,2,19,124,11
6,3,1,0,5,1,2,19,126,11
6,3,0,0,6,1,2,19,101,11
6,3,22,0,0,0,2,19,123,11
6,3,4,0,2,0,2,19,17,11
6,3,4,0,3,0,2,19,101,11
6,3,22,0,4,0,2,19,101,11
6,3,9,1,4,0,2,19,45,9
6,3,13,1,5,1,2,19,88,11
7,3,21,0,1,0,3,19,88,11
7,3,14,1,2,0,3,19,101,11
7,3,15,1,3,0,3,19,126,11
7,3,21,0,3,0,3,19,126,9
7,3,23,0,3,0,3,19,101,8
7,3,15,1,4,0,3,19,126,9
7,3,22,0,5,1,3,19,101,11
7,3,14,1,5,1,3,19,88,8
7,3,11,1,5,1,3,19,88,11
7,3,21,0,0,0,3,19,101,11
7,3,20,1,2,0,3,19,88,11
7,3,14,1,2,0,3,19,3,11
7,3,20,1,4,0,3,19,101,11
7,3,16,1,4,0,3,19,101,11
7,3,22,0,6,1,3,19,17,11
7,3,20,1,6,1,3,19,88,11
7,3,0,0,0,0,3,19,88,11
7,3,5,0,3,0,3,19,17,11
7,3,22,0,3,0,3,19,88,11
7,3,23,0,5,1,3,19,88,11
7,3,14,1,1,0,3,19,101,11
7,3,17,1,2,0,3,19,101,11
7,3,13,1,4,0,3,19,111,8
7,3,16,1,5,1,3,19,3,9
7,3,10,1,0,0,3,19,17,11
8,3,21,0,3,0,3,19,126,11
8,3,16,1,4,0,3,19,101,11
8,3,18,1,0,0,3,19,12,11
8,3,9,1,0,0,3,19,108,9
8,3,14,1,3,0,3,19,101,11
8,3,15,1,3,0,3,19,17,11
8,3,6,0,4,0,3,19,88,11
8,3,19,1,5,1,3,19,88,11
8,3,8,1,6,1,3,19,17,11
8,3,18,1,0,0,3,19,88,9
8,3,18,1,0,0,3,19,88,9
8,3,11,1,1,0,3,19,101,11
8,3,10,1,1,0,3,19,88,11
8,3,12,1,2,0,3,19,88,11
8,3,19,1,3,0,3,19,88,11
8,3,10,1,5,1,3,19,3,11
8,3,16,1,5,1,3,19,88,11
8,3,14,1,5,1,3,19,88,11
8,3,21,0,6,1,3,19,88,9
8,3,0,0,0,0,3,19,88,11
8,3,16,1,1,0,3,19,101,11
8,3,9,1,1,0,3,19,3,11
8,3,19,1,2,0,3,19,85,11
8,3,22,0,2,0,3,19,126,9
8,3,19,1,2,0,3,19,126,11
8,3,2,0,3,0,3,19,12,9
8,3,6,0,3,0,3,19,12,11
8,3,22,0,3,0,3,19,126,11
8,3,22,0,4,0,3,19,126,11
8,3,20,1,4,0,3,19,88,11
8,3,10,1,4,0,3,19,101,11
8,3,17,1,4,0,3,19,126,9
8,3,21,0,0,0,3,19,101,11
8,3,10,1,1,0,3,19,101,9
8,3,13,1,1,0,3,19,85,11
8,3,4,0,1,0,3,19,126,11
8,3,20,1,2,0,3,19,126,11
8,3,12,1,2,0,3,19,126,9
8,3,11,1,3,0,3,19,126,11
8,3,15,1,4,0,3,19,88,11
8,3,1,0,4,0,3,19,70,9
8,3,1,0,5,1,3,19,101,8
9,4,20,1,6,1,3,19,88,11
9,4,9,1,0,0,3,19,101,11
9,4,22,0,1,0,3,19,26,9
9,4,13,1,2,0,3,19,101,11
9,4,18,1,2,0,3,19,88,11
9,4,18,1,2,0,3,19,17,11
9,4,17,1,2,0,3,19,101,11
9,4,19,1,4,0,3,19,101,11
9,4,15,1,5,1,3,19,12,11
9,4,14,1,5,1,3,19,88,11
9,4,14,1,5,1,3,19,101,8
9,4,0,0,6,1,3,19,103,9
9,4,21,0,0,0,3,19,88,11
9,4,6,0,1,0,3,19,17,11
9,4,14,1,2,0,3,19,88,11
9,4,0,0,3,0,3,19,88,9
9,4,15,1,6,1,3,19,101,11
9,4,14,1,1,0,3,19,88,11
9,4,20,1,1,0,3,19,88,11
9,4,17,1,5,1,3,19,126,11
9,4,14,1,5,1,3,19,126,11
9,4,14,1,6,1,3,19,101,9
9,4,10,1,6,1,3,19,101,9
10,4,20,1,1,0,4,19,101,11
10,4,16,1,2,0,4,19,101,11
10,4,19,1,2,0,4,19,101,9
10,4,13,1,3,0,4,19,53,11
10,4,20,1,3,0,4,19,61,11
10,4,8,1,0,0,4,19,88,11
10,4,12,1,4,0,4,19,101,9
10,4,11,1,4,0,4,19,88,11
10,4,14,1,5,1,4,19,73,11
10,4,14,1,3,0,4,19,73,11
10,4,17,1,3,0,4,19,11,11
10,4,19,1,6,1,4,19,126,8
10,4,19,1,1,0,4,19,3,11
10,4,2,0,2,0,4,19,17,11
10,4,21,0,3,0,4,19,17,11
10,4,15,1,4,0,4,19,107,11
10,4,3,0,6,1,4,19,17,11
10,4,13,1,6,1,4,19,101,11
10,4,15,1,6,1,4,19,88,11
10,4,15,1,0,0,4,19,53,11
10,4,4,0,1,0,4,19,17,11
11,4,19,1,1,0,4,19,88,11
11,4,3,0,1,0,4,19,17,11
11,4,17,1,4,0,4,19,126,11
11,4,6,0,2,0,4,19,21,9
11,4,23,0,2,0,4,19,70,11
11,4,11,1,2,0,4,19,109,11
11,4,10,1,4,0,4,19,17,11
12,1,1,0,0,0,4,19,126,11
12,1,23,0,1,0,4,19,59,11
12,1,7,1,3,0,4,19,17,11
12,1,9,1,4,0,4,19,43,11
12,1,22,0,6,1,4,19,101,11
12,1,11,1,0,0,4,19,12,8
12,1,18,1,2,0,4,19,101,11
12,1,17,1,3,0,4,19,73,11
12,1,21,0,4,0,4,19,3,11
12,1,1,0,5,1,4,19,3,9
12,1,10,1,0,0,4,19,126,11
12,1,16,1,1,0,4,19,101,11
1,1,2,0,1,0,1,19,73,9
1,1,12,1,1,0,1,19,3,9
1,1,0,0,5,1,1,19,109,11
1,1,15,1,5,1,1,19,38,9
1,1,16,1,1,0,1,19,38,11
1,1,19,1,2,0,1,19,17,9
1,1,16,1,3,0,1,19,73,11
1,1,18,1,5,1,1,19,126,11
1,1,20,1,5,1,1,19,101,11
1,1,2,0,0,0,1,19,126,11
1,1,16,1,1,0,1,19,3,9
1,1,19,1,3,0,1,19,3,11
1,1,20,1,4,0,1,19,3,11
1,1,22,0,4,0,1,19,3,9
1,1,8,1,2,0,1,19,38,11
2,1,19,1,4,0,1,19,73,9
2,1,22,0,5,1,1,19,73,11
2,1,6,0,6,1,1,19,73,8
2,1,23,0,0,0,1,19,95,11
2,1,23,0,4,0,1,19,73,11
2,1,14,1,5,1,1,19,3,11
2,1,17,1,5,1,1,19,3,11
2,1,14,1,6,1,1,19,88,11
2,1,3,0,0,0,1,19,70,11
2,1,13,1,2,0,1,19,73,9
2,1,13,1,4,0,1,19,101,11
2,1,16,1,4,0,1,19,101,11
2,1,18,1,4,0,1,19,101,9
2,1,21,0,4,0,1,19,101,11
2,1,13,1,5,1,1,19,3,11
2,1,16,1,0,0,1,19,95,11
2,1,22,0,1,0,1,19,62,9
2,1,12,1,3,0,1,19,101,11
2,1,13,1,3,0,1,19,3,11
2,1,12,1,4,0,1,19,88,11
2,1,16,1,4,0,1,19,101,11
2,1,20,1,4,0,1,19,101,11
2,1,14,1,6,1,1,19,95,11
2,1,9,1,2,0,1,19,101,11
2,1,17,1,2,0,1,19,101,11
2,1,21,0,2,0,1,19,3,11
2,1,17,1,3,0,1,19,101,11
3,2,5,0,4,0,1,19,73,11
3,2,20,1,4,0,1,19,3,11
3,2,17,1,6,1,1,19,101,11
3,2,11,1,6,1,1,19,101,11
3,2,9,1,4,0,1,19,3,9
3,2,16,1,4,0,1,19,3,11
3,2,0,0,6,1,1,19,88,11
3,2,4,0,0,0,1,19,73,8
3,2,7,1,4,0,1,19,3,11
3,2,14,1,5,1,1,19,101,11
3,2,8,1,5,1,1,19,38,11
3,2,17,1,6,1,1,19,88,11
3,2,21,0,0,0,1,19,3,11
3,2,19,1,3,0,1,19,88,11
3,2,5,0,5,1,1,19,101,11
3,2,22,0,6,1,1,19,73,8
3,2,11,1,6,1,1,19,3,11
3,2,14,1,6,1,1,19,101,11
4,2,18,1,1,0,2,19,3,9
4,2,12,1,4,0,2,19,101,11
4,2,17,1,4,0,2,19,101,11
4,2,18,1,5,1,2,19,117,11
4,2,20,1,6,1,2,19,38,9
4,2,22,0,6,1,2,19,109,11
4,2,20,1,4,0,2,19,88,11
4,2,18,1,2,0,2,19,101,11
4,2,20,1,4,0,2,19,3,11
4,2,20,1,1,0,2,19,55,11
5,2,10,1,3,0,2,19,3,11
5,2,20,1,4,0,2,19,3,11
5,2,9,1,6,1,2,19,3,11
5,2,9,1,0,0,2,19,3,11
5,2,21,0,5,1,2,19,3,11
5,2,21,0,1,0,2,19,3,11
5,2,21,0,1,0,2,19,126,9
5,2,15,1,5,1,2,19,88,11
5,2,12,1,2,0,2,19,126,8
5,2,12,1,3,0,2,19,73,11
5,2,16,1,2,0,2,19,3,11
5,2,9,1,4,0,2,19,17,11
6,3,15,1,1,0,2,19,18,11
6,3,15,1,2,0,2,19,73,9
6,3,2,0,4,0,2,19,101,11
6,3,14,1,4,0,2,19,3,9
6,3,11,1,6,1,2,19,88,11
6,3,15,1,5,1,2,19,101,11
6,3,13,1,0,0,2,19,101,11
6,3,15,1,0,0,2,19,101,9
6,3,18,1,1,0,2,19,38,11
6,3,0,0,1,0,2,19,101,11
6,3,14,1,3,0,2,19,3,8
6,3,13,1,6,1,2,19,3,11
6,3,4,0,6,1,2,19,17,11
7,3,17,1,0,0,3,19,3,11
7,3,18,1,1,0,3,19,88,11
7,3,22,0,3,0,3,19,3,11
7,3,10,1,5,1,3,19,109,11
7,3,9,1,5,1,3,19,3,11
7,3,4,0,5,1,3,19,3,8
7,3,18,1,5,1,3,19,3,11
7,3,15,1,5,1,3,19,3,11
7,3,17,1,1,0,3,19,3,11
7,3,19,1,5,1,3,19,88,11
7,3,18,1,0,0,3,19,126,11
7,3,17,1,1,0,3,19,101,11
8,3,17,1,4,0,3,19,17,11
8,3,16,1,5,1,3,19,126,8
8,3,1,0,6,1,3,19,62,11
8,3,15,1,1,0,3,19,88,11
8,3,5,0,4,0,3,19,3,11
8,3,14,1,4,0,3,19,77,11
8,3,16,1,3,0,3,19,88,9
8,3,2,0,5,1,3,19,17,9
8,3,19,1,6,1,3,19,3,9
8,3,15,1,1,0,3,19,126,8
8,3,7,1,3,0,3,19,70,9
8,3,17,1,4,0,3,19,88,11
8,3,16,1,5,1,3,19,88,9
8,3,23,0,5,1,3,19,88,9
9,4,14,1,3,0,3,19,126,8
9,4,10,1,3,0,3,19,6,9
9,4,8,1,4,0,3,19,3,9
9,4,8,1,6,1,3,19,101,11
9,4,12,1,2,0,3,19,17,9
9,4,17,1,3,0,3,19,88,9
9,4,20,1,4,0,3,19,3,11
9,4,2,0,5,1,3,19,3,8
9,4,13,1,5,1,3,19,88,11
9,4,22,0,5,1,3,19,11,9
9,4,16,1,0,0,3,19,88,11
9,4,18,1,0,0,3,19,3,11
9,4,21,0,4,0,3,19,126,11
9,4,17,1,4,0,3,19,88,9
9,4,8,1,4,0,3,19,109,11
9,4,2,0,5,1,3,19,126,11
9,4,22,0,5,1,3,19,73,9
9,4,14,1,6,1,3,19,3,11
10,4,16,1,2,0,4,19,11,9
10,4,8,1,4,0,4,19,17,11
10,4,9,1,6,1,4,19,88,11
10,4,17,1,5,1,4,19,3,11
10,4,2,0,1,0,4,19,3,11
10,4,19,1,1,0,4,19,3,11
10,4,21,0,2,0,4,19,3,11
11,4,14,1,4,0,4,19,73,11
11,4,22,0,6,1,4,19,101,11
11,4,17,1,3,0,4,19,3,9
11,4,22,0,4,0,4,19,3,11
11,4,10,1,5,1,4,19,38,11
11,4,10,1,5,1,4,19,3,11
12,1,22,0,0,0,4,19,3,11
12,1,17,1,1,0,4,19,73,11
12,1,21,0,1,0,4,19,3,11
12,1,15,1,2,0,4,19,62,11
12,1,0,0,5,1,4,19,81,11
12,1,0,0,5,1,4,19,95,11
12,1,3,0,6,1,4,19,73,9
12,1,20,1,0,0,4,19,88,11
12,1,18,1,4,0,4,19,70,11
12,1,13,1,3,0,4,19,88,11
12,1,11,1,2,0,4,19,73,11
12,1,12,1,3,0,4,19,3,11
12,1,17,1,4,0,4,19,3,11
12,1,20,1,4,0,4,19,38,11
12,1,21,0,4,0,4,19,101,11
12,1,21,0,5,1,4,19,101,11
1,1,3,0,1,0,1,44,70,11
1,1,14,1,5,1,1,44,17,11
1,1,8,1,5,1,1,44,109,11
1,1,15,1,6,1,1,44,101,11
1,1,16,1,2,0,1,44,62,11
1,1,6,0,3,0,1,44,95,11
1,1,15,1,3,0,1,44,101,11
1,1,17,1,2,0,1,44,38,11
1,1,23,0,2,0,1,44,109,11
1,1,17,1,3,0,1,44,46,11
2,1,12,1,1,0,1,44,38,11
2,1,10,1,2,0,1,44,101,11
2,1,14,1,2,0,1,44,101,11
2,1,16,1,2,0,1,44,101,11
2,1,14,1,3,0,1,44,62,11
2,1,21,0,3,0,1,44,45,11
2,1,20,1,5,1,1,44,54,11
2,1,17,1,5,1,1,44,101,11
2,1,14,1,5,1,1,44,101,11
2,1,12,1,5,1,1,44,101,11
2,1,21,0,0,0,1,44,70,11
2,1,16,1,1,0,1,44,101,11
2,1,17,1,1,0,1,44,101,11
2,1,18,1,1,0,1,44,101,11
2,1,20,1,1,0,1,44,88,11
2,1,19,1,3,0,1,44,101,11
2,1,13,1,3,0,1,44,26,11
2,1,18,1,3,0,1,44,109,11
2,1,10,1,4,0,1,44,101,11
2,1,20,1,4,0,1,44,101,11
2,1,12,1,0,0,1,44,101,11
2,1,9,1,2,0,1,44,88,11
2,1,14,1,2,0,1,44,109,11
2,1,12,1,3,0,1,44,101,11
2,1,15,1,3,0,1,44,101,11
2,1,15,1,3,0,1,44,11,11
2,1,12,1,3,0,1,44,101,11
3,2,0,0,4,0,1,44,85,11
3,2,23,0,4,0,1,44,38,9
3,2,13,1,4,0,1,44,3,9
3,2,14,1,5,1,1,44,101,11
3,2,13,1,5,1,1,44,101,11
3,2,10,1,5,1,1,44,101,11
3,2,13,1,6,1,1,44,101,11
3,2,18,1,1,0,1,44,101,11
3,2,13,1,2,0,1,44,101,11
3,2,23,0,2,0,1,44,62,11
3,2,15,1,2,0,1,44,101,11
3,2,13,1,6,1,1,44,101,11
3,2,17,1,6,1,1,44,101,11
3,2,18,1,6,1,1,44,88,11
3,2,13,1,0,0,1,44,109,11
3,2,14,1,0,0,1,44,101,11
3,2,17,1,1,0,1,44,109,11
3,2,19,1,4,0,1,44,101,11
3,2,12,1,5,1,1,44,101,11
3,2,20,1,0,0,1,44,85,11
3,2,20,1,0,0,1,44,101,11
3,2,12,1,1,0,1,44,101,11
3,2,12,1,3,0,1,44,11,11
3,2,0,0,4,0,1,44,62,11
3,2,17,1,4,0,1,44,101,11
3,2,14,1,6,1,1,44,62,11
3,2,6,0,6,1,1,44,95,11
3,2,7,1,2,0,1,44,21,11
3,2,12,1,5,1,1,44,101,11
3,2,13,1,6,1,1,44,101,11
4,2,18,1,1,0,2,44,101,11
4,2,11,1,2,0,2,44,88,11
4,2,12,1,2,0,2,44,101,9
4,2,14,1,2,0,2,44,73,11
4,2,15,1,3,0,2,44,88,11
4,2,14,1,4,0,2,44,101,11
4,2,19,1,4,0,2,44,101,11
4,2,16,1,5,1,2,44,101,11
4,2,18,1,6,1,2,44,73,11
4,2,20,1,4,0,2,44,88,9
4,2,14,1,6,1,2,44,38,11
4,2,19,1,0,0,2,44,17,11
4,2,11,1,2,0,2,44,62,11
4,2,3,0,4,0,2,44,70,11
4,2,18,1,5,1,2,44,73,11
4,2,14,1,2,0,2,44,62,11
4,2,8,1,3,0,2,44,17,11
5,2,16,1,3,0,2,44,17,9
5,2,23,0,4,0,2,44,101,11
5,2,17,1,6,1,2,44,88,11
5,2,15,1,3,0,2,44,88,11
5,2,15,1,0,0,2,44,62,11
5,2,11,1,4,0,2,44,101,11
6,3,10,1,6,1,2,44,88,11
6,3,18,1,1,0,2,44,109,11
7,3,5,0,0,0,3,44,73,9
7,3,22,0,2,0,3,44,11,9
7,3,2,0,4,0,3,44,95,11
7,3,10,1,5,1,3,44,17,11
7,3,20,1,6,1,3,44,101,11
7,3,4,0,3,0,3,44,109,11
7,3,11,1,3,0,3,44,17,11
7,3,12,1,1,0,3,44,101,11
7,3,15,1,5,1,3,44,73,11
7,3,11,1,6,1,3,44,101,11
7,3,15,1,0,0,3,44,101,11
7,3,18,1,2,0,3,44,88,11
8,3,13,1,6,1,3,44,101,11
8,3,20,1,6,1,3,44,101,11
8,3,18,1,6,1,3,44,88,11
8,3,16,1,1,0,3,44,101,11
8,3,13,1,2,0,3,44,24,9
8,3,18,1,2,0,3,44,101,11
8,3,19,1,2,0,3,44,101,11
8,3,4,0,4,0,3,44,62,11
8,3,18,1,5,1,3,44,88,11
8,3,19,1,0,0,3,44,101,11
8,3,20,1,0,0,3,44,73,11
8,3,16,1,1,0,3,44,101,11
8,3,22,0,1,0,3,44,73,11
8,3,13,1,4,0,3,44,101,11
8,3,20,1,6,1,3,44,17,11
8,3,13,1,0,0,3,44,38,11
8,3,20,1,1,0,3,44,101,11
8,3,15,1,1,0,3,44,101,11
8,3,16,1,2,0,3,44,101,11
8,3,22,0,2,0,3,44,77,11
8,3,3,0,3,0,3,44,88,11
9,4,19,1,6,1,3,44,101,11
9,4,13,1,2,0,3,44,3,11
9,4,10,1,2,0,3,44,101,11
9,4,9,1,3,0,3,44,101,11
9,4,19,1,6,1,3,44,110,11
9,4,3,0,0,0,3,44,95,11
9,4,2,0,4,0,3,44,17,11
9,4,14,1,4,0,3,44,101,11
9,4,16,1,4,0,3,44,101,11
9,4,16,1,4,0,3,44,101,9
9,4,14,1,5,1,3,44,88,8
9,4,17,1,5,1,3,44,101,11
9,4,9,1,1,0,3,44,101,11
9,4,11,1,1,0,3,44,62,11
9,4,15,1,1,0,3,44,101,11
9,4,15,1,3,0,3,44,101,11
9,4,19,1,0,0,3,44,101,11
9,4,18,1,1,0,3,44,109,11
9,4,9,1,4,0,3,44,70,11
9,4,15,1,4,0,3,44,88,11
10,4,14,1,3,0,4,44,88,11
10,4,16,1,3,0,4,44,101,11
10,4,12,1,3,0,4,44,70,11
10,4,13,1,3,0,4,44,62,11
10,4,15,1,0,0,4,44,24,11
10,4,22,0,2,0,4,44,73,11
10,4,13,1,2,0,4,44,24,11
10,4,15,1,3,0,4,44,101,11
10,4,11,1,3,0,4,44,11,11
10,4,18,1,5,1,4,44,73,11
11,4,2,0,5,1,4,44,17,11
11,4,22,0,0,0,4,44,73,11
12,1,16,1,5,1,4,44,73,11
12,1,14,1,4,0,4,44,17,11
12,1,13,1,1,0,4,44,11,9
12,1,15,1,0,0,4,44,101,11
1,1,9,1,4,0,1,44,62,11
1,1,1,0,1,0,1,44,73,11
2,1,17,1,2,0,1,44,101,11
2,1,13,1,2,0,1,44,11,11
2,1,0,0,3,0,1,44,101,11
2,1,12,1,1,0,1,44,24,11
2,1,17,1,3,0,1,44,22,9
2,1,12,1,4,0,1,44,3,11
2,1,19,1,1,0,1,44,3,11
2,1,17,1,3,0,1,44,101,11
3,2,12,1,0,0,1,44,3,11
3,2,12,1,2,0,1,44,3,11
3,2,20,1,0,0,1,44,3,11
3,2,5,0,4,0,1,44,101,11
3,2,12,1,6,1,1,44,17,11
4,2,17,1,0,0,2,44,3,11
4,2,14,1,1,0,2,44,101,9
4,2,19,1,4,0,2,44,3,11
5,2,13,1,5,1,2,44,101,11
5,2,20,1,6,1,2,44,38,11
5,2,12,1,1,0,2,44,95,11
5,2,22,0,3,0,2,44,3,11
6,3,11,1,6,1,2,44,3,9
7,3,11,1,5,1,3,44,3,11
7,3,20,1,0,0,3,44,3,11
7,3,12,1,0,0,3,44,73,11
8,3,10,1,3,0,3,44,101,11
8,3,7,1,0,0,3,44,18,11
8,3,13,1,5,1,3,44,88,11
9,4,21,0,1,0,3,44,3,11
9,4,21,0,5,1,3,44,101,11
9,4,19,1,1,0,3,44,49,11
9,4,18,1,0,0,3,44,101,11
9,4,13,1,5,1,3,44,12,11
9,4,17,1,0,0,3,44,101,11
10,4,1,0,4,0,4,44,101,11
10,4,23,0,5,1,4,44,95,11
10,4,13,1,6,1,4,44,24,11
10,4,0,0,0,0,4,44,85,11
10,4,0,0,2,0,4,44,85,11
10,4,17,1,4,0,4,44,3,11
10,4,18,1,1,0,4,44,60,11
10,4,18,1,3,0,4,44,3,11
10,4,11,1,5,1,4,44,101,11
11,4,16,1,3,0,4,44,3,11
1,1,16,1,2,0,1,44,3,11
1,1,18,1,2,0,1,44,101,11
2,1,18,1,1,0,1,44,38,11
2,1,13,1,2,0,1,44,88,11
2,1,13,1,5,1,1,44,101,11
2,1,16,1,5,1,1,44,88,11
2,1,6,0,0,0,1,44,73,9
2,1,12,1,1,0,1,44,95,11
2,1,10,1,3,0,1,44,101,11
2,1,15,1,3,0,1,44,88,11
2,1,14,1,4,0,1,44,101,11
2,1,16,1,4,0,1,44,101,11
2,1,17,1,4,0,1,44,101,11
2,1,6,0,5,1,1,44,101,11
2,1,18,1,6,1,1,44,101,11
2,1,13,1,1,0,1,44,88,11
2,1,21,0,1,0,1,44,101,11
2,1,16,1,2,0,1,44,101,11
2,1,12,1,3,0,1,44,101,11
3,2,14,1,4,0,1,44,101,11
3,2,16,1,4,0,1,44,101,11
3,2,13,1,5,1,1,44,101,11
3,2,4,0,6,1,1,44,101,11
3,2,9,1,6,1,1,44,101,11
3,2,15,1,6,1,1,44,101,11
3,2,19,1,6,1,1,44,101,11
3,2,12,1,2,0,1,44,101,11
3,2,17,1,2,0,1,44,101,11
3,2,17,1,2,0,1,44,101,11
3,2,10,1,4,0,1,44,17,11
3,2,8,1,5,1,1,44,101,11
3,2,19,1,0,0,1,44,101,11
3,2,19,1,0,0,1,44,109,11
3,2,14,1,0,0,1,44,88,9
3,2,9,1,1,0,1,44,101,11
3,2,18,1,4,0,1,44,101,11
3,2,13,1,6,1,1,44,101,11
3,2,15,1,0,0,1,44,101,11
3,2,23,0,1,0,1,44,101,11
3,2,13,1,2,0,1,44,101,11
3,2,15,1,3,0,1,44,101,11
3,2,16,1,3,0,1,44,101,11
3,2,15,1,5,1,1,44,101,11
3,2,19,1,5,1,1,44,101,11
3,2,14,1,5,1,1,44,101,9
4,2,15,1,0,0,2,44,101,11
4,2,19,1,1,0,2,44,101,11
4,2,14,1,1,0,2,44,101,11
4,2,20,1,2,0,2,44,21,8
4,2,18,1,4,0,2,44,101,11
4,2,18,1,6,1,2,44,101,11
4,2,1,0,2,0,2,44,11,9
4,2,21,0,5,1,2,44,17,11
5,2,16,1,3,0,2,44,101,11
5,2,14,1,5,1,2,44,101,11
6,3,16,1,5,1,2,44,101,11
6,3,16,1,3,0,2,44,101,11
6,3,14,1,4,0,2,44,17,11
7,3,20,1,0,0,3,44,88,11
7,3,23,0,4,0,3,44,17,11
8,3,21,0,0,0,3,44,101,11
8,3,20,1,5,1,3,44,101,11
8,3,9,1,6,1,3,44,101,11
8,3,20,1,4,0,3,44,101,11
9,4,17,1,3,0,3,44,88,11
9,4,20,1,4,0,3,44,60,8
9,4,14,1,2,0,3,44,101,11
9,4,1,0,0,0,3,44,101,11
9,4,21,0,1,0,3,44,95,11
9,4,13,1,2,0,3,44,11,9
9,4,18,1,6,1,3,44,101,11
9,4,18,1,6,1,3,44,74,11
9,4,16,1,0,0,3,44,101,11
10,4,21,0,2,0,4,44,101,11
10,4,12,1,6,1,4,44,24,9
10,4,14,1,2,0,4,44,88,11
10,4,17,1,0,0,4,44,101,11
10,4,18,1,0,0,4,44,101,11
10,4,8,1,2,0,4,44,101,11
10,4,21,0,6,1,4,44,17,11
10,4,11,1,1,0,4,44,101,11
11,4,5,0,5,1,4,44,12,9
11,4,20,1,6,1,4,44,73,11
11,4,21,0,1,0,4,44,62,11
12,1,13,1,6,1,4,44,62,11
12,1,17,1,0,0,4,44,126,11
12,1,18,1,1,0,4,44,24,11
2,1,15,1,5,1,1,44,88,11
2,1,13,1,4,0,1,44,3,11
3,2,13,1,4,0,1,44,101,11
3,2,17,1,1,0,1,44,38,8
3,2,17,1,2,0,1,44,101,11
4,2,12,1,3,0,2,44,88,11
5,2,21,0,1,0,2,44,17,11
6,3,13,1,6,1,2,44,101,11
8,3,8,1,5,1,3,44,88,11
8,3,12,1,2,0,3,44,101,11
9,4,14,1,4,0,3,44,101,11
9,4,19,1,0,0,3,44,101,11
9,4,17,1,1,0,3,44,101,11
1,1,11,1,4,0,1,44,70,11
1,1,18,1,3,0,1,44,108,9
2,1,11,1,4,0,1,44,101,11
2,1,12,1,3,0,1,44,24,9
2,1,15,1,0,0,1,44,101,11
3,2,17,1,5,1,1,44,73,11
3,2,14,1,4,0,1,44,92,11
3,2,6,0,6,1,1,44,101,11
4,2,18,1,4,0,2,44,101,11
5,2,13,1,5,1,2,44,101,11
5,2,19,1,5,1,2,44,95,11
5,2,21,0,3,0,2,44,3,11
6,3,15,1,4,0,2,44,88,11
6,3,19,1,1,0,2,44,73,11
6,3,13,1,1,0,2,44,11,8
7,3,22,0,3,0,3,44,101,11
8,3,14,1,1,0,3,44,101,11
8,3,17,1,1,0,3,44,101,11
8,3,18,1,2,0,3,44,101,11
8,3,16,1,0,0,3,44,24,11
8,3,13,1,0,0,3,44,88,11
8,3,16,1,1,0,3,44,101,11
9,4,13,1,3,0,3,44,101,11
9,4,6,0,0,0,3,44,101,11
9,4,9,1,0,0,3,44,101,11
9,4,16,1,4,0,3,44,73,9
9,4,13,1,1,0,3,44,101,11
9,4,12,1,4,0,3,44,70,11
2,1,16,1,2,0,1,44,101,11
2,1,18,1,6,1,1,44,3,11
2,1,11,1,1,0,1,44,101,11
2,1,6,0,5,1,1,44,60,11
2,1,11,1,5,1,1,44,73,9
2,1,13,1,3,0,1,44,101,11
3,2,17,1,5,1,1,44,101,11
3,2,12,1,6,1,1,44,88,11
3,2,14,1,6,1,1,44,101,11
3,2,19,1,3,0,1,44,101,11
4,2,20,1,4,0,2,44,101,11
5,2,11,1,2,0,2,44,101,11
5,2,12,1,0,0,2,44,101,11
5,2,8,1,0,0,2,44,17,11
5,2,16,1,1,0,2,44,3,11
5,2,20,1,2,0,2,44,88,11
6,3,13,1,3,0,2,44,88,11
6,3,13,1,6,1,2,44,38,11
6,3,20,1,2,0,2,44,70,11
6,3,16,1,5,1,2,44,18,9
7,3,9,1,2,0,3,44,3,11
7,3,17,1,0,0,3,44,88,8
8,3,23,0,4,0,3,44,11,11
8,3,16,1,5,1,3,44,101,11
9,4,16,1,1,0,3,44,101,11
9,4,19,1,2,0,3,44,101,11
10,4,10,1,2,0,4,44,10,11
10,4,20,1,2,0,4,44,24,11
10,4,11,1,3,0,4,44,12,11
10,4,17,1,3,0,4,44,101,11
1,1,6,0,3,0,1,49,38,11
2,1,10,1,4,0,1,49,55,8
2,1,16,1,6,1,1,49,73,11
3,2,19,1,4,0,1,49,17,11
4,2,18,1,2,0,2,49,126,11
4,2,15,1,5,1,2,49,73,11
6,3,6,0,2,0,2,49,126,11
7,3,2,0,4,0,3,49,17,11
8,3,7,1,6,1,3,49,126,11
8,3,15,1,6,1,3,49,126,11
8,3,21,0,4,0,3,49,118,11
10,4,14,1,5,1,4,49,11,11
10,4,11,1,1,0,4,49,73,11
11,4,15,1,1,0,4,49,17,11
11,4,21,0,5,1,4,49,62,11
12,1,1,0,6,1,4,49,126,11
12,1,13,1,3,0,4,49,73,11
12,1,9,1,6,1,4,49,73,11
1,1,17,1,2,0,1,49,38,11
1,1,0,0,0,0,1,49,88,11
3,2,16,1,2,0,1,49,126,11
3,2,17,1,2,0,1,49,88,11
4,2,20,1,1,0,2,49,126,11
5,2,10,1,6,1,2,49,88,11
6,3,22,0,5,1,2,49,109,11
7,3,17,1,5,1,3,49,88,11
8,3,12,1,0,0,3,49,101,11
8,3,16,1,5,1,3,49,101,11
10,4,0,0,2,0,4,49,17,11
10,4,21,0,1,0,4,49,74,11
1,1,15,1,1,0,1,49,88,11
1,1,10,1,3,0,1,49,126,11
2,1,12,1,6,1,1,49,101,11
2,1,22,0,6,1,1,49,73,11
2,1,19,1,1,0,1,49,85,11
2,1,14,1,4,0,1,49,73,11
3,2,6,0,5,1,1,49,81,9
3,2,23,0,0,0,1,49,17,11
3,2,9,1,2,0,1,49,88,11
3,2,20,1,2,0,1,49,17,9
3,2,20,1,4,0,1,49,126,11
3,2,21,0,5,1,1,49,88,11
3,2,21,0,3,0,1,49,38,11
4,2,14,1,1,0,2,49,88,11
4,2,18,1,2,0,2,49,88,11
4,2,16,1,3,0,2,49,17,11
4,2,22,0,2,0,2,49,45,9
4,2,18,1,1,0,2,49,88,11
5,2,11,1,3,0,2,49,88,11
5,2,2,0,4,0,2,49,88,11
5,2,12,1,5,1,2,49,81,11
5,2,8,1,2,0,2,49,88,11
5,2,19,1,6,1,2,49,17,11
5,2,6,0,2,0,2,49,38,11
6,3,21,0,5,1,2,49,126,11
6,3,17,1,5,1,2,49,101,11
6,3,12,1,1,0,2,49,101,11
6,3,0,0,2,0,2,49,126,11
7,3,21,0,3,0,3,49,124,11
7,3,4,0,4,0,3,49,73,11
7,3,16,1,3,0,3,49,85,11
7,3,18,1,2,0,3,49,74,11
8,3,10,1,4,0,3,49,88,11
8,3,10,1,6,1,3,49,88,11
8,3,22,0,4,0,3,49,12,9
8,3,18,1,4,0,3,49,88,11
9,4,20,1,6,1,3,49,69,9
10,4,6,0,0,0,4,49,88,11
10,4,13,1,2,0,4,49,88,11
10,4,16,1,1,0,4,49,88,11
10,4,13,1,2,0,4,49,88,11
11,4,8,1,5,1,4,49,54,9
11,4,11,1,0,0,4,49,88,11
11,4,14,1,3,0,4,49,17,11
12,1,16,1,1,0,4,49,126,11
12,1,17,1,3,0,4,49,26,11
12,1,10,1,6,1,4,49,88,11
12,1,18,1,4,0,4,49,85,11
12,1,18,1,6,1,4,49,85,9
12,1,17,1,1,0,4,49,85,11
1,1,12,1,0,0,1,49,73,11
2,1,4,0,2,0,1,49,73,11
3,2,18,1,3,0,1,49,101,11
3,2,10,1,3,0,1,49,62,11
4,2,14,1,5,1,2,49,38,11
4,2,6,0,2,0,2,49,109,11
5,2,8,1,1,0,2,49,88,11
6,3,18,1,2,0,2,49,81,11
8,3,10,1,2,0,3,49,99,11
9,4,19,1,1,0,3,49,73,11
9,4,14,1,4,0,3,49,73,11
10,4,16,1,4,0,4,49,109,11
5,2,15,1,2,0,2,49,86,11
7,3,0,0,4,0,3,49,21,11
8,3,16,1,6,1,3,49,88,11
8,3,13,1,4,0,3,49,88,11
9,4,23,0,6,1,3,49,88,11
9,4,17,1,4,0,3,49,17,11
11,4,5,0,4,0,4,49,101,11
12,1,20,1,6,1,4,49,73,11
1,1,12,1,2,0,1,26,17,11
1,1,18,1,0,0,1,26,38,9
1,1,5,0,2,0,1,26,12,11
1,1,20,1,3,0,1,26,62,11
1,1,23,0,1,0,1,26,85,11
1,1,15,1,3,0,1,26,101,11
2,1,4,0,6,1,1,26,88,11
2,1,17,1,2,0,1,26,73,11
2,1,12,1,6,1,1,26,83,11
2,1,18,1,1,0,1,26,101,11
2,1,12,1,3,0,1,26,88,11
2,1,19,1,3,0,1,26,62,11
2,1,13,1,4,0,1,26,38,11
2,1,9,1,2,0,1,26,88,11
2,1,21,0,2,0,1,26,62,11
2,1,11,1,3,0,1,26,3,11
3,2,13,1,0,0,1,26,126,11
3,2,12,1,1,0,1,26,101,11
3,2,15,1,3,0,1,26,101,11
3,2,14,1,5,1,1,26,88,11
3,2,14,1,0,0,1,26,12,11
3,2,21,0,5,1,1,26,62,11
3,2,13,1,6,1,1,26,62,11
3,2,14,1,2,0,1,26,88,11
3,2,19,1,6,1,1,26,88,11
4,2,18,1,0,0,2,26,88,11
4,2,3,0,1,0,2,26,95,11
4,2,1,0,3,0,2,26,101,11
4,2,6,0,3,0,2,26,101,11
4,2,17,1,5,1,2,26,21,11
4,2,14,1,1,0,2,26,70,11
5,2,20,1,2,0,2,26,101,11
5,2,14,1,0,0,2,26,18,11
5,2,12,1,3,0,2,26,64,11
5,2,12,1,2,0,2,26,88,11
5,2,12,1,5,1,2,26,88,11
5,2,21,0,4,0,2,26,109,11
6,3,12,1,1,0,2,26,86,11
6,3,15,1,2,0,2,26,88,11
6,3,9,1,1,0,2,26,12,11
7,3,9,1,3,0,3,26,73,11
7,3,12,1,5,1,3,26,95,11
7,3,11,1,0,0,3,26,17,11
7,3,19,1,2,0,3,26,88,11
7,3,10,1,6,1,3,26,88,11
7,3,10,1,2,0,3,26,88,11
7,3,11,1,4,0,3,26,88,11
7,3,12,1,6,1,3,26,88,11
8,3,21,0,0,0,3,26,62,11
8,3,15,1,0,0,3,26,88,11
8,3,10,1,1,0,3,26,88,11
8,3,18,1,1,0,3,26,88,11
8,3,18,1,3,0,3,26,88,11
8,3,15,1,5,1,3,26,11,8
8,3,10,1,5,1,3,26,88,11
8,3,18,1,1,0,3,26,88,11
8,3,22,0,2,0,3,26,88,11
8,3,13,1,0,0,3,26,101,11
8,3,18,1,0,0,3,26,88,11
8,3,17,1,4,0,3,26,88,11
8,3,14,1,4,0,3,26,88,11
9,4,13,1,0,0,3,26,88,11
9,4,2,0,3,0,3,26,38,11
9,4,11,1,5,1,3,26,101,11
9,4,16,1,5,1,3,26,88,11
9,4,12,1,6,1,3,26,54,11
9,4,14,1,0,0,3,26,88,11
9,4,21,0,1,0,3,26,73,11
9,4,15,1,1,0,3,26,88,11
9,4,2,0,2,0,3,26,70,11
9,4,15,1,5,1,3,26,95,11
10,4,13,1,6,1,4,26,101,11
10,4,15,1,2,0,4,26,18,11
10,4,13,1,4,0,4,26,101,11
11,4,20,1,5,1,4,26,62,11
11,4,17,1,5,1,4,26,70,11
11,4,12,1,0,0,4,26,73,11
11,4,6,0,3,0,4,26,17,11
11,4,21,0,5,1,4,26,73,11
11,4,6,0,1,0,4,26,85,11
11,4,9,1,2,0,4,26,31,11
11,4,22,0,4,0,4,26,85,11
11,4,23,0,5,1,4,26,61,11
12,1,18,1,2,0,4,26,62,11
12,1,1,0,3,0,4,26,95,11
12,1,23,0,5,1,4,26,62,11
12,1,15,1,1,0,4,26,126,11
12,1,16,1,1,0,4,26,73,11
2,1,13,1,2,0,1,26,88,11
2,1,15,1,2,0,1,26,88,11
3,2,18,1,3,0,1,26,38,11
5,2,14,1,5,1,2,26,126,11
8,3,13,1,5,1,3,26,88,11
8,3,19,1,1,0,3,26,81,11
8,3,14,1,4,0,3,26,73,11
9,4,14,1,2,0,3,26,88,11
9,4,9,1,3,0,3,26,17,11
12,1,8,1,4,0,4,26,73,11
12,1,1,0,5,1,4,26,17,11
4,2,22,0,1,0,2,26,12,11
6,3,14,1,5,1,2,26,88,11
7,3,17,1,4,0,3,26,88,11
8,3,10,1,0,0,3,26,88,11
9,4,12,1,5,1,3,26,88,11
10,4,20,1,1,0,4,26,126,11
12,1,16,1,1,0,4,26,126,11
12,1,17,1,2,0,4,26,5,11
1,1,10,1,3,0,1,26,73,11
1,1,3,0,1,0,1,26,73,9
2,1,9,1,2,0,1,26,24,11
2,1,21,0,2,0,1,26,17,11
4,2,19,1,3,0,2,26,101,11
4,2,4,0,0,0,2,26,70,8
5,2,19,1,1,0,2,26,109,11
6,3,3,0,4,0,2,26,17,11
7,3,6,0,3,0,3,26,109,11
7,3,21,0,1,0,3,26,109,11
7,3,10,1,3,0,3,26,45,11
7,3,16,1,5,1,3,26,85,11
8,3,13,1,6,1,3,26,88,9
8,3,19,1,6,1,3,26,10,11
8,3,2,0,6,1,3,26,12,9
9,4,20,1,1,0,3,26,101,11
10,4,7,1,4,0,4,26,88,11
10,4,17,1,2,0,4,26,88,11
11,4,13,1,6,1,4,26,109,11
12,1,22,0,3,0,4,26,28,11
12,1,10,1,6,1,4,26,38,11
1,1,14,1,2,0,1,38,101,11
1,1,16,1,2,0,1,38,101,11
1,1,11,1,0,0,1,38,88,11
1,1,14,1,0,0,1,38,73,11
1,1,11,1,2,0,1,38,101,11
1,1,12,1,2,0,1,38,101,11
1,1,18,1,2,0,1,38,101,11
1,1,13,1,3,0,1,38,39,11
1,1,13,1,3,0,1,38,126,11
1,1,13,1,4,0,1,38,101,11
1,1,12,1,5,1,1,38,101,11
1,1,17,1,5,1,1,38,101,11
1,1,16,1,5,1,1,38,38,11
2,1,16,1,3,0,1,38,101,11
2,1,19,1,3,0,1,38,101,11
2,1,19,1,5,1,1,38,101,11
2,1,16,1,0,0,1,38,101,11
2,1,18,1,0,0,1,38,101,11
2,1,19,1,1,0,1,38,101,11
2,1,14,1,2,0,1,38,101,11
2,1,20,1,2,0,1,38,101,11
2,1,12,1,4,0,1,38,101,11
2,1,6,0,6,1,1,38,85,11
2,1,13,1,1,0,1,38,101,11
2,1,22,0,1,0,1,38,101,11
2,1,10,1,2,0,1,38,101,11
2,1,10,1,2,0,1,38,101,11
2,1,13,1,2,0,1,38,85,11
2,1,11,1,3,0,1,38,88,11
2,1,21,0,3,0,1,38,88,11
3,2,11,1,4,0,1,38,101,11
3,2,13,1,4,0,1,38,101,11
3,2,11,1,4,0,1,38,101,11
3,2,20,1,4,0,1,38,126,11
3,2,14,1,5,1,1,38,101,11
3,2,21,0,5,1,1,38,101,11
3,2,22,0,5,1,1,38,95,11
3,2,20,1,6,1,1,38,88,11
3,2,21,0,6,1,1,38,126,11
3,2,21,0,6,1,1,38,126,11
3,2,10,1,1,0,1,38,101,11
3,2,15,1,1,0,1,38,101,11
3,2,13,1,2,0,1,38,101,11
3,2,14,1,4,0,1,38,101,11
3,2,15,1,5,1,1,38,101,11
3,2,19,1,5,1,1,38,101,11
3,2,15,1,0,0,1,38,101,11
3,2,13,1,1,0,1,38,101,11
3,2,14,1,5,1,1,38,88,11
3,2,18,1,6,1,1,38,101,11
3,2,19,1,6,1,1,38,101,11
3,2,15,1,1,0,1,38,101,11
3,2,11,1,2,0,1,38,101,11
3,2,14,1,4,0,1,38,101,11
3,2,19,1,5,1,1,38,101,11
3,2,16,1,6,1,1,38,101,11
3,2,19,1,6,1,1,38,101,11
3,2,19,1,1,0,1,38,101,11
3,2,12,1,1,0,1,38,101,11
3,2,19,1,1,0,1,38,101,11
3,2,14,1,4,0,1,38,101,11
3,2,19,1,4,0,1,38,101,11
3,2,15,1,5,1,1,38,17,11
3,2,16,1,5,1,1,38,101,11
3,2,19,1,6,1,1,38,101,11
4,2,15,1,0,0,2,38,11,11
4,2,10,1,2,0,2,38,101,11
4,2,17,1,3,0,2,38,95,11
4,2,1,0,4,0,2,38,86,11
4,2,17,1,6,1,2,38,101,11
4,2,15,1,5,1,2,38,126,11
5,2,5,0,5,1,2,38,85,11
6,3,0,0,2,0,2,38,17,11
7,3,20,1,1,0,3,38,12,11
7,3,0,0,2,0,3,38,12,11
8,3,20,1,2,0,3,38,85,11
8,3,1,0,4,0,3,38,101,11
8,3,18,1,6,1,3,38,43,8
9,4,19,1,3,0,3,38,38,11
9,4,16,1,3,0,3,38,24,11
9,4,6,0,6,1,3,38,101,11
9,4,13,1,3,0,3,38,101,11
9,4,19,1,5,1,3,38,78,11
9,4,15,1,5,1,3,38,101,11
10,4,22,0,3,0,4,38,62,11
10,4,21,0,5,1,4,38,101,11
10,4,11,1,5,1,4,38,12,11
10,4,13,1,5,1,4,38,81,11
10,4,19,1,5,1,4,38,101,11
10,4,17,1,6,1,4,38,12,11
10,4,20,1,0,0,4,38,101,11
10,4,19,1,5,1,4,38,101,11
12,1,6,0,4,0,4,38,95,11
12,1,21,0,0,0,4,38,38,9
1,1,18,1,1,0,1,38,38,11
1,1,12,1,4,0,1,38,54,11
1,1,12,1,4,0,1,38,9,11
1,1,11,1,6,1,1,38,56,11
1,1,15,1,6,1,1,38,38,11
1,1,6,0,5,1,1,38,73,11
1,1,19,1,5,1,1,19,45,11
2,1,13,1,1,0,1,19,70,11
2,1,3,0,3,0,1,38,102,11
2,1,19,1,5,1,1,38,38,11
2,1,21,0,5,1,1,38,38,11
2,1,10,1,4,0,1,19,70,11
2,1,2,0,5,1,1,38,73,11
2,1,11,1,3,0,1,38,88,11
3,2,1,0,4,0,1,38,70,11
3,2,12,1,5,1,1,38,88,11
3,2,18,1,0,0,1,38,88,11
3,2,13,1,0,0,1,19,73,11
3,2,21,0,0,0,1,38,11,11
3,2,17,1,1,0,1,38,88,11
4,2,11,1,6,1,2,38,88,11
4,2,13,1,0,0,2,38,95,11
4,2,22,0,1,0,2,38,95,11
4,2,17,1,4,0,2,38,101,11
4,2,13,1,5,1,2,38,73,11
4,2,14,1,5,1,2,38,101,11
5,2,13,1,2,0,2,38,38,11
5,2,15,1,5,1,2,38,38,11
5,2,5,0,0,0,2,19,17,11
6,3,21,0,0,0,2,38,109,11
6,3,15,1,5,1,2,38,101,11
6,3,23,0,1,0,2,38,12,11
7,3,16,1,2,0,3,38,101,11
7,3,23,0,3,0,3,38,85,11
7,3,7,1,4,0,3,38,70,11
7,3,11,1,4,0,3,38,17,11
7,3,13,1,5,1,3,38,18,11
7,3,21,0,1,0,3,38,85,11
8,3,21,0,0,0,3,38,95,11
8,3,4,0,1,0,3,38,11,11
8,3,2,0,1,0,3,38,85,11
8,3,1,0,3,0,3,38,109,11
8,3,18,1,5,1,3,38,62,11
8,3,14,1,0,0,3,38,54,11
8,3,14,1,1,0,3,38,73,9
8,3,14,1,3,0,3,38,95,11
9,4,14,1,0,0,3,38,55,11
9,4,18,1,6,1,3,38,70,11
9,4,4,0,0,0,3,38,70,11
10,4,9,1,6,1,4,38,24,11
10,4,3,0,4,0,4,38,24,11
10,4,16,1,5,1,4,19,24,11
10,4,8,1,3,0,4,38,21,11
11,4,16,1,6,1,4,38,12,11
11,4,4,0,2,0,4,38,85,11
11,4,18,1,0,0,4,38,85,11
11,4,21,0,2,0,4,38,70,11
11,4,18,1,3,0,4,19,38,11
11,4,8,1,4,0,4,38,70,11
11,4,23,0,4,0,4,19,40,11
11,4,16,1,0,0,4,38,109,11
11,4,12,1,5,1,4,38,95,11
12,1,18,1,6,1,4,38,95,11
12,1,22,0,6,1,4,38,62,11
12,1,14,1,0,0,4,19,11,11
12,1,22,0,2,0,4,38,95,11
12,1,22,0,0,0,4,38,38,8
12,1,1,0,3,0,4,38,95,11
12,1,18,1,4,0,4,38,38,11
12,1,15,1,6,1,4,38,73,11
12,1,10,1,2,0,4,38,81,11
12,1,7,1,2,0,4,19,95,11
12,1,20,1,0,0,4,38,95,11
10,4,18,1,1,0,4,19,114,8
10,4,13,1,5,1,4,19,18,11
10,4,12,1,3,0,4,19,18,11
1,1,6,0,2,0,1,38,95,11
1,1,17,1,6,1,1,38,101,11
1,1,4,0,6,1,1,38,82,8
1,1,23,0,0,0,1,38,12,8
1,1,21,0,0,0,1,38,85,11
2,1,19,1,1,0,1,38,73,9
2,1,19,1,5,1,1,38,73,11
2,1,17,1,3,0,1,38,88,11
3,2,11,1,0,0,1,38,17,11
3,2,17,1,3,0,1,38,95,11
3,2,15,1,5,1,1,38,70,11
3,2,15,1,5,1,1,38,3,11
3,2,16,1,1,0,1,38,85,11
3,2,0,0,4,0,1,38,95,11
4,2,20,1,3,0,2,38,101,11
4,2,21,0,6,1,2,38,85,11
4,2,16,1,0,0,2,38,45,11
5,2,15,1,5,1,2,38,101,11
6,3,0,0,2,0,2,38,43,11
6,3,21,0,6,1,2,38,85,11
7,3,11,1,1,0,3,38,38,11
7,3,16,1,0,0,3,38,85,11
7,3,7,1,2,0,3,38,60,11
8,3,16,1,2,0,3,38,101,11
8,3,22,0,6,1,3,38,38,11
8,3,6,0,1,0,3,38,38,11
8,3,18,1,1,0,3,38,11,11
8,3,14,1,4,0,3,38,45,8
8,3,21,0,4,0,3,38,70,11
9,4,16,1,6,1,3,38,101,11
9,4,21,0,0,0,3,38,73,9
9,4,21,0,2,0,3,38,88,11
10,4,0,0,6,1,4,38,38,11
10,4,17,1,0,0,4,38,3,11
10,4,19,1,1,0,4,38,85,11
11,4,21,0,5,1,4,38,62,11
12,1,13,1,1,0,4,38,101,11
12,1,22,0,1,0,4,38,85,11
12,1,19,1,4,0,4,38,62,11
12,1,10,1,1,0,4,38,85,11
12,1,23,0,1,0,4,38,109,11
12,1,9,1,0,0,4,38,85,11
12,1,14,1,1,0,4,38,85,11
12,1,13,1,1,0,4,38,85,11
12,1,18,1,3,0,4,38,85,11
12,1,0,0,4,0,4,38,64,11
12,1,17,1,1,0,4,38,85,11
1,1,1,0,0,0,1,16,17,9
1,1,8,1,2,0,1,16,38,9
1,1,2,0,6,1,1,16,38,11
1,1,17,1,0,0,1,16,73,11
1,1,19,1,0,0,1,16,85,11
1,1,1,0,0,0,1,16,62,11
1,1,10,1,1,0,1,16,85,11
1,1,0,0,2,0,1,16,73,11
1,1,21,0,3,0,1,16,62,11
2,1,15,1,0,0,1,16,73,11
2,1,10,1,2,0,1,16,70,11
2,1,7,1,0,0,1,16,17,11
2,1,13,1,1,0,1,16,73,11
2,1,12,1,4,0,1,16,73,11
2,1,0,0,6,1,1,16,85,11
2,1,16,1,0,0,1,16,101,11
2,1,13,1,1,0,1,16,101,11
2,1,14,1,3,0,1,16,101,11
2,1,15,1,4,0,1,16,62,11
2,1,22,0,0,0,1,16,101,11
2,1,7,1,3,0,1,16,101,11
3,2,12,1,5,1,1,16,101,11
3,2,13,1,6,1,1,16,73,11
3,2,20,1,0,0,1,16,62,11
3,2,10,1,1,0,1,16,26,11
3,2,19,1,1,0,1,16,73,11
4,2,21,0,3,0,2,16,73,11
4,2,15,1,5,1,2,16,73,11
4,2,18,1,6,1,2,16,11,11
4,2,16,1,3,0,2,16,62,11
4,2,1,0,4,0,2,16,86,11
4,2,19,1,4,0,2,16,17,11
4,2,4,0,6,1,2,16,62,11
4,2,21,0,0,0,2,16,88,11
4,2,20,1,1,0,2,16,101,11
5,2,9,1,3,0,2,16,45,11
5,2,4,0,1,0,2,16,73,11
5,2,21,0,5,1,2,16,17,11
5,2,9,1,0,0,2,16,62,9
6,3,21,0,6,1,2,16,101,11
6,3,22,0,6,1,2,16,101,11
6,3,0,0,0,0,2,16,88,11
6,3,2,0,4,0,2,16,21,11
7,3,5,0,3,0,3,16,3,11
7,3,17,1,3,0,3,16,60,9
7,3,12,1,1,0,3,16,62,11
7,3,20,1,4,0,3,16,13,11
8,3,6,0,5,1,3,16,73,9
8,3,20,1,0,0,3,16,73,9
8,3,14,1,2,0,3,16,38,11
8,3,20,1,6,1,3,16,85,11
8,3,19,1,5,1,3,16,101,11
8,3,20,1,5,1,3,16,85,11
8,3,13,1,6,1,3,16,85,11
8,3,14,1,0,0,3,16,85,11
8,3,20,1,0,0,3,16,62,11
8,3,3,0,2,0,3,16,85,11
8,3,17,1,3,0,3,16,73,11
8,3,19,1,4,0,3,16,17,11
8,3,21,0,6,1,3,16,85,11
8,3,9,1,4,0,3,16,78,11
9,4,9,1,0,0,3,16,17,11
9,4,3,0,3,0,3,16,70,11
9,4,16,1,5,1,3,16,101,11
9,4,12,1,3,0,3,16,74,11
9,4,10,1,6,1,3,16,73,11
9,4,10,1,3,0,3,16,101,11
10,4,20,1,1,0,4,16,101,11
10,4,10,1,4,0,4,16,12,11
10,4,13,1,0,0,4,16,54,11
10,4,17,1,6,1,4,16,101,11
10,4,10,1,5,1,4,16,101,11
10,4,13,1,6,1,4,16,101,11
11,4,22,0,5,1,4,16,95,11
11,4,14,1,6,1,4,16,17,11
11,4,16,1,6,1,4,16,62,11
12,1,11,1,0,0,4,16,101,11
12,1,16,1,3,0,4,16,38,11
12,1,1,0,3,0,4,16,73,11
12,1,21,0,2,0,4,16,62,11
12,1,17,1,0,0,4,16,88,11
5,2,13,1,2,0,2,16,101,11
1,1,10,1,3,0,1,16,95,11
2,1,19,1,3,0,1,16,38,11
2,1,8,1,0,0,1,16,11,9
2,1,6,0,0,0,1,16,73,11
3,2,0,0,0,0,1,16,85,11
3,2,0,0,0,0,1,16,85,11
3,2,19,1,6,1,1,16,73,11
3,2,11,1,2,0,1,16,88,11
3,2,14,1,1,0,1,16,88,11
6,3,11,1,6,1,2,16,88,11
6,3,10,1,6,1,2,16,24,11
6,3,7,1,0,0,2,16,126,11
7,3,15,1,3,0,3,16,88,11
7,3,1,0,4,0,3,16,88,11
7,3,19,1,1,0,3,16,62,11
8,3,10,1,0,0,3,16,17,11
8,3,18,1,4,0,3,16,101,11
8,3,8,1,1,0,3,16,73,11
9,4,17,1,6,1,3,16,101,11
9,4,21,0,6,1,3,16,101,11
11,4,2,0,6,1,4,16,88,11
12,1,16,1,6,1,4,16,38,11
12,1,19,1,5,1,4,16,38,11
12,1,2,0,6,1,4,16,38,8
12,1,14,1,2,0,4,16,85,11
12,1,21,0,4,0,4,16,38,9
1,1,6,0,6,1,1,16,61,11
1,1,11,1,6,1,1,16,73,11
1,1,12,1,6,1,1,19,73,11
1,1,4,0,0,0,1,16,17,11
2,1,12,1,6,1,1,16,109,11
2,1,8,1,1,0,1,16,95,11
2,1,13,1,3,0,1,16,73,11
3,2,18,1,2,0,1,16,88,11
3,2,8,1,4,0,1,16,108,11
3,2,15,1,5,1,1,16,88,11
3,2,16,1,2,0,1,16,88,11
3,2,14,1,1,0,1,16,88,9
4,2,16,1,0,0,2,16,88,11
4,2,13,1,1,0,2,16,3,11
4,2,11,1,1,0,2,16,17,11
5,2,23,0,3,0,2,16,85,11
6,3,1,0,2,0,2,16,17,11
6,3,21,0,3,0,2,16,88,11
6,3,23,0,4,0,2,16,95,11
7,3,12,1,1,0,3,16,17,11
7,3,6,0,3,0,3,16,95,11
7,3,20,1,0,0,3,16,45,11
7,3,21,0,1,0,3,16,88,11
7,3,3,0,3,0,3,19,12,11
7,3,9,1,2,0,3,16,86,11
8,3,0,0,3,0,3,16,84,11
10,4,22,0,2,0,4,16,17,11
10,4,10,1,4,0,4,16,108,9
10,4,11,1,6,1,4,16,24,11
10,4,16,1,3,0,4,16,11,11
10,4,21,0,4,0,4,16,17,11
10,4,15,1,6,1,4,16,88,11
11,4,16,1,1,0,4,16,17,11
11,4,17,1,1,0,4,16,73,11
12,1,19,1,4,0,4,16,70,11
12,1,23,0,6,1,4,19,12,11
12,1,17,1,2,0,4,16,73,11
12,1,7,1,4,0,4,16,38,11
12,1,12,1,4,0,4,16,62,11
12,1,16,1,5,1,4,16,54,11
1,1,11,1,1,0,1,39,101,11
1,1,17,1,1,0,1,39,88,11
1,1,18,1,1,0,1,39,88,11
1,1,10,1,1,0,1,39,73,11
1,1,11,1,1,0,1,39,101,11
1,1,17,1,1,0,1,39,88,11
1,1,18,1,1,0,1,39,88,11
1,1,5,0,2,0,1,39,62,11
1,1,14,1,2,0,1,39,88,11
1,1,5,0,2,0,1,39,62,11
1,1,10,1,4,0,1,39,17,11
1,1,10,1,4,0,1,39,17,11
1,1,18,1,5,1,1,39,73,11
1,1,17,1,6,1,1,39,73,11
1,1,9,1,6,1,1,39,117,9
1,1,18,1,0,0,1,39,73,11
1,1,6,0,1,0,1,39,73,11
1,1,17,1,1,0,1,39,73,11
1,1,23,0,1,0,1,39,62,11
1,1,6,0,1,0,1,39,73,11
1,1,17,1,1,0,1,39,73,11
1,1,23,0,1,0,1,39,62,11
1,1,19,1,5,1,1,39,82,11
1,1,16,1,6,1,1,39,78,11
1,1,12,1,1,0,1,39,62,11
1,1,11,1,2,0,1,39,38,11
1,1,21,0,5,1,1,39,101,11
1,1,20,1,5,1,1,39,85,11
1,1,18,1,3,0,1,39,88,11
1,1,20,1,4,0,1,39,126,11
2,1,19,1,4,0,1,39,126,11
2,1,19,1,5,1,1,39,126,11
2,1,20,1,5,1,1,39,126,11
2,1,19,1,5,1,1,39,126,11
2,1,20,1,5,1,1,39,126,11
2,1,19,1,4,0,1,39,91,9
2,1,12,1,5,1,1,39,62,11
2,1,16,1,6,1,1,39,38,11
2,1,14,1,0,0,1,39,101,11
2,1,9,1,1,0,1,39,3,11
2,1,21,0,1,0,1,39,101,11
2,1,10,1,1,0,1,39,73,11
2,1,12,1,1,0,1,39,88,11
2,1,19,1,2,0,1,39,38,11
2,1,1,0,2,0,1,39,95,11
2,1,11,1,3,0,1,39,88,11
2,1,10,1,3,0,1,39,101,11
2,1,21,0,4,0,1,39,101,11
2,1,12,1,4,0,1,39,101,11
2,1,19,1,4,0,1,39,101,11
2,1,20,1,5,1,1,39,101,11
2,1,21,0,5,1,1,39,101,11
2,1,16,1,6,1,1,39,88,11
2,1,15,1,1,0,1,39,88,11
2,1,11,1,3,0,1,39,101,11
2,1,12,1,3,0,1,39,101,11
2,1,13,1,3,0,1,39,88,11
2,1,13,1,3,0,1,39,101,11
2,1,15,1,3,0,1,39,88,9
2,1,17,1,3,0,1,39,101,11
2,1,18,1,3,0,1,39,62,11
2,1,20,1,3,0,1,39,85,11
2,1,16,1,4,0,1,39,88,11
2,1,15,1,4,0,1,39,17,11
2,1,10,1,5,1,1,39,73,11
2,1,9,1,5,1,1,39,73,11
2,1,12,1,2,0,1,39,73,11
2,1,14,1,2,0,1,39,73,11
2,1,17,1,2,0,1,39,101,11
2,1,19,1,3,0,1,39,62,11
3,2,21,0,6,1,1,39,101,11
3,2,9,1,0,0,1,39,62,11
3,2,14,1,1,0,1,39,73,11
3,2,12,1,2,0,1,39,101,11
3,2,11,1,2,0,1,39,88,11
3,2,13,1,2,0,1,39,88,11
3,2,18,1,2,0,1,39,62,11
3,2,13,1,5,1,1,39,88,11
3,2,7,1,0,0,1,39,73,11
3,2,14,1,0,0,1,39,101,11
3,2,22,0,0,0,1,39,101,11
3,2,2,0,1,0,1,39,73,9
3,2,19,1,2,0,1,39,62,11
3,2,22,0,4,0,1,39,73,11
3,2,22,0,5,1,1,39,38,11
3,2,10,1,6,1,1,39,73,11
3,2,13,1,6,1,1,39,101,11
3,2,21,0,0,0,1,39,73,11
3,2,11,1,5,1,1,39,101,11
3,2,14,1,5,1,1,39,73,11
3,2,18,1,5,1,1,39,73,11
3,2,19,1,5,1,1,39,73,11
3,2,12,1,1,0,1,39,17,11
4,2,15,1,0,0,2,39,101,11
4,2,11,1,1,0,2,39,88,11
4,2,20,1,1,0,2,39,88,11
4,2,22,0,2,0,2,39,111,11
4,2,2,0,4,0,2,39,73,9
4,2,9,1,6,1,2,39,101,11
4,2,20,1,0,0,2,39,101,11
4,2,16,1,3,0,2,39,38,11
4,2,4,0,5,1,2,39,95,11
4,2,23,0,6,1,2,39,85,11
4,2,21,0,6,1,2,39,85,11
4,2,10,1,0,0,2,39,88,11
5,2,10,1,2,0,2,39,88,11
5,2,17,1,3,0,2,39,3,11
5,2,18,1,3,0,2,39,55,11
5,2,12,1,4,0,2,39,88,11
5,2,12,1,5,1,2,39,73,11
5,2,9,1,4,0,2,39,88,11
6,3,17,1,3,0,2,39,101,11
6,3,5,0,5,1,2,39,17,11
6,3,12,1,6,1,2,39,101,11
6,3,22,0,2,0,2,39,101,11
6,3,18,1,3,0,2,39,73,11
6,3,21,0,6,1,2,39,101,11
6,3,12,1,1,0,2,39,101,11
6,3,20,1,1,0,2,39,101,11
6,3,8,1,2,0,2,39,101,11
6,3,16,1,2,0,2,39,101,11
6,3,2,0,1,0,2,39,109,11
6,3,9,1,2,0,2,39,81,11
6,3,17,1,3,0,2,39,70,11
6,3,19,1,6,1,2,39,73,11
6,3,21,0,6,1,2,39,101,11
7,3,21,0,0,0,3,39,11,11
7,3,22,0,1,0,3,39,73,11
7,3,15,1,2,0,3,39,101,11
7,3,17,1,2,0,3,39,101,11
7,3,3,0,3,0,3,39,105,11
7,3,15,1,3,0,3,39,88,11
7,3,19,1,0,0,3,39,62,11
7,3,18,1,1,0,3,39,101,11
7,3,16,1,2,0,3,39,101,11
7,3,0,0,6,1,3,39,17,11
7,3,20,1,3,0,3,39,101,11
7,3,21,0,4,0,3,39,70,11
7,3,1,0,1,0,3,39,73,11
7,3,12,1,3,0,3,39,123,11
7,3,13,1,5,1,3,39,17,11
7,3,19,1,5,1,3,39,73,11
7,3,22,0,5,1,3,39,17,11
7,3,19,1,6,1,3,39,88,11
8,3,2,0,5,1,3,39,17,11
8,3,19,1,0,0,3,39,88,11
8,3,14,1,2,0,3,39,101,11
8,3,6,0,3,0,3,39,101,11
8,3,14,1,3,0,3,39,54,11
8,3,14,1,0,0,3,39,101,11
8,3,14,1,0,0,3,39,101,11
8,3,2,0,4,0,3,39,62,11
8,3,11,1,5,1,3,39,101,11
8,3,21,0,6,1,3,39,73,11
8,3,9,1,0,0,3,39,17,11
8,3,18,1,3,0,3,39,124,11
8,3,16,1,4,0,3,39,101,11
8,3,13,1,6,1,3,39,101,11
8,3,13,1,6,1,3,39,12,11
8,3,14,1,6,1,3,39,62,11
8,3,20,1,0,0,3,39,101,11
8,3,16,1,2,0,3,39,88,11
8,3,22,0,2,0,3,39,88,11
8,3,14,1,2,0,3,39,101,11
8,3,9,1,3,0,3,39,88,11
8,3,16,1,5,1,3,39,54,11
9,4,14,1,0,0,3,39,88,11
9,4,14,1,0,0,3,39,101,9
9,4,23,0,4,0,3,39,101,11
9,4,8,1,5,1,3,39,88,11
9,4,22,0,5,1,3,39,101,11
9,4,20,1,5,1,3,39,88,11
9,4,15,1,5,1,3,39,101,11
9,4,23,0,6,1,3,39,88,11
9,4,0,0,6,1,3,39,101,11
9,4,20,1,1,0,3,39,101,11
9,4,12,1,4,0,3,39,101,11
9,4,20,1,4,0,3,39,101,11
9,4,18,1,5,1,3,39,17,11
9,4,15,1,5,1,3,39,101,11
9,4,5,0,0,0,3,39,101,11
9,4,16,1,0,0,3,39,101,11
9,4,10,1,0,0,3,39,101,11
9,4,20,1,0,0,3,39,101,11
9,4,0,0,1,0,3,39,101,11
9,4,14,1,1,0,3,39,101,11
9,4,20,1,2,0,3,39,17,11
9,4,15,1,3,0,3,39,88,11
9,4,16,1,3,0,3,39,88,11
9,4,18,1,3,0,3,39,101,11
9,4,15,1,5,1,3,39,38,11
9,4,8,1,6,1,3,39,88,11
9,4,21,0,1,0,3,39,38,11
9,4,13,1,1,0,3,39,38,8
9,4,12,1,4,0,3,39,38,11
9,4,14,1,4,0,3,39,88,11
9,4,17,1,5,1,3,39,101,11
10,4,12,1,2,0,4,39,88,11
10,4,16,1,3,0,4,39,88,11
10,4,6,0,4,0,4,39,21,11
10,4,16,1,2,0,4,39,101,11
10,4,17,1,3,0,4,39,101,11
10,4,16,1,4,0,4,39,101,11
11,4,14,1,6,1,4,39,62,11
11,4,19,1,5,1,4,39,73,11
11,4,13,1,5,1,4,39,55,11
11,4,21,0,5,1,4,39,73,11
11,4,15,1,4,0,4,39,73,11
12,1,14,1,0,0,4,39,73,11
12,1,12,1,3,0,4,39,73,11
12,1,3,0,3,0,4,39,88,11
12,1,17,1,2,0,4,39,73,11
12,1,1,0,0,0,4,39,101,11
12,1,7,1,0,0,4,39,73,11
12,1,22,0,0,0,4,39,95,11
12,1,17,1,1,0,4,39,77,11
12,1,12,1,2,0,4,39,70,11
12,1,12,1,2,0,4,39,73,11
12,1,18,1,5,1,4,39,38,11
12,1,0,0,6,1,4,39,62,9
12,1,19,1,6,1,4,39,62,11
12,1,18,1,0,0,4,39,101,11
12,1,20,1,0,0,4,39,38,11
12,1,8,1,1,0,4,39,62,11
12,1,23,0,1,0,4,39,62,11
1,1,18,1,6,1,1,39,73,11
1,1,11,1,1,0,1,39,12,9
2,1,15,1,0,0,1,39,62,8
3,2,10,1,5,1,1,39,38,11
3,2,11,1,4,0,1,39,73,9
3,2,16,1,6,1,1,39,101,11
4,2,17,1,2,0,2,39,38,11
7,3,11,1,5,1,3,39,88,11
7,3,19,1,4,0,3,39,17,11
7,3,12,1,2,0,3,39,101,11
8,3,20,1,3,0,3,39,101,11
9,4,16,1,3,0,3,39,101,11
10,4,12,1,3,0,4,39,3,11
10,4,19,1,3,0,4,39,101,11
12,1,5,0,3,0,4,39,73,11
3,2,17,1,6,1,1,39,26,11
4,2,16,1,0,0,2,39,126,11
4,2,0,0,3,0,2,39,126,9
4,2,12,1,3,0,2,39,88,11
4,2,18,1,6,1,2,39,101,11
4,2,9,1,6,1,2,39,12,9
5,2,11,1,4,0,2,39,88,11
5,2,16,1,1,0,2,39,12,11
5,2,14,1,5,1,2,39,88,11
7,3,3,0,6,1,3,39,76,11
10,4,15,1,6,1,4,39,70,11
12,1,10,1,0,0,4,39,73,11
12,1,20,1,4,0,4,39,73,11
3,2,18,1,1,0,1,39,101,11
3,2,13,1,0,0,1,39,101,11
3,2,6,0,3,0,1,39,17,11
4,2,12,1,5,1,2,39,17,11
6,3,19,1,6,1,2,39,70,11
9,4,16,1,3,0,3,39,70,11
9,4,14,1,4,0,3,39,101,11
12,1,12,1,1,0,4,39,17,11
1,1,8,1,1,0,1,27,73,11
1,1,15,1,4,0,1,27,73,11
1,1,15,1,0,0,1,27,11,11
1,1,23,0,3,0,1,27,73,11
1,1,17,1,0,0,1,27,38,8
2,1,19,1,4,0,1,27,85,8
2,1,16,1,6,1,1,27,78,11
2,1,17,1,6,1,1,27,88,11
2,1,16,1,0,0,1,27,88,11
2,1,11,1,4,0,1,27,88,11
2,1,8,1,5,1,1,27,73,11
2,1,7,1,6,1,1,27,73,8
2,1,15,1,1,0,1,27,109,11
2,1,14,1,1,0,1,27,3,11
3,2,15,1,4,0,1,27,70,11
3,2,13,1,6,1,1,27,95,11
3,2,15,1,6,1,1,27,88,11
3,2,14,1,5,1,1,27,101,11
3,2,9,1,2,0,1,27,88,11
3,2,16,1,0,0,1,27,88,11
4,2,23,0,0,0,2,27,88,11
4,2,18,1,5,1,2,27,126,11
4,2,3,0,0,0,2,27,12,11
4,2,12,1,0,0,2,27,88,11
5,2,7,1,4,0,2,27,73,9
5,2,9,1,6,1,2,27,86,11
5,2,13,1,6,1,2,27,88,11
5,2,12,1,2,0,2,27,18,11
5,2,0,0,3,0,2,27,12,11
5,2,12,1,6,1,2,27,11,11
5,2,10,1,4,0,2,27,88,11
6,3,17,1,2,0,2,27,62,11
7,3,16,1,6,1,3,27,11,8
7,3,10,1,1,0,3,27,88,11
7,3,12,1,5,1,3,27,62,11
7,3,17,1,6,1,3,27,95,11
8,3,11,1,6,1,3,27,62,11
8,3,17,1,0,0,3,27,88,11
8,3,22,0,0,0,3,27,3,11
8,3,1,0,3,0,3,27,129,11
8,3,18,1,0,0,3,27,3,11
9,4,8,1,3,0,3,27,62,11
9,4,15,1,3,0,3,27,101,11
9,4,21,0,3,0,3,27,57,11
9,4,16,1,5,1,3,27,17,11
9,4,14,1,6,1,3,27,77,11
9,4,10,1,1,0,3,27,73,8
9,4,19,1,6,1,3,27,101,11
10,4,22,0,4,0,4,27,95,11
10,4,7,1,4,0,4,27,86,11
10,4,2,0,2,0,4,27,95,11
11,4,18,1,3,0,4,27,17,11
11,4,19,1,3,0,4,27,3,11
11,4,3,0,4,0,4,27,12,8
11,4,12,1,6,1,4,27,88,11
11,4,16,1,3,0,4,27,85,11
12,1,15,1,0,0,4,27,73,11
1,1,13,1,5,1,1,27,73,11
2,1,12,1,0,0,1,27,38,11
2,1,1,0,5,1,1,27,88,9
3,2,15,1,4,0,1,27,101,11
3,2,16,1,4,0,1,27,88,11
3,2,12,1,3,0,1,27,12,9
3,2,17,1,4,0,1,27,88,9
5,2,9,1,3,0,2,27,17,9
8,3,17,1,6,1,3,27,101,11
8,3,13,1,0,0,3,27,101,11
8,3,16,1,2,0,3,27,101,11
8,3,8,1,0,0,3,27,3,9
9,4,16,1,3,0,3,27,26,11
10,4,15,1,1,0,4,27,73,11
10,4,16,1,2,0,4,27,85,11
12,1,19,1,3,0,4,27,73,11
1,1,17,1,2,0,1,27,73,11
1,1,22,0,3,0,1,27,73,11
2,1,1,0,0,0,1,27,85,11
2,1,18,1,3,0,1,27,12,11
3,2,17,1,4,0,1,27,126,11
4,2,23,0,6,1,2,27,38,8
5,2,1,0,6,1,2,27,73,9
12,1,21,0,1,0,4,27,95,11
1,1,19,1,2,0,1,27,85,11
1,1,3,0,3,0,1,27,12,11
1,1,7,1,6,1,1,27,111,9
2,1,16,1,1,0,1,27,88,9
2,1,10,1,2,0,1,27,88,11
2,1,14,1,2,0,1,27,88,11
2,1,17,1,2,0,1,27,88,11
3,2,13,1,5,1,1,27,11,11
3,2,18,1,5,1,1,27,54,11
3,2,10,1,0,0,1,27,88,11
4,2,15,1,0,0,2,27,88,11
4,2,17,1,2,0,2,27,12,11
5,2,0,0,2,0,2,27,11,11
6,3,18,1,6,1,2,27,12,11
6,3,23,0,0,0,2,27,38,11
6,3,22,0,4,0,2,27,124,11
7,3,20,1,0,0,3,27,17,11
7,3,15,1,4,0,3,27,17,11
8,3,20,1,6,1,3,27,45,11
8,3,9,1,2,0,3,27,11,11
9,4,11,1,1,0,3,27,62,11
10,4,23,0,4,0,4,27,38,11
11,4,0,0,4,0,4,27,17,8
11,4,20,1,5,1,4,27,62,11
11,4,21,0,5,1,4,27,62,11
12,1,20,1,5,1,4,27,62,11
12,1,16,1,6,1,4,27,17,11
1,1,14,1,0,0,1,47,73,11
1,1,14,1,1,0,1,47,73,11
2,1,14,1,2,0,1,47,85,11
2,1,7,1,0,0,1,47,18,11
2,1,16,1,2,0,1,47,73,11
2,1,11,1,6,1,1,47,73,11
2,1,15,1,1,0,1,47,88,11
2,1,12,1,5,1,1,47,73,9
2,1,22,0,0,0,1,47,95,11
2,1,17,1,3,0,1,47,95,11
3,2,9,1,1,0,1,47,73,11
3,2,16,1,3,0,1,47,12,11
3,2,14,1,0,0,1,47,55,11
3,2,12,1,1,0,1,47,88,11
3,2,18,1,3,0,1,47,73,11
3,2,21,0,4,0,1,47,73,11
4,2,16,1,3,0,2,47,101,11
5,2,18,1,5,1,2,47,70,11
5,2,22,0,6,1,2,47,12,11
5,2,21,0,0,0,2,47,95,11
6,3,12,1,5,1,2,47,70,11
6,3,23,0,2,0,2,47,38,11
6,3,15,1,1,0,2,47,73,11
8,3,11,1,4,0,3,47,38,11
9,4,16,1,6,1,3,47,3,11
9,4,10,1,0,0,3,47,85,11
10,4,17,1,2,0,4,47,88,11
11,4,20,1,4,0,4,47,95,11
11,4,15,1,6,1,4,47,12,9
11,4,13,1,2,0,4,47,101,11
11,4,2,0,0,0,4,47,95,11
11,4,20,1,6,1,4,47,95,11
11,4,1,0,3,0,4,47,85,11
12,1,15,1,0,0,4,47,73,11
12,1,14,1,3,0,4,47,73,11
12,1,16,1,3,0,4,47,85,11
12,1,9,1,5,1,4,47,95,11
12,1,13,1,6,1,4,47,73,9
12,1,21,0,1,0,4,47,95,11
1,1,1,0,3,0,1,23,17,11
1,1,20,1,5,1,1,23,86,11
1,1,4,0,6,1,1,23,1,11
1,1,22,0,6,1,1,23,1,11
1,1,21,0,0,0,1,23,62,11
1,1,20,1,2,0,1,23,73,11
1,1,23,0,2,0,1,23,1,11
1,1,10,1,4,0,1,23,1,11
1,1,11,1,5,1,1,23,1,11
1,1,22,0,5,1,1,23,1,11
1,1,12,1,1,0,1,23,1,11
1,1,10,1,6,1,1,23,73,11
1,1,12,1,1,0,1,23,73,11
1,1,12,1,6,1,1,23,38,11
1,1,23,0,6,1,1,23,62,11
2,1,19,1,4,0,1,23,73,11
2,1,1,0,2,0,1,23,1,11
2,1,18,1,6,1,1,23,101,11
2,1,18,1,1,0,1,23,38,11
2,1,11,1,2,0,1,23,73,11
2,1,17,1,2,0,1,23,73,11
2,1,13,1,3,0,1,23,101,11
2,1,2,0,5,1,1,23,101,11
2,1,19,1,5,1,1,23,62,11
2,1,12,1,6,1,1,23,73,11
2,1,8,1,0,0,1,23,73,11
2,1,15,1,0,0,1,23,73,11
2,1,16,1,1,0,1,23,101,11
2,1,18,1,1,0,1,23,88,11
2,1,15,1,4,0,1,23,11,11
2,1,19,1,4,0,1,23,1,11
2,1,12,1,6,1,1,23,88,11
2,1,18,1,6,1,1,23,101,11
2,1,13,1,1,0,1,23,88,11
2,1,21,0,3,0,1,23,95,11
3,2,12,1,5,1,1,23,73,8
3,2,15,1,5,1,1,23,101,11
3,2,2,0,6,1,1,23,126,11
3,2,12,1,6,1,1,23,88,11
3,2,12,1,1,0,1,23,101,11
3,2,16,1,1,0,1,23,101,11
3,2,16,1,1,0,1,23,101,11
3,2,18,1,1,0,1,23,101,11
3,2,16,1,2,0,1,23,101,11
3,2,20,1,2,0,1,23,73,11
3,2,18,1,4,0,1,23,38,11
3,2,17,1,5,1,1,23,101,11
3,2,18,1,5,1,1,23,101,11
3,2,9,1,6,1,1,23,88,11
3,2,21,0,6,1,1,23,106,9
3,2,14,1,0,0,1,23,11,9
3,2,22,0,0,0,1,23,21,11
3,2,10,1,1,0,1,23,73,11
3,2,17,1,2,0,1,23,62,11
3,2,13,1,6,1,1,23,88,11
3,2,15,1,6,1,1,23,73,11
3,2,18,1,1,0,1,23,101,11
3,2,19,1,2,0,1,23,101,11
4,2,16,1,5,1,2,23,62,11
5,2,22,0,6,1,2,23,73,11
5,2,9,1,1,0,2,23,11,11
5,2,22,0,5,1,2,23,62,11
5,2,20,1,1,0,2,23,1,11
5,2,19,1,1,0,2,23,17,11
6,3,15,1,5,1,2,23,101,11
6,3,17,1,6,1,2,23,17,11
6,3,14,1,1,0,2,23,109,11
6,3,15,1,2,0,2,23,101,11
7,3,7,1,3,0,3,23,109,11
7,3,21,0,1,0,3,23,38,11
7,3,17,1,3,0,3,23,88,11
8,3,20,1,3,0,3,23,77,11
8,3,12,1,0,0,3,23,88,11
8,3,20,1,1,0,3,23,109,11
8,3,7,1,2,0,3,23,73,9
9,4,13,1,3,0,3,23,88,11
9,4,14,1,3,0,3,23,101,11
9,4,21,0,5,1,3,23,1,11
9,4,15,1,1,0,3,23,88,9
9,4,10,1,2,0,3,23,101,11
9,4,13,1,2,0,3,23,101,11
10,4,16,1,1,0,4,23,101,11
10,4,18,1,3,0,4,23,73,11
10,4,13,1,4,0,4,23,101,11
10,4,19,1,0,0,4,23,38,11
11,4,11,1,1,0,4,23,73,11
11,4,14,1,3,0,4,23,17,11
11,4,20,1,6,1,4,23,62,11
11,4,18,1,0,0,4,23,38,11
11,4,19,1,1,0,4,23,35,9
12,1,9,1,0,0,4,23,38,9
12,1,16,1,2,0,4,23,38,11
12,1,18,1,4,0,4,23,1,11
12,1,12,1,4,0,4,23,71,11
12,1,16,1,5,1,4,23,73,11
12,1,13,1,1,0,4,23,38,11
12,1,3,0,6,1,4,23,1,11
12,1,14,1,3,0,4,23,62,11
2,1,9,1,2,0,1,23,73,11
2,1,18,1,5,1,1,23,73,11
3,2,15,1,0,0,1,23,101,11
4,2,11,1,0,0,2,23,38,11
5,2,18,1,4,0,2,23,81,11
11,4,2,0,4,0,4,23,73,9
1,1,21,0,3,0,1,23,1,11
1,1,15,1,6,1,1,23,1,11
1,1,7,1,0,0,1,23,38,11
1,1,1,0,6,1,1,23,38,11
1,1,10,1,4,0,1,23,73,11
1,1,6,0,4,0,1,23,73,11
2,1,19,1,5,1,1,23,38,11
2,1,20,1,6,1,1,23,101,11
2,1,18,1,3,0,1,23,73,11
2,1,14,1,5,1,1,23,101,11
2,1,14,1,4,0,1,23,101,11
2,1,20,1,5,1,1,23,73,11
2,1,11,1,3,0,1,23,101,11
3,2,4,0,4,0,1,23,103,11
3,2,12,1,4,0,1,23,73,11
3,2,17,1,4,0,1,23,101,11
3,2,15,1,6,1,1,23,88,11
3,2,17,1,6,1,1,23,101,11
3,2,15,1,2,0,1,23,88,11
3,2,4,0,4,0,1,23,17,11
3,2,19,1,5,1,1,23,101,11
3,2,16,1,0,0,1,23,88,11
3,2,12,1,1,0,1,23,88,11
3,2,19,1,6,1,1,23,73,11
3,2,14,1,0,0,1,23,3,11
3,2,22,0,5,1,1,23,101,11
3,2,7,1,0,0,1,23,1,11
3,2,21,0,2,0,1,23,38,11
3,2,13,1,4,0,1,23,101,11
3,2,15,1,6,1,1,23,101,11
3,2,18,1,6,1,1,23,88,11
4,2,15,1,2,0,2,23,73,11
4,2,18,1,2,0,2,23,73,11
4,2,15,1,4,0,2,23,38,11
4,2,17,1,4,0,2,23,73,11
4,2,12,1,0,0,2,23,38,11
4,2,15,1,5,1,2,23,101,11
4,2,8,1,0,0,2,23,17,11
5,2,20,1,4,0,2,23,13,11
5,2,18,1,2,0,2,23,124,11
7,3,13,1,4,0,3,23,73,11
8,3,18,1,2,0,3,23,101,11
9,4,16,1,0,0,3,23,101,11
9,4,12,1,4,0,3,23,101,11
9,4,15,1,0,0,3,23,88,11
10,4,18,1,0,0,4,23,101,11
10,4,18,1,2,0,4,23,101,11
11,4,21,0,5,1,4,23,38,11
12,1,23,0,6,1,4,23,126,11
1,1,12,1,1,0,1,8,95,11
1,1,9,1,4,0,1,8,95,11
1,1,17,1,0,0,1,8,95,11
1,1,17,1,3,0,1,8,62,11
2,1,15,1,6,1,1,8,62,11
2,1,11,1,1,0,1,8,95,11
2,1,8,1,4,0,1,8,126,11
2,1,12,1,6,1,1,8,101,11
2,1,23,0,5,1,1,8,38,9
2,1,8,1,6,1,1,8,95,11
2,1,7,1,2,0,1,8,18,11
2,1,12,1,2,0,1,8,101,11
2,1,19,1,0,0,1,8,73,11
2,1,12,1,1,0,1,8,101,11
3,2,15,1,4,0,1,8,101,11
3,2,15,1,6,1,1,8,101,11
3,2,13,1,0,0,1,8,98,11
3,2,17,1,3,0,1,8,101,11
3,2,22,0,4,0,1,8,95,11
3,2,11,1,6,1,1,8,38,11
3,2,13,1,6,1,1,8,88,11
3,2,0,0,0,0,1,8,95,11
3,2,2,0,0,0,1,8,95,11
3,2,14,1,2,0,1,8,62,11
3,2,21,0,3,0,1,8,73,8
3,2,17,1,5,1,1,8,88,11
3,2,9,1,5,1,1,8,38,9
3,2,8,1,3,0,1,8,38,11
4,2,18,1,0,0,2,8,70,11
4,2,17,1,6,1,2,8,101,11
4,2,20,1,0,0,2,8,88,11
6,3,12,1,3,0,2,8,70,11
6,3,20,1,5,1,2,8,3,11
7,3,0,0,3,0,3,8,101,11
7,3,18,1,2,0,3,8,95,11
7,3,18,1,1,0,3,8,101,11
7,3,17,1,2,0,3,8,70,11
8,3,8,1,6,1,3,8,70,11
8,3,16,1,5,1,3,8,60,9
8,3,18,1,0,0,3,8,101,11
8,3,10,1,6,1,3,8,81,11
8,3,19,1,2,0,3,8,88,11
8,3,21,0,6,1,3,8,101,11
8,3,20,1,1,0,3,8,109,11
9,4,8,1,5,1,3,8,101,11
9,4,10,1,2,0,3,8,101,11
9,4,16,1,5,1,3,8,101,11
9,4,12,1,0,0,3,8,101,11
9,4,10,1,5,1,3,8,101,11
10,4,11,1,5,1,4,8,11,11
10,4,14,1,6,1,4,8,74,11
10,4,12,1,3,0,4,8,62,11
10,4,13,1,3,0,4,8,70,11
10,4,22,0,2,0,4,8,101,11
11,4,19,1,4,0,4,8,17,11
11,4,12,1,0,0,4,8,62,11
11,4,17,1,2,0,4,8,17,11
11,4,17,1,4,0,4,8,70,11
11,4,22,0,5,1,4,8,62,11
11,4,17,1,5,1,4,8,85,11
11,4,17,1,4,0,4,8,85,11
12,1,16,1,0,0,4,8,101,11
12,1,14,1,6,1,4,8,126,11
12,1,15,1,6,1,4,8,126,11
12,1,14,1,0,0,4,8,21,9
12,1,11,1,1,0,4,8,21,11
12,1,12,1,6,1,4,8,95,11
12,1,21,0,1,0,4,8,73,8
12,1,2,0,4,0,4,8,17,8
12,1,13,1,5,1,4,8,73,9
12,1,23,0,6,1,4,8,95,11
12,1,17,1,1,0,4,8,95,11
2,1,12,1,0,0,1,8,109,11
4,2,20,1,1,0,2,8,73,8
5,2,13,1,2,0,2,8,73,11
8,3,13,1,3,0,3,8,88,11
9,4,0,0,5,1,3,8,109,11
10,4,10,1,2,0,4,8,60,11
10,4,15,1,6,1,4,8,73,11
11,4,13,1,1,0,4,8,38,11
9,4,17,1,0,0,3,8,108,11
1,1,6,0,1,0,1,20,101,11
1,1,21,0,1,0,1,20,126,11
1,1,13,1,1,0,1,20,126,11
1,1,17,1,1,0,1,20,38,11
1,1,8,1,1,0,1,20,126,11
1,1,6,0,1,0,1,20,85,11
1,1,17,1,1,0,1,20,88,11
1,1,16,1,4,0,1,20,18,11
1,1,21,0,5,1,1,20,73,8
1,1,12,1,6,1,1,20,85,11
1,1,19,1,0,0,1,20,38,11
1,1,22,0,0,0,1,20,126,11
1,1,20,1,1,0,1,20,126,11
1,1,20,1,1,0,1,20,126,11
1,1,11,1,4,0,1,20,126,11
1,1,21,0,4,0,1,20,17,11
1,1,14,1,5,1,1,20,126,11
1,1,22,0,6,1,1,20,126,11
1,1,21,0,6,1,1,20,126,11
1,1,13,1,6,1,1,20,126,11
1,1,0,0,0,0,1,20,38,11
1,1,18,1,0,0,1,20,126,11
1,1,11,1,1,0,1,20,126,11
1,1,22,0,2,0,1,20,126,11
1,1,16,1,2,0,1,20,101,11
1,1,18,1,5,1,1,20,126,11
1,1,9,1,0,0,1,20,126,11
1,1,14,1,6,1,1,20,126,11
1,1,14,1,0,0,1,20,62,11
1,1,0,0,1,0,1,20,38,11
2,1,5,0,4,0,1,20,126,11
2,1,18,1,5,1,1,20,126,11
2,1,22,0,6,1,1,20,126,11
2,1,15,1,1,0,1,20,126,11
2,1,20,1,1,0,1,20,11,8
2,1,17,1,2,0,1,20,101,11
2,1,18,1,2,0,1,20,101,11
2,1,17,1,4,0,1,20,73,11
2,1,1,0,5,1,1,20,101,11
2,1,21,0,1,0,1,20,126,11
2,1,18,1,2,0,1,20,62,11
2,1,16,1,3,0,1,20,101,11
2,1,10,1,4,0,1,20,101,11
2,1,23,0,4,0,1,20,38,11
2,1,1,0,6,1,1,20,126,11
2,1,10,1,6,1,1,20,61,11
2,1,15,1,6,1,1,20,88,11
2,1,19,1,0,0,1,20,101,11
2,1,18,1,0,0,1,20,126,11
2,1,5,0,1,0,1,20,126,11
2,1,19,1,1,0,1,20,73,11
2,1,20,1,2,0,1,20,101,11
2,1,18,1,3,0,1,20,73,11
2,1,22,0,4,0,1,20,126,11
2,1,13,1,5,1,1,20,85,11
2,1,23,0,5,1,1,20,38,11
2,1,19,1,5,1,1,20,126,11
2,1,23,0,6,1,1,20,62,11
2,1,23,0,6,1,1,20,3,11
2,1,16,1,6,1,1,20,101,11
2,1,11,1,0,0,1,20,101,11
2,1,20,1,0,0,1,20,88,11
2,1,10,1,1,0,1,20,126,11
2,1,17,1,1,0,1,20,106,11
2,1,20,1,1,0,1,20,126,11
2,1,14,1,1,0,1,20,101,11
2,1,1,0,2,0,1,20,126,11
2,1,14,1,2,0,1,20,38,11
2,1,15,1,2,0,1,20,101,11
2,1,16,1,3,0,1,20,101,11
3,2,20,1,0,0,1,20,38,11
3,2,16,1,0,0,1,20,123,11
3,2,19,1,1,0,1,20,101,11
3,2,13,1,2,0,1,20,88,11
3,2,17,1,2,0,1,20,101,11
3,2,17,1,2,0,1,20,101,11
3,2,13,1,2,0,1,20,101,11
3,2,14,1,4,0,1,20,101,11
3,2,17,1,4,0,1,20,123,11
3,2,18,1,4,0,1,20,101,11
3,2,17,1,4,0,1,20,101,11
3,2,20,1,4,0,1,20,62,11
3,2,9,1,4,0,1,20,62,11
3,2,7,1,5,1,1,20,101,11
3,2,17,1,5,1,1,20,38,11
3,2,16,1,5,1,1,20,123,11
3,2,11,1,6,1,1,20,88,11
3,2,20,1,6,1,1,20,126,11
3,2,19,1,6,1,1,20,88,11
3,2,23,0,6,1,1,20,126,11
3,2,19,1,6,1,1,20,38,11
3,2,17,1,0,0,1,20,101,11
3,2,12,1,0,0,1,20,101,11
3,2,13,1,0,0,1,20,101,11
3,2,14,1,0,0,1,20,101,11
3,2,21,0,0,0,1,20,98,11
3,2,20,1,0,0,1,20,98,11
3,2,7,1,0,0,1,20,98,11
3,2,15,1,1,0,1,20,11,9
3,2,8,1,2,0,1,20,126,11
3,2,12,1,2,0,1,20,126,11
3,2,21,0,4,0,1,20,62,11
3,2,18,1,4,0,1,20,109,11
3,2,15,1,6,1,1,20,88,11
3,2,15,1,6,1,1,20,101,11
3,2,18,1,0,0,1,20,17,11
3,2,21,0,1,0,1,20,85,11
3,2,13,1,2,0,1,20,88,11
3,2,23,0,2,0,1,20,68,11
3,2,19,1,3,0,1,20,73,11
3,2,16,1,4,0,1,20,101,11
3,2,17,1,4,0,1,20,101,11
3,2,12,1,5,1,1,20,101,11
3,2,18,1,5,1,1,20,54,11
3,2,13,1,5,1,1,20,101,11
3,2,17,1,6,1,1,20,85,11
3,2,13,1,0,0,1,20,101,11
3,2,9,1,1,0,1,20,95,11
3,2,4,0,4,0,1,20,73,11
3,2,21,0,4,0,1,20,101,11
3,2,20,1,4,0,1,20,38,11
3,2,7,1,4,0,1,20,126,11
3,2,14,1,5,1,1,20,126,11
3,2,16,1,5,1,1,20,126,11
3,2,12,1,6,1,1,20,101,11
4,2,10,1,1,0,2,20,45,11
4,2,14,1,2,0,2,20,101,11
4,2,6,0,5,1,2,20,45,11
4,2,11,1,6,1,2,20,88,11
4,2,7,1,0,0,2,20,45,11
4,2,18,1,0,0,2,20,62,11
4,2,17,1,4,0,2,20,73,9
4,2,14,1,5,1,2,20,73,11
4,2,1,0,2,0,2,20,95,11
4,2,13,1,2,0,2,20,45,11
4,2,20,1,5,1,2,20,88,11
4,2,18,1,5,1,2,20,12,11
4,2,22,0,0,0,2,20,17,11
4,2,0,0,6,1,2,20,85,11
5,2,13,1,0,0,2,20,62,11
5,2,17,1,2,0,2,20,91,11
5,2,22,0,4,0,2,20,119,11
5,2,20,1,5,1,2,20,101,11
5,2,22,0,0,0,2,20,85,11
6,3,2,0,5,1,2,20,21,11
6,3,21,0,0,0,2,20,62,11
6,3,23,0,6,1,2,20,17,11
6,3,19,1,4,0,2,20,88,11
6,3,17,1,5,1,2,20,126,11
6,3,6,0,6,1,2,20,62,8
6,3,9,1,6,1,2,20,101,11
6,3,18,1,2,0,2,20,62,11
6,3,23,0,3,0,2,20,85,11
6,3,17,1,4,0,2,20,85,11
6,3,20,1,6,1,2,20,101,11
7,3,12,1,0,0,3,20,73,8
7,3,10,1,5,1,3,20,101,11
7,3,13,1,5,1,3,20,101,11
7,3,14,1,1,0,3,20,101,11
7,3,11,1,0,0,3,20,17,11
7,3,19,1,4,0,3,20,73,11
7,3,15,1,5,1,3,20,123,11
7,3,22,0,0,0,3,20,12,11
7,3,13,1,4,0,3,20,62,11
7,3,11,1,5,1,3,20,101,11
7,3,13,1,6,1,3,20,101,11
7,3,11,1,1,0,3,20,88,11
8,3,7,1,4,0,3,20,17,11
8,3,10,1,5,1,3,20,101,11
8,3,16,1,6,1,3,20,17,11
8,3,15,1,0,0,3,20,101,9
8,3,16,1,6,1,3,20,88,11
8,3,18,1,0,0,3,20,88,11
8,3,12,1,0,0,3,20,88,11
8,3,18,1,1,0,3,20,101,11
8,3,20,1,2,0,3,20,101,11
8,3,16,1,3,0,3,20,101,11
8,3,12,1,5,1,3,20,88,11
8,3,11,1,0,0,3,20,101,11
8,3,11,1,1,0,3,20,101,11
8,3,14,1,3,0,3,20,123,11
8,3,15,1,4,0,3,20,101,9
8,3,17,1,1,0,3,20,88,11
8,3,23,0,1,0,3,20,95,11
8,3,22,0,3,0,3,20,62,11
8,3,12,1,5,1,3,20,101,11
9,4,11,1,6,1,3,20,17,11
9,4,19,1,3,0,3,20,88,11
9,4,13,1,5,1,3,20,126,11
9,4,17,1,6,1,3,20,126,11
9,4,11,1,5,1,3,20,88,9
9,4,16,1,6,1,3,20,88,11
9,4,12,1,6,1,3,20,95,11
9,4,21,0,0,0,3,20,126,11
9,4,9,1,4,0,3,20,54,11
9,4,18,1,0,0,3,20,26,11
9,4,20,1,0,0,3,20,26,11
10,4,6,0,1,0,4,20,85,11
10,4,12,1,2,0,4,20,73,11
10,4,11,1,2,0,4,20,88,11
10,4,18,1,2,0,4,20,88,11
10,4,16,1,5,1,4,20,76,9
10,4,12,1,2,0,4,20,101,11
10,4,20,1,5,1,4,20,76,11
10,4,22,0,5,1,4,20,62,11
10,4,10,1,6,1,4,20,73,11
10,4,15,1,0,0,4,20,62,11
11,4,17,1,4,0,4,20,88,11
11,4,17,1,5,1,4,20,88,11
11,4,20,1,6,1,4,20,38,11
11,4,20,1,6,1,4,20,38,11
11,4,13,1,6,1,4,20,62,11
11,4,1,0,3,0,4,20,38,11
11,4,18,1,2,0,4,20,85,11
11,4,2,0,6,1,4,20,85,11
11,4,11,1,6,1,4,20,126,11
11,4,15,1,6,1,4,20,126,11
11,4,11,1,5,1,4,20,62,11
12,1,16,1,2,0,4,20,38,11
12,1,20,1,3,0,4,20,85,9
12,1,8,1,4,0,4,20,85,11
12,1,12,1,6,1,4,20,126,11
12,1,0,0,1,0,4,20,126,11
12,1,22,0,2,0,4,20,95,11
12,1,19,1,3,0,4,20,126,11
12,1,3,0,4,0,4,20,85,9
12,1,12,1,4,0,4,20,85,11
12,1,13,1,2,0,4,20,95,11
12,1,15,1,2,0,4,20,38,11
12,1,12,1,3,0,4,20,62,11
12,1,14,1,4,0,4,20,126,11
12,1,20,1,5,1,4,20,126,11
12,1,21,0,1,0,4,20,38,11
12,1,18,1,1,0,4,20,126,11
12,1,21,0,1,0,4,20,126,11
12,1,21,0,1,0,4,20,126,11
12,1,14,1,2,0,4,20,38,11
12,1,13,1,2,0,4,20,126,11
12,1,17,1,3,0,4,20,38,11
12,1,22,0,3,0,4,20,126,11
12,1,6,0,4,0,4,20,62,11
12,1,19,1,4,0,4,20,126,11
12,1,8,1,5,1,4,20,126,11
12,1,20,1,5,1,4,20,126,11
12,1,6,0,5,1,4,20,126,11
12,1,14,1,6,1,4,20,126,11
12,1,12,1,0,0,4,20,73,9
12,1,18,1,0,0,4,20,73,11
12,1,14,1,0,0,4,20,73,11
12,1,18,1,1,0,4,20,126,11
12,1,14,1,1,0,4,20,126,11
2,1,17,1,3,0,1,20,123,11
3,2,19,1,4,0,1,20,101,11
4,2,14,1,1,0,2,20,81,11
4,2,7,1,2,0,2,20,3,11
5,2,7,1,0,0,2,20,85,11
6,3,11,1,5,1,2,20,109,11
7,3,14,1,6,1,3,20,101,11
8,3,20,1,6,1,3,20,101,11
8,3,19,1,6,1,3,20,101,11
8,3,21,0,2,0,3,20,101,11
8,3,20,1,6,1,3,20,101,11
8,3,12,1,4,0,3,20,126,11
9,4,21,0,0,0,3,20,101,11
1,1,16,1,4,0,1,20,70,11
2,1,14,1,1,0,1,20,101,11
3,2,8,1,5,1,1,20,101,11
3,2,17,1,0,0,1,20,101,11
8,3,10,1,1,0,3,20,88,11
8,3,9,1,3,0,3,20,88,11
9,4,12,1,4,0,3,20,101,11
9,4,17,1,4,0,3,20,101,11
1,1,15,1,1,0,1,20,95,11
1,1,17,1,1,0,1,20,101,11
1,1,14,1,1,0,1,20,101,11
1,1,13,1,1,0,1,20,85,11
1,1,0,0,1,0,1,20,73,11
1,1,12,1,2,0,1,20,85,11
1,1,16,1,2,0,1,20,85,11
1,1,14,1,2,0,1,20,85,11
1,1,23,0,2,0,1,20,95,11
1,1,20,1,3,0,1,20,85,11
1,1,15,1,3,0,1,20,85,11
1,1,8,1,4,0,1,20,95,11
1,1,22,0,4,0,1,20,45,11
1,1,23,0,5,1,1,20,95,11
1,1,5,0,6,1,1,20,95,11
1,1,23,0,6,1,1,20,95,11
1,1,17,1,0,0,1,20,95,11
1,1,12,1,0,0,1,20,95,11
1,1,14,1,1,0,1,20,62,11
1,1,21,0,1,0,1,20,62,11
1,1,18,1,1,0,1,20,85,11
1,1,17,1,2,0,1,20,38,11
1,1,22,0,4,0,1,20,85,11
1,1,23,0,6,1,1,20,73,11
1,1,19,1,6,1,1,20,85,11
1,1,15,1,0,0,1,20,85,11
1,1,20,1,1,0,1,20,38,11
1,1,15,1,1,0,1,20,38,11
1,1,12,1,2,0,1,20,95,11
1,1,10,1,4,0,1,20,85,11
1,1,20,1,6,1,1,20,85,11
1,1,19,1,0,0,1,20,95,11
1,1,10,1,6,1,1,20,95,11
1,1,20,1,0,0,1,20,95,11
2,1,17,1,5,1,1,20,95,11
2,1,2,0,6,1,1,20,95,11
2,1,19,1,6,1,1,20,62,11
2,1,21,0,0,0,1,20,88,11
2,1,14,1,1,0,1,20,123,11
2,1,14,1,2,0,1,20,95,11
2,1,18,1,5,1,1,20,95,11
2,1,12,1,6,1,1,20,85,11
2,1,21,0,6,1,1,20,101,11
2,1,16,1,2,0,1,20,1,11
2,1,12,1,3,0,1,20,95,11
2,1,20,1,3,0,1,20,95,11
2,1,10,1,3,0,1,20,101,11
2,1,22,0,3,0,1,20,101,11
2,1,22,0,4,0,1,20,101,11
2,1,19,1,4,0,1,20,95,11
2,1,14,1,5,1,1,20,101,11
2,1,12,1,5,1,1,20,101,11
2,1,3,0,5,1,1,20,95,11
2,1,11,1,5,1,1,20,88,11
2,1,11,1,5,1,1,20,95,11
2,1,22,0,6,1,1,20,95,11
2,1,18,1,3,0,1,20,101,11
2,1,10,1,5,1,1,20,101,11
2,1,0,0,5,1,1,20,62,11
2,1,13,1,5,1,1,20,95,11
2,1,13,1,5,1,1,20,101,11
2,1,10,1,5,1,1,20,95,11
2,1,8,1,5,1,1,20,101,11
2,1,16,1,6,1,1,20,101,11
2,1,7,1,0,0,1,20,101,11
2,1,7,1,0,0,1,20,62,11
2,1,18,1,0,0,1,20,88,9
2,1,15,1,0,0,1,20,88,11
2,1,14,1,1,0,1,20,101,11
2,1,11,1,1,0,1,20,101,11
2,1,12,1,1,0,1,20,101,11
2,1,16,1,3,0,1,20,101,11
3,2,21,0,4,0,1,20,95,11
3,2,19,1,5,1,1,20,101,11
3,2,20,1,6,1,1,20,101,11
3,2,12,1,6,1,1,20,101,9
3,2,9,1,0,0,1,20,95,11
3,2,23,0,1,0,1,20,95,11
3,2,17,1,1,0,1,20,88,11
3,2,13,1,2,0,1,20,101,11
3,2,17,1,2,0,1,20,38,11
3,2,16,1,2,0,1,20,101,11
3,2,13,1,3,0,1,20,101,11
3,2,22,0,3,0,1,20,95,11
3,2,15,1,4,0,1,20,101,11
3,2,19,1,4,0,1,20,109,11
3,2,12,1,5,1,1,20,88,9
3,2,20,1,5,1,1,20,3,11
3,2,19,1,5,1,1,20,3,11
3,2,11,1,6,1,1,20,101,11
3,2,14,1,6,1,1,20,101,11
3,2,18,1,6,1,1,20,53,11
3,2,10,1,3,0,1,20,95,11
3,2,19,1,6,1,1,20,88,11
3,2,14,1,2,0,1,20,88,11
3,2,10,1,3,0,1,20,88,11
3,2,17,1,3,0,1,20,101,11
3,2,14,1,3,0,1,20,101,11
3,2,19,1,5,1,1,20,101,11
3,2,0,0,5,1,1,20,95,11
3,2,14,1,5,1,1,20,101,11
3,2,13,1,1,0,1,20,101,11
3,2,17,1,1,0,1,20,88,11
3,2,17,1,5,1,1,20,88,11
3,2,18,1,6,1,1,20,101,11
3,2,11,1,6,1,1,20,95,11
4,2,12,1,0,0,2,20,45,11
4,2,22,0,2,0,2,20,62,11
4,2,19,1,6,1,2,20,88,11
4,2,22,0,2,0,2,20,62,11
4,2,17,1,4,0,2,20,95,11
4,2,4,0,6,1,2,20,101,11
4,2,22,0,1,0,2,20,62,11
4,2,21,0,4,0,2,20,38,11
4,2,23,0,1,0,2,20,85,11
4,2,20,1,2,0,2,20,11,11
4,2,20,1,0,0,2,20,11,11
4,2,2,0,1,0,2,20,85,11
5,2,22,0,5,1,2,20,88,11
5,2,17,1,6,1,2,20,38,11
5,2,17,1,5,1,2,20,109,11
5,2,19,1,6,1,2,20,38,11
5,2,1,0,3,0,2,20,95,11
6,3,20,1,5,1,2,20,3,8
6,3,18,1,0,0,2,20,95,11
6,3,1,0,5,1,2,20,95,11
6,3,20,1,6,1,2,20,95,11
6,3,9,1,2,0,2,20,88,11
6,3,9,1,3,0,2,20,88,11
6,3,17,1,3,0,2,20,101,11
6,3,22,0,3,0,2,20,88,11
6,3,15,1,4,0,2,20,101,11
6,3,22,0,6,1,2,20,101,11
7,3,22,0,1,0,3,20,101,11
7,3,12,1,2,0,3,20,17,9
7,3,20,1,4,0,3,20,101,11
7,3,15,1,6,1,3,20,88,11
7,3,11,1,0,0,3,20,85,11
7,3,20,1,6,1,3,20,85,11
8,3,21,0,4,0,3,20,101,11
8,3,14,1,4,0,3,20,101,11
8,3,16,1,2,0,3,20,101,11
8,3,8,1,5,1,3,20,17,11
8,3,23,0,5,1,3,20,101,11
8,3,12,1,0,0,3,20,88,11
8,3,20,1,1,0,3,20,88,11
8,3,9,1,1,0,3,20,88,11
8,3,16,1,4,0,3,20,88,11
8,3,23,0,0,0,3,20,88,11
8,3,16,1,3,0,3,20,12,11
8,3,20,1,5,1,3,20,101,11
8,3,21,0,5,1,3,20,101,11
8,3,18,1,2,0,3,20,101,11
8,3,16,1,5,1,3,20,101,11
9,4,16,1,5,1,3,20,88,11
9,4,14,1,5,1,3,20,62,11
9,4,17,1,1,0,3,20,88,11
9,4,16,1,3,0,3,20,101,11
9,4,20,1,4,0,3,20,101,11
9,4,11,1,4,0,3,20,88,11
9,4,13,1,6,1,3,20,109,11
9,4,17,1,1,0,3,20,88,11
9,4,16,1,1,0,3,20,88,11
9,4,19,1,5,1,3,20,101,11
9,4,11,1,0,0,3,20,88,11
9,4,16,1,0,0,3,20,88,11
9,4,19,1,2,0,3,20,101,11
9,4,7,1,0,0,3,20,85,11
10,4,15,1,3,0,4,20,73,11
10,4,17,1,1,0,4,20,17,11
10,4,12,1,6,1,4,20,88,11
10,4,19,1,6,1,4,20,88,11
10,4,16,1,5,1,4,20,101,11
10,4,21,0,1,0,4,20,101,11
11,4,20,1,0,0,4,20,95,11
11,4,13,1,1,0,4,20,73,9
11,4,18,1,3,0,4,20,17,11
11,4,19,1,6,1,4,20,88,11
11,4,11,1,6,1,4,20,88,11
11,4,14,1,6,1,4,20,95,11
11,4,21,0,0,0,4,20,95,11
11,4,20,1,2,0,4,20,95,11
11,4,23,0,2,0,4,20,73,11
12,1,10,1,0,0,4,20,95,11
12,1,21,0,0,0,4,20,95,11
12,1,7,1,3,0,4,20,73,11
12,1,17,1,4,0,4,20,73,11
12,1,0,0,3,0,4,20,73,11
12,1,18,1,4,0,4,20,62,11
12,1,15,1,6,1,4,20,85,11
12,1,11,1,6,1,4,20,85,11
12,1,18,1,6,1,4,20,73,11
12,1,8,1,3,0,4,20,73,9
12,1,15,1,4,0,4,20,38,11
12,1,20,1,5,1,4,20,62,11
12,1,3,0,1,0,4,20,95,11
12,1,6,0,3,0,4,20,95,11
12,1,0,0,4,0,4,20,95,11
12,1,20,1,4,0,4,20,73,11
12,1,12,1,5,1,4,20,95,11
12,1,7,1,6,1,4,20,95,11
12,1,9,1,0,0,4,20,73,11
12,1,21,0,1,0,4,20,95,11
12,1,20,1,1,0,4,20,95,11
1,1,18,1,3,0,1,20,11,11
2,1,18,1,3,0,1,20,101,11
2,1,17,1,5,1,1,20,88,11
2,1,18,1,3,0,1,20,101,11
3,2,15,1,6,1,1,20,101,11
3,2,19,1,1,0,1,20,88,11
3,2,14,1,1,0,1,20,1,11
3,2,16,1,5,1,1,20,101,11
4,2,14,1,0,0,2,20,101,11
4,2,13,1,0,0,2,20,101,11
4,2,13,1,2,0,2,20,88,11
4,2,21,0,3,0,2,20,73,11
6,3,18,1,6,1,2,20,101,11
7,3,21,0,5,1,3,20,101,11
7,3,1,0,3,0,3,20,73,8
8,3,17,1,1,0,3,20,101,11
9,4,13,1,4,0,3,20,88,9
12,1,17,1,5,1,4,20,101,11
3,2,13,1,2,0,1,20,101,11
3,2,19,1,6,1,1,20,101,11
3,2,14,1,0,0,1,20,101,11
3,2,11,1,2,0,1,20,101,11
8,3,14,1,1,0,3,20,88,11
9,4,4,0,6,1,3,20,88,11
10,4,1,0,3,0,4,20,12,9
11,4,12,1,6,1,4,20,109,11
1,1,13,1,2,0,1,20,17,11
1,1,18,1,5,1,1,20,126,11
2,1,15,1,1,0,1,20,101,11
3,2,15,1,3,0,1,20,101,11
4,2,22,0,4,0,2,20,73,11
5,2,6,0,3,0,2,20,44,11
6,3,16,1,2,0,2,20,101,11
6,3,13,1,3,0,2,20,101,11
8,3,7,1,0,0,3,20,101,11
8,3,21,0,4,0,3,20,101,11
9,4,15,1,5,1,3,20,98,11
1,1,11,1,3,0,1,20,38,11
1,1,14,1,0,0,1,20,12,11
2,1,16,1,1,0,1,20,101,11
3,2,12,1,4,0,1,20,38,11
8,3,19,1,0,0,3,20,109,11
10,4,4,0,2,0,4,20,73,8
10,4,23,0,5,1,4,20,98,11
12,1,7,1,6,1,4,20,98,11
1,1,10,1,1,0,1,18,62,11
1,1,18,1,3,0,1,18,101,11
1,1,10,1,6,1,1,18,101,11
1,1,13,1,0,0,1,18,101,11
1,1,14,1,0,0,1,18,85,11
1,1,11,1,1,0,1,18,101,11
1,1,13,1,2,0,1,18,81,8
1,1,18,1,2,0,1,18,85,11
1,1,9,1,2,0,1,18,126,11
1,1,16,1,5,1,1,18,73,11
1,1,21,0,3,0,1,18,126,11
2,1,11,1,0,0,1,18,101,11
2,1,13,1,4,0,1,18,85,11
2,1,9,1,5,1,1,18,85,11
2,1,20,1,5,1,1,18,85,11
2,1,21,0,0,0,1,18,101,11
2,1,15,1,1,0,1,18,101,11
2,1,15,1,5,1,1,18,101,11
2,1,20,1,6,1,1,18,85,11
2,1,10,1,6,1,1,18,101,11
2,1,14,1,0,0,1,18,38,11
2,1,11,1,0,0,1,18,101,11
2,1,19,1,1,0,1,18,101,11
2,1,14,1,2,0,1,18,101,11
2,1,19,1,3,0,1,18,85,11
2,1,23,0,3,0,1,18,85,11
3,2,22,0,1,0,1,18,101,11
3,2,14,1,2,0,1,18,101,11
3,2,18,1,3,0,1,18,101,11
3,2,23,0,5,1,1,18,85,11
3,2,12,1,5,1,1,18,85,11
3,2,8,1,1,0,1,18,111,9
3,2,1,0,4,0,1,18,101,11
3,2,18,1,0,0,1,18,63,11
3,2,11,1,2,0,1,18,88,11
3,2,12,1,4,0,1,18,63,11
3,2,20,1,5,1,1,18,101,11
3,2,20,1,6,1,1,18,40,11
4,2,18,1,3,0,2,18,85,11
4,2,17,1,0,0,2,18,88,11
4,2,22,0,4,0,2,18,38,11
4,2,15,1,6,1,2,18,88,11
4,2,15,1,1,0,2,18,88,11
4,2,19,1,1,0,2,18,88,11
5,2,22,0,3,0,2,18,85,11
5,2,11,1,6,1,2,18,85,11
5,2,10,1,6,1,2,18,85,11
5,2,13,1,5,1,2,18,101,11
5,2,4,0,0,0,2,18,85,11
5,2,14,1,1,0,2,18,62,11
5,2,14,1,3,0,2,18,85,11
5,2,21,0,5,1,2,18,85,11
5,2,17,1,3,0,2,18,88,11
6,3,16,1,5,1,2,18,101,11
6,3,17,1,2,0,2,18,17,11
6,3,14,1,2,0,2,18,17,11
6,3,13,1,2,0,2,18,62,11
6,3,18,1,1,0,2,18,88,11
6,3,11,1,2,0,2,18,3,11
6,3,1,0,4,0,2,18,101,11
7,3,14,1,4,0,3,18,81,11
7,3,7,1,1,0,3,18,63,11
7,3,7,1,1,0,3,18,85,11
7,3,10,1,1,0,3,18,101,11
7,3,15,1,2,0,3,18,88,11
8,3,11,1,4,0,3,18,88,9
8,3,2,0,0,0,3,18,101,11
8,3,12,1,3,0,3,18,88,11
8,3,2,0,4,0,3,18,101,11
9,4,18,1,3,0,3,18,17,11
9,4,8,1,4,0,3,18,88,11
9,4,18,1,5,1,3,18,85,11
9,4,7,1,5,1,3,18,69,8
10,4,7,1,3,0,4,18,109,11
10,4,21,0,0,0,4,18,101,11
10,4,18,1,1,0,4,18,101,11
10,4,6,0,6,1,4,18,101,11
10,4,19,1,5,1,4,18,101,11
10,4,16,1,1,0,4,18,101,11
11,4,19,1,5,1,4,18,101,11
11,4,12,1,1,0,4,18,101,11
11,4,18,1,2,0,4,18,85,11
12,1,15,1,5,1,4,18,85,11
12,1,16,1,5,1,4,18,62,11
12,1,15,1,0,0,4,18,62,11
12,1,0,0,3,0,4,18,85,11
12,1,12,1,4,0,4,18,95,11
12,1,10,1,6,1,4,18,101,11
12,1,20,1,1,0,4,18,38,11
12,1,11,1,1,0,4,18,95,11
1,1,21,0,3,0,1,18,56,8
2,1,18,1,4,0,1,18,88,11
2,1,10,1,3,0,1,18,101,11
2,1,18,1,6,1,1,18,62,11
2,1,18,1,0,0,1,18,101,11
2,1,20,1,3,0,1,18,101,11
6,3,10,1,3,0,2,18,17,11
7,3,11,1,0,0,3,18,11,11
7,3,12,1,1,0,3,18,85,11
8,3,18,1,2,0,3,18,101,11
9,4,4,0,1,0,3,18,17,11
9,4,13,1,2,0,3,18,24,11
9,4,7,1,5,1,3,18,70,11
10,4,17,1,4,0,4,18,108,11
10,4,18,1,0,0,4,18,17,11
10,4,15,1,4,0,4,18,101,11
10,4,15,1,0,0,4,18,88,11
12,1,20,1,2,0,4,18,73,11
1,1,15,1,1,0,1,18,101,11
2,1,7,1,4,0,1,18,11,9
2,1,19,1,0,0,1,18,101,11
2,1,10,1,2,0,1,18,101,11
3,2,16,1,5,1,1,18,101,11
3,2,19,1,2,0,1,18,101,11
3,2,19,1,0,0,1,18,123,11
3,2,10,1,1,0,1,18,88,11
3,2,21,0,3,0,1,18,101,11
3,2,15,1,5,1,1,18,109,11
3,2,20,1,1,0,1,18,85,11
5,2,16,1,4,0,2,18,17,11
7,3,15,1,3,0,3,18,101,11
8,3,12,1,2,0,3,18,101,11
8,3,21,0,3,0,3,18,101,11
9,4,17,1,1,0,3,18,88,11
9,4,19,1,6,1,3,18,73,11
10,4,18,1,2,0,4,18,101,11
10,4,13,1,6,1,4,18,88,11
10,4,20,1,5,1,4,18,73,11
10,4,19,1,2,0,4,18,101,11
12,1,19,1,6,1,4,18,73,11
12,1,13,1,1,0,4,18,54,11
2,1,10,1,4,0,1,18,73,11
9,4,7,1,5,1,3,18,17,8
1,1,17,1,1,0,1,4,95,11
1,1,16,1,1,0,1,4,101,11
1,1,21,0,2,0,1,4,95,11
1,1,19,1,2,0,1,4,62,11
1,1,15,1,3,0,1,4,38,11
1,1,17,1,5,1,1,4,95,11
1,1,15,1,0,0,1,4,62,11
1,1,8,1,2,0,1,4,28,11
1,1,22,0,4,0,1,4,70,11
1,1,22,0,1,0,1,4,38,11
1,1,15,1,1,0,1,4,101,11
1,1,11,1,3,0,1,4,88,11
1,1,10,1,3,0,1,4,85,11
1,1,23,0,6,1,1,4,95,11
2,1,8,1,4,0,1,4,62,11
2,1,16,1,0,0,1,4,85,11
2,1,18,1,1,0,1,4,101,11
2,1,22,0,2,0,1,4,95,11
2,1,16,1,2,0,1,4,101,11
2,1,15,1,3,0,1,4,101,11
2,1,23,0,4,0,1,4,101,11
2,1,18,1,6,1,1,4,101,11
2,1,12,1,2,0,1,4,55,11
2,1,19,1,2,0,1,4,88,11
2,1,16,1,3,0,1,4,95,11
2,1,12,1,3,0,1,4,101,11
2,1,12,1,3,0,1,4,101,11
2,1,12,1,3,0,1,4,101,11
2,1,11,1,3,0,1,4,101,11
2,1,20,1,4,0,1,4,45,11
2,1,18,1,4,0,1,4,101,11
2,1,17,1,4,0,1,4,88,11
2,1,14,1,5,1,1,4,101,11
2,1,16,1,0,0,1,4,101,11
2,1,14,1,0,0,1,4,62,11
2,1,16,1,2,0,1,4,101,11
2,1,16,1,2,0,1,4,101,11
2,1,21,0,3,0,1,4,62,11
2,1,18,1,3,0,1,4,62,11
2,1,19,1,4,0,1,4,101,11
2,1,18,1,5,1,1,4,101,11
2,1,11,1,5,1,1,4,101,11
2,1,13,1,5,1,1,4,101,11
2,1,14,1,5,1,1,4,101,11
2,1,11,1,5,1,1,4,88,11
2,1,19,1,5,1,1,4,101,11
2,1,15,1,6,1,1,4,11,9
2,1,17,1,2,0,1,4,88,11
2,1,17,1,3,0,1,4,101,11
2,1,18,1,3,0,1,4,101,11
3,2,17,1,4,0,1,4,101,11
3,2,16,1,4,0,1,4,101,11
3,2,14,1,4,0,1,4,88,11
3,2,21,0,5,1,1,4,98,11
3,2,18,1,6,1,1,4,101,11
3,2,11,1,0,0,1,4,88,11
3,2,11,1,0,0,1,4,88,11
3,2,22,0,3,0,1,4,101,11
3,2,8,1,4,0,1,4,88,11
3,2,18,1,4,0,1,4,101,11
3,2,21,0,4,0,1,4,101,11
3,2,11,1,4,0,1,4,95,11
3,2,19,1,4,0,1,4,95,11
3,2,20,1,6,1,1,4,101,11
3,2,13,1,6,1,1,4,101,11
3,2,16,1,6,1,1,4,101,11
3,2,18,1,6,1,1,4,101,11
3,2,18,1,0,0,1,4,98,11
3,2,10,1,3,0,1,4,62,11
3,2,20,1,6,1,1,4,38,11
3,2,15,1,1,0,1,4,73,11
3,2,13,1,1,0,1,4,101,11
3,2,20,1,2,0,1,4,88,9
3,2,20,1,4,0,1,4,3,11
3,2,14,1,4,0,1,4,3,11
3,2,14,1,5,1,1,4,101,11
3,2,16,1,6,1,1,4,95,11
3,2,19,1,6,1,1,4,101,11
3,2,20,1,6,1,1,4,3,11
3,2,12,1,6,1,1,4,101,11
3,2,20,1,0,0,1,4,11,9
3,2,17,1,0,0,1,4,88,11
3,2,12,1,1,0,1,4,101,11
3,2,20,1,5,1,1,4,101,11
3,2,20,1,5,1,1,4,88,11
3,2,16,1,6,1,1,4,101,11
4,2,0,0,0,0,2,4,108,9
4,2,21,0,1,0,2,4,88,11
4,2,19,1,2,0,2,4,126,11
4,2,16,1,3,0,2,4,101,11
4,2,16,1,3,0,2,4,88,11
4,2,17,1,3,0,2,4,101,11
4,2,16,1,1,0,2,4,101,11
4,2,19,1,6,1,2,4,101,11
4,2,16,1,1,0,2,4,101,11
4,2,18,1,1,0,2,4,101,11
5,2,22,0,1,0,2,4,70,11
5,2,21,0,4,0,2,4,101,11
5,2,10,1,5,1,2,4,73,11
5,2,2,0,1,0,2,4,12,11
6,3,21,0,3,0,2,4,101,11
6,3,16,1,2,0,2,4,101,11
6,3,21,0,1,0,2,4,101,11
6,3,20,1,1,0,2,4,70,11
6,3,2,0,3,0,2,4,73,11
6,3,9,1,2,0,2,4,101,11
7,3,10,1,6,1,3,4,43,11
7,3,18,1,0,0,3,4,101,11
7,3,11,1,0,0,3,4,3,11
7,3,2,0,1,0,3,4,101,11
7,3,18,1,1,0,3,4,101,11
7,3,9,1,1,0,3,4,95,11
7,3,19,1,1,0,3,4,95,11
7,3,0,0,4,0,3,4,88,11
7,3,23,0,4,0,3,4,101,11
7,3,18,1,0,0,3,4,101,11
7,3,13,1,3,0,3,4,98,11
7,3,11,1,4,0,3,4,101,11
7,3,20,1,6,1,3,4,101,9
7,3,13,1,0,0,3,4,70,11
7,3,12,1,0,0,3,4,101,11
7,3,14,1,0,0,3,4,101,11
7,3,1,0,1,0,3,4,62,11
7,3,12,1,1,0,3,4,88,11
8,3,18,1,6,1,3,4,101,11
8,3,20,1,6,1,3,4,11,9
8,3,0,0,0,0,3,4,88,11
8,3,23,0,1,0,3,4,95,11
8,3,21,0,2,0,3,4,101,11
8,3,23,0,3,0,3,4,7,11
8,3,11,1,4,0,3,4,101,11
8,3,19,1,2,0,3,4,101,11
8,3,20,1,3,0,3,4,88,11
8,3,15,1,4,0,3,4,101,11
8,3,11,1,1,0,3,4,43,11
8,3,2,0,2,0,3,4,88,11
8,3,15,1,5,1,3,4,101,11
9,4,13,1,2,0,3,4,88,11
9,4,9,1,3,0,3,4,101,11
9,4,19,1,3,0,3,4,62,11
9,4,19,1,2,0,3,4,101,11
9,4,18,1,2,0,3,4,101,11
9,4,20,1,3,0,3,4,101,11
9,4,19,1,1,0,3,4,88,11
9,4,12,1,5,1,3,4,101,11
9,4,14,1,6,1,3,4,101,11
9,4,10,1,0,0,3,4,77,11
9,4,22,0,3,0,3,4,95,11
9,4,18,1,6,1,3,4,88,11
9,4,23,0,6,1,3,4,101,11
10,4,1,0,1,0,4,4,101,11
10,4,14,1,2,0,4,4,12,9
10,4,15,1,6,1,4,4,101,11
10,4,0,0,5,1,4,4,101,11
10,4,12,1,3,0,4,4,88,11
10,4,13,1,4,0,4,4,101,11
10,4,21,0,4,0,4,4,101,11
10,4,14,1,6,1,4,4,101,11
11,4,20,1,1,0,4,4,109,11
11,4,22,0,1,0,4,4,95,11
12,1,20,1,0,0,4,4,95,11
12,1,18,1,0,0,4,4,73,11
12,1,20,1,1,0,4,4,95,11
12,1,18,1,2,0,4,4,101,11
12,1,14,1,0,0,4,4,101,11
12,1,20,1,0,0,4,4,101,11
12,1,15,1,1,0,4,4,95,11
12,1,17,1,1,0,4,4,101,11
12,1,20,1,2,0,4,4,62,11
12,1,18,1,3,0,4,4,95,11
12,1,7,1,5,1,4,4,95,11
12,1,19,1,5,1,4,4,73,11
12,1,12,1,6,1,4,4,95,11
12,1,1,0,0,0,4,4,73,11
12,1,9,1,0,0,4,4,95,11
12,1,18,1,1,0,4,4,62,11
3,2,13,1,6,1,1,4,12,11
9,4,15,1,6,1,3,4,88,11
12,1,13,1,1,0,4,4,73,11
12,1,19,1,0,0,4,4,62,11
8,3,20,1,6,1,3,4,101,11
9,4,19,1,1,0,3,4,12,9
1,1,10,1,2,0,1,40,11,11
1,1,17,1,4,0,1,40,17,11
1,1,17,1,4,0,1,40,54,11
1,1,8,1,4,0,1,40,17,11
1,1,11,1,2,0,1,40,88,11
1,1,15,1,2,0,1,40,88,11
1,1,22,0,2,0,1,40,38,11
1,1,15,1,4,0,1,40,126,11
2,1,17,1,4,0,1,40,73,9
2,1,13,1,1,0,1,40,101,11
2,1,15,1,1,0,1,40,53,11
2,1,16,1,1,0,1,40,88,11
2,1,16,1,1,0,1,40,88,11
2,1,5,0,3,0,1,40,88,11
2,1,11,1,3,0,1,40,101,11
2,1,20,1,5,1,1,40,95,11
2,1,9,1,1,0,1,40,101,11
2,1,18,1,1,0,1,40,95,11
2,1,20,1,1,0,1,40,45,11
2,1,14,1,2,0,1,40,95,11
2,1,14,1,3,0,1,40,88,11
2,1,17,1,3,0,1,40,73,11
2,1,8,1,5,1,1,40,95,11
2,1,12,1,5,1,1,40,101,11
2,1,11,1,0,0,1,40,95,11
2,1,20,1,0,0,1,40,73,11
2,1,22,0,0,0,1,40,101,11
2,1,8,1,1,0,1,40,101,11
2,1,1,0,2,0,1,40,101,11
2,1,13,1,2,0,1,40,101,11
2,1,15,1,2,0,1,40,88,11
2,1,19,1,5,1,1,40,64,11
2,1,20,1,6,1,1,40,101,11
2,1,11,1,1,0,1,40,88,11
2,1,17,1,2,0,1,40,24,11
3,2,13,1,5,1,1,40,101,11
3,2,15,1,6,1,1,40,101,11
3,2,15,1,0,0,1,40,88,11
3,2,22,0,0,0,1,40,17,11
3,2,14,1,2,0,1,40,17,11
3,2,11,1,3,0,1,40,38,11
3,2,0,0,1,0,1,40,101,11
3,2,8,1,6,1,1,40,95,11
3,2,18,1,5,1,1,40,73,11
4,2,12,1,0,0,2,40,88,11
4,2,10,1,1,0,2,40,101,11
4,2,19,1,2,0,2,40,88,11
4,2,10,1,3,0,2,40,88,11
4,2,14,1,6,1,2,40,88,11
4,2,17,1,1,0,2,40,88,11
5,2,5,0,5,1,2,40,11,11
5,2,8,1,1,0,2,40,17,11
5,2,18,1,1,0,2,40,61,11
6,3,9,1,2,0,2,40,88,11
6,3,23,0,1,0,2,40,17,11
6,3,12,1,2,0,2,40,101,11
6,3,13,1,2,0,2,40,88,11
7,3,15,1,1,0,3,40,77,11
7,3,6,0,1,0,3,40,62,11
7,3,6,0,5,1,3,40,17,11
7,3,20,1,1,0,3,40,38,11
8,3,14,1,6,1,3,40,26,11
8,3,12,1,3,0,3,40,106,11
8,3,13,1,1,0,3,40,17,11
8,3,23,0,0,0,3,40,17,11
8,3,20,1,0,0,3,40,101,11
8,3,3,0,2,0,3,40,17,11
9,4,20,1,3,0,3,40,123,11
9,4,14,1,4,0,3,40,88,11
10,4,17,1,6,1,4,40,88,11
10,4,19,1,0,0,4,40,101,11
10,4,5,0,3,0,4,40,25,11
10,4,15,1,1,0,4,40,95,11
10,4,15,1,3,0,4,40,101,11
10,4,12,1,5,1,4,40,17,11
10,4,18,1,5,1,4,40,88,11
10,4,16,1,6,1,4,40,101,11
10,4,19,1,1,0,4,40,88,11
10,4,13,1,2,0,4,40,101,11
10,4,7,1,3,0,4,40,109,11
11,4,8,1,6,1,4,40,101,11
11,4,19,1,4,0,4,40,124,11
12,1,16,1,0,0,4,40,73,11
12,1,16,1,1,0,4,40,109,11
12,1,19,1,5,1,4,40,95,11
12,1,18,1,5,1,4,40,95,11
12,1,16,1,6,1,4,40,109,11
12,1,9,1,6,1,4,40,73,11
12,1,12,1,0,0,4,40,12,11
1,1,16,1,4,0,1,40,109,11
1,1,17,1,1,0,1,40,101,11
1,1,14,1,1,0,1,40,126,11
1,1,0,0,0,0,1,40,126,11
1,1,14,1,1,0,1,40,101,11
1,1,16,1,3,0,1,40,18,11
2,1,21,0,0,0,1,40,101,11
2,1,18,1,1,0,1,40,101,11
2,1,17,1,1,0,1,40,101,11
2,1,16,1,1,0,1,40,101,11
2,1,14,1,1,0,1,40,101,11
2,1,13,1,1,0,1,40,101,11
2,1,14,1,2,0,1,40,101,11
2,1,11,1,3,0,1,40,101,11
2,1,12,1,3,0,1,40,101,11
2,1,13,1,3,0,1,40,17,11
2,1,13,1,5,1,1,40,101,11
2,1,14,1,6,1,1,40,101,11
2,1,13,1,6,1,1,40,101,11
2,1,16,1,3,0,1,40,101,11
2,1,15,1,4,0,1,40,101,11
2,1,12,1,6,1,1,40,101,11
2,1,15,1,0,0,1,40,101,11
2,1,16,1,1,0,1,40,101,11
2,1,14,1,2,0,1,40,101,11
2,1,11,1,3,0,1,40,101,11
2,1,14,1,4,0,1,40,101,11
2,1,19,1,4,0,1,40,101,11
2,1,12,1,5,1,1,40,101,11
2,1,14,1,6,1,1,40,101,11
2,1,18,1,6,1,1,40,101,11
2,1,16,1,0,0,1,40,101,11
2,1,18,1,0,0,1,40,101,11
2,1,9,1,0,0,1,40,101,11
2,1,10,1,1,0,1,40,101,11
2,1,15,1,1,0,1,40,101,11
2,1,17,1,2,0,1,40,101,11
2,1,15,1,3,0,1,40,101,11
2,1,10,1,3,0,1,40,101,11
2,1,15,1,3,0,1,40,11,11
3,2,21,0,4,0,1,40,101,11
3,2,16,1,4,0,1,40,101,11
3,2,13,1,6,1,1,40,101,11
3,2,10,1,0,0,1,40,101,11
3,2,12,1,1,0,1,40,101,11
3,2,18,1,3,0,1,40,101,11
3,2,14,1,4,0,1,40,101,11
3,2,15,1,5,1,1,40,101,11
3,2,12,1,5,1,1,40,101,11
3,2,14,1,6,1,1,40,101,11
3,2,14,1,6,1,1,40,101,11
3,2,15,1,0,0,1,40,101,11
3,2,18,1,0,0,1,40,101,11
3,2,19,1,4,0,1,40,101,11
3,2,11,1,2,0,1,40,101,11
3,2,16,1,5,1,1,40,101,11
3,2,10,1,6,1,1,40,11,11
4,2,17,1,1,0,2,40,101,11
4,2,17,1,2,0,2,40,126,11
4,2,22,0,0,0,2,40,101,11
4,2,8,1,0,0,2,40,101,11
4,2,17,1,1,0,2,40,3,11
5,2,18,1,4,0,2,40,101,11
5,2,15,1,1,0,2,40,126,11
5,2,18,1,1,0,2,40,63,11
6,3,19,1,0,0,2,40,101,11
6,3,12,1,2,0,2,40,101,11
6,3,2,0,5,1,2,40,109,11
7,3,10,1,2,0,3,40,117,11
7,3,16,1,2,0,3,40,101,11
7,3,19,1,2,0,3,40,101,11
7,3,15,1,0,0,3,40,101,11
7,3,18,1,1,0,3,40,109,11
7,3,21,0,3,0,3,40,101,11
7,3,8,1,0,0,3,40,73,8
8,3,12,1,6,1,3,40,101,11
8,3,21,0,6,1,3,40,101,11
8,3,19,1,0,0,3,40,109,11
8,3,18,1,1,0,3,40,101,11
8,3,8,1,2,0,3,40,101,11
8,3,14,1,3,0,3,40,88,11
9,4,16,1,6,1,3,40,101,11
9,4,12,1,3,0,3,40,101,11
9,4,20,1,0,0,3,40,101,11
9,4,11,1,0,0,3,40,101,11
9,4,6,0,5,1,3,40,101,11
9,4,8,1,0,0,3,40,101,11
9,4,19,1,3,0,3,40,109,11
10,4,17,1,1,0,4,40,101,11
10,4,20,1,6,1,4,40,101,11
10,4,19,1,2,0,4,40,101,11
10,4,18,1,5,1,4,40,101,11
10,4,10,1,6,1,4,40,101,11
10,4,13,1,0,0,4,40,101,11
10,4,17,1,0,0,4,40,101,11
10,4,19,1,2,0,4,40,85,11
11,4,17,1,4,0,4,40,21,8
11,4,21,0,6,1,4,40,126,11
12,1,20,1,0,0,4,40,85,11
12,1,10,1,1,0,4,40,17,11
1,1,22,0,1,0,1,40,126,11
1,1,8,1,6,1,1,40,73,11
1,1,15,1,3,0,1,40,101,11
2,1,17,1,0,0,1,40,101,11
2,1,17,1,1,0,1,40,73,11
2,1,11,1,2,0,1,40,101,11
2,1,13,1,5,1,1,40,101,11
2,1,20,1,0,0,1,40,101,11
2,1,21,0,0,0,1,40,101,11
2,1,16,1,0,0,1,40,101,11
2,1,10,1,1,0,1,40,101,11
2,1,11,1,2,0,1,40,101,11
2,1,18,1,3,0,1,40,101,11
2,1,21,0,3,0,1,40,101,11
3,2,17,1,5,1,1,40,101,11
3,2,15,1,6,1,1,40,101,11
3,2,19,1,0,0,1,40,101,11
3,2,15,1,1,0,1,40,101,11
3,2,17,1,3,0,1,40,101,11
3,2,18,1,5,1,1,40,73,9
3,2,13,1,5,1,1,40,101,11
3,2,10,1,6,1,1,40,26,11
3,2,19,1,6,1,1,40,101,11
3,2,18,1,6,1,1,40,101,11
3,2,13,1,5,1,1,40,101,11
7,3,18,1,2,0,3,40,101,11
7,3,15,1,1,0,3,40,73,11
8,3,13,1,0,0,3,40,101,11
9,4,10,1,6,1,3,40,3,11
9,4,12,1,1,0,3,40,109,11
10,4,17,1,2,0,4,40,101,11
12,1,14,1,1,0,4,40,101,11
1,1,18,1,2,0,1,40,64,11
2,1,18,1,0,0,1,40,101,11
2,1,2,0,3,0,1,40,17,11
2,1,19,1,5,1,1,40,101,11
2,1,18,1,0,0,1,40,101,11
2,1,13,1,5,1,1,40,101,9
2,1,15,1,5,1,1,40,101,11
2,1,16,1,5,1,1,40,101,11
2,1,16,1,5,1,1,40,101,9
2,1,20,1,6,1,1,40,73,11
2,1,13,1,6,1,1,40,126,11
1,1,12,1,0,0,1,31,73,9
2,1,10,1,2,0,1,31,88,11
2,1,13,1,5,1,1,31,73,11
4,2,15,1,1,0,2,31,101,11
6,3,13,1,1,0,2,31,88,11
7,3,12,1,5,1,3,31,117,8
7,3,7,1,2,0,3,31,38,8
8,3,13,1,5,1,3,31,17,11
9,4,10,1,2,0,3,31,60,8
10,4,12,1,0,0,4,31,73,11
10,4,15,1,3,0,4,31,24,11
10,4,10,1,6,1,4,31,3,11
11,4,18,1,2,0,4,31,26,11
1,1,1,0,3,0,1,31,17,11
2,1,19,1,6,1,1,31,127,11
2,1,17,1,4,0,1,31,88,11
3,2,6,0,5,1,1,31,88,11
3,2,10,1,2,0,1,31,73,11
3,2,21,0,6,1,1,31,85,11
3,2,20,1,6,1,1,31,88,11
3,2,14,1,1,0,1,31,101,11
4,2,13,1,6,1,2,31,73,11
5,2,19,1,2,0,2,31,101,11
5,2,17,1,4,0,2,31,101,11
6,3,23,0,1,0,2,31,101,11
6,3,21,0,0,0,2,31,88,11
6,3,22,0,1,0,2,31,101,11
6,3,22,0,2,0,2,31,101,11
6,3,20,1,4,0,2,31,88,11
7,3,20,1,5,1,3,31,11,8
7,3,11,1,6,1,3,31,88,11
7,3,10,1,6,1,3,31,17,11
7,3,12,1,3,0,3,31,88,11
7,3,0,0,0,0,3,31,85,11
7,3,20,1,6,1,3,31,88,11
7,3,14,1,0,0,3,31,88,11
7,3,15,1,6,1,3,31,88,11
7,3,22,0,1,0,3,31,88,11
7,3,16,1,1,0,3,31,88,11
7,3,0,0,2,0,3,31,88,11
8,3,20,1,1,0,3,31,88,11
8,3,18,1,3,0,3,31,88,11
8,3,22,0,0,0,3,31,88,11
8,3,15,1,0,0,3,31,88,11
8,3,23,0,1,0,3,31,95,11
8,3,7,1,0,0,3,31,128,11
8,3,13,1,3,0,3,31,101,11
8,3,20,1,2,0,3,31,88,11
9,4,14,1,3,0,3,31,88,11
9,4,3,0,1,0,3,31,95,11
9,4,15,1,4,0,3,31,17,11
9,4,13,1,5,1,3,31,101,11
9,4,12,1,5,1,3,31,88,11
9,4,7,1,3,0,3,31,126,11
9,4,15,1,3,0,3,31,101,11
9,4,14,1,0,0,3,31,3,11
10,4,12,1,2,0,4,31,17,11
10,4,16,1,6,1,4,31,88,9
10,4,17,1,2,0,4,31,18,11
10,4,20,1,2,0,4,31,7,11
10,4,18,1,2,0,4,31,126,11
12,1,12,1,2,0,4,31,73,11
1,1,7,1,1,0,1,31,18,11
8,3,15,1,5,1,3,31,18,11
8,3,19,1,3,0,3,31,17,11
1,1,12,1,1,0,1,31,85,11
1,1,3,0,2,0,1,31,85,11
1,1,19,1,2,0,1,31,88,11
1,1,19,1,2,0,1,31,85,11
1,1,14,1,3,0,1,31,73,11
1,1,20,1,4,0,1,31,62,11
1,1,12,1,0,0,1,31,62,11
1,1,0,0,1,0,1,31,85,11
1,1,1,0,1,0,1,31,12,11
1,1,22,0,1,0,1,31,85,11
1,1,9,1,2,0,1,31,85,11
1,1,15,1,5,1,1,31,85,11
1,1,15,1,0,0,1,31,88,11
1,1,22,0,0,0,1,31,85,11
1,1,12,1,2,0,1,31,85,11
1,1,0,0,4,0,1,31,95,11
1,1,0,0,4,0,1,31,95,11
1,1,0,0,4,0,1,31,95,11
1,1,17,1,4,0,1,31,88,11
1,1,7,1,5,1,1,31,88,11
1,1,14,1,5,1,1,31,101,11
1,1,0,0,6,1,1,31,101,11
1,1,9,1,3,0,1,31,88,11
2,1,16,1,6,1,1,31,73,11
2,1,22,0,0,0,1,31,85,11
2,1,12,1,1,0,1,31,88,11
2,1,1,0,6,1,1,31,73,11
2,1,19,1,1,0,1,31,73,11
2,1,10,1,1,0,1,31,88,11
2,1,22,0,2,0,1,31,85,11
2,1,22,0,3,0,1,31,88,11
2,1,2,0,3,0,1,31,12,11
2,1,6,0,3,0,1,31,43,9
2,1,10,1,4,0,1,31,73,11
2,1,13,1,6,1,1,31,85,11
2,1,10,1,3,0,1,31,45,11
3,2,23,0,4,0,1,31,73,11
3,2,17,1,4,0,1,31,43,8
3,2,6,0,1,0,1,31,88,11
3,2,16,1,2,0,1,31,62,11
3,2,13,1,2,0,1,31,3,11
3,2,18,1,3,0,1,31,26,11
3,2,3,0,4,0,1,31,85,11
3,2,13,1,4,0,1,31,88,11
3,2,5,0,4,0,1,31,88,11
3,2,21,0,6,1,1,31,38,11
3,2,13,1,0,0,1,31,12,11
3,2,19,1,4,0,1,31,101,11
3,2,18,1,0,0,1,31,62,11
3,2,16,1,1,0,1,31,85,11
3,2,12,1,1,0,1,31,85,11
3,2,19,1,1,0,1,31,101,11
4,2,18,1,0,0,2,31,13,11
4,2,12,1,1,0,2,31,101,11
4,2,10,1,6,1,2,31,101,11
4,2,6,0,0,0,2,31,101,11
4,2,0,0,0,0,2,31,101,11
4,2,14,1,3,0,2,31,62,11
4,2,23,0,6,1,2,31,6,11
4,2,0,0,4,0,2,31,73,11
4,2,16,1,6,1,2,31,98,11
5,2,11,1,2,0,2,31,73,11
5,2,14,1,2,0,2,31,7,11
5,2,18,1,2,0,2,31,101,11
5,2,16,1,2,0,2,31,62,11
5,2,4,0,4,0,2,31,6,11
5,2,9,1,2,0,2,31,95,9
5,2,21,0,5,1,2,31,88,11
5,2,9,1,6,1,2,31,127,11
5,2,7,1,0,0,2,31,38,11
5,2,21,0,2,0,2,31,3,11
5,2,14,1,6,1,2,31,17,11
5,2,13,1,2,0,2,31,88,11
6,3,15,1,5,1,2,31,88,11
6,3,10,1,1,0,2,31,85,11
6,3,18,1,1,0,2,31,3,11
6,3,23,0,3,0,2,31,38,11
6,3,11,1,3,0,2,31,88,11
6,3,20,1,5,1,2,31,3,11
6,3,12,1,6,1,2,31,101,11
6,3,16,1,6,1,2,31,101,11
6,3,13,1,0,0,2,31,88,11
6,3,13,1,0,0,2,31,101,11
6,3,20,1,4,0,2,31,88,11
6,3,22,0,4,0,2,31,62,11
6,3,10,1,6,1,2,31,101,11
6,3,22,0,0,0,2,31,17,11
6,3,16,1,1,0,2,31,101,11
6,3,3,0,3,0,2,31,88,11
6,3,15,1,5,1,2,31,88,11
6,3,16,1,2,0,2,31,54,11
6,3,14,1,2,0,2,31,88,11
6,3,13,1,3,0,2,31,70,11
6,3,6,0,3,0,2,31,95,11
6,3,23,0,4,0,2,31,101,11
6,3,13,1,4,0,2,31,43,11
6,3,4,0,5,1,2,31,101,11
6,3,20,1,6,1,2,31,85,11
7,3,18,1,0,0,3,31,101,11
7,3,20,1,1,0,3,31,125,11
7,3,8,1,1,0,3,31,101,11
7,3,2,0,1,0,3,31,85,11
7,3,15,1,3,0,3,31,62,11
7,3,9,1,4,0,3,31,88,11
7,3,1,0,4,0,3,31,98,11
7,3,10,1,5,1,3,31,70,11
7,3,17,1,0,0,3,31,108,9
7,3,10,1,0,0,3,31,85,11
7,3,9,1,1,0,3,31,88,11
7,3,11,1,2,0,3,31,70,11
7,3,19,1,3,0,3,31,88,11
7,3,13,1,5,1,3,31,88,11
7,3,15,1,6,1,3,31,88,11
7,3,19,1,0,0,3,31,88,11
7,3,14,1,0,0,3,31,101,11
7,3,13,1,4,0,3,31,62,11
7,3,11,1,5,1,3,31,3,11
7,3,3,0,0,0,3,31,101,11
7,3,13,1,0,0,3,31,62,11
7,3,16,1,2,0,3,31,101,11
7,3,21,0,2,0,3,31,70,11
7,3,12,1,5,1,3,31,62,11
7,3,16,1,6,1,3,31,88,11
7,3,19,1,0,0,3,31,12,11
7,3,17,1,2,0,3,31,88,11
8,3,3,0,4,0,3,31,101,11
8,3,0,0,6,1,3,31,101,11
8,3,5,0,0,0,3,31,73,11
8,3,19,1,0,0,3,31,88,11
8,3,0,0,2,0,3,31,38,11
8,3,21,0,3,0,3,31,101,11
8,3,12,1,4,0,3,31,21,11
8,3,0,0,4,0,3,31,101,11
8,3,15,1,4,0,3,31,73,11
8,3,8,1,6,1,3,31,88,11
8,3,17,1,0,0,3,31,62,11
8,3,19,1,1,0,3,31,88,11
8,3,13,1,4,0,3,31,73,11
8,3,5,0,5,1,3,31,101,11
8,3,21,0,6,1,3,31,17,11
8,3,17,1,0,0,3,31,43,9
8,3,16,1,0,0,3,31,88,11
8,3,2,0,3,0,3,31,101,11
8,3,17,1,4,0,3,31,101,11
9,4,1,0,6,1,3,31,101,11
9,4,20,1,0,0,3,31,88,11
9,4,2,0,2,0,3,31,6,11
9,4,21,0,2,0,3,31,17,11
9,4,6,0,3,0,3,31,85,11
9,4,22,0,4,0,3,31,101,11
9,4,23,0,5,1,3,31,95,11
9,4,3,0,6,1,3,31,101,11
9,4,19,1,3,0,3,31,88,11
9,4,12,1,4,0,3,31,38,11
9,4,17,1,0,0,3,31,60,9
9,4,20,1,2,0,3,31,88,11
9,4,22,0,3,0,3,31,40,11
9,4,18,1,3,0,3,31,70,11
9,4,19,1,6,1,3,31,62,11
9,4,11,1,0,0,3,31,17,11
9,4,12,1,2,0,3,31,70,11
9,4,14,1,3,0,3,31,13,11
9,4,14,1,0,0,3,31,88,11
10,4,0,0,2,0,4,31,88,11
10,4,12,1,3,0,4,31,101,11
10,4,16,1,4,0,4,31,3,11
10,4,16,1,5,1,4,31,101,11
10,4,9,1,0,0,4,31,38,11
10,4,7,1,0,0,4,31,17,11
10,4,1,0,2,0,4,31,101,11
10,4,19,1,4,0,4,31,43,11
10,4,10,1,1,0,4,31,43,11
10,4,6,0,1,0,4,31,62,11
10,4,18,1,4,0,4,31,11,11
10,4,18,1,6,1,4,31,88,11
10,4,23,0,1,0,4,31,12,9
10,4,14,1,2,0,4,31,24,11
10,4,10,1,2,0,4,31,24,11
10,4,14,1,3,0,4,31,24,11
10,4,10,1,5,1,4,31,73,11
10,4,19,1,0,0,4,31,85,11
10,4,17,1,0,0,4,31,101,11
11,4,18,1,4,0,4,31,88,11
11,4,11,1,4,0,4,31,88,11
11,4,14,1,5,1,4,31,88,11
11,4,21,0,5,1,4,31,88,11
11,4,1,0,6,1,4,31,55,11
11,4,10,1,0,0,4,31,73,11
11,4,10,1,0,0,4,31,62,11
11,4,21,0,2,0,4,31,88,11
11,4,22,0,2,0,4,31,62,11
11,4,10,1,4,0,4,31,21,11
11,4,16,1,5,1,4,31,62,11
11,4,11,1,5,1,4,31,62,8
11,4,21,0,5,1,4,31,3,11
11,4,21,0,1,0,4,31,62,11
11,4,20,1,2,0,4,31,73,11
11,4,14,1,3,0,4,31,88,11
11,4,18,1,5,1,4,31,62,11
12,1,11,1,1,0,4,31,73,11
12,1,19,1,4,0,4,31,73,11
12,1,8,1,6,1,4,31,73,11
12,1,3,0,1,0,4,31,85,11
12,1,14,1,1,0,4,31,62,11
12,1,7,1,5,1,4,31,95,11
12,1,18,1,6,1,4,31,62,11
12,1,22,0,0,0,4,31,95,11
12,1,13,1,3,0,4,31,73,11
12,1,0,0,5,1,4,31,95,11
12,1,19,1,5,1,4,31,38,11
12,1,23,0,6,1,4,31,95,11
12,1,11,1,3,0,4,31,88,11
12,1,1,0,5,1,4,31,43,11
12,1,20,1,5,1,4,31,43,8
12,1,13,1,6,1,4,31,62,11
12,1,18,1,0,0,4,31,73,11
12,1,18,1,0,0,4,31,73,11
12,1,10,1,0,0,4,31,88,11
1,1,1,0,5,1,1,31,3,11
2,1,8,1,5,1,1,31,73,11
2,1,23,0,2,0,1,31,88,11
2,1,11,1,3,0,1,31,73,8
2,1,17,1,0,0,1,31,88,11
2,1,19,1,3,0,1,31,101,11
2,1,21,0,0,0,1,31,73,11
2,1,15,1,2,0,1,31,101,11
3,2,17,1,1,0,1,31,88,11
3,2,14,1,5,1,1,31,88,11
4,2,22,0,0,0,2,31,101,11
5,2,21,0,6,1,2,31,101,11
6,3,14,1,4,0,2,31,73,11
6,3,12,1,5,1,2,31,21,8
6,3,19,1,2,0,2,31,26,11
6,3,9,1,6,1,2,31,88,11
7,3,19,1,2,0,3,31,17,11
7,3,16,1,1,0,3,31,101,11
8,3,9,1,0,0,3,31,49,11
8,3,12,1,6,1,3,31,88,11
8,3,12,1,0,0,3,31,88,9
9,4,11,1,6,1,3,31,17,11
9,4,13,1,4,0,3,31,101,11
9,4,22,0,4,0,3,31,126,11
10,4,14,1,0,0,4,31,126,11
10,4,22,0,2,0,4,31,126,11
10,4,19,1,5,1,4,31,101,11
10,4,19,1,5,1,4,31,101,11
1,1,18,1,1,0,1,31,101,11
1,1,0,0,4,0,1,31,85,11
1,1,11,1,1,0,1,31,73,9
2,1,14,1,4,0,1,31,88,11
2,1,14,1,0,0,1,31,88,11
2,1,12,1,1,0,1,31,101,11
2,1,13,1,2,0,1,31,88,11
2,1,13,1,3,0,1,31,88,11
2,1,11,1,3,0,1,31,73,11
3,2,8,1,2,0,1,31,108,11
3,2,11,1,5,1,1,31,88,11
3,2,14,1,6,1,1,31,26,11
3,2,19,1,6,1,1,31,101,11
3,2,11,1,4,0,1,31,101,11
3,2,17,1,6,1,1,31,73,11
3,2,23,0,5,1,1,31,73,11
3,2,1,0,4,0,1,31,85,11
4,2,15,1,2,0,2,31,101,11
4,2,20,1,4,0,2,31,73,11
5,2,17,1,5,1,2,31,24,11
5,2,22,0,6,1,2,31,85,11
5,2,7,1,0,0,2,31,70,11
6,3,19,1,6,1,2,31,73,11
7,3,10,1,0,0,3,31,26,11
7,3,5,0,3,0,3,31,11,11
7,3,20,1,6,1,3,31,3,11
8,3,8,1,4,0,3,31,88,11
8,3,20,1,3,0,3,31,17,11
8,3,0,0,4,0,3,31,17,11
8,3,3,0,4,0,3,31,88,11
9,4,11,1,3,0,3,31,11,11
9,4,14,1,0,0,3,31,110,11
9,4,14,1,0,0,3,31,101,11
9,4,7,1,6,1,3,31,108,11
9,4,12,1,0,0,3,31,101,11
10,4,21,0,4,0,4,31,101,11
10,4,18,1,1,0,4,31,78,11
11,4,15,1,2,0,4,31,73,11
11,4,0,0,1,0,4,31,24,11
11,4,2,0,4,0,4,31,11,9
12,1,0,0,6,1,4,31,11,9
12,1,14,1,3,0,4,31,73,11
12,1,18,1,1,0,4,31,76,11
1,1,14,1,1,0,1,35,38,11
1,1,20,1,1,0,1,35,101,11
1,1,17,1,2,0,1,35,95,11
1,1,4,0,4,0,1,35,82,11
1,1,9,1,4,0,1,35,70,11
1,1,2,0,5,1,1,35,66,11
1,1,20,1,6,1,1,35,85,11
1,1,21,0,6,1,1,35,85,11
1,1,21,0,2,0,1,35,95,11
1,1,14,1,4,0,1,35,73,11
1,1,17,1,5,1,1,35,101,11
1,1,21,0,5,1,1,35,95,11
1,1,10,1,6,1,1,35,95,11
1,1,13,1,6,1,1,35,95,11
1,1,14,1,0,0,1,35,62,11
1,1,9,1,6,1,1,35,17,11
1,1,12,1,6,1,1,35,82,9
1,1,6,0,1,0,1,35,62,11
1,1,18,1,0,0,1,35,88,11
1,1,19,1,2,0,1,35,95,11
2,1,14,1,1,0,1,35,101,11
2,1,13,1,3,0,1,35,111,11
2,1,5,0,0,0,1,35,95,11
2,1,16,1,1,0,1,35,88,11
2,1,13,1,3,0,1,35,85,11
2,1,16,1,1,0,1,35,73,8
2,1,11,1,3,0,1,35,88,11
2,1,8,1,4,0,1,35,101,11
2,1,12,1,4,0,1,35,12,11
2,1,5,0,5,1,1,35,17,11
2,1,9,1,6,1,1,35,85,11
2,1,4,0,0,0,1,35,62,11
2,1,16,1,1,0,1,35,126,11
2,1,19,1,1,0,1,35,95,11
2,1,0,0,2,0,1,35,88,11
3,2,12,1,6,1,1,35,95,11
3,2,18,1,6,1,1,35,73,11
3,2,21,0,2,0,1,35,88,11
3,2,0,0,5,1,1,35,95,11
3,2,6,0,5,1,1,35,73,11
3,2,17,1,0,0,1,35,69,11
3,2,22,0,0,0,1,35,74,11
3,2,23,0,0,0,1,35,73,11
3,2,19,1,5,1,1,35,73,11
3,2,20,1,1,0,1,35,88,11
3,2,10,1,3,0,1,35,3,11
3,2,23,0,5,1,1,35,85,11
3,2,19,1,3,0,1,35,88,11
4,2,16,1,0,0,2,35,88,11
4,2,19,1,1,0,2,35,38,11
4,2,14,1,3,0,2,35,88,11
4,2,9,1,4,0,2,35,85,11
4,2,17,1,2,0,2,35,70,11
4,2,10,1,3,0,2,35,70,11
4,2,16,1,6,1,2,35,101,11
4,2,15,1,4,0,2,35,15,11
4,2,19,1,4,0,2,35,17,11
4,2,10,1,0,0,2,35,17,11
4,2,20,1,3,0,2,35,28,11
4,2,5,0,5,1,2,35,95,11
4,2,13,1,5,1,2,35,101,11
4,2,4,0,0,0,2,35,95,11
4,2,11,1,1,0,2,35,101,11
4,2,19,1,1,0,2,35,62,11
5,2,3,0,4,0,2,35,101,11
5,2,7,1,6,1,2,35,95,11
5,2,19,1,6,1,2,35,101,11
5,2,8,1,0,0,2,35,88,11
5,2,16,1,0,0,2,35,119,9
5,2,17,1,0,0,2,35,45,11
5,2,17,1,0,0,2,35,21,11
5,2,21,0,4,0,2,35,38,11
5,2,2,0,6,1,2,35,101,11
5,2,21,0,0,0,2,35,122,11
5,2,1,0,4,0,2,35,95,11
5,2,17,1,2,0,2,35,101,11
5,2,15,1,3,0,2,35,88,11
5,2,21,0,6,1,2,35,101,11
5,2,10,1,2,0,2,35,101,11
6,3,11,1,6,1,2,35,82,11
6,3,19,1,1,0,2,35,62,11
6,3,11,1,0,0,2,35,3,11
6,3,1,0,5,1,2,35,101,11
6,3,8,1,6,1,2,35,95,11
6,3,11,1,6,1,2,35,95,11
6,3,14,1,6,1,2,35,88,11
6,3,23,0,1,0,2,35,88,11
6,3,21,0,2,0,2,35,88,11
6,3,18,1,3,0,2,35,88,11
6,3,19,1,3,0,2,35,88,11
6,3,23,0,3,0,2,35,95,11
6,3,13,1,6,1,2,35,95,11
6,3,11,1,3,0,2,35,17,11
6,3,11,1,3,0,2,35,47,8
6,3,18,1,4,0,2,35,101,11
6,3,4,0,5,1,2,35,15,9
7,3,20,1,0,0,3,35,88,11
7,3,3,0,1,0,3,35,73,11
7,3,14,1,3,0,3,35,73,9
7,3,16,1,4,0,3,35,95,11
7,3,15,1,6,1,3,35,101,11
7,3,14,1,1,0,3,35,38,11
7,3,14,1,1,0,3,35,70,11
7,3,15,1,1,0,3,35,88,11
7,3,6,0,3,0,3,35,95,11
7,3,12,1,2,0,3,35,70,11
7,3,16,1,2,0,3,35,85,11
7,3,14,1,4,0,3,35,70,11
7,3,19,1,6,1,3,35,6,11
7,3,22,0,6,1,3,35,101,11
7,3,3,0,1,0,3,35,45,11
7,3,20,1,4,0,3,35,73,11
8,3,17,1,3,0,3,35,38,11
8,3,12,1,5,1,3,35,101,11
8,3,17,1,1,0,3,35,6,11
8,3,19,1,2,0,3,35,88,9
8,3,2,0,1,0,3,35,95,11
8,3,3,0,4,0,3,35,95,11
8,3,21,0,0,0,3,35,95,11
8,3,18,1,4,0,3,35,101,11
8,3,17,1,5,1,3,35,101,11
9,4,13,1,6,1,3,35,127,11
9,4,16,1,6,1,3,35,88,11
9,4,12,1,0,0,3,35,88,11
9,4,13,1,1,0,3,35,101,11
9,4,16,1,3,0,3,35,88,11
9,4,17,1,5,1,3,35,17,11
9,4,23,0,4,0,3,35,95,11
9,4,23,0,4,0,3,35,95,11
9,4,14,1,5,1,3,35,88,11
9,4,10,1,6,1,3,35,88,11
9,4,17,1,1,0,3,35,101,11
9,4,6,0,2,0,3,35,88,11
10,4,2,0,4,0,4,35,12,11
10,4,9,1,5,1,4,35,62,11
10,4,22,0,0,0,4,35,120,11
10,4,22,0,0,0,4,35,88,11
10,4,23,0,1,0,4,35,95,11
10,4,23,0,1,0,4,35,95,11
10,4,0,0,2,0,4,35,95,11
10,4,11,1,2,0,4,35,12,9
10,4,2,0,3,0,4,35,30,9
10,4,20,1,5,1,4,35,95,11
10,4,23,0,2,0,4,35,38,8
10,4,2,0,5,1,4,35,95,11
10,4,0,0,0,0,4,35,101,11
10,4,0,0,1,0,4,35,95,11
10,4,0,0,1,0,4,35,95,11
10,4,0,0,1,0,4,35,95,11
10,4,17,1,3,0,4,35,101,11
11,4,21,0,5,1,4,35,88,11
11,4,3,0,4,0,4,35,84,11
11,4,23,0,2,0,4,35,95,11
11,4,23,0,3,0,4,35,95,11
11,4,23,0,3,0,4,35,95,11
11,4,23,0,3,0,4,35,85,11
11,4,23,0,3,0,4,35,95,11
11,4,11,1,3,0,4,35,62,11
11,4,2,0,5,1,4,35,101,11
11,4,13,1,5,1,4,35,88,11
11,4,18,1,0,0,4,35,88,11
11,4,11,1,1,0,4,35,73,11
11,4,15,1,1,0,4,35,101,11
11,4,1,0,4,0,4,35,38,11
11,4,2,0,4,0,4,35,95,11
11,4,3,0,4,0,4,35,95,11
11,4,4,0,4,0,4,35,95,11
11,4,16,1,5,1,4,35,73,8
11,4,21,0,5,1,4,35,95,11
11,4,21,0,4,0,4,35,95,11
11,4,3,0,5,1,4,35,95,11
11,4,3,0,5,1,4,35,95,11
12,1,9,1,1,0,4,35,95,11
12,1,18,1,4,0,4,35,95,11
12,1,18,1,4,0,4,35,95,11
12,1,19,1,4,0,4,35,88,11
12,1,6,0,6,1,4,35,54,8
12,1,15,1,6,1,4,35,88,11
12,1,17,1,6,1,4,35,73,9
12,1,22,0,6,1,4,35,126,9
12,1,8,1,0,0,4,35,126,11
12,1,9,1,3,0,4,35,126,11
12,1,9,1,4,0,4,35,95,11
12,1,5,0,6,1,4,35,95,11
12,1,10,1,1,0,4,35,38,11
12,1,22,0,1,0,4,35,95,11
12,1,5,0,2,0,4,35,38,8
12,1,14,1,2,0,4,35,98,11
12,1,11,1,5,1,4,35,73,11
12,1,7,1,6,1,4,35,101,11
12,1,7,1,6,1,4,35,95,11
12,1,2,0,3,0,4,35,95,11
12,1,2,0,3,0,4,35,95,11
12,1,18,1,3,0,4,35,73,11
12,1,23,0,3,0,4,35,73,8
12,1,15,1,5,1,4,35,126,11
12,1,9,1,1,0,4,35,55,11
12,1,19,1,1,0,4,35,95,11
1,1,12,1,6,1,1,35,95,11
1,1,16,1,6,1,1,35,95,11
1,1,7,1,5,1,1,35,17,9
1,1,20,1,6,1,1,35,88,11
1,1,16,1,0,0,1,35,101,11
2,1,15,1,4,0,1,35,85,11
2,1,4,0,5,1,1,35,101,11
2,1,11,1,6,1,1,35,49,11
2,1,17,1,4,0,1,35,85,11
3,2,17,1,2,0,1,35,17,11
4,2,12,1,6,1,2,35,3,11
4,2,9,1,3,0,2,35,38,8
4,2,23,0,1,0,2,35,95,11
4,2,9,1,3,0,2,35,101,11
5,2,4,0,4,0,2,35,17,9
6,3,15,1,2,0,2,35,126,11
7,3,19,1,5,1,3,35,43,8
7,3,14,1,2,0,3,35,26,11
7,3,20,1,2,0,3,35,26,11
8,3,15,1,4,0,3,35,17,11
9,4,17,1,2,0,3,35,101,11
9,4,12,1,0,0,3,35,70,11
9,4,4,0,6,1,3,35,126,11
10,4,13,1,3,0,4,35,109,11
10,4,16,1,4,0,4,35,88,11
10,4,7,1,6,1,4,35,17,11
10,4,2,0,0,0,4,35,17,11
10,4,3,0,0,0,4,35,17,11
11,4,14,1,5,1,4,35,17,11
12,1,13,1,4,0,4,35,85,11
12,1,19,1,0,0,4,35,17,11
12,1,12,1,0,0,4,35,85,11
4,2,20,1,3,0,2,35,88,11
9,4,17,1,0,0,3,35,82,9
9,4,7,1,3,0,3,35,101,11
11,4,12,1,5,1,4,35,88,11
3,2,18,1,4,0,1,35,88,11
3,2,8,1,2,0,1,35,101,11
4,2,2,0,2,0,2,35,101,11
5,2,12,1,2,0,2,35,17,11
6,3,21,0,2,0,2,35,38,11
7,3,20,1,0,0,3,35,73,11
7,3,16,1,3,0,3,35,126,11
8,3,0,0,5,1,3,35,109,11
8,3,22,0,5,1,3,35,81,11
9,4,12,1,4,0,3,35,81,11
10,4,8,1,3,0,4,35,81,11
12,1,10,1,3,0,4,35,73,11
4,2,10,1,0,0,2,35,95,11
4,2,10,1,6,1,2,35,95,11
5,2,20,1,0,0,2,35,3,11
5,2,20,1,0,0,2,35,3,11
7,3,10,1,4,0,3,35,95,11
9,4,10,1,4,0,3,35,85,11
12,1,18,1,6,1,4,35,101,11
12,1,19,1,6,1,4,35,88,11
12,1,15,1,3,0,4,35,88,11
2,1,23,0,4,0,1,35,73,11
3,2,18,1,6,1,1,35,101,11
3,2,1,0,4,0,1,35,38,11
3,2,20,1,1,0,1,35,101,11
7,3,19,1,1,0,3,35,88,9
7,3,1,0,1,0,3,35,101,11
11,4,13,1,2,0,4,35,85,11
1,1,0,0,0,0,1,35,95,11
1,1,7,1,1,0,1,35,73,11
1,1,14,1,1,0,1,35,43,11
1,1,14,1,1,0,1,35,3,11
2,1,6,0,2,0,1,35,88,11
2,1,5,0,5,1,1,35,43,11
3,2,12,1,6,1,1,35,43,11
3,2,18,1,3,0,1,35,73,11
3,2,15,1,0,0,1,35,101,11
3,2,19,1,3,0,1,35,88,11
4,2,12,1,2,0,2,35,73,11
4,2,17,1,6,1,2,35,3,11
5,2,18,1,5,1,2,35,101,11
7,3,15,1,0,0,3,35,101,11
7,3,19,1,0,0,3,35,101,11
8,3,19,1,2,0,3,35,63,11
8,3,17,1,4,0,3,35,101,11
8,3,15,1,5,1,3,35,101,11
9,4,8,1,1,0,3,35,108,11
9,4,13,1,5,1,3,35,101,11
9,4,16,1,1,0,3,35,95,11
9,4,16,1,5,1,3,35,101,11
9,4,22,0,0,0,3,35,17,11
9,4,19,1,0,0,3,35,101,11
9,4,11,1,5,1,3,35,101,11
10,4,19,1,1,0,4,35,101,11
10,4,16,1,2,0,4,35,11,11
10,4,18,1,2,0,4,35,88,11
11,4,1,0,5,1,4,35,101,11
12,1,11,1,1,0,4,35,101,11
12,1,21,0,6,1,4,35,38,11
1,1,13,1,1,0,1,45,73,8
1,1,17,1,4,0,1,45,95,11
1,1,14,1,5,1,1,45,54,11
1,1,12,1,6,1,1,45,62,11
1,1,21,0,6,1,1,45,85,11
1,1,1,0,0,0,1,45,17,11
2,1,7,1,5,1,1,45,95,11
2,1,3,0,5,1,1,45,85,11
2,1,3,0,5,1,1,45,85,11
2,1,3,0,5,1,1,45,95,11
2,1,12,1,6,1,1,45,70,11
2,1,7,1,0,0,1,45,33,11
2,1,1,0,5,1,1,45,85,11
2,1,1,0,5,1,1,45,85,11
2,1,23,0,5,1,1,45,85,11
2,1,1,0,5,1,1,45,85,11
2,1,15,1,6,1,1,45,11,8
2,1,12,1,0,0,1,45,55,11
2,1,23,0,1,0,1,45,62,11
3,2,11,1,6,1,1,45,85,11
3,2,4,0,2,0,1,45,101,11
3,2,2,0,3,0,1,45,101,11
3,2,14,1,1,0,1,45,88,11
3,2,1,0,1,0,1,45,70,11
3,2,4,0,1,0,1,45,73,9
3,2,0,0,6,1,1,45,85,11
4,2,3,0,1,0,2,45,85,11
4,2,4,0,5,1,2,45,85,11
4,2,17,1,6,1,2,45,106,11
4,2,2,0,2,0,2,45,85,11
4,2,1,0,2,0,2,45,85,11
5,2,1,0,4,0,2,45,85,11
5,2,21,0,5,1,2,45,62,11
5,2,8,1,1,0,2,45,54,11
5,2,23,0,1,0,2,45,12,11
6,3,13,1,5,1,2,45,88,11
6,3,10,1,6,1,2,45,62,11
6,3,9,1,0,0,2,45,21,11
7,3,14,1,2,0,3,45,57,11
7,3,7,1,0,0,3,45,70,11
8,3,3,0,3,0,3,45,76,11
8,3,15,1,6,1,3,45,11,8
8,3,16,1,0,0,3,45,45,11
8,3,14,1,4,0,3,45,109,11
8,3,17,1,6,1,3,45,101,11
8,3,11,1,2,0,3,45,101,11
8,3,17,1,4,0,3,45,88,11
8,3,14,1,4,0,3,45,88,11
9,4,19,1,4,0,3,45,62,11
9,4,5,0,5,1,3,45,126,11
9,4,15,1,5,1,3,45,24,11
9,4,14,1,6,1,3,45,24,11
10,4,6,0,2,0,4,45,45,8
10,4,13,1,6,1,4,45,76,11
10,4,17,1,4,0,4,45,41,11
10,4,11,1,2,0,4,45,43,11
10,4,3,0,3,0,4,45,101,11
11,4,20,1,1,0,4,45,88,11
11,4,2,0,6,1,4,45,101,11
11,4,3,0,5,1,4,45,85,11
12,1,14,1,0,0,4,45,73,11
12,1,21,0,0,0,4,45,84,11
12,1,2,0,6,1,4,45,85,11
12,1,23,0,0,0,4,45,85,11
12,1,9,1,0,0,4,45,17,9
12,1,18,1,4,0,4,45,73,11
1,1,9,1,2,0,1,45,109,11
2,1,20,1,0,0,1,45,1,11
9,4,10,1,1,0,3,45,70,11
10,4,3,0,4,0,4,45,12,8
10,4,0,0,5,1,4,45,126,11
11,4,8,1,6,1,4,45,101,11
12,1,23,0,6,1,4,45,95,11
4,2,21,0,3,0,2,45,38,11
4,2,4,0,3,0,2,45,70,11
7,3,16,1,2,0,3,45,73,11
8,3,22,0,1,0,3,45,17,11
1,1,21,0,1,0,1,45,126,11
1,1,9,1,6,1,1,45,38,8
1,1,18,1,2,0,1,45,126,11
1,1,18,1,3,0,1,45,38,11
1,1,12,1,6,1,1,45,126,11
1,1,18,1,6,1,1,45,62,11
2,1,16,1,0,0,1,45,95,11
2,1,16,1,5,1,1,45,88,11
2,1,18,1,6,1,1,45,101,11
2,1,15,1,0,0,1,45,101,11
2,1,12,1,3,0,1,45,101,11
2,1,15,1,3,0,1,45,126,11
2,1,22,0,3,0,1,45,73,11
2,1,6,0,5,1,1,45,17,11
2,1,12,1,0,0,1,45,73,11
2,1,15,1,0,0,1,45,101,11
2,1,15,1,2,0,1,45,88,11
2,1,14,1,3,0,1,45,101,11
2,1,0,0,3,0,1,45,17,11
2,1,15,1,3,0,1,45,101,11
2,1,16,1,3,0,1,45,101,11
2,1,19,1,3,0,1,45,101,11
3,2,13,1,4,0,1,45,101,11
3,2,19,1,4,0,1,45,88,11
3,2,16,1,5,1,1,45,101,11
3,2,14,1,6,1,1,45,101,11
3,2,19,1,0,0,1,45,101,11
3,2,10,1,1,0,1,45,126,11
3,2,14,1,2,0,1,45,101,11
3,2,23,0,6,1,1,45,101,11
3,2,19,1,0,0,1,45,101,11
3,2,16,1,6,1,1,45,126,11
3,2,16,1,1,0,1,45,101,11
3,2,14,1,3,0,1,45,101,11
3,2,17,1,6,1,1,45,101,11
4,2,2,0,0,0,2,45,126,11
4,2,0,0,0,0,2,45,108,9
5,2,19,1,3,0,2,45,101,11
5,2,13,1,2,0,2,45,101,11
5,2,19,1,1,0,2,45,108,11
6,3,19,1,1,0,2,45,88,11
6,3,18,1,5,1,2,45,11,9
6,3,17,1,6,1,2,45,88,11
6,3,20,1,1,0,2,45,101,11
7,3,21,0,1,0,3,45,101,11
9,4,23,0,1,0,3,45,11,9
9,4,22,0,3,0,3,45,101,11
10,4,13,1,0,0,4,45,101,11
10,4,20,1,6,1,4,45,126,11
11,4,6,0,0,0,4,45,11,9
12,1,11,1,5,1,4,45,126,11
12,1,21,0,2,0,4,45,126,11
12,1,15,1,5,1,4,45,126,11
12,1,11,1,1,0,4,45,38,11
12,1,12,1,3,0,4,45,101,11
12,1,14,1,0,0,4,45,126,11
1,1,14,1,4,0,1,22,73,11
1,1,20,1,6,1,1,22,85,11
1,1,9,1,0,0,1,22,85,11
1,1,17,1,5,1,1,22,73,11
1,1,14,1,4,0,1,22,11,9
1,1,21,0,0,0,1,22,73,11
2,1,14,1,6,1,1,22,6,11
2,1,23,0,1,0,1,22,85,11
2,1,20,1,5,1,1,22,85,11
2,1,16,1,2,0,1,22,88,11
2,1,15,1,3,0,1,22,12,11
2,1,18,1,5,1,1,22,85,11
2,1,21,0,0,0,1,22,85,11
3,2,14,1,5,1,1,22,11,11
3,2,13,1,5,1,1,22,62,11
3,2,14,1,0,0,1,22,85,11
3,2,4,0,3,0,1,22,38,8
4,2,2,0,3,0,2,22,62,11
4,2,19,1,6,1,2,22,88,11
4,2,15,1,6,1,2,22,88,11
4,2,16,1,6,1,2,22,85,11
4,2,6,0,1,0,2,22,85,11
6,3,12,1,1,0,2,22,85,11
6,3,4,0,3,0,2,22,85,11
6,3,21,0,5,1,2,22,123,11
6,3,18,1,6,1,2,22,123,11
6,3,17,1,0,0,2,22,123,11
6,3,11,1,0,0,2,22,123,11
6,3,21,0,1,0,2,22,101,11
6,3,14,1,1,0,2,22,123,11
6,3,20,1,3,0,2,22,123,11
6,3,16,1,3,0,2,22,101,11
6,3,13,1,4,0,2,22,88,11
6,3,4,0,5,1,2,22,73,11
7,3,23,0,0,0,3,22,108,8
7,3,20,1,1,0,3,22,12,9
7,3,13,1,1,0,3,22,123,11
7,3,17,1,2,0,3,22,11,8
7,3,11,1,3,0,3,22,88,9
7,3,17,1,4,0,3,22,11,11
8,3,15,1,2,0,3,22,73,11
8,3,10,1,4,0,3,22,85,11
8,3,14,1,0,0,3,22,124,11
9,4,19,1,0,0,3,22,88,11
9,4,15,1,1,0,3,22,11,9
9,4,1,0,2,0,3,22,85,11
9,4,2,0,2,0,3,22,85,11
9,4,4,0,2,0,3,22,85,11
9,4,16,1,0,0,3,22,88,11
10,4,11,1,2,0,4,22,85,11
10,4,8,1,3,0,4,22,88,11
10,4,13,1,1,0,4,22,88,11
10,4,0,0,3,0,4,22,85,11
10,4,13,1,4,0,4,22,18,11
10,4,11,1,0,0,4,22,106,11
11,4,10,1,6,1,4,22,128,11
11,4,18,1,1,0,4,22,85,11
11,4,16,1,1,0,4,22,38,9
11,4,0,0,6,1,4,22,85,11
11,4,17,1,6,1,4,22,88,11
11,4,17,1,4,0,4,22,62,11
11,4,22,0,5,1,4,22,73,9
12,1,22,0,6,1,4,22,85,11
12,1,8,1,1,0,4,22,38,9
12,1,5,0,6,1,4,22,73,11
12,1,8,1,6,1,4,22,85,11
1,1,4,0,4,0,1,22,17,11
1,1,20,1,5,1,1,22,73,11
1,1,15,1,0,0,1,22,3,11
2,1,18,1,1,0,1,22,126,11
3,2,1,0,4,0,1,22,12,11
3,2,12,1,1,0,1,22,11,9
3,2,19,1,4,0,1,22,73,11
4,2,20,1,3,0,2,22,38,11
5,2,12,1,1,0,2,22,17,11
5,2,17,1,3,0,2,22,109,11
5,2,14,1,6,1,2,22,73,11
7,3,20,1,0,0,3,22,101,11
9,4,15,1,1,0,3,22,11,11
9,4,17,1,1,0,3,22,101,11
9,4,9,1,4,0,3,22,70,11
10,4,5,0,1,0,4,22,3,11
10,4,20,1,0,0,4,22,11,9
10,4,20,1,0,0,4,22,3,11
12,1,17,1,4,0,4,22,61,11
12,1,10,1,5,1,4,22,38,11
1,1,11,1,6,1,1,22,60,8
1,1,17,1,3,0,1,22,85,11
1,1,9,1,2,0,1,22,45,11
2,1,10,1,6,1,1,22,85,11
3,2,21,0,4,0,1,22,101,11
3,2,20,1,0,0,1,22,88,11
3,2,18,1,2,0,1,22,73,11
4,2,9,1,4,0,2,22,85,11
4,2,19,1,4,0,2,22,73,9
5,2,8,1,5,1,2,22,41,9
5,2,9,1,1,0,2,22,12,11
6,3,18,1,6,1,2,22,3,9
8,3,18,1,2,0,3,22,73,11
2,1,23,0,6,1,1,22,17,11
2,1,19,1,3,0,1,22,101,11
3,2,11,1,2,0,1,22,73,11
3,2,16,1,3,0,1,22,88,11
3,2,14,1,6,1,1,22,88,11
4,2,14,1,0,0,2,22,12,11
6,3,12,1,0,0,2,22,78,11
6,3,9,1,6,1,2,22,88,11
6,3,23,0,6,1,2,22,101,11
6,3,20,1,0,0,2,22,101,11
6,3,17,1,4,0,2,22,11,9
6,3,15,1,0,0,2,22,60,9
7,3,22,0,1,0,3,22,95,11
7,3,16,1,4,0,3,22,88,11
7,3,4,0,1,0,3,22,60,11
7,3,2,0,1,0,3,22,17,11
8,3,19,1,6,1,3,22,88,11
8,3,21,0,5,1,3,22,101,11
8,3,20,1,4,0,3,22,88,11
9,4,10,1,0,0,3,22,88,11
9,4,18,1,1,0,3,22,101,11
9,4,18,1,3,0,3,22,18,11
9,4,19,1,5,1,3,22,18,11
9,4,15,1,6,1,3,22,18,11
10,4,15,1,1,0,4,22,18,11
10,4,18,1,5,1,4,22,18,11
10,4,8,1,6,1,4,22,18,11
10,4,23,0,6,1,4,22,88,11
10,4,18,1,5,1,4,22,85,11
10,4,23,0,1,0,4,22,11,11
10,4,16,1,2,0,4,22,18,11
1,1,15,1,4,0,1,6,70,11
2,1,18,1,1,0,1,6,85,11
2,1,10,1,3,0,1,6,101,11
3,2,21,0,1,0,1,6,17,11
3,2,17,1,4,0,1,6,73,11
4,2,20,1,0,0,2,6,109,11
4,2,17,1,2,0,2,6,73,11
4,2,17,1,1,0,2,6,101,11
5,2,21,0,6,1,2,6,101,11
7,3,10,1,0,0,3,6,73,11
7,3,11,1,0,0,3,6,95,11
10,4,18,1,4,0,4,6,108,11
10,4,18,1,1,0,4,6,85,11
12,1,17,1,4,0,4,6,85,11
12,1,20,1,5,1,4,6,73,11
4,2,20,1,2,0,2,6,85,11
1,1,17,1,1,0,1,6,95,11
2,1,19,1,1,0,1,6,88,11
3,2,20,1,1,0,1,6,101,11
3,2,10,1,1,0,1,6,88,11
5,2,21,0,1,0,2,6,85,11
6,3,21,0,4,0,2,6,88,11
6,3,15,1,5,1,2,6,88,11
6,3,8,1,1,0,2,6,88,11
6,3,15,1,4,0,2,6,88,11
1,1,20,1,1,0,1,6,85,11
1,1,14,1,1,0,1,6,62,11
1,1,13,1,1,0,1,6,85,11
1,1,14,1,2,0,1,6,85,11
1,1,9,1,2,0,1,6,95,11
1,1,22,0,2,0,1,6,85,11
1,1,16,1,2,0,1,6,85,11
1,1,16,1,3,0,1,6,95,11
1,1,22,0,3,0,1,6,85,11
1,1,19,1,3,0,1,6,62,11
1,1,1,0,4,0,1,6,85,11
1,1,12,1,6,1,1,6,85,11
1,1,17,1,6,1,1,6,85,11
1,1,20,1,6,1,1,6,85,11
1,1,23,0,6,1,1,6,85,11
1,1,2,0,6,1,1,6,85,11
1,1,0,0,6,1,1,6,85,11
1,1,22,0,0,0,1,6,85,11
1,1,16,1,1,0,1,6,85,11
1,1,20,1,1,0,1,6,85,11
1,1,3,0,2,0,1,6,85,11
1,1,23,0,2,0,1,6,95,11
1,1,17,1,2,0,1,6,38,11
1,1,7,1,4,0,1,6,62,11
1,1,20,1,5,1,1,6,95,11
1,1,23,0,6,1,1,6,77,11
1,1,17,1,6,1,1,6,85,11
1,1,11,1,1,0,1,6,85,11
1,1,21,0,1,0,1,6,62,11
1,1,4,0,1,0,1,6,85,11
1,1,17,1,4,0,1,6,61,11
1,1,13,1,5,1,1,6,85,11
1,1,19,1,0,0,1,6,95,11
1,1,16,1,0,0,1,6,95,11
1,1,16,1,0,0,1,6,95,11
1,1,19,1,0,0,1,6,38,11
1,1,0,0,1,0,1,6,95,11
1,1,16,1,2,0,1,6,85,11
1,1,13,1,2,0,1,6,85,11
1,1,10,1,6,1,1,6,95,11
1,1,11,1,6,1,1,6,95,11
1,1,10,1,0,0,1,6,95,11
1,1,20,1,0,0,1,6,12,11
1,1,18,1,3,0,1,6,95,11
2,1,14,1,5,1,1,6,85,11
2,1,0,0,6,1,1,6,85,11
2,1,19,1,0,0,1,6,88,11
2,1,21,0,0,0,1,6,73,11
2,1,17,1,1,0,1,6,88,11
2,1,15,1,1,0,1,6,85,11
2,1,7,1,2,0,1,6,62,11
2,1,5,0,5,1,1,6,73,11
2,1,12,1,6,1,1,6,88,11
2,1,1,0,0,0,1,6,85,11
2,1,3,0,0,0,1,6,62,11
2,1,18,1,0,0,1,6,21,11
2,1,19,1,2,0,1,6,101,11
2,1,20,1,2,0,1,6,95,11
2,1,17,1,3,0,1,6,95,11
2,1,19,1,3,0,1,6,95,11
2,1,10,1,4,0,1,6,38,11
2,1,21,0,5,1,1,6,85,11
2,1,11,1,5,1,1,6,85,11
2,1,20,1,5,1,1,6,38,11
2,1,17,1,0,0,1,6,38,11
2,1,22,0,0,0,1,6,85,11
2,1,20,1,0,0,1,6,62,11
2,1,19,1,0,0,1,6,85,11
2,1,18,1,0,0,1,6,85,11
2,1,17,1,0,0,1,6,38,11
2,1,16,1,0,0,1,6,95,11
2,1,6,0,1,0,1,6,85,11
2,1,16,1,2,0,1,6,86,11
2,1,11,1,5,1,1,6,95,11
2,1,2,0,6,1,1,6,95,11
2,1,21,0,0,0,1,6,88,11
2,1,16,1,0,0,1,6,85,11
2,1,4,0,0,0,1,6,85,11
2,1,11,1,2,0,1,6,62,11
2,1,15,1,2,0,1,6,62,11
2,1,10,1,2,0,1,6,88,11
2,1,2,0,2,0,1,6,95,11
2,1,20,1,3,0,1,6,85,11
2,1,9,1,3,0,1,6,70,11
3,2,23,0,5,1,1,6,62,11
3,2,22,0,6,1,1,6,62,11
3,2,1,0,0,0,1,6,85,11
3,2,12,1,1,0,1,6,88,11
3,2,3,0,1,0,1,6,95,11
3,2,10,1,2,0,1,6,88,11
3,2,11,1,3,0,1,6,95,11
3,2,2,0,3,0,1,6,85,11
3,2,1,0,3,0,1,6,85,11
3,2,14,1,3,0,1,6,88,11
3,2,1,0,3,0,1,6,85,11
3,2,11,1,4,0,1,6,85,11
3,2,19,1,6,1,1,6,62,11
3,2,17,1,0,0,1,6,88,11
3,2,6,0,0,0,1,6,76,11
3,2,5,0,2,0,1,6,17,11
3,2,7,1,3,0,1,6,38,11
3,2,22,0,5,1,1,6,85,11
3,2,22,0,6,1,1,6,73,11
3,2,11,1,6,1,1,6,88,11
3,2,14,1,6,1,1,6,62,11
3,2,22,0,0,0,1,6,85,11
3,2,9,1,2,0,1,6,88,11
3,2,13,1,3,0,1,6,95,11
3,2,11,1,4,0,1,6,95,11
3,2,10,1,4,0,1,6,88,11
3,2,21,0,5,1,1,6,38,11
3,2,16,1,5,1,1,6,73,9
3,2,17,1,6,1,1,6,88,11
3,2,23,0,6,1,1,6,95,11
3,2,13,1,0,0,1,6,95,11
3,2,8,1,1,0,1,6,17,9
3,2,14,1,1,0,1,6,88,11
3,2,1,0,1,0,1,6,95,11
3,2,21,0,2,0,1,6,62,11
3,2,19,1,4,0,1,6,62,11
3,2,17,1,5,1,1,6,85,11
4,2,20,1,0,0,2,6,88,11
4,2,12,1,0,0,2,6,3,11
4,2,14,1,1,0,2,6,85,11
4,2,0,0,1,0,2,6,85,11
4,2,20,1,2,0,2,6,101,11
4,2,7,1,2,0,2,6,73,11
4,2,6,0,2,0,2,6,85,11
4,2,14,1,3,0,2,6,6,11
4,2,21,0,3,0,2,6,88,11
4,2,15,1,3,0,2,6,88,11
4,2,16,1,6,1,2,6,85,11
4,2,19,1,1,0,2,6,55,11
4,2,23,0,3,0,2,6,98,11
4,2,12,1,3,0,2,6,95,11
4,2,4,0,3,0,2,6,95,11
4,2,10,1,6,1,2,6,55,11
4,2,11,1,0,0,2,6,62,11
4,2,20,1,0,0,2,6,95,11
4,2,18,1,3,0,2,6,73,11
4,2,5,0,4,0,2,6,95,11
4,2,21,0,5,1,2,6,85,11
4,2,15,1,6,1,2,6,101,11
4,2,13,1,6,1,2,6,85,11
4,2,18,1,6,1,2,6,73,11
4,2,10,1,0,0,2,6,38,11
4,2,20,1,0,0,2,6,88,11
4,2,13,1,0,0,2,6,95,11
4,2,16,1,1,0,2,6,62,11
4,2,17,1,2,0,2,6,101,11
4,2,0,0,6,1,2,6,85,11
5,2,0,0,2,0,2,6,95,11
5,2,2,0,3,0,2,6,85,11
5,2,19,1,4,0,2,6,88,11
5,2,17,1,4,0,2,6,95,11
5,2,16,1,5,1,2,6,62,11
5,2,20,1,5,1,2,6,2,11
5,2,20,1,3,0,2,6,88,11
5,2,9,1,3,0,2,6,88,11
5,2,15,1,4,0,2,6,17,11
5,2,3,0,5,1,2,6,85,11
5,2,22,0,6,1,2,6,88,11
5,2,15,1,6,1,2,6,38,11
5,2,22,0,0,0,2,6,88,11
5,2,17,1,0,0,2,6,107,11
5,2,22,0,3,0,2,6,88,11
5,2,15,1,6,1,2,6,95,11
5,2,9,1,5,1,2,6,12,11
5,2,21,0,6,1,2,6,88,11
5,2,2,0,2,0,2,6,17,11
5,2,15,1,2,0,2,6,33,11
6,3,8,1,6,1,2,6,62,11
6,3,17,1,6,1,2,6,95,11
6,3,22,0,0,0,2,6,85,11
6,3,16,1,0,0,2,6,95,11
6,3,20,1,2,0,2,6,17,11
6,3,13,1,6,1,2,6,38,11
6,3,21,0,0,0,2,6,73,9
6,3,19,1,0,0,2,6,88,11
6,3,12,1,0,0,2,6,88,11
6,3,23,0,1,0,2,6,95,11
6,3,15,1,0,0,2,6,95,11
6,3,23,0,0,0,2,6,95,11
6,3,12,1,0,0,2,6,95,11
6,3,2,0,1,0,2,6,17,11
6,3,23,0,2,0,2,6,85,11
6,3,23,0,3,0,2,6,95,11
6,3,23,0,6,1,2,6,88,11
6,3,22,0,6,1,2,6,88,11
6,3,12,1,3,0,2,6,95,11
6,3,4,0,5,1,2,6,85,11
6,3,2,0,5,1,2,6,85,11
6,3,14,1,6,1,2,6,88,11
6,3,17,1,6,1,2,6,88,9
7,3,19,1,0,0,3,6,6,11
7,3,9,1,1,0,3,6,17,11
7,3,15,1,2,0,3,6,101,11
7,3,10,1,2,0,3,6,31,11
7,3,23,0,6,1,3,6,85,11
7,3,1,0,3,0,3,6,95,11
7,3,8,1,4,0,3,6,88,11
7,3,14,1,3,0,3,6,62,11
7,3,20,1,3,0,3,6,101,11
7,3,17,1,3,0,3,6,95,11
7,3,5,0,4,0,3,6,85,11
7,3,4,0,5,1,3,6,17,11
7,3,5,0,6,1,3,6,95,11
7,3,17,1,0,0,3,6,88,11
7,3,14,1,1,0,3,6,62,11
7,3,22,0,1,0,3,6,61,11
7,3,1,0,1,0,3,6,95,11
7,3,18,1,2,0,3,6,88,9
7,3,21,0,2,0,3,6,62,11
7,3,19,1,3,0,3,6,95,11
7,3,12,1,4,0,3,6,95,11
7,3,0,0,0,0,3,6,101,11
8,3,16,1,4,0,3,6,17,9
8,3,17,1,0,0,3,6,95,11
8,3,14,1,1,0,3,6,17,11
8,3,15,1,5,1,3,6,38,11
8,3,12,1,0,0,3,6,73,11
8,3,21,0,6,1,3,6,2,11
8,3,10,1,0,0,3,6,62,11
8,3,16,1,5,1,3,6,70,11
8,3,17,1,6,1,3,6,95,11
8,3,15,1,0,0,3,6,11,9
8,3,12,1,3,0,3,6,88,11
8,3,2,0,4,0,3,6,95,11
8,3,14,1,4,0,3,6,62,11
8,3,12,1,5,1,3,6,55,11
8,3,2,0,5,1,3,6,88,9
8,3,20,1,5,1,3,6,73,11
9,4,15,1,1,0,3,6,38,11
9,4,13,1,2,0,3,6,88,11
9,4,19,1,4,0,3,6,73,11
9,4,2,0,4,0,3,6,85,11
9,4,5,0,4,0,3,6,2,11
9,4,20,1,0,0,3,6,88,11
9,4,2,0,2,0,3,6,95,11
9,4,2,0,2,0,3,6,95,11
9,4,21,0,2,0,3,6,88,11
9,4,11,1,4,0,3,6,101,11
9,4,16,1,5,1,3,6,38,11
9,4,16,1,5,1,3,6,88,9
9,4,12,1,6,1,3,6,95,11
9,4,4,0,6,1,3,6,85,11
9,4,19,1,1,0,3,6,88,11
9,4,7,1,0,0,3,6,73,9
9,4,17,1,0,0,3,6,101,11
9,4,0,0,0,0,3,6,95,11
9,4,0,0,1,0,3,6,85,11
9,4,1,0,1,0,3,6,85,11
9,4,17,1,4,0,3,6,124,11
9,4,0,0,5,1,3,6,95,11
9,4,0,0,6,1,3,6,95,11
10,4,10,1,4,0,4,6,109,11
10,4,17,1,6,1,4,6,17,11
10,4,4,0,2,0,4,6,85,11
10,4,11,1,3,0,4,6,88,11
10,4,20,1,3,0,4,6,88,11
10,4,5,0,6,1,4,6,95,11
10,4,6,0,6,1,4,6,88,11
10,4,23,0,5,1,4,6,85,11
10,4,4,0,6,1,4,6,85,11
10,4,8,1,1,0,4,6,88,11
10,4,21,0,2,0,4,6,62,11
10,4,4,0,3,0,4,6,17,11
10,4,21,0,3,0,4,6,95,11
10,4,22,0,3,0,4,6,88,11
10,4,22,0,3,0,4,6,95,11
10,4,10,1,5,1,4,6,73,11
10,4,18,1,5,1,4,6,101,11
10,4,16,1,6,1,4,6,88,11
10,4,2,0,6,1,4,6,85,11
10,4,21,0,6,1,4,6,95,11
10,4,21,0,0,0,4,6,45,11
10,4,7,1,1,0,4,6,61,11
10,4,0,0,1,0,4,6,85,11
10,4,1,0,1,0,4,6,85,11
10,4,1,0,1,0,4,6,85,11
10,4,17,1,2,0,4,6,88,11
10,4,16,1,2,0,4,6,101,11
10,4,9,1,2,0,4,6,88,11
10,4,14,1,3,0,4,6,88,11
11,4,10,1,4,0,4,6,17,11
11,4,1,0,5,1,4,6,85,11
11,4,1,0,6,1,4,6,95,11
11,4,7,1,3,0,4,6,88,11
11,4,17,1,3,0,4,6,85,11
11,4,19,1,3,0,4,6,88,11
11,4,23,0,0,0,4,6,88,11
11,4,20,1,1,0,4,6,85,11
11,4,17,1,4,0,4,6,62,11
11,4,22,0,6,1,4,6,62,11
11,4,15,1,5,1,4,6,88,11
11,4,14,1,0,0,4,6,85,11
11,4,22,0,1,0,4,6,85,11
11,4,12,1,2,0,4,6,38,11
11,4,12,1,4,0,4,6,95,11
11,4,20,1,5,1,4,6,95,11
12,1,20,1,6,1,4,6,85,9
12,1,13,1,0,0,4,6,95,11
12,1,11,1,4,0,4,6,85,11
12,1,21,0,4,0,4,6,85,11
12,1,14,1,6,1,4,6,88,11
12,1,0,0,0,0,4,6,95,11
12,1,18,1,0,0,4,6,61,11
12,1,9,1,1,0,4,6,85,11
12,1,14,1,3,0,4,6,38,11
12,1,15,1,3,0,4,6,85,11
12,1,20,1,5,1,4,6,95,11
12,1,0,0,5,1,4,6,38,11
12,1,1,0,5,1,4,6,17,11
12,1,18,1,6,1,4,6,85,11
12,1,20,1,6,1,4,6,95,11
12,1,20,1,6,1,4,6,95,11
12,1,13,1,6,1,4,6,17,11
12,1,0,0,6,1,4,6,17,11
12,1,18,1,3,0,4,6,62,11
12,1,14,1,4,0,4,6,95,11
12,1,22,0,4,0,4,6,62,11
12,1,12,1,6,1,4,6,73,11
12,1,4,0,6,1,4,6,95,11
12,1,15,1,2,0,4,6,85,11
12,1,20,1,3,0,4,6,62,11
12,1,21,0,3,0,4,6,95,11
12,1,15,1,4,0,4,6,85,11
12,1,20,1,4,0,4,6,85,11
12,1,17,1,6,1,4,6,73,11
12,1,15,1,6,1,4,6,95,11
12,1,0,0,6,1,4,6,85,11
12,1,11,1,0,0,4,6,95,11
12,1,10,1,0,0,4,6,38,9
12,1,17,1,0,0,4,6,85,11
12,1,20,1,0,0,4,6,95,11
12,1,10,1,1,0,4,6,85,11
1,1,16,1,6,1,1,6,38,11
1,1,16,1,0,0,1,6,73,11
2,1,15,1,4,0,1,6,85,11
2,1,17,1,0,0,1,6,85,11
2,1,13,1,6,1,1,6,11,11
2,1,23,0,0,0,1,6,73,8
2,1,16,1,6,1,1,6,43,11
2,1,21,0,2,0,1,6,38,11
3,2,19,1,0,0,1,6,88,11
3,2,20,1,2,0,1,6,101,11
3,2,0,0,1,0,1,6,11,8
3,2,22,0,1,0,1,6,73,11
3,2,14,1,1,0,1,6,101,11
3,2,13,1,3,0,1,6,126,11
3,2,14,1,5,1,1,6,11,9
4,2,14,1,4,0,2,6,88,11
4,2,21,0,5,1,2,6,126,11
5,2,14,1,4,0,2,6,12,8
5,2,21,0,1,0,2,6,88,11
5,2,19,1,6,1,2,6,17,11
5,2,20,1,3,0,2,6,101,11
6,3,3,0,3,0,2,6,88,11
6,3,22,0,5,1,2,6,88,11
6,3,20,1,0,0,2,6,88,11
7,3,4,0,6,1,3,6,3,11
8,3,20,1,5,1,3,6,11,11
8,3,7,1,2,0,3,6,5,11
8,3,19,1,4,0,3,6,17,11
9,4,18,1,6,1,3,6,88,11
9,4,20,1,6,1,3,6,88,11
9,4,15,1,5,1,3,6,26,11
9,4,9,1,4,0,3,6,3,11
10,4,20,1,6,1,4,6,95,11
10,4,3,0,5,1,4,6,21,11
11,4,2,0,4,0,4,6,85,11
11,4,13,1,6,1,4,6,85,11
11,4,9,1,1,0,4,6,95,11
12,1,11,1,0,0,4,6,6,11
1,1,18,1,5,1,1,6,85,11
1,1,14,1,6,1,1,6,85,11
1,1,13,1,6,1,1,6,38,11
1,1,13,1,0,0,1,6,85,11
1,1,19,1,4,0,1,6,43,11
1,1,2,0,6,1,1,6,85,11
1,1,23,0,0,0,1,6,44,11
2,1,22,0,6,1,1,6,85,11
2,1,15,1,0,0,1,6,73,11
2,1,23,0,5,1,1,6,88,11
2,1,16,1,0,0,1,6,88,11
2,1,9,1,6,1,1,6,62,11
2,1,17,1,6,1,1,6,73,11
2,1,18,1,6,1,1,6,38,11
2,1,20,1,6,1,1,6,85,11
2,1,7,1,0,0,1,6,85,11
2,1,9,1,2,0,1,6,54,11
3,2,15,1,0,0,1,6,85,11
3,2,19,1,3,0,1,6,88,11
3,2,0,0,6,1,1,6,126,11
3,2,14,1,6,1,1,6,88,11
3,2,16,1,6,1,1,6,88,11
3,2,23,0,0,0,1,6,109,11
3,2,17,1,2,0,1,6,88,11
3,2,18,1,1,0,1,6,101,11
3,2,13,1,2,0,1,6,73,11
3,2,22,0,2,0,1,6,109,11
3,2,16,1,4,0,1,6,85,11
3,2,21,0,4,0,1,6,126,11
3,2,10,1,5,1,1,6,85,11
3,2,14,1,5,1,1,6,12,11
4,2,21,0,0,0,2,6,88,11
4,2,17,1,2,0,2,6,85,11
4,2,20,1,2,0,2,6,88,11
4,2,22,0,3,0,2,6,85,11
4,2,23,0,3,0,2,6,85,11
4,2,20,1,1,0,2,6,85,11
4,2,15,1,3,0,2,6,85,11
4,2,21,0,3,0,2,6,17,11
4,2,10,1,4,0,2,6,85,11
5,2,21,0,6,1,2,6,85,11
5,2,22,0,6,1,2,6,85,11
5,2,22,0,3,0,2,6,85,11
5,2,8,1,6,1,2,6,85,11
6,3,7,1,3,0,2,6,85,11
6,3,21,0,3,0,2,6,85,11
6,3,5,0,6,1,2,6,85,11
6,3,5,0,6,1,2,6,85,11
6,3,17,1,6,1,2,6,101,8
6,3,19,1,6,1,2,6,109,11
6,3,22,0,6,1,2,6,85,11
6,3,23,0,0,0,2,6,101,9
6,3,12,1,1,0,2,6,38,11
6,3,20,1,2,0,2,6,88,11
6,3,17,1,3,0,2,6,43,11
6,3,11,1,4,0,2,6,101,11
6,3,21,0,6,1,2,6,101,11
6,3,10,1,0,0,2,6,17,11
6,3,17,1,1,0,2,6,101,11
6,3,9,1,2,0,2,6,101,11
6,3,13,1,2,0,2,6,88,11
6,3,22,0,2,0,2,6,101,11
6,3,11,1,4,0,2,6,85,11
6,3,22,0,5,1,2,6,88,11
6,3,0,0,6,1,2,6,85,11
6,3,2,0,6,1,2,6,126,11
6,3,13,1,6,1,2,6,85,11
6,3,15,1,6,1,2,6,85,11
6,3,1,0,1,0,2,6,101,11
6,3,2,0,2,0,2,6,126,11
6,3,4,0,2,0,2,6,126,11
6,3,9,1,2,0,2,6,126,9
6,3,23,0,2,0,2,6,126,11
6,3,10,1,3,0,2,6,85,11
6,3,17,1,4,0,2,6,117,11
6,3,5,0,5,1,2,6,85,11
6,3,1,0,6,1,2,6,126,11
6,3,10,1,6,1,2,6,85,11
7,3,1,0,0,0,3,6,126,11
7,3,4,0,1,0,3,6,88,11
7,3,1,0,2,0,3,6,126,11
7,3,5,0,3,0,3,6,85,11
7,3,8,1,4,0,3,6,38,11
7,3,20,1,5,1,3,6,88,11
7,3,20,1,6,1,3,6,88,11
7,3,22,0,1,0,3,6,85,11
7,3,23,0,1,0,3,6,73,11
7,3,9,1,2,0,3,6,85,11
7,3,1,0,3,0,3,6,126,11
7,3,0,0,4,0,3,6,85,11
7,3,12,1,4,0,3,6,85,11
7,3,12,1,5,1,3,6,88,11
7,3,17,1,1,0,3,6,109,11
7,3,4,0,4,0,3,6,126,11
7,3,12,1,4,0,3,6,126,11
7,3,16,1,4,0,3,6,126,11
7,3,15,1,5,1,3,6,126,11
7,3,21,0,0,0,3,6,126,11
7,3,15,1,4,0,3,6,126,11
7,3,17,1,6,1,3,6,85,9
7,3,10,1,0,0,3,6,85,11
7,3,2,0,1,0,3,6,126,9
7,3,8,1,1,0,3,6,126,11
7,3,20,1,1,0,3,6,88,11
7,3,17,1,2,0,3,6,126,11
8,3,0,0,4,0,3,6,17,11
8,3,23,0,0,0,3,6,126,11
8,3,4,0,1,0,3,6,126,11
8,3,14,1,3,0,3,6,85,11
8,3,0,0,5,1,3,6,88,11
8,3,1,0,5,1,3,6,88,11
8,3,2,0,5,1,3,6,126,11
8,3,1,0,1,0,3,6,85,11
8,3,2,0,1,0,3,6,88,11
8,3,2,0,1,0,3,6,85,11
8,3,2,0,3,0,3,6,85,11
8,3,23,0,3,0,3,6,85,11
8,3,4,0,5,1,3,6,73,11
8,3,20,1,5,1,3,6,108,9
8,3,5,0,5,1,3,6,126,11
8,3,23,0,0,0,3,6,88,11
8,3,22,0,2,0,3,6,76,11
8,3,0,0,5,1,3,6,126,11
9,4,21,0,6,1,3,6,126,9
9,4,21,0,3,0,3,6,126,9
9,4,0,0,6,1,3,6,126,9
9,4,12,1,3,0,3,6,88,11
9,4,15,1,5,1,3,6,88,11
9,4,15,1,6,1,3,6,88,9
9,4,20,1,6,1,3,6,126,8
9,4,19,1,0,0,3,6,88,11
9,4,23,0,0,0,3,6,126,11
9,4,12,1,4,0,3,6,11,11
9,4,6,0,3,0,3,6,126,8
9,4,13,1,6,1,3,6,12,11
10,4,18,1,2,0,4,6,62,11
10,4,14,1,1,0,4,6,73,11
10,4,4,0,6,1,4,6,126,11
10,4,11,1,1,0,4,6,38,11
10,4,23,0,1,0,4,6,88,11
10,4,13,1,2,0,4,6,73,11
10,4,13,1,0,0,4,6,38,9
10,4,18,1,1,0,4,6,88,11
11,4,22,0,3,0,4,6,126,11
11,4,14,1,3,0,4,6,126,9
11,4,20,1,3,0,4,6,38,11
11,4,13,1,2,0,4,6,73,11
12,1,17,1,6,1,4,6,101,11
12,1,11,1,5,1,4,6,88,11
12,1,15,1,6,1,4,6,101,9
12,1,17,1,0,0,4,6,62,11
12,1,12,1,6,1,4,6,126,11
12,1,21,0,5,1,4,6,62,11
12,1,22,0,5,1,4,6,73,11
12,1,11,1,6,1,4,6,101,11
12,1,13,1,3,0,4,6,126,11
12,1,18,1,3,0,4,6,101,11
12,1,20,1,5,1,4,6,38,11
1,1,22,0,2,0,1,6,73,11
2,1,12,1,0,0,1,6,85,11
3,2,22,0,1,0,1,6,88,11
3,2,15,1,6,1,1,6,17,11
3,2,21,0,1,0,1,6,73,11
4,2,7,1,3,0,2,6,85,11
4,2,21,0,0,0,2,6,109,11
4,2,4,0,2,0,2,6,17,11
4,2,18,1,3,0,2,6,85,11
4,2,17,1,3,0,2,6,85,11
5,2,10,1,2,0,2,6,88,11
5,2,17,1,5,1,2,6,17,11
5,2,14,1,6,1,2,6,17,11
5,2,16,1,3,0,2,6,101,11
5,2,13,1,0,0,2,6,109,11
6,3,15,1,0,0,2,6,85,11
6,3,1,0,0,0,2,6,85,11
6,3,19,1,1,0,2,6,109,11
6,3,3,0,3,0,2,6,85,11
6,3,3,0,3,0,2,6,85,11
6,3,3,0,3,0,2,6,101,11
6,3,12,1,4,0,2,6,86,11
6,3,17,1,5,1,2,6,1,11
8,3,9,1,0,0,3,6,85,8
8,3,0,0,1,0,3,6,1,11
8,3,18,1,3,0,3,6,85,11
8,3,15,1,6,1,3,6,38,11
1,1,10,1,2,0,1,6,73,11
3,2,21,0,4,0,1,6,85,11
3,2,19,1,0,0,1,6,126,11
3,2,10,1,2,0,1,6,85,11
3,2,2,0,6,1,1,6,88,11
3,2,0,0,3,0,1,6,45,11
3,2,9,1,4,0,1,6,126,11
3,2,11,1,2,0,1,6,73,11
3,2,17,1,3,0,1,6,85,11
3,2,19,1,3,0,1,6,101,11
3,2,11,1,6,1,1,6,88,11
3,2,19,1,3,0,1,6,85,11
4,2,16,1,0,0,2,6,85,11
5,2,13,1,3,0,2,6,85,11
6,3,6,0,4,0,2,6,11,11
8,3,0,0,4,0,3,6,88,11
8,3,16,1,4,0,3,6,88,11
10,4,21,0,6,1,4,6,73,11
12,1,12,1,3,0,4,6,85,11
12,1,18,1,6,1,4,6,85,11
1,1,3,0,3,0,1,1,126,11
1,1,17,1,5,1,1,1,126,11
1,1,12,1,2,0,1,1,73,11
1,1,17,1,2,0,1,1,17,11
1,1,22,0,1,0,1,1,17,9
2,1,11,1,4,0,1,1,73,9
2,1,16,1,5,1,1,1,70,11
2,1,10,1,1,0,1,1,126,11
2,1,13,1,6,1,1,1,88,11
2,1,15,1,0,0,1,1,88,11
2,1,14,1,2,0,1,1,101,11
2,1,11,1,4,0,1,1,126,11
2,1,13,1,6,1,1,1,12,11
2,1,19,1,3,0,1,1,17,11
3,2,8,1,5,1,1,1,38,11
3,2,12,1,3,0,1,1,101,11
3,2,12,1,4,0,1,1,101,11
3,2,12,1,4,0,1,1,101,11
3,2,9,1,1,0,1,1,109,11
3,2,12,1,4,0,1,1,34,11
4,2,5,0,4,0,2,1,117,11
4,2,22,0,3,0,2,1,126,11
4,2,11,1,2,0,2,1,53,11
4,2,14,1,2,0,2,1,101,11
4,2,20,1,2,0,2,1,101,11
4,2,10,1,0,0,2,1,12,11
5,2,21,0,4,0,2,1,38,11
5,2,5,0,2,0,2,1,12,11
5,2,11,1,4,0,2,1,38,11
5,2,11,1,4,0,2,1,38,11
5,2,20,1,0,0,2,1,25,11
5,2,15,1,2,0,2,1,126,11
6,3,17,1,3,0,2,1,126,11
6,3,17,1,4,0,2,1,88,11
6,3,9,1,5,1,2,1,88,11
6,3,15,1,5,1,2,1,88,11
6,3,16,1,6,1,2,1,88,11
6,3,21,0,3,0,2,1,88,11
6,3,13,1,5,1,2,1,17,11
6,3,12,1,0,0,2,1,17,11
6,3,11,1,1,0,2,1,26,11
6,3,14,1,1,0,2,1,88,11
6,3,20,1,4,0,2,1,88,11
7,3,0,0,4,0,3,1,17,11
7,3,19,1,5,1,3,1,73,11
7,3,18,1,0,0,3,1,101,11
7,3,13,1,2,0,3,1,88,11
7,3,16,1,4,0,3,1,101,11
7,3,16,1,3,0,3,1,11,9
8,3,16,1,5,1,3,1,101,11
8,3,1,0,6,1,3,1,70,11
8,3,5,0,6,1,3,1,126,11
8,3,17,1,1,0,3,1,101,11
8,3,10,1,2,0,3,1,24,11
8,3,2,0,1,0,3,1,53,11
8,3,17,1,1,0,3,1,88,11
8,3,22,0,3,0,3,1,85,11
9,4,9,1,3,0,3,1,17,11
9,4,20,1,4,0,3,1,101,11
9,4,16,1,5,1,3,1,88,11
9,4,15,1,5,1,3,1,25,11
9,4,19,1,2,0,3,1,17,11
10,4,14,1,2,0,4,1,73,8
10,4,19,1,5,1,4,1,101,11
10,4,18,1,6,1,4,1,17,11
10,4,20,1,4,0,4,1,81,11
11,4,23,0,0,0,4,1,17,11
11,4,12,1,2,0,4,1,126,11
11,4,11,1,3,0,4,1,73,11
11,4,3,0,5,1,4,1,73,11
12,1,11,1,3,0,4,1,73,11
12,1,3,0,1,0,4,1,17,11
12,1,6,0,5,1,4,1,126,11
12,1,19,1,6,1,4,1,56,11
12,1,20,1,1,0,4,1,73,9
12,1,4,0,4,0,4,1,126,11
12,1,19,1,4,0,4,1,73,11
1,1,6,0,1,0,1,1,85,11
1,1,9,1,2,0,1,1,17,11
1,1,17,1,2,0,1,1,101,11
1,1,21,0,3,0,1,1,73,11
1,1,10,1,6,1,1,1,64,11
1,1,18,1,2,0,1,1,85,11
1,1,20,1,6,1,1,1,101,11
1,1,21,0,6,1,1,1,101,11
1,1,23,0,6,1,1,1,101,11
1,1,4,0,0,0,1,1,85,11
1,1,13,1,0,0,1,1,62,11
1,1,8,1,2,0,1,1,101,11
1,1,10,1,2,0,1,1,85,11
1,1,19,1,2,0,1,1,85,11
1,1,19,1,2,0,1,1,26,11
1,1,19,1,2,0,1,1,101,11
1,1,13,1,3,0,1,1,73,8
1,1,15,1,4,0,1,1,62,11
1,1,2,0,6,1,1,1,85,11
1,1,3,0,6,1,1,1,85,11
1,1,14,1,0,0,1,1,73,11
1,1,18,1,0,0,1,1,62,11
1,1,14,1,2,0,1,1,62,11
1,1,17,1,5,1,1,1,85,11
1,1,10,1,6,1,1,1,85,11
1,1,13,1,6,1,1,1,85,11
1,1,17,1,3,0,1,1,85,11
2,1,11,1,1,0,1,1,85,11
2,1,17,1,1,0,1,1,101,11
2,1,3,0,3,0,1,1,17,11
2,1,21,0,3,0,1,1,62,11
2,1,12,1,4,0,1,1,62,11
2,1,9,1,6,1,1,1,85,11
2,1,14,1,6,1,1,1,101,11
2,1,15,1,6,1,1,1,4,11
2,1,2,0,0,0,1,1,85,11
2,1,9,1,0,0,1,1,17,11
2,1,12,1,0,0,1,1,101,11
2,1,10,1,1,0,1,1,85,11
2,1,11,1,1,0,1,1,85,11
2,1,13,1,1,0,1,1,101,11
2,1,11,1,3,0,1,1,101,11
2,1,18,1,3,0,1,1,101,11
2,1,20,1,3,0,1,1,101,11
2,1,21,0,3,0,1,1,101,11
2,1,11,1,4,0,1,1,85,11
2,1,18,1,4,0,1,1,101,11
2,1,3,0,5,1,1,1,85,11
2,1,11,1,5,1,1,1,88,11
2,1,14,1,5,1,1,1,101,11
2,1,15,1,5,1,1,1,101,11
2,1,18,1,5,1,1,1,101,11
2,1,20,1,6,1,1,1,101,11
2,1,14,1,0,0,1,1,101,11
2,1,9,1,1,0,1,1,85,11
2,1,13,1,1,0,1,1,101,11
2,1,17,1,1,0,1,1,101,11
2,1,13,1,2,0,1,1,62,11
2,1,18,1,2,0,1,1,101,11
2,1,15,1,3,0,1,1,101,11
2,1,16,1,3,0,1,1,74,11
2,1,19,1,3,0,1,1,85,11
2,1,19,1,3,0,1,1,11,11
2,1,13,1,4,0,1,1,88,11
2,1,14,1,4,0,1,1,101,11
2,1,17,1,4,0,1,1,101,11
2,1,13,1,5,1,1,1,101,11
2,1,10,1,6,1,1,1,101,11
2,1,11,1,6,1,1,1,85,11
2,1,12,1,6,1,1,1,85,11
2,1,18,1,6,1,1,1,85,11
2,1,19,1,6,1,1,1,101,11
2,1,22,0,6,1,1,1,101,11
2,1,14,1,0,0,1,1,101,11
2,1,16,1,0,0,1,1,101,11
2,1,16,1,0,0,1,1,101,11
2,1,18,1,0,0,1,1,11,11
2,1,18,1,0,0,1,1,101,11
2,1,16,1,1,0,1,1,85,11
2,1,10,1,2,0,1,1,88,11
2,1,13,1,2,0,1,1,101,11
2,1,14,1,2,0,1,1,101,11
2,1,17,1,2,0,1,1,101,11
2,1,21,0,2,0,1,1,101,11
2,1,13,1,3,0,1,1,101,11
2,1,15,1,3,0,1,1,85,11
3,2,13,1,4,0,1,1,101,11
3,2,18,1,4,0,1,1,101,11
3,2,21,0,4,0,1,1,62,11
3,2,13,1,5,1,1,1,101,11
3,2,19,1,5,1,1,1,101,11
3,2,10,1,6,1,1,1,85,11
3,2,16,1,6,1,1,1,101,11
3,2,12,1,0,0,1,1,101,11
3,2,16,1,0,0,1,1,101,11
3,2,19,1,0,0,1,1,101,11
3,2,13,1,2,0,1,1,101,11
3,2,14,1,3,0,1,1,101,11
3,2,14,1,3,0,1,1,101,11
3,2,17,1,4,0,1,1,101,11
3,2,18,1,4,0,1,1,101,11
3,2,19,1,4,0,1,1,101,11
3,2,20,1,4,0,1,1,101,11
3,2,10,1,6,1,1,1,101,11
3,2,14,1,6,1,1,1,101,11
3,2,18,1,6,1,1,1,101,11
3,2,13,1,0,0,1,1,85,11
3,2,7,1,1,0,1,1,17,11
3,2,10,1,3,0,1,1,61,11
3,2,14,1,6,1,1,1,101,11
3,2,17,1,1,0,1,1,101,11
3,2,19,1,1,0,1,1,17,11
3,2,10,1,3,0,1,1,101,11
3,2,15,1,3,0,1,1,101,9
3,2,10,1,4,0,1,1,101,11
3,2,12,1,4,0,1,1,101,11
3,2,13,1,4,0,1,1,101,11
3,2,19,1,4,0,1,1,76,11
3,2,20,1,4,0,1,1,101,11
3,2,15,1,5,1,1,1,11,9
3,2,15,1,5,1,1,1,101,11
3,2,16,1,5,1,1,1,101,8
3,2,16,1,5,1,1,1,3,11
3,2,20,1,0,0,1,1,101,11
3,2,2,0,2,0,1,1,88,11
3,2,13,1,2,0,1,1,101,11
3,2,17,1,3,0,1,1,17,11
3,2,9,1,5,1,1,1,88,11
3,2,11,1,5,1,1,1,38,11
3,2,12,1,6,1,1,1,101,11
3,2,14,1,6,1,1,1,101,11
3,2,15,1,6,1,1,1,101,11
3,2,21,0,6,1,1,1,101,11
4,2,20,1,3,0,2,1,85,11
4,2,22,0,1,0,2,1,62,11
4,2,12,1,4,0,2,1,73,11
4,2,15,1,4,0,2,1,85,11
4,2,15,1,4,0,2,1,101,11
4,2,3,0,5,1,2,1,85,11
4,2,11,1,5,1,2,1,101,11
4,2,21,0,5,1,2,1,101,11
4,2,21,0,5,1,2,1,88,11
4,2,16,1,0,0,2,1,101,11
4,2,12,1,1,0,2,1,101,11
4,2,15,1,1,0,2,1,88,11
4,2,16,1,4,0,2,1,62,11
4,2,2,0,6,1,2,1,62,11
4,2,0,0,6,1,2,1,73,11
4,2,18,1,6,1,2,1,101,11
4,2,21,0,0,0,2,1,101,11
5,2,17,1,2,0,2,1,109,11
5,2,3,0,3,0,2,1,126,11
5,2,19,1,4,0,2,1,108,11
5,2,19,1,3,0,2,1,101,11
5,2,20,1,3,0,2,1,85,11
5,2,13,1,4,0,2,1,101,11
5,2,15,1,4,0,2,1,17,11
5,2,21,0,6,1,2,1,101,11
5,2,22,0,6,1,2,1,17,11
5,2,13,1,4,0,2,1,101,11
5,2,12,1,6,1,2,1,101,11
5,2,21,0,6,1,2,1,101,11
5,2,13,1,0,0,2,1,85,11
5,2,18,1,1,0,2,1,101,11
5,2,15,1,2,0,2,1,101,11
5,2,21,0,2,0,2,1,85,11
5,2,22,0,2,0,2,1,101,11
5,2,18,1,4,0,2,1,101,11
5,2,13,1,5,1,2,1,101,11
5,2,1,0,0,0,2,1,101,11
5,2,17,1,3,0,2,1,101,11
6,3,15,1,5,1,2,1,26,11
6,3,16,1,5,1,2,1,101,11
6,3,20,1,5,1,2,1,101,11
6,3,13,1,6,1,2,1,17,9
6,3,13,1,6,1,2,1,38,11
6,3,17,1,3,0,2,1,101,11
6,3,21,0,4,0,2,1,101,11
6,3,15,1,5,1,2,1,101,11
6,3,22,0,5,1,2,1,17,11
6,3,22,0,6,1,2,1,88,11
6,3,8,1,0,0,2,1,101,11
6,3,4,0,1,0,2,1,107,9
6,3,18,1,3,0,2,1,38,11
6,3,18,1,4,0,2,1,101,11
6,3,17,1,6,1,2,1,101,11
6,3,12,1,0,0,2,1,101,11
6,3,17,1,0,0,2,1,101,11
6,3,12,1,2,0,2,1,62,11
6,3,19,1,4,0,2,1,101,11
6,3,18,1,5,1,2,1,101,11
6,3,19,1,5,1,2,1,88,11
6,3,22,0,5,1,2,1,38,11
6,3,11,1,0,0,2,1,101,11
6,3,20,1,2,0,2,1,101,11
6,3,9,1,3,0,2,1,17,11
6,3,13,1,3,0,2,1,85,11
6,3,13,1,3,0,2,1,101,11
6,3,15,1,3,0,2,1,101,11
6,3,15,1,4,0,2,1,101,11
6,3,21,0,4,0,2,1,101,11
6,3,23,0,5,1,2,1,101,11
6,3,13,1,6,1,2,1,101,11
6,3,18,1,6,1,2,1,101,11
6,3,19,1,6,1,2,1,88,11
6,3,20,1,6,1,2,1,101,11
7,3,11,1,0,0,3,1,88,11
7,3,13,1,0,0,3,1,53,11
7,3,20,1,0,0,3,1,73,11
7,3,21,0,0,0,3,1,88,11
7,3,22,0,1,0,3,1,101,11
7,3,1,0,2,0,3,1,88,11
7,3,11,1,2,0,3,1,88,11
7,3,14,1,2,0,3,1,88,11
7,3,15,1,2,0,3,1,88,11
7,3,16,1,2,0,3,1,88,11
7,3,21,0,3,0,3,1,101,11
7,3,0,0,4,0,3,1,101,11
7,3,1,0,4,0,3,1,101,11
7,3,2,0,4,0,3,1,101,11
7,3,21,0,4,0,3,1,88,11
7,3,0,0,5,1,3,1,54,11
7,3,13,1,5,1,3,1,88,11
7,3,19,1,5,1,3,1,88,11
7,3,12,1,6,1,3,1,85,11
7,3,21,0,6,1,3,1,101,11
7,3,21,0,0,0,3,1,101,11
7,3,23,0,0,0,3,1,62,11
7,3,6,0,1,0,3,1,88,11
7,3,14,1,1,0,3,1,101,11
7,3,18,1,1,0,3,1,101,11
7,3,22,0,1,0,3,1,101,11
7,3,23,0,1,0,3,1,101,11
7,3,13,1,2,0,3,1,101,11
7,3,10,1,5,1,3,1,101,11
7,3,22,0,5,1,3,1,88,11
7,3,14,1,5,1,3,1,101,11
7,3,15,1,6,1,3,1,101,11
7,3,23,0,1,0,3,1,38,9
7,3,0,0,3,0,3,1,101,11
7,3,15,1,6,1,3,1,88,11
7,3,18,1,6,1,3,1,101,11
7,3,18,1,6,1,3,1,101,11
7,3,15,1,0,0,3,1,88,11
7,3,20,1,0,0,3,1,101,11
7,3,16,1,1,0,3,1,88,11
7,3,2,0,2,0,3,1,85,11
7,3,16,1,2,0,3,1,53,11
8,3,2,0,3,0,3,1,101,11
8,3,15,1,3,0,3,1,101,11
8,3,0,0,4,0,3,1,101,11
8,3,0,0,4,0,3,1,101,11
8,3,4,0,5,1,3,1,88,11
8,3,14,1,5,1,3,1,101,11
8,3,15,1,2,0,3,1,88,11
8,3,20,1,2,0,3,1,62,11
8,3,4,0,4,0,3,1,88,11
8,3,10,1,4,0,3,1,88,11
8,3,18,1,4,0,3,1,88,11
8,3,20,1,5,1,3,1,101,11
8,3,23,0,5,1,3,1,101,11
8,3,9,1,6,1,3,1,85,11
8,3,15,1,6,1,3,1,101,11
8,3,3,0,0,0,3,1,73,11
8,3,11,1,0,0,3,1,88,11
8,3,13,1,0,0,3,1,101,11
8,3,20,1,0,0,3,1,101,11
8,3,21,0,0,0,3,1,101,11
8,3,14,1,2,0,3,1,101,11
8,3,16,1,3,0,3,1,101,11
8,3,10,1,4,0,3,1,88,11
8,3,22,0,4,0,3,1,101,11
8,3,20,1,5,1,3,1,85,11
8,3,18,1,6,1,3,1,101,11
8,3,9,1,0,0,3,1,85,11
8,3,12,1,1,0,3,1,101,11
8,3,15,1,1,0,3,1,101,11
8,3,16,1,1,0,3,1,88,11
8,3,18,1,1,0,3,1,88,11
8,3,12,1,2,0,3,1,101,11
8,3,20,1,3,0,3,1,101,11
8,3,15,1,4,0,3,1,88,11
8,3,20,1,4,0,3,1,101,11
8,3,13,1,5,1,3,1,101,11
8,3,22,0,5,1,3,1,88,11
8,3,23,0,5,1,3,1,101,11
8,3,11,1,6,1,3,1,101,11
8,3,12,1,6,1,3,1,101,11
8,3,20,1,6,1,3,1,88,11
8,3,21,0,6,1,3,1,88,11
8,3,8,1,0,0,3,1,101,11
8,3,13,1,0,0,3,1,101,11
8,3,21,0,1,0,3,1,85,11
8,3,10,1,2,0,3,1,101,11
8,3,12,1,2,0,3,1,101,11
8,3,12,1,2,0,3,1,101,11
8,3,18,1,2,0,3,1,101,11
8,3,15,1,2,0,3,1,101,11
8,3,2,0,3,0,3,1,85,11
8,3,21,0,3,0,3,1,101,11
8,3,10,1,4,0,3,1,101,11
8,3,20,1,4,0,3,1,101,11
8,3,5,0,5,1,3,1,101,11
8,3,19,1,5,1,3,1,101,11
8,3,14,1,5,1,3,1,88,9
9,4,13,1,0,0,3,1,101,11
9,4,13,1,1,0,3,1,101,11
9,4,6,0,2,0,3,1,101,11
9,4,22,0,2,0,3,1,101,11
9,4,20,1,5,1,3,1,101,11
9,4,20,1,2,0,3,1,101,11
9,4,17,1,3,0,3,1,101,11
9,4,20,1,4,0,3,1,88,11
9,4,12,1,6,1,3,1,101,11
9,4,12,1,6,1,3,1,101,11
9,4,18,1,6,1,3,1,88,11
9,4,7,1,0,0,3,1,26,11
9,4,20,1,0,0,3,1,101,11
9,4,11,1,1,0,3,1,101,11
9,4,19,1,1,0,3,1,101,11
9,4,4,0,2,0,3,1,61,11
9,4,17,1,2,0,3,1,101,11
9,4,21,0,2,0,3,1,62,11
9,4,6,0,3,0,3,1,101,11
9,4,16,1,3,0,3,1,101,11
9,4,17,1,0,0,3,1,101,11
9,4,8,1,1,0,3,1,101,11
9,4,15,1,1,0,3,1,62,11
9,4,0,0,2,0,3,1,54,11
9,4,14,1,3,0,3,1,88,11
9,4,15,1,3,0,3,1,101,11
9,4,12,1,4,0,3,1,101,11
9,4,16,1,4,0,3,1,101,11
9,4,21,0,4,0,3,1,88,11
9,4,17,1,5,1,3,1,101,11
9,4,14,1,6,1,3,1,101,11
9,4,19,1,6,1,3,1,101,11
9,4,19,1,6,1,3,1,101,11
9,4,7,1,0,0,3,1,85,11
9,4,16,1,0,0,3,1,85,11
10,4,2,0,1,0,4,1,85,11
10,4,2,0,1,0,4,1,85,11
10,4,3,0,1,0,4,1,85,11
10,4,14,1,1,0,4,1,101,11
10,4,17,1,1,0,4,1,101,11
10,4,21,0,1,0,4,1,101,11
10,4,1,0,2,0,4,1,101,11
10,4,12,1,2,0,4,1,101,11
10,4,4,0,3,0,4,1,101,11
10,4,6,0,3,0,4,1,101,11
10,4,2,0,4,0,4,1,73,11
10,4,11,1,6,1,4,1,38,11
10,4,12,1,3,0,4,1,101,11
10,4,10,1,4,0,4,1,62,11
10,4,21,0,5,1,4,1,17,11
10,4,17,1,0,0,4,1,101,11
10,4,23,0,0,0,4,1,101,11
10,4,15,1,2,0,4,1,101,11
10,4,13,1,4,0,4,1,101,11
10,4,15,1,6,1,4,1,101,11
10,4,15,1,1,0,4,1,101,11
10,4,8,1,2,0,4,1,101,11
10,4,13,1,2,0,4,1,101,11
10,4,15,1,2,0,4,1,101,11
10,4,19,1,2,0,4,1,101,11
10,4,11,1,4,0,4,1,101,11
10,4,13,1,4,0,4,1,101,11
10,4,12,1,5,1,4,1,101,11
10,4,6,0,5,1,4,1,85,11
10,4,13,1,5,1,4,1,88,11
10,4,20,1,5,1,4,1,88,11
10,4,21,0,6,1,4,1,101,11
10,4,4,0,0,0,4,1,85,11
10,4,12,1,0,0,4,1,101,11
10,4,13,1,0,0,4,1,101,11
10,4,17,1,0,0,4,1,85,11
10,4,14,1,1,0,4,1,101,11
10,4,16,1,1,0,4,1,101,11
11,4,22,0,4,0,4,1,101,11
11,4,21,0,5,1,4,1,101,11
11,4,19,1,0,0,4,1,101,11
11,4,22,0,0,0,4,1,101,11
11,4,4,0,1,0,4,1,88,11
11,4,22,0,3,0,4,1,85,11
11,4,23,0,3,0,4,1,85,11
11,4,17,1,5,1,4,1,101,11
11,4,11,1,4,0,4,1,85,11
12,1,18,1,0,0,4,1,101,11
12,1,19,1,0,0,4,1,62,11
12,1,12,1,1,0,4,1,85,11
12,1,14,1,4,0,4,1,73,11
12,1,21,0,4,0,4,1,85,11
12,1,0,0,6,1,4,1,85,11
12,1,18,1,2,0,4,1,85,11
12,1,9,1,3,0,4,1,85,11
12,1,22,0,5,1,4,1,73,11
12,1,12,1,6,1,4,1,85,11
12,1,13,1,6,1,4,1,85,11
12,1,14,1,6,1,4,1,85,11
12,1,2,0,0,0,4,1,85,11
12,1,5,0,0,0,4,1,85,11
12,1,14,1,0,0,4,1,101,11
12,1,14,1,4,0,4,1,85,11
12,1,13,1,0,0,4,1,73,11
12,1,12,1,1,0,4,1,85,11
12,1,11,1,2,0,4,1,85,11
12,1,6,0,3,0,4,1,73,8
12,1,12,1,3,0,4,1,85,11
12,1,13,1,3,0,4,1,73,11
12,1,14,1,3,0,4,1,85,11
12,1,18,1,3,0,4,1,38,11
12,1,21,0,4,0,4,1,73,11
12,1,19,1,5,1,4,1,85,11
12,1,23,0,6,1,4,1,85,11
12,1,13,1,0,0,4,1,85,11
12,1,23,0,0,0,4,1,74,11
12,1,19,1,1,0,4,1,38,9
2,1,14,1,1,0,1,1,101,11
2,1,13,1,5,1,1,1,101,11
2,1,16,1,2,0,1,1,101,11
3,2,9,1,0,0,1,1,101,11
3,2,23,0,6,1,1,1,101,11
3,2,11,1,0,0,1,1,101,11
5,2,1,0,1,0,2,1,73,9
5,2,23,0,3,0,2,1,73,11
5,2,19,1,4,0,2,1,88,11
9,4,16,1,1,0,3,1,88,11
1,1,16,1,2,0,1,1,85,11
8,3,17,1,2,0,3,1,88,11
9,4,21,0,0,0,3,1,101,11
11,4,17,1,3,0,4,1,73,11
3,2,16,1,1,0,1,1,101,11
8,3,11,1,3,0,3,1,17,11
8,3,0,0,0,0,3,1,101,11
1,1,10,1,4,0,1,1,38,11
1,1,10,1,5,1,1,1,126,11
2,1,7,1,5,1,1,1,17,11
2,1,11,1,4,0,1,1,126,11
2,1,11,1,6,1,1,1,126,11
2,1,14,1,1,0,1,1,11,11
3,2,11,1,5,1,1,1,17,11
3,2,21,0,6,1,1,1,11,11
3,2,13,1,3,0,1,1,109,11
3,2,17,1,4,0,1,1,109,11
4,2,3,0,0,0,2,1,126,11
4,2,6,0,0,0,2,1,126,11
4,2,3,0,2,0,2,1,53,11
4,2,14,1,4,0,2,1,126,11
5,2,18,1,4,0,2,1,101,11
6,3,22,0,3,0,2,1,126,11
6,3,10,1,4,0,2,1,101,11
7,3,17,1,3,0,3,1,126,11
8,3,13,1,4,0,3,1,17,11
8,3,13,1,6,1,3,1,12,11
9,4,14,1,4,0,3,1,101,11
10,4,15,1,4,0,4,1,88,11
10,4,23,0,5,1,4,1,101,11
10,4,10,1,5,1,4,1,88,9
11,4,11,1,1,0,4,1,61,11
12,1,20,1,6,1,4,1,73,9
12,1,15,1,6,1,4,1,17,9
1,1,1,0,4,0,1,1,62,11
2,1,22,0,0,0,1,1,12,11
2,1,23,0,0,0,1,1,85,11
2,1,12,1,4,0,1,1,3,11
2,1,12,1,4,0,1,1,101,11
2,1,16,1,4,0,1,1,101,11
3,2,20,1,5,1,1,1,101,11
3,2,14,1,3,0,1,1,101,11
3,2,13,1,0,0,1,1,3,11
3,2,18,1,0,0,1,1,101,11
3,2,17,1,6,1,1,1,101,11
3,2,16,1,4,0,1,1,101,11
3,2,16,1,1,0,1,1,11,11
3,2,20,1,6,1,1,1,101,11
4,2,17,1,5,1,2,1,101,11
4,2,14,1,2,0,2,1,101,11
4,2,15,1,2,0,2,1,76,9
5,2,16,1,2,0,2,1,101,11
5,2,6,0,0,0,2,1,17,11
5,2,12,1,3,0,2,1,17,11
6,3,21,0,6,1,2,1,73,11
6,3,19,1,5,1,2,1,63,11
6,3,23,0,6,1,2,1,63,11
6,3,9,1,0,0,2,1,101,11
6,3,9,1,5,1,2,1,17,11
7,3,23,0,0,0,3,1,17,11
7,3,13,1,5,1,3,1,88,11
7,3,6,0,6,1,3,1,101,11
7,3,12,1,6,1,3,1,101,11
7,3,16,1,6,1,3,1,60,11
7,3,13,1,0,0,3,1,101,11
8,3,14,1,4,0,3,1,3,11
8,3,12,1,6,1,3,1,41,11
8,3,14,1,1,0,3,1,108,11
9,4,15,1,3,0,3,1,17,11
9,4,19,1,3,0,3,1,109,11
9,4,7,1,4,0,3,1,109,11
9,4,6,0,6,1,3,1,101,11
9,4,13,1,6,1,3,1,88,11
10,4,8,1,3,0,4,1,85,11
10,4,22,0,4,0,4,1,12,11
10,4,20,1,6,1,4,1,101,11
10,4,11,1,3,0,4,1,101,11
10,4,11,1,3,0,4,1,101,11
10,4,14,1,0,0,4,1,73,11
11,4,20,1,6,1,4,1,17,11
12,1,12,1,1,0,4,1,38,11
12,1,18,1,0,0,4,1,101,11
1,1,17,1,3,0,1,15,73,11
1,1,22,0,3,0,1,15,73,11
1,1,17,1,5,1,1,15,73,11
1,1,10,1,5,1,1,15,62,11
1,1,14,1,5,1,1,15,17,11
1,1,0,0,2,0,1,15,73,11
2,1,12,1,5,1,1,15,38,11
2,1,16,1,3,0,1,15,126,11
2,1,17,1,5,1,1,15,17,11
2,1,5,0,4,0,1,15,88,11
2,1,19,1,6,1,1,15,126,11
2,1,14,1,0,0,1,15,126,11
3,2,18,1,6,1,1,15,73,11
3,2,21,0,3,0,1,15,11,8
3,2,9,1,2,0,1,15,73,9
3,2,11,1,4,0,1,15,126,11
3,2,8,1,1,0,1,15,73,11
3,2,10,1,1,0,1,15,62,11
3,2,17,1,1,0,1,15,73,11
3,2,13,1,6,1,1,15,73,11
4,2,12,1,1,0,2,15,54,11
4,2,0,0,2,0,2,15,126,11
4,2,19,1,3,0,2,15,126,11
4,2,0,0,4,0,2,15,126,11
4,2,18,1,5,1,2,15,73,11
4,2,10,1,0,0,2,15,73,11
4,2,19,1,5,1,2,15,126,11
4,2,21,0,1,0,2,15,126,11
4,2,11,1,3,0,2,15,62,11
5,2,22,0,3,0,2,15,101,11
5,2,10,1,6,1,2,15,126,11
5,2,20,1,5,1,2,15,126,11
5,2,13,1,2,0,2,15,54,11
5,2,13,1,4,0,2,15,126,11
5,2,11,1,4,0,2,15,126,11
6,3,22,0,4,0,2,15,101,11
6,3,8,1,5,1,2,15,126,11
6,3,10,1,5,1,2,15,126,11
6,3,13,1,2,0,2,15,126,11
6,3,7,1,6,1,2,15,101,11
6,3,9,1,6,1,2,15,101,11
6,3,11,1,0,0,2,15,101,11
6,3,14,1,5,1,2,15,101,11
6,3,19,1,4,0,2,15,17,11
7,3,8,1,3,0,3,15,17,11
7,3,21,0,6,1,3,15,101,11
7,3,18,1,1,0,3,15,101,11
7,3,4,0,3,0,3,15,11,9
8,3,13,1,5,1,3,15,88,11
8,3,8,1,4,0,3,15,62,11
8,3,15,1,2,0,3,15,10,11
8,3,22,0,0,0,3,15,88,11
8,3,19,1,3,0,3,15,101,11
9,4,12,1,3,0,3,15,73,11
9,4,10,1,0,0,3,15,101,11
9,4,12,1,4,0,3,15,109,11
10,4,19,1,3,0,4,15,126,11
10,4,5,0,0,0,4,15,126,11
10,4,20,1,5,1,4,15,126,11
10,4,17,1,6,1,4,15,101,11
10,4,22,0,2,0,4,15,126,11
11,4,7,1,2,0,4,15,21,9
11,4,18,1,1,0,4,15,6,11
12,1,8,1,2,0,4,15,12,11
12,1,16,1,0,0,4,15,62,11
12,1,21,0,3,0,4,15,77,11
12,1,19,1,2,0,4,15,73,11
12,1,20,1,2,0,4,15,126,11
12,1,21,0,4,0,4,15,126,11
12,1,12,1,0,0,4,15,126,11
2,1,11,1,0,0,1,15,12,11
2,1,20,1,5,1,1,15,73,11
5,2,22,0,1,0,2,15,126,11
5,2,9,1,4,0,2,15,126,11
6,3,10,1,5,1,2,15,126,11
6,3,8,1,5,1,2,15,11,11
9,4,21,0,5,1,3,15,101,11
11,4,23,0,3,0,4,15,126,11
12,1,20,1,6,1,4,15,101,11
1,1,16,1,2,0,1,15,38,11
1,1,22,0,6,1,1,15,38,11
1,1,18,1,3,0,1,15,126,11
3,2,3,0,5,1,1,15,88,11
3,2,22,0,5,1,1,15,126,11
5,2,11,1,3,0,2,15,73,11
6,3,23,0,0,0,2,15,126,11
7,3,13,1,0,0,3,15,38,11
7,3,11,1,6,1,3,15,109,11
7,3,18,1,0,0,3,15,109,11
8,3,18,1,1,0,3,15,73,11
8,3,20,1,2,0,3,15,126,11
12,1,19,1,3,0,4,15,73,11
12,1,17,1,3,0,4,15,73,11
12,1,16,1,3,0,4,15,126,11
12,1,19,1,5,1,4,15,38,11
1,1,17,1,1,0,1,15,38,11
1,1,13,1,6,1,1,15,73,11
1,1,16,1,4,0,1,15,85,11
1,1,18,1,1,0,1,15,12,11
2,1,12,1,1,0,1,15,85,11
2,1,15,1,3,0,1,15,98,11
2,1,21,0,6,1,1,15,101,11
2,1,15,1,0,0,1,15,101,11
2,1,14,1,3,0,1,15,12,11
2,1,20,1,5,1,1,15,3,11
2,1,14,1,1,0,1,15,73,11
2,1,12,1,4,0,1,15,73,11
2,1,19,1,4,0,1,15,12,11
3,2,19,1,4,0,1,15,3,11
3,2,5,0,4,0,1,15,85,11
3,2,1,0,6,1,1,15,98,11
3,2,5,0,1,0,1,15,85,11
3,2,8,1,3,0,1,15,85,11
3,2,23,0,6,1,1,15,3,11
3,2,13,1,3,0,1,15,3,11
3,2,1,0,6,1,1,15,73,11
3,2,2,0,6,1,1,15,85,11
4,2,16,1,1,0,2,15,61,11
4,2,20,1,3,0,2,15,38,11
4,2,16,1,5,1,2,15,101,11
4,2,5,0,6,1,2,15,84,9
5,2,13,1,2,0,2,15,73,11
5,2,0,0,3,0,2,15,3,11
5,2,23,0,1,0,2,15,38,11
5,2,2,0,2,0,2,15,85,11
5,2,21,0,4,0,2,15,88,11
5,2,22,0,4,0,2,15,12,11
5,2,14,1,5,1,2,15,109,11
5,2,18,1,0,0,2,15,17,11
5,2,1,0,1,0,2,15,85,11
6,3,1,0,0,0,2,15,95,11
6,3,1,0,0,0,2,15,85,11
6,3,15,1,0,0,2,15,85,11
6,3,9,1,1,0,2,15,85,11
6,3,2,0,0,0,2,15,85,11
6,3,13,1,3,0,2,15,85,11
6,3,14,1,3,0,2,15,101,11
6,3,22,0,6,1,2,15,17,11
6,3,14,1,4,0,2,15,101,11
7,3,13,1,0,0,3,15,62,11
7,3,17,1,4,0,3,15,88,11
8,3,12,1,3,0,3,15,88,11
8,3,9,1,4,0,3,15,88,11
8,3,10,1,3,0,3,15,38,11
8,3,12,1,1,0,3,15,73,8
8,3,3,0,5,1,3,15,88,11
9,4,15,1,2,0,3,15,26,11
9,4,20,1,4,0,3,15,12,11
9,4,10,1,6,1,3,15,88,11
9,4,11,1,3,0,3,15,73,11
9,4,13,1,3,0,3,15,85,11
10,4,1,0,5,1,4,15,98,11
10,4,16,1,2,0,4,15,85,11
11,4,2,0,2,0,4,15,11,11
11,4,18,1,4,0,4,15,70,11
12,1,14,1,6,1,4,15,3,11
12,1,0,0,2,0,4,15,85,11
12,1,19,1,3,0,4,15,38,11
12,1,21,0,0,0,4,15,62,11
1,1,15,1,1,0,1,15,73,11
1,1,13,1,3,0,1,15,73,11
1,1,19,1,1,0,1,15,73,11
1,1,18,1,6,1,1,15,38,11
1,1,11,1,5,1,1,15,17,11
2,1,10,1,1,0,1,15,11,11
2,1,9,1,6,1,1,15,88,11
2,1,18,1,5,1,1,15,114,11
3,2,10,1,3,0,1,15,38,11
3,2,7,1,0,0,1,15,38,11
4,2,21,0,2,0,2,15,85,11
4,2,16,1,2,0,2,15,85,11
4,2,12,1,3,0,2,15,17,11
4,2,7,1,5,1,2,15,17,11
4,2,1,0,6,1,2,15,73,11
5,2,19,1,5,1,2,15,74,11
5,2,0,0,0,0,2,15,17,11
5,2,13,1,4,0,2,15,17,11
6,3,5,0,6,1,2,15,17,11
7,3,19,1,3,0,3,15,103,11
7,3,5,0,0,0,3,15,103,11
8,3,0,0,5,1,3,15,103,11
8,3,19,1,0,0,3,15,85,11
8,3,6,0,2,0,3,15,17,11
8,3,15,1,2,0,3,15,12,11
9,4,12,1,6,1,3,15,85,11
9,4,17,1,6,1,3,15,73,11
9,4,8,1,2,0,3,15,38,11
10,4,19,1,3,0,4,15,85,11
10,4,22,0,5,1,4,15,38,11
10,4,17,1,1,0,4,15,13,11
11,4,3,0,0,0,4,15,85,11
11,4,8,1,1,0,4,15,21,11
12,1,12,1,3,0,4,15,85,11
12,1,11,1,1,0,4,15,85,11
12,1,21,0,2,0,4,15,38,11
12,1,16,1,6,1,4,15,73,11
12,1,0,0,2,0,4,15,38,11
12,1,10,1,5,1,4,15,54,11
1,1,14,1,3,0,1,3,95,11
1,1,3,0,6,1,1,3,85,11
1,1,19,1,1,0,1,3,88,11
1,1,16,1,4,0,1,3,38,11
1,1,20,1,6,1,1,3,17,11
1,1,17,1,0,0,1,3,101,11
1,1,16,1,3,0,1,3,95,11
1,1,21,0,0,0,1,3,95,11
1,1,14,1,2,0,1,3,95,11
2,1,16,1,6,1,1,3,95,11
2,1,8,1,0,0,1,3,21,9
2,1,21,0,3,0,1,3,17,11
2,1,19,1,6,1,1,3,95,11
2,1,18,1,0,0,1,3,62,11
2,1,15,1,4,0,1,3,95,11
2,1,15,1,4,0,1,3,38,11
2,1,1,0,6,1,1,3,95,11
2,1,21,0,6,1,1,3,11,11
2,1,20,1,2,0,1,3,35,11
2,1,18,1,0,0,1,3,95,11
2,1,17,1,1,0,1,3,88,11
2,1,16,1,3,0,1,3,95,11
2,1,19,1,3,0,1,3,62,11
3,2,13,1,5,1,1,3,62,11
3,2,12,1,6,1,1,3,101,11
3,2,19,1,2,0,1,3,73,11
3,2,19,1,5,1,1,3,88,11
3,2,5,0,6,1,1,3,101,11
3,2,21,0,3,0,1,3,62,11
3,2,19,1,3,0,1,3,109,11
3,2,22,0,4,0,1,3,73,11
3,2,5,0,0,0,1,3,73,11
3,2,11,1,1,0,1,3,88,11
3,2,18,1,0,0,1,3,88,11
3,2,18,1,0,0,1,3,101,11
3,2,12,1,3,0,1,3,95,11
3,2,16,1,5,1,1,3,45,11
3,2,21,0,5,1,1,3,95,11
4,2,14,1,0,0,2,3,21,9
4,2,4,0,2,0,2,3,62,11
4,2,1,0,3,0,2,3,101,11
4,2,22,0,6,1,2,3,73,11
4,2,17,1,5,1,2,3,88,11
4,2,18,1,0,0,2,3,73,11
4,2,22,0,1,0,2,3,101,11
5,2,0,0,2,0,2,3,61,11
5,2,17,1,2,0,2,3,101,11
5,2,5,0,1,0,2,3,62,11
5,2,11,1,2,0,2,3,70,11
5,2,3,0,6,1,2,3,70,11
5,2,20,1,2,0,2,3,101,11
6,3,22,0,3,0,2,3,21,11
6,3,13,1,2,0,2,3,74,11
6,3,12,1,3,0,2,3,73,11
6,3,13,1,1,0,2,3,101,11
7,3,21,0,3,0,3,3,88,11
7,3,20,1,0,0,3,3,6,11
7,3,22,0,6,1,3,3,101,11
7,3,21,0,2,0,3,3,88,11
7,3,6,0,1,0,3,3,70,11
8,3,18,1,3,0,3,3,88,11
8,3,17,1,2,0,3,3,107,11
8,3,6,0,6,1,3,3,106,11
8,3,21,0,6,1,3,3,88,11
8,3,20,1,2,0,3,3,95,11
8,3,14,1,3,0,3,3,88,11
9,4,17,1,6,1,3,3,88,11
9,4,7,1,0,0,3,3,88,11
9,4,8,1,1,0,3,3,88,11
9,4,16,1,1,0,3,3,88,11
9,4,17,1,1,0,3,3,103,11
9,4,6,0,5,1,3,3,88,11
9,4,0,0,1,0,3,3,85,11
9,4,15,1,2,0,3,3,88,11
9,4,22,0,6,1,3,3,95,11
9,4,22,0,6,1,3,3,88,11
9,4,20,1,0,0,3,3,88,11
10,4,14,1,1,0,4,3,88,11
10,4,14,1,1,0,4,3,17,11
10,4,13,1,3,0,4,3,11,11
10,4,8,1,5,1,4,3,109,11
10,4,13,1,5,1,4,3,95,11
10,4,17,1,0,0,4,3,101,11
10,4,10,1,1,0,4,3,101,11
10,4,13,1,2,0,4,3,101,11
11,4,17,1,0,0,4,3,88,11
11,4,8,1,2,0,4,3,17,11
11,4,14,1,6,1,4,3,85,11
11,4,8,1,0,0,4,3,85,11
11,4,13,1,4,0,4,3,17,11
11,4,17,1,2,0,4,3,95,11
12,1,8,1,1,0,4,3,95,11
12,1,21,0,4,0,4,3,73,11
12,1,16,1,6,1,4,3,101,11
12,1,19,1,0,0,4,3,101,11
12,1,11,1,1,0,4,3,95,11
12,1,15,1,0,0,4,3,95,11
12,1,8,1,0,0,4,3,98,11
12,1,9,1,1,0,4,3,95,11
12,1,18,1,5,1,4,3,38,11
12,1,10,1,5,1,4,3,95,11
12,1,20,1,5,1,4,3,95,11
12,1,10,1,1,0,4,3,95,11
12,1,10,1,1,0,4,3,95,11
1,1,10,1,0,0,1,3,17,11
2,1,14,1,6,1,1,3,73,11
5,2,13,1,3,0,2,3,73,11
6,3,12,1,1,0,2,3,101,11
7,3,22,0,3,0,3,3,101,11
8,3,14,1,3,0,3,3,85,11
8,3,16,1,1,0,3,3,126,8
9,4,23,0,4,0,3,3,109,11
10,4,18,1,3,0,4,3,109,11
10,4,7,1,5,1,4,3,62,11
1,1,1,0,1,0,1,3,73,11
2,1,16,1,3,0,1,3,55,11
3,2,21,0,2,0,1,3,73,11
3,2,5,0,4,0,1,3,73,9
3,2,11,1,0,0,1,3,45,11
4,2,16,1,3,0,2,3,38,11
5,2,15,1,2,0,2,3,73,11
7,3,17,1,3,0,3,3,77,11
7,3,13,1,6,1,3,3,73,9
9,4,7,1,2,0,3,3,17,11
12,1,18,1,2,0,4,3,38,11
12,1,12,1,3,0,4,3,38,11
4,2,20,1,4,0,2,3,26,11
4,2,14,1,6,1,2,3,101,11
4,2,14,1,6,1,2,3,101,11
5,2,18,1,4,0,2,3,124,11
7,3,21,0,4,0,3,3,95,11
10,4,14,1,3,0,4,3,106,11
12,1,12,1,1,0,4,3,73,11
1,1,21,0,3,0,1,3,44,11
1,1,18,1,5,1,1,3,77,11
2,1,23,0,5,1,1,3,126,11
2,1,15,1,4,0,1,3,73,11
2,1,11,1,3,0,1,3,88,11
2,1,3,0,3,0,1,3,126,11
3,2,12,1,0,0,1,3,123,11
3,2,13,1,2,0,1,3,73,11
4,2,4,0,6,1,2,3,38,11
4,2,12,1,1,0,2,3,126,11
5,2,23,0,5,1,2,3,73,11
5,2,16,1,4,0,2,3,101,11
8,3,12,1,0,0,3,3,88,11
8,3,15,1,2,0,3,3,88,11
8,3,2,0,6,1,3,3,38,9
8,3,6,0,0,0,3,3,11,11
10,4,18,1,1,0,4,3,126,11
10,4,0,0,2,0,4,3,123,11
10,4,21,0,5,1,4,3,12,11
10,4,11,1,6,1,4,3,38,11
12,1,18,1,0,0,4,3,126,11
9,4,17,1,5,1,3,3,85,11
9,4,4,0,6,1,3,3,73,9
10,4,3,0,4,0,4,3,38,11
1,1,1,0,1,0,1,36,17,11
1,1,22,0,1,0,1,36,73,11
1,1,20,1,2,0,1,36,73,11
1,1,20,1,2,0,1,36,101,11
1,1,15,1,5,1,1,36,85,11
1,1,16,1,0,0,1,36,85,11
1,1,14,1,0,0,1,36,85,11
1,1,15,1,2,0,1,36,95,11
1,1,19,1,3,0,1,36,62,11
1,1,21,0,4,0,1,36,85,11
1,1,23,0,5,1,1,36,85,11
1,1,12,1,6,1,1,36,38,11
1,1,4,0,0,0,1,36,38,11
1,1,15,1,0,0,1,36,62,11
1,1,10,1,3,0,1,36,95,11
1,1,16,1,0,0,1,36,109,11
1,1,19,1,2,0,1,36,70,11
2,1,21,0,5,1,1,36,45,8
2,1,11,1,0,0,1,36,38,11
2,1,17,1,0,0,1,36,73,11
2,1,13,1,4,0,1,36,95,11
2,1,14,1,5,1,1,36,95,11
2,1,19,1,2,0,1,36,38,11
2,1,11,1,4,0,1,36,85,11
2,1,11,1,5,1,1,36,85,11
2,1,14,1,0,0,1,36,95,11
2,1,17,1,0,0,1,36,73,11
2,1,14,1,1,0,1,36,62,11
2,1,11,1,2,0,1,36,85,11
2,1,15,1,3,0,1,36,95,11
2,1,19,1,3,0,1,36,95,11
2,1,3,0,4,0,1,36,95,11
2,1,18,1,5,1,1,36,73,11
2,1,10,1,6,1,1,36,95,11
2,1,14,1,6,1,1,36,38,11
2,1,3,0,2,0,1,36,106,9
2,1,14,1,2,0,1,36,95,11
2,1,12,1,3,0,1,36,12,11
3,2,14,1,0,0,1,36,95,11
3,2,19,1,0,0,1,36,85,11
3,2,10,1,5,1,1,36,85,11
3,2,12,1,6,1,1,36,86,11
3,2,2,0,0,0,1,36,85,11
3,2,2,0,0,0,1,36,85,11
3,2,2,0,0,0,1,36,85,11
3,2,18,1,3,0,1,36,17,11
3,2,17,1,1,0,1,36,95,11
3,2,2,0,1,0,1,36,62,11
3,2,14,1,4,0,1,36,85,11
3,2,19,1,5,1,1,36,126,11
3,2,17,1,0,0,1,36,79,11
3,2,19,1,0,0,1,36,73,11
3,2,19,1,1,0,1,36,85,11
3,2,15,1,4,0,1,36,73,11
3,2,23,0,5,1,1,36,88,11
4,2,15,1,0,0,2,36,101,11
4,2,12,1,1,0,2,36,62,11
4,2,23,0,5,1,2,36,17,11
4,2,21,0,6,1,2,36,62,11
4,2,16,1,3,0,2,36,88,11
4,2,23,0,5,1,2,36,38,11
4,2,23,0,6,1,2,36,73,11
4,2,9,1,1,0,2,36,95,11
4,2,15,1,1,0,2,36,95,11
5,2,17,1,5,1,2,36,95,11
5,2,21,0,5,1,2,36,109,11
5,2,15,1,0,0,2,36,62,11
5,2,0,0,2,0,2,36,17,11
5,2,10,1,4,0,2,36,109,11
5,2,20,1,5,1,2,36,62,11
5,2,4,0,6,1,2,36,95,11
5,2,20,1,6,1,2,36,43,11
5,2,16,1,6,1,2,36,43,11
5,2,21,0,6,1,2,36,85,11
5,2,5,0,1,0,2,36,95,11
5,2,16,1,1,0,2,36,43,11
5,2,3,0,2,0,2,36,73,11
5,2,14,1,2,0,2,36,88,11
5,2,17,1,4,0,2,36,95,11
6,3,3,0,2,0,2,36,108,11
6,3,11,1,3,0,2,36,95,11
6,3,20,1,5,1,2,36,88,11
6,3,21,0,6,1,2,36,101,11
6,3,23,0,6,1,2,36,101,11
6,3,9,1,6,1,2,36,73,11
6,3,7,1,0,0,2,36,62,11
6,3,13,1,1,0,2,36,62,11
6,3,1,0,3,0,2,36,98,11
6,3,12,1,3,0,2,36,111,11
6,3,3,0,4,0,2,36,17,11
6,3,11,1,5,1,2,36,101,11
6,3,18,1,6,1,2,36,70,11
6,3,18,1,6,1,2,36,88,11
6,3,2,0,0,0,2,36,11,11
6,3,13,1,1,0,2,36,88,11
6,3,22,0,2,0,2,36,95,11
6,3,21,0,5,1,2,36,38,11
7,3,0,0,0,0,3,36,95,11
7,3,2,0,0,0,3,36,95,11
7,3,22,0,3,0,3,36,85,11
7,3,15,1,5,1,3,36,70,11
7,3,2,0,2,0,3,36,95,11
7,3,14,1,4,0,3,36,45,11
7,3,15,1,4,0,3,36,62,11
7,3,20,1,4,0,3,36,17,11
7,3,22,0,1,0,3,36,109,11
8,3,20,1,5,1,3,36,85,11
8,3,9,1,5,1,3,36,11,9
8,3,11,1,6,1,3,36,73,11
8,3,0,0,1,0,3,36,85,11
8,3,2,0,1,0,3,36,12,11
8,3,4,0,6,1,3,36,88,11
8,3,23,0,0,0,3,36,101,11
8,3,15,1,2,0,3,36,43,11
8,3,5,0,3,0,3,36,85,11
8,3,11,1,3,0,3,36,62,11
8,3,3,0,4,0,3,36,17,11
9,4,4,0,0,0,3,36,95,11
9,4,11,1,0,0,3,36,73,11
9,4,16,1,3,0,3,36,85,11
9,4,7,1,0,0,3,36,103,11
9,4,19,1,6,1,3,36,45,11
9,4,11,1,4,0,3,36,85,11
9,4,4,0,5,1,3,36,101,11
9,4,8,1,6,1,3,36,17,11
9,4,1,0,3,0,3,36,95,11
9,4,8,1,4,0,3,36,62,11
9,4,20,1,5,1,3,36,85,11
9,4,0,0,5,1,3,36,85,11
9,4,22,0,0,0,3,36,62,11
10,4,13,1,6,1,4,36,88,11
10,4,18,1,2,0,4,36,70,11
10,4,5,0,5,1,4,36,100,11
10,4,16,1,6,1,4,36,38,11
10,4,8,1,2,0,4,36,11,11
10,4,16,1,4,0,4,36,73,11
10,4,21,0,3,0,4,36,73,11
11,4,10,1,6,1,4,36,85,11
11,4,12,1,1,0,4,36,85,11
11,4,18,1,3,0,4,36,70,11
11,4,20,1,6,1,4,36,73,11
11,4,13,1,5,1,4,36,88,11
11,4,23,0,5,1,4,36,73,11
11,4,23,0,5,1,4,36,73,11
11,4,7,1,1,0,4,36,85,11
11,4,20,1,4,0,4,36,95,11
12,1,0,0,6,1,4,36,95,11
12,1,0,0,6,1,4,36,95,11
12,1,7,1,0,0,4,36,95,11
12,1,15,1,3,0,4,36,95,11
12,1,14,1,6,1,4,36,101,11
12,1,22,0,6,1,4,36,85,11
12,1,20,1,0,0,4,36,101,11
12,1,7,1,1,0,4,36,101,11
12,1,10,1,2,0,4,36,95,11
12,1,21,0,4,0,4,36,95,11
12,1,18,1,5,1,4,36,17,11
12,1,11,1,5,1,4,36,73,11
12,1,12,1,3,0,4,36,95,11
12,1,14,1,3,0,4,36,17,11
12,1,16,1,4,0,4,36,73,11
12,1,0,0,4,0,4,36,95,11
12,1,11,1,6,1,4,36,95,11
12,1,18,1,6,1,4,36,95,11
12,1,22,0,6,1,4,36,95,11
12,1,18,1,6,1,4,36,62,11
12,1,7,1,0,0,4,36,95,11
12,1,10,1,1,0,4,36,85,11
1,1,21,0,1,0,1,36,85,11
1,1,11,1,5,1,1,36,108,9
1,1,18,1,2,0,1,36,85,11
2,1,11,1,4,0,1,36,85,11
2,1,17,1,1,0,1,36,38,11
2,1,22,0,3,0,1,36,85,11
2,1,22,0,5,1,1,36,38,9
5,2,10,1,0,0,2,36,73,11
6,3,6,0,4,0,2,36,73,11
7,3,6,0,6,1,3,36,85,11
7,3,9,1,4,0,3,36,38,11
8,3,15,1,4,0,3,36,85,11
9,4,17,1,1,0,3,36,17,11
10,4,10,1,1,0,4,36,85,11
12,1,22,0,1,0,4,36,73,11
12,1,22,0,5,1,4,36,95,11
1,1,17,1,2,0,1,36,73,11
7,3,21,0,1,0,3,36,109,11
1,1,12,1,2,0,1,36,109,11
2,1,0,0,2,0,1,36,85,11
2,1,20,1,3,0,1,36,88,11
2,1,16,1,3,0,1,36,95,11
2,1,23,0,1,0,1,36,126,11
3,2,23,0,6,1,1,36,73,11
3,2,1,0,3,0,1,36,11,11
3,2,6,0,3,0,1,36,126,11
4,2,17,1,6,1,2,36,17,11
4,2,20,1,1,0,2,36,126,11
4,2,20,1,1,0,2,36,101,11
5,2,10,1,4,0,2,36,126,11
5,2,14,1,0,0,2,36,101,11
5,2,21,0,3,0,2,36,73,11
5,2,13,1,6,1,2,36,88,11
5,2,9,1,0,0,2,36,3,11
5,2,20,1,2,0,2,36,38,11
6,3,8,1,0,0,2,36,126,11
6,3,12,1,6,1,2,36,38,11
6,3,12,1,1,0,2,36,17,11
6,3,14,1,4,0,2,36,12,11
7,3,10,1,0,0,3,36,126,11
7,3,17,1,0,0,3,36,109,11
8,3,18,1,2,0,3,36,85,11
8,3,22,0,1,0,3,36,88,11
8,3,21,0,2,0,3,36,47,11
8,3,19,1,5,1,3,36,88,11
9,4,11,1,6,1,3,36,73,8
9,4,17,1,0,0,3,36,73,11
9,4,17,1,2,0,3,36,85,11
9,4,22,0,4,0,3,36,104,11
9,4,4,0,6,1,3,36,116,11
9,4,21,0,3,0,3,36,73,11
10,4,22,0,4,0,4,36,88,11
10,4,8,1,2,0,4,36,126,11
10,4,20,1,5,1,4,36,126,11
12,1,16,1,2,0,4,36,109,11
12,1,11,1,5,1,4,36,54,11
12,1,18,1,2,0,4,36,73,11
12,1,22,0,0,0,4,36,109,11
2,1,21,0,0,0,1,36,73,11
2,1,22,0,5,1,1,36,73,9
4,2,12,1,0,0,2,36,126,11
5,2,0,0,0,0,2,36,109,11
5,2,13,1,6,1,2,36,88,11
7,3,12,1,4,0,3,36,45,8
7,3,14,1,5,1,3,36,88,11
7,3,8,1,2,0,3,36,38,11
8,3,17,1,3,0,3,36,17,11
8,3,20,1,5,1,3,36,17,11
8,3,3,0,4,0,3,36,101,11
9,4,15,1,1,0,3,36,12,11
12,1,18,1,0,0,4,36,38,11
12,1,0,0,1,0,4,36,109,11
2,1,22,0,0,0,1,36,64,11
3,2,23,0,4,0,1,36,38,8
6,3,21,0,4,0,2,36,62,11
6,3,21,0,0,0,2,36,109,11
7,3,4,0,5,1,3,36,101,11
10,4,11,1,1,0,4,36,109,11
10,4,16,1,5,1,4,36,69,9
11,4,21,0,5,1,4,36,88,11
12,1,8,1,5,1,4,36,109,11
12,1,15,1,6,1,4,36,126,11
12,1,11,1,2,0,4,36,126,11
12,1,2,0,6,1,4,36,54,11
1,1,19,1,2,0,1,30,85,11
1,1,18,1,6,1,1,30,73,11
1,1,20,1,1,0,1,30,85,11
2,1,15,1,0,0,1,30,85,11
2,1,0,0,2,0,1,30,85,11
3,2,15,1,4,0,1,30,88,11
3,2,5,0,5,1,1,30,85,11
3,2,14,1,6,1,1,30,85,11
3,2,16,1,2,0,1,30,12,11
3,2,16,1,6,1,1,30,85,11
3,2,19,1,5,1,1,30,62,11
4,2,15,1,1,0,2,30,88,11
4,2,22,0,0,0,2,30,117,11
5,2,13,1,6,1,2,30,38,9
6,3,22,0,2,0,2,30,60,11
6,3,15,1,6,1,2,30,101,11
6,3,20,1,2,0,2,30,17,11
6,3,11,1,3,0,2,30,38,11
6,3,22,0,3,0,2,30,108,11
7,3,17,1,5,1,3,30,13,11
7,3,21,0,4,0,3,30,55,11
7,3,19,1,5,1,3,30,73,11
8,3,11,1,5,1,3,30,62,11
8,3,17,1,3,0,3,30,38,11
8,3,0,0,0,0,3,30,17,11
9,4,4,0,6,1,3,30,38,11
9,4,15,1,5,1,3,30,88,11
10,4,10,1,3,0,4,30,11,9
10,4,13,1,6,1,4,30,88,11
10,4,17,1,0,0,4,30,88,11
10,4,4,0,5,1,4,30,62,11
11,4,19,1,2,0,4,30,62,11
12,1,17,1,0,0,4,30,85,11
12,1,20,1,0,0,4,30,85,11
1,1,15,1,2,0,1,30,85,11
1,1,15,1,0,0,1,30,45,11
5,2,20,1,4,0,2,30,88,11
5,2,20,1,5,1,2,30,73,11
6,3,20,1,4,0,2,30,11,11
7,3,19,1,2,0,3,30,12,11
7,3,6,0,4,0,3,30,101,11
8,3,15,1,0,0,3,30,88,11
8,3,13,1,5,1,3,30,38,11
11,4,5,0,0,0,4,30,38,11
11,4,1,0,0,0,4,30,73,11
11,4,21,0,2,0,4,30,17,11
11,4,18,1,6,1,4,30,73,11
12,1,11,1,2,0,4,30,109,11
3,2,20,1,3,0,1,5,73,11
5,2,12,1,2,0,2,5,88,11
5,2,9,1,2,0,2,5,88,11
8,3,6,0,3,0,3,5,88,11
9,4,0,0,2,0,3,5,88,11
12,1,3,0,6,1,4,5,12,11
3,2,10,1,2,0,1,30,88,11
5,2,14,1,3,0,2,30,38,11
6,3,13,1,5,1,2,30,88,11
7,3,20,1,2,0,3,30,73,11
7,3,20,1,3,0,3,30,17,11
8,3,14,1,6,1,3,30,85,11
8,3,11,1,6,1,3,30,17,11
10,4,18,1,0,0,4,30,73,9
11,4,7,1,4,0,4,30,126,11
11,4,13,1,5,1,4,30,17,11
12,1,21,0,5,1,4,30,73,11
2,1,14,1,6,1,1,30,17,11
1,1,19,1,4,0,1,30,73,8
2,1,11,1,2,0,1,30,38,11
3,2,20,1,4,0,1,30,126,11
5,2,18,1,4,0,2,30,26,11
6,3,14,1,5,1,2,30,88,9
7,3,21,0,1,0,3,30,109,11
9,4,6,0,5,1,3,30,88,11
9,4,23,0,4,0,3,30,109,11
9,4,17,1,4,0,3,30,109,11
9,4,21,0,1,0,3,30,109,11
12,1,3,0,0,0,4,30,73,8
12,1,2,0,0,0,4,30,38,8
2,1,12,1,6,1,1,30,11,9
7,3,1,0,2,0,3,30,109,11
9,4,20,1,4,0,3,30,109,11
2,1,15,1,2,0,1,30,109,11
6,3,14,1,2,0,2,30,126,11
7,3,21,0,5,1,3,30,126,11
8,3,19,1,5,1,3,30,109,11
8,3,3,0,4,0,3,30,73,11
9,4,4,0,3,0,3,30,73,11
9,4,15,1,6,1,3,30,26,9
9,4,4,0,0,0,3,30,17,11
12,1,14,1,0,0,4,30,126,11
1,1,20,1,1,0,1,2,62,11
1,1,19,1,2,0,1,2,85,11
1,1,2,0,0,0,1,2,85,11
1,1,13,1,1,0,1,2,17,11
1,1,20,1,1,0,1,2,73,11
1,1,17,1,2,0,1,2,85,11
1,1,19,1,2,0,1,2,73,11
2,1,1,0,6,1,1,2,85,11
3,2,13,1,2,0,1,2,17,11
3,2,14,1,4,0,1,2,54,11
3,2,4,0,2,0,1,2,88,11
4,2,20,1,1,0,2,2,38,11
4,2,16,1,1,0,2,2,73,11
4,2,23,0,5,1,2,2,70,11
4,2,19,1,2,0,2,2,70,11
5,2,15,1,3,0,2,2,45,9
6,3,11,1,0,0,2,2,85,11
6,3,12,1,4,0,2,2,38,11
6,3,14,1,1,0,2,2,73,11
6,3,21,0,1,0,2,2,54,11
6,3,2,0,2,0,2,2,17,11
6,3,4,0,6,1,2,2,16,11
7,3,13,1,0,0,3,2,88,11
7,3,13,1,6,1,3,2,69,11
7,3,4,0,4,0,3,2,62,9
7,3,21,0,4,0,3,2,17,11
7,3,5,0,5,1,3,2,85,11
8,3,10,1,3,0,3,2,101,11
8,3,11,1,3,0,3,2,88,11
8,3,10,1,3,0,3,2,101,11
8,3,2,0,3,0,3,2,85,11
8,3,10,1,2,0,3,2,111,11
9,4,20,1,1,0,3,2,73,8
9,4,13,1,4,0,3,2,24,11
9,4,1,0,2,0,3,2,17,11
9,4,12,1,3,0,3,2,88,11
9,4,22,0,4,0,3,2,73,11
9,4,5,0,6,1,3,2,73,9
9,4,0,0,3,0,3,2,103,11
9,4,17,1,3,0,3,2,17,11
10,4,8,1,0,0,4,2,62,11
10,4,21,0,5,1,4,2,73,11
10,4,11,1,1,0,4,2,126,11
10,4,16,1,1,0,4,2,88,11
11,4,23,0,5,1,4,2,109,11
11,4,23,0,6,1,4,2,70,11
12,1,17,1,0,0,4,2,92,11
12,1,10,1,4,0,4,2,85,11
1,1,22,0,1,0,1,2,38,11
1,1,18,1,4,0,1,2,88,11
2,1,23,0,0,0,1,2,109,11
3,2,22,0,5,1,1,2,73,11
4,2,13,1,4,0,2,2,73,11
4,2,11,1,5,1,2,2,88,11
4,2,0,0,0,0,2,2,73,11
4,2,13,1,1,0,2,2,17,11
5,2,22,0,3,0,2,2,88,11
6,3,10,1,2,0,2,2,26,11
6,3,18,1,5,1,2,2,85,9
6,3,21,0,0,0,2,2,17,11
7,3,22,0,5,1,3,2,85,11
7,3,14,1,0,0,3,2,45,11
7,3,14,1,5,1,3,2,88,11
7,3,14,1,1,0,3,2,85,11
7,3,14,1,6,1,3,2,62,11
8,3,9,1,3,0,3,2,85,11
8,3,20,1,4,0,3,2,88,9
8,3,18,1,1,0,3,2,73,11
8,3,12,1,4,0,3,2,85,11
9,4,9,1,4,0,3,2,109,11
9,4,7,1,1,0,3,2,109,11
9,4,20,1,3,0,3,2,11,9
10,4,1,0,4,0,4,2,88,11
10,4,5,0,0,0,4,2,96,11
10,4,12,1,2,0,4,2,88,11
10,4,6,0,5,1,4,2,101,11
11,4,11,1,5,1,4,2,88,11
11,4,17,1,1,0,4,2,101,11
11,4,15,1,4,0,4,2,85,11
12,1,13,1,1,0,4,2,88,11
12,1,21,0,0,0,4,2,85,11
1,1,17,1,5,1,1,5,12,11
2,1,19,1,6,1,1,5,77,11
2,1,19,1,6,1,1,5,77,11
2,1,17,1,0,0,1,5,73,11
3,2,19,1,4,0,1,5,11,11
4,2,18,1,3,0,2,5,70,11
4,2,23,0,4,0,2,5,109,11
4,2,15,1,6,1,2,5,85,11
7,3,2,0,6,1,3,5,73,11
9,4,8,1,4,0,3,5,88,11
9,4,10,1,4,0,3,5,88,11
11,4,21,0,3,0,4,5,73,8
6,3,1,0,2,0,2,5,85,11
6,3,1,0,2,0,2,5,85,11
6,3,15,1,6,1,2,5,85,11
8,3,1,0,3,0,3,5,85,11
8,3,1,0,3,0,3,5,85,11
5,2,6,0,3,0,2,5,109,11
7,3,10,1,3,0,3,5,13,11
7,3,1,0,5,1,3,5,17,11
8,3,10,1,3,0,3,5,85,11
9,4,18,1,4,0,3,5,109,11
11,4,2,0,2,0,4,5,12,8
11,4,16,1,5,1,4,5,99,11
1,1,16,1,1,0,1,2,126,11
1,1,3,0,2,0,1,2,126,11
1,1,10,1,4,0,1,2,85,11
1,1,20,1,6,1,1,2,126,11
2,1,16,1,2,0,1,2,12,11
2,1,19,1,4,0,1,2,85,11
2,1,5,0,5,1,1,2,85,11
2,1,13,1,3,0,1,2,126,11
2,1,18,1,3,0,1,2,38,11
2,1,16,1,4,0,1,2,27,11
2,1,14,1,6,1,1,2,85,11
3,2,8,1,3,0,1,2,25,11
4,2,17,1,0,0,2,2,101,11
4,2,21,0,2,0,2,2,101,11
4,2,14,1,6,1,2,2,62,11
4,2,21,0,6,1,2,2,85,11
4,2,11,1,6,1,2,2,123,11
4,2,13,1,6,1,2,2,73,11
5,2,18,1,2,0,2,2,101,11
5,2,19,1,6,1,2,2,17,11
5,2,15,1,0,0,2,2,1,11
5,2,23,0,0,0,2,2,11,11
5,2,17,1,6,1,2,2,124,11
5,2,11,1,0,0,2,2,101,11
5,2,16,1,3,0,2,2,88,11
5,2,19,1,3,0,2,2,101,11
5,2,0,0,0,0,2,2,101,11
5,2,11,1,3,0,2,2,101,11
6,3,5,0,6,1,2,2,38,11
6,3,21,0,5,1,2,2,101,11
6,3,15,1,6,1,2,2,60,11
6,3,12,1,1,0,2,2,11,11
6,3,21,0,3,0,2,2,88,11
6,3,17,1,1,0,2,2,101,11
6,3,17,1,2,0,2,2,88,11
6,3,16,1,4,0,2,2,88,11
6,3,6,0,2,0,2,2,85,11
6,3,11,1,2,0,2,2,101,11
6,3,13,1,3,0,2,2,126,11
7,3,9,1,3,0,3,2,101,11
7,3,15,1,6,1,3,2,62,11
7,3,20,1,6,1,3,2,101,11
7,3,21,0,6,1,3,2,101,11
7,3,9,1,1,0,3,2,101,11
7,3,18,1,1,0,3,2,101,11
7,3,14,1,0,0,3,2,88,11
7,3,17,1,2,0,3,2,88,11
8,3,23,0,2,0,3,2,73,11
8,3,15,1,3,0,3,2,62,11
8,3,16,1,4,0,3,2,101,11
8,3,23,0,5,1,3,2,101,11
8,3,12,1,6,1,3,2,98,11
8,3,5,0,4,0,3,2,11,8
8,3,17,1,4,0,3,2,88,11
8,3,20,1,1,0,3,2,88,11
8,3,14,1,5,1,3,2,85,11
9,4,7,1,0,0,3,2,38,11
9,4,16,1,5,1,3,2,101,11
9,4,8,1,0,0,3,2,11,11
9,4,20,1,2,0,3,2,88,11
9,4,18,1,3,0,3,2,88,11
9,4,18,1,3,0,3,2,70,11
10,4,12,1,1,0,4,2,101,11
10,4,19,1,2,0,4,2,88,11
10,4,12,1,3,0,4,2,101,11
10,4,17,1,6,1,4,2,88,11
10,4,21,0,6,1,4,2,70,11
11,4,21,0,3,0,4,2,88,11
11,4,3,0,6,1,4,2,123,11
11,4,12,1,2,0,4,2,21,11
11,4,23,0,2,0,4,2,85,11
11,4,23,0,4,0,4,2,85,11
11,4,6,0,0,0,4,2,73,11
12,1,15,1,0,0,4,2,73,11
12,1,20,1,0,0,4,2,73,11
12,1,20,1,6,1,4,2,85,11
12,1,20,1,4,0,4,2,17,11
12,1,11,1,5,1,4,2,17,11
12,1,17,1,0,0,4,2,62,11
1,1,21,0,4,0,1,28,85,11
1,1,22,0,1,0,1,28,95,11
1,1,9,1,2,0,1,28,73,11
1,1,22,0,4,0,1,28,43,11
3,2,9,1,5,1,1,28,126,11
3,2,10,1,0,0,1,28,126,11
3,2,0,0,2,0,1,28,73,11
3,2,11,1,4,0,1,28,85,11
3,2,16,1,5,1,1,28,101,11
3,2,18,1,5,1,1,28,101,11
3,2,19,1,5,1,1,28,101,11
3,2,21,0,5,1,1,28,126,11
3,2,13,1,3,0,1,28,85,11
3,2,15,1,3,0,1,28,88,11
3,2,12,1,5,1,1,28,73,11
3,2,13,1,0,0,1,28,85,11
3,2,13,1,2,0,1,28,85,11
3,2,22,0,3,0,1,28,95,11
3,2,12,1,1,0,1,28,62,11
3,2,15,1,1,0,1,28,126,11
3,2,17,1,2,0,1,28,88,11
3,2,18,1,3,0,1,28,109,11
3,2,11,1,4,0,1,28,85,11
4,2,1,0,0,0,2,28,126,11
4,2,13,1,6,1,2,28,17,11
4,2,15,1,6,1,2,28,126,11
4,2,19,1,4,0,2,28,13,11
4,2,15,1,5,1,2,28,88,11
4,2,11,1,0,0,2,28,61,11
4,2,11,1,2,0,2,28,17,11
4,2,4,0,5,1,2,28,70,11
4,2,13,1,5,1,2,28,70,11
4,2,16,1,5,1,2,28,88,11
4,2,20,1,1,0,2,28,62,11
4,2,13,1,2,0,2,28,73,11
4,2,19,1,3,0,2,28,88,11
4,2,18,1,4,0,2,28,38,11
4,2,22,0,4,0,2,28,62,11
4,2,11,1,6,1,2,28,62,11
5,2,12,1,0,0,2,28,101,11
5,2,17,1,2,0,2,28,62,11
5,2,21,0,2,0,2,28,101,11
5,2,11,1,5,1,2,28,88,11
5,2,22,0,5,1,2,28,101,11
5,2,14,1,3,0,2,28,101,11
5,2,22,0,3,0,2,28,88,11
5,2,16,1,4,0,2,28,101,11
5,2,4,0,5,1,2,28,101,11
5,2,18,1,5,1,2,28,62,11
5,2,2,0,1,0,2,28,12,11
5,2,10,1,3,0,2,28,88,11
5,2,11,1,3,0,2,28,61,11
5,2,17,1,3,0,2,28,73,11
5,2,16,1,3,0,2,28,88,11
5,2,23,0,4,0,2,28,85,11
5,2,14,1,6,1,2,28,62,11
5,2,10,1,1,0,2,28,126,11
5,2,14,1,2,0,2,28,62,11
6,3,19,1,5,1,2,28,101,11
6,3,11,1,3,0,2,28,88,11
6,3,12,1,5,1,2,28,123,11
6,3,11,1,0,0,2,28,73,11
6,3,15,1,0,0,2,28,101,11
6,3,14,1,2,0,2,28,101,11
6,3,15,1,2,0,2,28,88,11
6,3,22,0,2,0,2,28,85,11
6,3,4,0,3,0,2,28,88,11
6,3,10,1,1,0,2,28,101,11
6,3,23,0,3,0,2,28,73,11
6,3,9,1,4,0,2,28,101,11
6,3,10,1,0,0,2,28,88,11
6,3,8,1,1,0,2,28,104,9
6,3,19,1,1,0,2,28,88,11
6,3,21,0,1,0,2,28,85,11
6,3,12,1,3,0,2,28,101,11
6,3,15,1,3,0,2,28,88,11
7,3,20,1,1,0,3,28,85,11
7,3,11,1,2,0,3,28,88,11
7,3,13,1,3,0,3,28,88,11
7,3,4,0,5,1,3,28,17,11
7,3,0,0,6,1,3,28,17,11
7,3,15,1,0,0,3,28,43,8
7,3,17,1,1,0,3,28,88,11
7,3,11,1,1,0,3,28,88,11
7,3,17,1,1,0,3,28,88,11
7,3,15,1,3,0,3,28,38,11
7,3,16,1,0,0,3,28,88,11
7,3,11,1,1,0,3,28,17,11
7,3,22,0,1,0,3,28,17,11
7,3,0,0,2,0,3,28,73,11
7,3,17,1,6,1,3,28,101,11
7,3,21,0,0,0,3,28,62,11
7,3,14,1,2,0,3,28,88,11
7,3,20,1,3,0,3,28,88,11
7,3,14,1,6,1,3,28,101,11
7,3,13,1,0,0,3,28,88,11
8,3,14,1,4,0,3,28,17,11
8,3,14,1,4,0,3,28,88,11
8,3,20,1,6,1,3,28,88,11
8,3,13,1,1,0,3,28,62,11
8,3,14,1,3,0,3,28,88,11
8,3,3,0,6,1,3,28,101,11
8,3,15,1,0,0,3,28,101,11
8,3,6,0,5,1,3,28,17,11
8,3,6,0,6,1,3,28,17,11
8,3,21,0,6,1,3,28,101,11
8,3,13,1,4,0,3,28,73,11
8,3,9,1,5,1,3,28,101,11
8,3,11,1,6,1,3,28,73,11
8,3,10,1,3,0,3,28,101,11
8,3,8,1,3,0,3,28,88,11
9,4,23,0,6,1,3,28,126,11
9,4,8,1,6,1,3,28,70,11
9,4,17,1,1,0,3,28,101,11
9,4,0,0,5,1,3,28,126,11
9,4,14,1,4,0,3,28,88,11
9,4,2,0,4,0,3,28,12,9
9,4,11,1,4,0,3,28,70,11
9,4,16,1,6,1,3,28,101,11
9,4,20,1,6,1,3,28,126,11
9,4,14,1,2,0,3,28,126,11
9,4,22,0,2,0,3,28,126,11
9,4,9,1,4,0,3,28,126,11
9,4,13,1,6,1,3,28,88,11
9,4,0,0,6,1,3,28,126,11
9,4,11,1,0,0,3,28,101,11
9,4,8,1,0,0,3,28,126,11
9,4,21,0,3,0,3,28,126,11
9,4,20,1,3,0,3,28,126,11
9,4,21,0,5,1,3,28,126,11
9,4,21,0,5,1,3,28,126,11
10,4,2,0,3,0,4,28,101,11
10,4,11,1,5,1,4,28,70,11
10,4,0,0,6,1,4,28,96,11
10,4,13,1,6,1,4,28,73,11
10,4,12,1,2,0,4,28,126,11
10,4,19,1,2,0,4,28,88,11
10,4,15,1,5,1,4,28,73,11
10,4,18,1,5,1,4,28,101,11
10,4,19,1,6,1,4,28,88,11
10,4,20,1,1,0,4,28,126,11
10,4,10,1,4,0,4,28,88,11
10,4,9,1,5,1,4,28,102,11
10,4,15,1,5,1,4,28,38,11
10,4,11,1,5,1,4,28,109,11
10,4,12,1,6,1,4,28,38,11
10,4,21,0,0,0,4,28,85,11
10,4,20,1,0,0,4,28,85,11
11,4,16,1,4,0,4,28,126,11
11,4,4,0,6,1,4,28,17,11
11,4,11,1,6,1,4,28,101,11
11,4,15,1,1,0,4,28,74,11
11,4,10,1,3,0,4,28,62,11
11,4,10,1,5,1,4,28,17,11
11,4,12,1,5,1,4,28,73,9
11,4,17,1,1,0,4,28,62,11
12,1,10,1,6,1,4,28,85,11
12,1,10,1,1,0,4,28,101,11
12,1,2,0,2,0,4,28,73,9
12,1,9,1,4,0,4,28,73,11
12,1,8,1,6,1,4,28,43,9
12,1,18,1,0,0,4,28,101,11
12,1,17,1,4,0,4,28,62,11
12,1,8,1,3,0,4,28,17,11
12,1,16,1,3,0,4,28,85,11
12,1,19,1,2,0,4,28,117,11
12,1,7,1,3,0,4,28,73,11
12,1,13,1,5,1,4,28,126,11
1,1,13,1,6,1,1,28,70,11
2,1,10,1,5,1,1,28,101,11
2,1,23,0,2,0,1,28,109,11
2,1,10,1,2,0,1,28,54,11
3,2,3,0,3,0,1,28,38,11
3,2,13,1,1,0,1,28,38,11
3,2,4,0,6,1,1,28,101,11
4,2,17,1,4,0,2,28,109,11
4,2,21,0,1,0,2,28,126,11
7,3,20,1,6,1,3,28,88,11
8,3,3,0,3,0,3,28,56,11
8,3,17,1,6,1,3,28,126,11
8,3,16,1,2,0,3,28,88,9
10,4,12,1,4,0,4,28,109,11
11,4,5,0,5,1,4,28,17,11
11,4,8,1,3,0,4,28,17,11
11,4,16,1,4,0,4,28,88,11
12,1,4,0,4,0,4,28,126,11
1,1,7,1,2,0,1,28,98,11
1,1,3,0,0,0,1,28,38,8
2,1,10,1,6,1,1,28,11,11
2,1,22,0,4,0,1,28,17,11
2,1,19,1,4,0,1,28,17,11
3,2,16,1,4,0,1,28,88,11
3,2,18,1,6,1,1,28,88,11
3,2,20,1,2,0,1,28,73,11
3,2,21,0,3,0,1,28,38,11
3,2,11,1,1,0,1,28,95,11
3,2,12,1,4,0,1,28,64,11
4,2,13,1,1,0,2,28,6,11
4,2,21,0,3,0,2,28,101,11
5,2,17,1,4,0,2,28,70,11
6,3,3,0,6,1,2,28,17,8
6,3,19,1,1,0,2,28,101,11
6,3,11,1,5,1,2,28,101,11
7,3,10,1,0,0,3,28,70,11
7,3,17,1,0,0,3,28,70,11
7,3,21,0,0,0,3,28,123,11
7,3,19,1,2,0,3,28,43,11
7,3,3,0,4,0,3,28,3,11
7,3,11,1,5,1,3,28,101,11
7,3,12,1,2,0,3,28,3,11
7,3,23,0,0,0,3,28,101,11
7,3,8,1,3,0,3,28,3,11
7,3,22,0,4,0,3,28,70,11
7,3,13,1,0,0,3,28,101,11
8,3,11,1,5,1,3,28,12,11
8,3,23,0,2,0,3,28,117,9
8,3,13,1,5,1,3,28,88,11
8,3,15,1,1,0,3,28,88,11
8,3,16,1,4,0,3,28,101,11
8,3,13,1,5,1,3,28,101,11
9,4,16,1,1,0,3,28,88,11
9,4,5,0,6,1,3,28,101,11
9,4,7,1,4,0,3,28,88,11
9,4,17,1,4,0,3,28,109,11
9,4,17,1,6,1,3,28,53,11
10,4,23,0,5,1,4,28,95,11
10,4,14,1,5,1,4,28,88,11
10,4,18,1,3,0,4,28,101,11
11,4,17,1,4,0,4,28,88,11
11,4,9,1,4,0,4,28,70,11
11,4,18,1,1,0,4,28,88,11
11,4,20,1,5,1,4,28,73,11
12,1,9,1,6,1,4,28,17,8
12,1,13,1,0,0,4,28,12,11
12,1,18,1,0,0,4,28,88,11
6,3,16,1,1,0,2,28,3,11
10,4,18,1,0,0,4,28,95,11
1,1,13,1,3,0,1,46,45,11
1,1,10,1,4,0,1,46,64,11
1,1,14,1,6,1,1,46,101,11
1,1,16,1,1,0,1,46,85,11
1,1,7,1,1,0,1,46,85,11
1,1,14,1,0,0,1,46,101,11
2,1,13,1,5,1,1,46,88,11
2,1,10,1,6,1,1,46,85,11
2,1,3,0,2,0,1,46,85,11
2,1,10,1,3,0,1,46,73,11
2,1,18,1,6,1,1,46,73,11
2,1,16,1,0,0,1,46,38,11
2,1,20,1,3,0,1,46,76,11
3,2,13,1,0,0,1,46,88,11
3,2,0,0,2,0,1,46,85,11
3,2,17,1,0,0,1,46,101,11
3,2,21,0,2,0,1,46,73,11
4,2,13,1,2,0,2,46,17,11
4,2,18,1,4,0,2,46,17,11
4,2,5,0,5,1,2,46,95,11
4,2,4,0,3,0,2,46,70,11
4,2,14,1,6,1,2,46,38,11
4,2,18,1,1,0,2,46,3,11
5,2,10,1,2,0,2,46,17,11
5,2,12,1,6,1,2,46,38,11
5,2,19,1,0,0,2,46,88,11
5,2,11,1,2,0,2,46,17,9
5,2,12,1,2,0,2,46,88,11
5,2,23,0,6,1,2,46,62,11
5,2,19,1,4,0,2,46,88,11
6,3,19,1,0,0,2,46,88,11
6,3,5,0,6,1,2,46,88,11
6,3,18,1,4,0,2,46,26,11
7,3,6,0,4,0,3,46,88,11
7,3,22,0,6,1,3,46,17,11
7,3,15,1,2,0,3,46,101,11
7,3,21,0,2,0,3,46,35,11
7,3,12,1,4,0,3,46,88,11
7,3,2,0,2,0,3,46,95,11
7,3,3,0,3,0,3,46,73,9
7,3,20,1,0,0,3,46,101,11
8,3,3,0,4,0,3,46,12,11
8,3,21,0,2,0,3,46,28,11
8,3,20,1,5,1,3,46,126,11
8,3,16,1,0,0,3,46,88,11
8,3,21,0,4,0,3,46,88,11
9,4,11,1,6,1,3,46,85,11
9,4,8,1,6,1,3,46,101,11
9,4,12,1,0,0,3,46,88,11
9,4,2,0,1,0,3,46,88,11
9,4,22,0,3,0,3,46,86,11
9,4,14,1,3,0,3,46,62,11
9,4,11,1,0,0,3,46,62,11
9,4,21,0,0,0,3,46,62,11
9,4,11,1,6,1,3,46,101,11
9,4,13,1,6,1,3,46,101,11
10,4,15,1,6,1,4,46,85,11
10,4,12,1,2,0,4,46,88,11
11,4,14,1,5,1,4,46,62,11
11,4,21,0,0,0,4,46,70,11
11,4,18,1,0,0,4,46,126,11
11,4,14,1,0,0,4,46,63,11
11,4,13,1,1,0,4,46,62,11
11,4,16,1,2,0,4,46,55,11
11,4,16,1,5,1,4,46,88,11
12,1,16,1,6,1,4,46,11,11
12,1,9,1,0,0,4,46,73,11
12,1,20,1,0,0,4,46,85,11
12,1,22,0,3,0,4,46,38,11
12,1,1,0,4,0,4,46,62,8
12,1,12,1,5,1,4,46,85,11
1,1,14,1,0,0,1,46,73,8
2,1,17,1,5,1,1,46,38,11
2,1,0,0,2,0,1,46,73,11
4,2,2,0,4,0,2,46,17,11
5,2,1,0,1,0,2,46,77,8
5,2,13,1,1,0,2,46,73,11
5,2,6,0,2,0,2,46,88,11
6,3,20,1,2,0,2,46,63,11
6,3,15,1,1,0,2,46,107,11
6,3,2,0,2,0,2,46,101,11
6,3,14,1,0,0,2,46,24,11
6,3,7,1,4,0,2,46,88,11
7,3,12,1,3,0,3,46,88,11
7,3,14,1,6,1,3,46,101,11
7,3,11,1,0,0,3,46,85,11
7,3,20,1,3,0,3,46,17,11
7,3,21,0,5,1,3,46,101,11
7,3,8,1,0,0,3,46,73,11
8,3,14,1,5,1,3,46,73,8
8,3,4,0,6,1,3,46,101,11
8,3,4,0,4,0,3,46,101,11
8,3,3,0,1,0,3,46,85,11
8,3,22,0,1,0,3,46,88,11
9,4,13,1,1,0,3,46,73,11
9,4,1,0,3,0,3,46,101,11
9,4,8,1,0,0,3,46,126,11
9,4,15,1,6,1,3,46,88,11
10,4,10,1,1,0,4,46,3,11
10,4,17,1,0,0,4,46,17,11
11,4,1,0,0,0,4,46,88,11
11,4,18,1,4,0,4,46,101,11
11,4,18,1,5,1,4,46,101,11
12,1,17,1,0,0,4,46,85,11
1,1,5,0,6,1,1,46,17,11
3,2,15,1,4,0,1,46,88,11
5,2,18,1,6,1,2,46,70,11
6,3,5,0,6,1,2,46,70,9
7,3,14,1,6,1,3,46,24,11
8,3,21,0,0,0,3,46,73,11
9,4,12,1,1,0,3,46,88,11
10,4,6,0,1,0,4,46,62,11
10,4,14,1,5,1,4,46,26,11
12,1,19,1,6,1,4,46,109,11
8,3,8,1,2,0,3,46,11,11
9,4,4,0,5,1,3,46,108,8
1,1,6,0,4,0,1,46,17,11
1,1,11,1,2,0,1,46,85,11
2,1,23,0,6,1,1,46,73,11
3,2,8,1,5,1,1,46,70,11
3,2,8,1,1,0,1,46,81,11
5,2,21,0,0,0,2,46,98,11
5,2,20,1,2,0,2,46,88,11
6,3,19,1,1,0,2,46,70,11
6,3,2,0,6,1,2,46,70,11
7,3,14,1,6,1,3,46,109,11
8,3,21,0,5,1,3,46,101,11
10,4,3,0,6,1,4,46,12,11
10,4,21,0,3,0,4,46,88,11
4,2,8,1,0,0,2,46,38,9
6,3,19,1,1,0,2,46,98,11
8,3,13,1,3,0,3,46,73,8
12,1,19,1,4,0,4,46,38,11
2,1,11,1,5,1,1,46,102,11
2,1,16,1,6,1,1,46,17,11
4,2,20,1,4,0,2,46,73,11
8,3,8,1,3,0,3,46,21,11
11,4,20,1,2,0,4,46,73,11
1,1,15,1,6,1,1,46,85,11
2,1,18,1,5,1,1,46,73,11
2,1,20,1,2,0,1,46,126,11
2,1,17,1,3,0,1,46,101,11
3,2,17,1,2,0,1,46,101,11
3,2,10,1,3,0,1,46,88,11
3,2,16,1,0,0,1,46,88,11
3,2,16,1,6,1,1,46,101,11
3,2,17,1,1,0,1,46,101,11
3,2,14,1,4,0,1,46,101,11
3,2,12,1,0,0,1,46,38,11
4,2,11,1,2,0,2,46,101,11
4,2,2,0,3,0,2,46,64,9
4,2,12,1,6,1,2,46,126,11
6,3,17,1,4,0,2,46,101,11
7,3,13,1,2,0,3,46,88,11
10,4,13,1,2,0,4,46,3,9
10,4,19,1,4,0,4,46,101,11
11,4,14,1,5,1,4,46,73,11
12,1,21,0,4,0,4,46,126,11
12,1,3,0,0,0,4,46,73,11
1,1,16,1,1,0,1,13,126,11
1,1,10,1,3,0,1,13,62,11
1,1,12,1,3,0,1,13,126,11
2,1,21,0,4,0,1,13,62,11
2,1,11,1,3,0,1,13,62,11
2,1,20,1,3,0,1,13,126,11
2,1,22,0,3,0,1,13,62,11
2,1,15,1,1,0,1,13,85,11
2,1,20,1,4,0,1,13,85,11
2,1,20,1,6,1,1,13,62,11
3,2,18,1,5,1,1,13,62,11
3,2,22,0,4,0,1,13,62,11
3,2,18,1,1,0,1,13,88,11
3,2,13,1,4,0,1,13,85,11
3,2,18,1,5,1,1,13,73,11
4,2,14,1,3,0,2,13,88,11
4,2,14,1,4,0,2,13,126,11
5,2,1,0,3,0,2,13,88,11
8,3,14,1,6,1,3,13,1,11
8,3,10,1,5,1,3,13,88,9
9,4,22,0,4,0,3,13,126,11
9,4,18,1,2,0,3,13,88,11
11,4,17,1,4,0,4,13,62,11
12,1,22,0,6,1,4,13,85,11
12,1,20,1,2,0,4,13,17,11
12,1,19,1,5,1,4,13,85,11
12,1,19,1,2,0,4,13,85,11
12,1,14,1,4,0,4,13,85,11
12,1,20,1,4,0,4,13,64,11
12,1,11,1,5,1,4,13,73,11
12,1,10,1,6,1,4,13,85,11
12,1,20,1,1,0,4,13,55,9
12,1,19,1,1,0,4,13,62,11
3,2,13,1,6,1,1,13,62,11
1,1,16,1,4,0,1,48,38,11
1,1,5,0,0,0,1,48,126,11
1,1,12,1,5,1,1,48,62,11
1,1,19,1,3,0,1,48,73,11
3,2,11,1,2,0,1,48,88,11
3,2,11,1,5,1,1,48,38,11
3,2,12,1,2,0,1,48,18,11
3,2,13,1,5,1,1,48,85,11
4,2,16,1,1,0,2,48,1,11
4,2,20,1,4,0,2,48,3,11
4,2,18,1,6,1,2,48,73,11
5,2,13,1,1,0,2,48,62,11
6,3,19,1,3,0,2,48,88,11
6,3,16,1,4,0,2,48,73,11
6,3,15,1,6,1,2,48,73,11
6,3,13,1,6,1,2,48,101,11
7,3,3,0,1,0,3,48,107,11
7,3,14,1,5,1,3,48,126,11
7,3,1,0,3,0,3,48,44,11
7,3,3,0,5,1,3,48,101,11
7,3,1,0,1,0,3,48,101,11
7,3,0,0,4,0,3,48,73,11
8,3,16,1,1,0,3,48,73,11
8,3,17,1,0,0,3,48,88,11
8,3,14,1,2,0,3,48,73,11
9,4,15,1,5,1,3,48,88,11
9,4,15,1,5,1,3,48,88,11
9,4,10,1,6,1,3,48,101,11
10,4,20,1,2,0,4,48,101,11
12,1,19,1,4,0,4,48,88,11
12,1,16,1,1,0,4,48,62,11
12,1,12,1,6,1,4,48,108,11
12,1,22,0,5,1,4,48,73,8
2,1,20,1,1,0,1,48,3,11
3,2,15,1,4,0,1,48,85,11
4,2,13,1,3,0,2,48,3,11
4,2,15,1,4,0,2,48,101,11
5,2,21,0,3,0,2,48,62,11
6,3,9,1,4,0,2,48,73,11
7,3,6,0,2,0,3,48,88,11
7,3,11,1,6,1,3,48,38,11
8,3,12,1,6,1,3,48,88,11
9,4,15,1,3,0,3,48,70,11
10,4,23,0,2,0,4,48,62,11
1,1,6,0,2,0,1,7,38,8
1,1,6,0,4,0,1,7,73,11
1,1,0,0,6,1,1,7,11,11
3,2,16,1,0,0,1,7,8,11
4,2,15,1,0,0,2,7,12,11
4,2,23,0,2,0,2,7,85,11
4,2,12,1,1,0,2,7,12,9
4,2,14,1,1,0,2,7,28,11
5,2,16,1,2,0,2,7,73,8
5,2,17,1,5,1,2,7,54,11
5,2,19,1,6,1,2,7,73,11
5,2,13,1,3,0,2,7,88,11
5,2,2,0,0,0,2,7,17,11
5,2,20,1,3,0,2,7,88,11
6,3,16,1,0,0,2,7,60,8
6,3,10,1,3,0,2,7,70,11
6,3,12,1,4,0,2,7,85,11
6,3,12,1,0,0,2,7,85,11
6,3,2,0,1,0,2,7,12,11
6,3,15,1,0,0,2,7,85,11
6,3,10,1,2,0,2,7,12,11
6,3,19,1,6,1,2,7,85,11
7,3,10,1,0,0,3,7,85,11
7,3,13,1,3,0,3,7,88,11
7,3,23,0,1,0,3,7,77,11
7,3,11,1,2,0,3,7,91,11
7,3,12,1,2,0,3,7,70,11
7,3,15,1,4,0,3,7,70,9
7,3,23,0,5,1,3,7,24,11
7,3,15,1,0,0,3,7,101,11
8,3,13,1,4,0,3,7,85,11
8,3,21,0,5,1,3,7,85,11
8,3,2,0,1,0,3,7,73,11
8,3,13,1,4,0,3,7,88,11
9,4,8,1,0,0,3,7,18,11
9,4,14,1,0,0,3,7,101,11
9,4,22,0,0,0,3,7,126,11
10,4,18,1,4,0,4,7,109,11
10,4,12,1,2,0,4,7,24,9
10,4,14,1,6,1,4,7,43,9
10,4,16,1,1,0,4,7,11,8
10,4,18,1,3,0,4,7,73,11
11,4,20,1,6,1,4,7,85,11
12,1,19,1,4,0,4,7,73,11
1,1,14,1,2,0,1,7,63,11
1,1,19,1,3,0,1,7,12,11
1,1,17,1,5,1,1,7,101,11
1,1,22,0,2,0,1,7,126,11
2,1,7,1,3,0,1,7,38,11
2,1,17,1,0,0,1,7,17,11
2,1,12,1,5,1,1,7,109,11
3,2,17,1,4,0,1,7,73,11
3,2,23,0,4,0,1,7,85,11
3,2,8,1,3,0,1,7,124,11
3,2,22,0,1,0,1,7,73,11
3,2,23,0,5,1,1,7,38,11
3,2,17,1,3,0,1,7,17,11
3,2,12,1,6,1,1,7,38,11
4,2,19,1,0,0,2,7,101,11
4,2,12,1,3,0,2,7,85,11
4,2,19,1,5,1,2,7,126,11
4,2,11,1,4,0,2,7,17,11
4,2,20,1,5,1,2,7,101,11
4,2,13,1,0,0,2,7,73,9
4,2,18,1,0,0,2,7,101,11
5,2,8,1,4,0,2,7,73,9
5,2,20,1,4,0,2,7,88,11
6,3,11,1,5,1,2,7,108,11
6,3,20,1,3,0,2,7,88,11
6,3,18,1,5,1,2,7,85,11
6,3,12,1,0,0,2,7,88,11
6,3,17,1,6,1,2,7,62,9
6,3,11,1,1,0,2,7,123,11
6,3,16,1,4,0,2,7,88,11
6,3,16,1,5,1,2,7,26,11
7,3,18,1,2,0,3,7,88,11
7,3,16,1,4,0,3,7,17,11
7,3,14,1,0,0,3,7,21,8
7,3,23,0,1,0,3,7,85,11
7,3,17,1,0,0,3,7,3,9
8,3,20,1,5,1,3,7,101,11
8,3,6,0,6,1,3,7,21,8
8,3,3,0,5,1,3,7,38,9
8,3,2,0,1,0,3,7,85,11
9,4,12,1,1,0,3,7,85,11
10,4,13,1,2,0,4,7,88,11
10,4,7,1,6,1,4,7,62,11
10,4,9,1,5,1,4,7,88,11
10,4,17,1,6,1,4,7,88,11
10,4,16,1,3,0,4,7,17,11
10,4,17,1,6,1,4,7,88,11
10,4,11,1,0,0,4,7,124,11
11,4,7,1,2,0,4,7,17,11
11,4,11,1,4,0,4,7,85,11
11,4,8,1,4,0,4,7,17,11
11,4,23,0,0,0,4,7,109,11
11,4,17,1,0,0,4,7,10,9
11,4,11,1,5,1,4,7,73,11
12,1,20,1,6,1,4,7,126,11
12,1,18,1,4,0,4,7,73,11
12,1,18,1,4,0,4,7,73,11
12,1,19,1,6,1,4,7,70,11
12,1,1,0,0,0,4,7,95,9
12,1,19,1,0,0,4,7,63,11
12,1,17,1,1,0,4,7,88,11
12,1,15,1,5,1,4,7,17,9
12,1,19,1,2,0,4,7,126,11
12,1,20,1,4,0,4,7,73,11
12,1,18,1,4,0,4,7,73,11
12,1,15,1,5,1,4,7,85,11
1,1,22,0,3,0,1,7,73,9
1,1,11,1,4,0,1,7,82,11
1,1,14,1,2,0,1,7,43,11
2,1,17,1,3,0,1,7,126,11
2,1,13,1,5,1,1,7,85,11
2,1,16,1,0,0,1,7,110,9
3,2,19,1,4,0,1,7,70,11
3,2,22,0,3,0,1,7,14,9
3,2,1,0,6,1,1,7,70,9
3,2,14,1,0,0,1,7,88,11
3,2,16,1,3,0,1,7,109,11
5,2,14,1,6,1,2,7,73,9
5,2,12,1,5,1,2,7,11,11
5,2,10,1,0,0,2,7,17,11
5,2,11,1,3,0,2,7,88,11
5,2,12,1,1,0,2,7,88,11
5,2,20,1,2,0,2,7,109,11
6,3,19,1,5,1,2,7,88,11
6,3,14,1,6,1,2,7,70,11
6,3,16,1,2,0,2,7,21,8
6,3,20,1,2,0,2,7,101,11
6,3,14,1,0,0,2,7,101,11
6,3,12,1,3,0,2,7,101,11
6,3,17,1,6,1,2,7,101,11
6,3,17,1,6,1,2,7,70,9
6,3,2,0,0,0,2,7,21,8
6,3,5,0,0,0,2,7,101,11
6,3,9,1,0,0,2,7,85,11
6,3,3,0,6,1,2,7,38,11
7,3,13,1,3,0,3,7,101,11
7,3,19,1,3,0,3,7,101,11
7,3,11,1,4,0,3,7,88,11
7,3,10,1,5,1,3,7,88,11
7,3,20,1,6,1,3,7,70,11
7,3,1,0,6,1,3,7,101,11
7,3,12,1,0,0,3,7,25,11
7,3,12,1,4,0,3,7,88,11
7,3,4,0,4,0,3,7,88,11
7,3,13,1,1,0,3,7,73,11
7,3,12,1,4,0,3,7,101,11
7,3,18,1,4,0,3,7,101,11
7,3,15,1,0,0,3,7,88,11
7,3,11,1,0,0,3,7,88,11
8,3,20,1,4,0,3,7,70,11
8,3,2,0,6,1,3,7,88,11
8,3,10,1,4,0,3,7,101,11
8,3,12,1,4,0,3,7,17,11
8,3,13,1,4,0,3,7,70,9
8,3,21,0,5,1,3,7,17,11
8,3,9,1,5,1,3,7,17,11
9,4,11,1,0,0,3,7,70,11
9,4,11,1,2,0,3,7,88,8
9,4,7,1,4,0,3,7,109,11
9,4,13,1,4,0,3,7,88,11
9,4,18,1,6,1,3,7,101,11
9,4,18,1,2,0,3,7,70,11
9,4,21,0,0,0,3,7,17,11
9,4,15,1,6,1,3,7,73,11
10,4,15,1,2,0,4,7,88,11
10,4,17,1,2,0,4,7,70,11
10,4,14,1,5,1,4,7,101,11
10,4,15,1,5,1,4,7,54,11
10,4,10,1,0,0,4,7,70,8
10,4,8,1,3,0,4,7,70,11
11,4,15,1,0,0,4,7,17,11
11,4,20,1,6,1,4,7,38,8
11,4,22,0,0,0,4,7,126,11
12,1,19,1,4,0,4,7,38,11
12,1,15,1,0,0,4,7,21,11
12,1,14,1,0,0,4,7,3,11
12,1,15,1,3,0,4,7,88,8
12,1,22,0,6,1,4,7,126,11
12,1,21,0,6,1,4,7,73,8
12,1,13,1,6,1,4,7,73,11
12,1,11,1,1,0,4,7,73,9
5,2,23,0,2,0,2,7,101,11
5,2,20,1,3,0,2,7,88,11
6,3,14,1,5,1,2,7,88,11
6,3,18,1,1,0,2,7,70,9
12,1,21,0,0,0,4,7,109,11
12,1,13,1,1,0,4,7,17,9
1,1,4,0,1,0,1,12,73,11
1,1,1,0,3,0,1,12,17,11
1,1,17,1,6,1,1,12,17,11
1,1,20,1,2,0,1,12,62,11
1,1,17,1,1,0,1,12,109,11
1,1,14,1,3,0,1,12,85,11
1,1,14,1,3,0,1,12,85,11
1,1,19,1,3,0,1,12,85,11
1,1,23,0,4,0,1,12,81,11
1,1,14,1,4,0,1,12,85,11
1,1,18,1,0,0,1,12,38,11
1,1,8,1,1,0,1,12,62,11
1,1,12,1,1,0,1,12,88,11
1,1,23,0,2,0,1,12,62,11
1,1,6,0,3,0,1,12,109,11
1,1,11,1,3,0,1,12,44,11
1,1,17,1,3,0,1,12,109,11
1,1,18,1,3,0,1,12,17,11
1,1,23,0,3,0,1,12,44,11
1,1,20,1,5,1,1,12,62,11
1,1,19,1,0,0,1,12,21,11
2,1,14,1,6,1,1,12,85,11
2,1,11,1,5,1,1,12,95,11
2,1,12,1,2,0,1,12,62,11
2,1,20,1,6,1,1,12,62,11
2,1,22,0,1,0,1,12,98,11
2,1,13,1,2,0,1,12,62,11
2,1,14,1,3,0,1,12,88,11
2,1,10,1,4,0,1,12,73,11
2,1,15,1,5,1,1,12,85,11
2,1,18,1,5,1,1,12,85,11
2,1,17,1,6,1,1,12,88,11
2,1,17,1,0,0,1,12,109,11
3,2,2,0,4,0,1,12,30,11
3,2,19,1,5,1,1,12,73,11
3,2,10,1,1,0,1,12,61,11
3,2,14,1,3,0,1,12,88,11
3,2,17,1,0,0,1,12,88,11
3,2,19,1,5,1,1,12,88,11
3,2,0,0,6,1,1,12,91,11
3,2,14,1,1,0,1,12,88,11
3,2,11,1,3,0,1,12,88,11
3,2,0,0,4,0,1,12,17,11
3,2,8,1,4,0,1,12,73,11
3,2,17,1,4,0,1,12,62,11
3,2,19,1,4,0,1,12,38,11
3,2,23,0,6,1,1,12,38,11
4,2,22,0,5,1,2,12,81,11
4,2,14,1,6,1,2,12,101,11
4,2,0,0,0,0,2,12,73,11
4,2,18,1,6,1,2,12,88,11
4,2,12,1,5,1,2,12,17,11
4,2,13,1,5,1,2,12,73,11
4,2,18,1,5,1,2,12,88,11
4,2,14,1,6,1,2,12,85,11
5,2,1,0,6,1,2,12,61,11
5,2,16,1,0,0,2,12,88,11
5,2,23,0,1,0,2,12,98,11
5,2,21,0,3,0,2,12,62,11
5,2,22,0,3,0,2,12,85,11
5,2,21,0,1,0,2,12,101,11
5,2,10,1,4,0,2,12,85,11
5,2,22,0,0,0,2,12,61,11
5,2,20,1,4,0,2,12,101,11
5,2,13,1,0,0,2,12,88,11
5,2,13,1,3,0,2,12,17,11
5,2,16,1,3,0,2,12,17,11
5,2,9,1,4,0,2,12,17,11
5,2,17,1,4,0,2,12,73,11
6,3,12,1,5,1,2,12,17,11
6,3,17,1,5,1,2,12,21,11
6,3,12,1,6,1,2,12,73,11
6,3,12,1,6,1,2,12,62,11
6,3,13,1,1,0,2,12,73,11
6,3,8,1,3,0,2,12,38,11
6,3,13,1,3,0,2,12,17,11
6,3,8,1,0,0,2,12,101,11
6,3,7,1,2,0,2,12,101,11
6,3,10,1,2,0,2,12,73,11
6,3,10,1,2,0,2,12,73,11
6,3,2,0,4,0,2,12,101,11
6,3,17,1,4,0,2,12,88,11
6,3,4,0,0,0,2,12,17,11
6,3,19,1,1,0,2,12,62,11
6,3,1,0,2,0,2,12,101,11
6,3,20,1,3,0,2,12,88,11
6,3,11,1,5,1,2,12,17,11
6,3,22,0,1,0,2,12,88,11
6,3,10,1,4,0,2,12,85,11
6,3,0,0,5,1,2,12,17,11
6,3,12,1,5,1,2,12,88,11
6,3,13,1,6,1,2,12,88,11
7,3,15,1,0,0,3,12,85,11
7,3,20,1,1,0,3,12,88,11
7,3,7,1,5,1,3,12,62,11
7,3,13,1,6,1,3,12,73,11
7,3,16,1,1,0,3,12,45,11
7,3,13,1,2,0,3,12,85,11
7,3,21,0,2,0,3,12,17,11
7,3,22,0,2,0,3,12,88,11
7,3,8,1,3,0,3,12,38,11
7,3,11,1,3,0,3,12,73,11
7,3,11,1,5,1,3,12,109,11
7,3,14,1,0,0,3,12,126,11
7,3,20,1,5,1,3,12,88,11
7,3,4,0,1,0,3,12,74,11
7,3,5,0,1,0,3,12,88,11
7,3,11,1,2,0,3,12,21,11
7,3,10,1,6,1,3,12,62,11
7,3,22,0,0,0,3,12,88,11
7,3,19,1,2,0,3,12,88,11
8,3,7,1,3,0,3,12,62,11
8,3,13,1,4,0,3,12,88,11
8,3,9,1,5,1,3,12,62,11
8,3,14,1,5,1,3,12,88,11
8,3,17,1,2,0,3,12,88,11
8,3,13,1,4,0,3,12,88,11
8,3,13,1,4,0,3,12,62,11
8,3,12,1,4,0,3,12,54,11
8,3,11,1,0,0,3,12,88,11
8,3,21,0,1,0,3,12,91,9
8,3,6,0,4,0,3,12,21,11
8,3,8,1,4,0,3,12,65,11
8,3,12,1,4,0,3,12,101,11
8,3,16,1,4,0,3,12,126,11
8,3,1,0,5,1,3,12,101,11
8,3,3,0,0,0,3,12,62,11
8,3,13,1,0,0,3,12,62,11
8,3,17,1,2,0,3,12,73,11
9,4,2,0,4,0,3,12,101,11
9,4,21,0,4,0,3,12,85,11
9,4,13,1,5,1,3,12,88,11
9,4,21,0,2,0,3,12,73,11
9,4,22,0,2,0,3,12,88,11
9,4,7,1,4,0,3,12,21,11
9,4,15,1,5,1,3,12,77,11
9,4,15,1,6,1,3,12,54,11
9,4,18,1,2,0,3,12,62,11
9,4,18,1,4,0,3,12,101,11
9,4,17,1,5,1,3,12,17,11
9,4,15,1,4,0,3,12,85,11
10,4,9,1,0,0,4,12,38,11
10,4,18,1,1,0,4,12,38,11
10,4,5,0,4,0,4,12,17,11
11,4,14,1,4,0,4,12,88,11
11,4,10,1,6,1,4,12,73,11
11,4,22,0,6,1,4,12,73,11
11,4,9,1,0,0,4,12,88,11
11,4,16,1,2,0,4,12,88,11
11,4,21,0,2,0,4,12,73,11
11,4,12,1,1,0,4,12,101,11
11,4,15,1,5,1,4,12,73,11
11,4,18,1,6,1,4,12,62,11
11,4,14,1,1,0,4,12,73,11
11,4,17,1,3,0,4,12,62,11
11,4,7,1,4,0,4,12,73,11
12,1,23,0,6,1,4,12,73,11
12,1,19,1,2,0,4,12,85,11
12,1,14,1,1,0,4,12,101,11
12,1,18,1,1,0,4,12,101,11
12,1,7,1,3,0,4,12,11,11
12,1,17,1,6,1,4,12,88,11
12,1,12,1,5,1,4,12,85,11
12,1,22,0,5,1,4,12,73,11
12,1,4,0,0,0,4,12,54,11
12,1,12,1,0,0,4,12,12,11
4,2,9,1,6,1,2,12,85,11
6,3,15,1,6,1,2,12,17,11
6,3,7,1,0,0,2,12,17,11
6,3,1,0,0,0,2,12,101,11
9,4,13,1,3,0,3,12,108,11
12,1,11,1,3,0,4,12,61,11
1,1,3,0,6,1,1,12,73,11
2,1,11,1,0,0,1,12,108,11
3,2,17,1,3,0,1,12,73,11
3,2,14,1,5,1,1,12,11,11
3,2,21,0,3,0,1,12,12,11
3,2,6,0,2,0,1,12,85,11
4,2,15,1,6,1,2,12,17,11
4,2,11,1,5,1,2,12,73,11
5,2,1,0,2,0,2,12,101,11
6,3,23,0,5,1,2,12,38,11
6,3,8,1,5,1,2,12,65,11
6,3,11,1,0,0,2,12,101,11
8,3,11,1,3,0,3,12,88,11
9,4,20,1,4,0,3,12,109,11
9,4,21,0,5,1,3,12,73,11
10,4,14,1,5,1,4,12,73,11
11,4,0,0,2,0,4,12,85,11
12,1,16,1,3,0,4,12,85,11
12,1,22,0,1,0,4,12,107,11
2,1,17,1,3,0,1,12,81,11
2,1,14,1,6,1,1,12,85,11
4,2,11,1,0,0,2,12,54,11
7,3,23,0,4,0,3,12,126,11
7,3,12,1,1,0,3,12,101,11
7,3,15,1,1,0,3,12,45,11
8,3,19,1,4,0,3,12,85,11
8,3,10,1,0,0,3,12,101,11
8,3,0,0,0,0,3,12,126,9
9,4,14,1,0,0,3,12,101,11
9,4,14,1,6,1,3,12,88,11
10,4,22,0,0,0,4,12,109,11
11,4,16,1,4,0,4,12,101,11
12,1,14,1,1,0,4,12,85,11
3,2,12,1,3,0,1,12,88,11
3,2,14,1,4,0,1,12,73,11
3,2,3,0,1,0,1,12,73,11
4,2,14,1,0,0,2,12,73,11
8,3,14,1,4,0,3,12,73,11
11,4,12,1,1,0,4,12,101,11
2,1,15,1,5,1,1,12,73,11
2,1,5,0,1,0,1,12,38,11
4,2,2,0,6,1,2,12,126,11
5,2,18,1,3,0,2,12,85,11
5,2,0,0,3,0,2,12,88,11
6,3,13,1,6,1,2,12,73,11
7,3,1,0,2,0,3,12,85,11
7,3,21,0,6,1,3,12,38,9
8,3,17,1,5,1,3,12,88,11
11,4,23,0,4,0,4,12,17,11
12,1,19,1,4,0,4,12,73,11
12,1,9,1,0,0,4,12,17,11
9,4,2,0,2,0,3,12,12,11
2,1,15,1,6,1,1,12,73,9
4,2,8,1,1,0,2,12,73,11
8,3,17,1,3,0,3,12,12,9
1,1,9,1,4,0,1,29,17,11
1,1,4,0,0,0,1,29,38,11
1,1,21,0,2,0,1,29,85,11
1,1,18,1,2,0,1,29,85,11
1,1,1,0,3,0,1,29,85,11
1,1,1,0,4,0,1,29,74,9
1,1,17,1,2,0,1,29,85,11
2,1,18,1,3,0,1,29,109,11
2,1,14,1,3,0,1,29,70,11
3,2,13,1,0,0,1,29,88,11
3,2,19,1,6,1,1,29,101,11
4,2,12,1,6,1,2,29,62,11
4,2,21,0,3,0,2,29,54,11
4,2,0,0,1,0,2,29,17,11
4,2,20,1,5,1,2,29,126,11
4,2,10,1,0,0,2,29,101,11
4,2,14,1,4,0,2,29,12,11
4,2,19,1,5,1,2,29,12,9
5,2,8,1,4,0,2,29,17,11
5,2,16,1,6,1,2,29,88,11
5,2,8,1,0,0,2,29,17,11
5,2,22,0,5,1,2,29,126,11
5,2,13,1,4,0,2,29,88,11
5,2,1,0,2,0,2,29,88,11
6,3,4,0,6,1,2,29,126,11
6,3,11,1,3,0,2,29,12,11
6,3,18,1,4,0,2,29,126,11
6,3,23,0,5,1,2,29,88,11
6,3,22,0,1,0,2,29,90,11
6,3,13,1,2,0,2,29,17,11
6,3,5,0,3,0,2,29,88,11
6,3,11,1,5,1,2,29,88,11
6,3,18,1,0,0,2,29,6,11
6,3,23,0,3,0,2,29,73,11
7,3,19,1,4,0,3,29,70,11
7,3,9,1,3,0,3,29,52,11
7,3,23,0,0,0,3,29,17,11
7,3,23,0,0,0,3,29,17,11
7,3,5,0,4,0,3,29,84,11
7,3,13,1,0,0,3,29,88,11
8,3,9,1,5,1,3,29,74,11
8,3,21,0,3,0,3,29,70,11
8,3,14,1,4,0,3,29,88,11
8,3,23,0,1,0,3,29,73,11
8,3,0,0,3,0,3,29,1,11
9,4,8,1,4,0,3,29,101,11
9,4,15,1,5,1,3,29,101,11
9,4,16,1,3,0,3,29,88,11
9,4,4,0,4,0,3,29,43,8
10,4,21,0,3,0,4,29,126,11
10,4,1,0,5,1,4,29,38,9
10,4,0,0,1,0,4,29,70,9
10,4,0,0,4,0,4,29,73,11
10,4,19,1,4,0,4,29,88,11
10,4,12,1,6,1,4,29,88,11
10,4,8,1,6,1,4,29,88,11
10,4,10,1,6,1,4,29,88,11
10,4,11,1,6,1,4,29,88,11
10,4,0,0,0,0,4,29,12,11
10,4,0,0,0,0,4,29,73,11
10,4,11,1,1,0,4,29,17,11
10,4,16,1,4,0,4,29,88,11
10,4,0,0,4,0,4,29,88,11
11,4,22,0,0,0,4,29,88,11
11,4,17,1,1,0,4,29,88,11
11,4,14,1,5,1,4,29,88,11
12,1,22,0,1,0,4,29,70,11
5,2,18,1,1,0,2,29,126,11
5,2,19,1,3,0,2,29,17,11
6,3,20,1,2,0,2,29,73,11
7,3,0,0,3,0,3,29,88,11
7,3,15,1,3,0,3,29,73,11
8,3,4,0,2,0,3,29,17,11
8,3,18,1,3,0,3,29,47,11
10,4,22,0,0,0,4,29,17,11
10,4,22,0,0,0,4,29,85,11
10,4,22,0,0,0,4,29,85,11
10,4,12,1,5,1,4,29,38,11
1,1,8,1,4,0,1,29,109,11
1,1,1,0,0,0,1,29,70,11
2,1,19,1,5,1,1,29,88,11
2,1,14,1,0,0,1,29,126,11
2,1,17,1,5,1,1,29,70,11
3,2,19,1,5,1,1,29,101,11
4,2,22,0,0,0,2,29,126,11
4,2,0,0,6,1,2,29,126,11
4,2,14,1,0,0,2,29,126,11
5,2,20,1,2,0,2,29,88,11
6,3,12,1,1,0,2,29,101,11
6,3,23,0,1,0,2,29,126,11
7,3,0,0,0,0,3,29,88,11
7,3,20,1,5,1,3,29,73,11
7,3,10,1,2,0,3,29,88,11
7,3,17,1,3,0,3,29,128,11
7,3,8,1,6,1,3,29,109,11
7,3,11,1,3,0,3,29,70,11
7,3,16,1,6,1,3,29,13,11
7,3,10,1,1,0,3,29,88,11
7,3,11,1,1,0,3,29,45,11
7,3,11,1,1,0,3,29,45,11
8,3,17,1,0,0,3,29,70,11
8,3,13,1,4,0,3,29,101,11
8,3,12,1,2,0,3,29,2,11
9,4,13,1,4,0,3,29,88,11
10,4,8,1,1,0,4,29,62,11
10,4,8,1,1,0,4,29,62,11
10,4,0,0,1,0,4,29,11,8
12,1,18,1,4,0,4,29,126,11
12,1,18,1,2,0,4,29,85,11
1,1,11,1,1,0,1,29,85,11
1,1,6,0,4,0,1,29,73,11
1,1,18,1,1,0,1,29,88,11
2,1,20,1,1,0,1,29,73,11
3,2,12,1,6,1,1,29,10,11
6,3,23,0,5,1,2,29,97,11
7,3,15,1,2,0,3,29,73,9
8,3,15,1,2,0,3,29,73,11
9,4,21,0,5,1,3,29,126,11
11,4,10,1,1,0,4,29,62,11
12,1,15,1,6,1,4,29,73,11
1,1,8,1,3,0,1,29,124,11
2,1,13,1,0,0,1,29,62,11
2,1,19,1,5,1,1,29,70,11
2,1,14,1,3,0,1,29,12,11
2,1,5,0,6,1,1,29,73,11
2,1,9,1,0,0,1,29,111,11
2,1,11,1,2,0,1,29,68,11
3,2,7,1,5,1,1,29,88,11
3,2,14,1,1,0,1,29,109,11
3,2,14,1,3,0,1,29,73,11
3,2,10,1,0,0,1,29,105,11
4,2,18,1,4,0,2,29,126,11
4,2,17,1,4,0,2,29,73,11
4,2,23,0,5,1,2,29,73,11
4,2,14,1,5,1,2,29,74,11
5,2,9,1,4,0,2,29,73,11
5,2,10,1,6,1,2,29,126,11
5,2,20,1,3,0,2,29,88,11
5,2,21,0,4,0,2,29,73,11
6,3,21,0,5,1,2,29,88,11
6,3,15,1,0,0,2,29,126,11
6,3,19,1,4,0,2,29,88,11
6,3,18,1,2,0,2,29,88,11
7,3,15,1,0,0,3,29,70,9
7,3,2,0,3,0,3,29,101,11
7,3,10,1,2,0,3,29,70,11
7,3,14,1,3,0,3,29,126,11
9,4,14,1,2,0,3,29,88,11
9,4,18,1,4,0,3,29,73,11
9,4,22,0,5,1,3,29,101,11
9,4,8,1,1,0,3,29,88,11
10,4,6,0,1,0,4,29,12,11
10,4,11,1,6,1,4,29,88,11
11,4,16,1,6,1,4,29,70,11
11,4,14,1,0,0,4,29,73,11
11,4,13,1,0,0,4,29,85,11
11,4,17,1,0,0,4,29,88,11
12,1,14,1,5,1,4,29,88,11
12,1,1,0,0,0,4,29,73,11
1,1,23,0,2,0,1,29,85,11
1,1,10,1,0,0,1,29,73,11
1,1,10,1,1,0,1,29,126,11
2,1,2,0,0,0,1,29,73,11
2,1,14,1,4,0,1,29,73,11
4,2,9,1,2,0,2,29,101,11
4,2,21,0,3,0,2,29,101,11
4,2,9,1,1,0,2,29,101,11
5,2,8,1,1,0,2,29,101,11
5,2,23,0,6,1,2,29,70,8
7,3,5,0,4,0,3,29,126,11
7,3,19,1,6,1,3,29,88,9
8,3,14,1,3,0,3,29,73,11
9,4,8,1,3,0,3,29,45,11
9,4,15,1,6,1,3,29,101,11
12,1,19,1,4,0,4,29,126,11
1,1,14,1,3,0,1,10,42,11
1,1,19,1,1,0,1,10,62,11
1,1,9,1,5,1,1,10,62,11
1,1,19,1,2,0,1,10,40,11
1,1,14,1,1,0,1,10,62,9
1,1,18,1,1,0,1,10,3,11
2,1,21,0,4,0,1,10,70,11
2,1,19,1,0,0,1,10,88,11
2,1,12,1,2,0,1,10,62,11
2,1,19,1,1,0,1,10,85,11
2,1,15,1,2,0,1,10,88,11
2,1,0,0,6,1,1,10,126,11
2,1,12,1,3,0,1,10,88,11
2,1,21,0,2,0,1,10,88,11
3,2,10,1,5,1,1,10,101,11
3,2,9,1,2,0,1,10,38,11
3,2,9,1,4,0,1,10,70,11
3,2,21,0,3,0,1,10,62,11
3,2,19,1,5,1,1,10,88,11
3,2,14,1,6,1,1,10,88,11
3,2,18,1,1,0,1,10,88,11
3,2,17,1,2,0,1,10,101,11
4,2,16,1,0,0,2,10,88,11
4,2,20,1,3,0,2,10,88,11
4,2,13,1,3,0,2,10,73,8
4,2,0,0,3,0,2,10,70,11
4,2,21,0,4,0,2,10,70,11
4,2,18,1,5,1,2,10,45,11
4,2,2,0,4,0,2,10,85,11
4,2,10,1,1,0,2,10,88,11
4,2,15,1,3,0,2,10,21,11
4,2,12,1,4,0,2,10,88,11
4,2,15,1,0,0,2,10,88,11
4,2,11,1,1,0,2,10,88,11
4,2,15,1,3,0,2,10,61,11
4,2,18,1,0,0,2,10,38,11
4,2,19,1,1,0,2,10,88,11
5,2,14,1,2,0,2,10,88,11
5,2,22,0,4,0,2,10,70,11
5,2,18,1,2,0,2,10,95,11
5,2,20,1,6,1,2,10,88,11
5,2,12,1,2,0,2,10,95,11
5,2,17,1,3,0,2,10,88,11
5,2,8,1,5,1,2,10,101,11
5,2,15,1,5,1,2,10,101,11
5,2,5,0,6,1,2,10,62,11
5,2,13,1,1,0,2,10,88,11
6,3,21,0,2,0,2,10,88,11
6,3,18,1,3,0,2,10,62,11
6,3,0,0,4,0,2,10,88,11
6,3,22,0,1,0,2,10,88,11
6,3,9,1,1,0,2,10,88,11
6,3,12,1,2,0,2,10,62,11
6,3,11,1,2,0,2,10,88,9
6,3,2,0,5,1,2,10,88,11
6,3,3,0,5,1,2,10,95,11
6,3,19,1,5,1,2,10,88,11
6,3,11,1,5,1,2,10,88,9
6,3,20,1,1,0,2,10,124,11
6,3,0,0,1,0,2,10,74,11
6,3,5,0,1,0,2,10,70,11
6,3,14,1,3,0,2,10,123,11
6,3,20,1,4,0,2,10,88,11
6,3,15,1,5,1,2,10,17,11
6,3,9,1,6,1,2,10,54,11
6,3,8,1,0,0,2,10,33,11
6,3,18,1,0,0,2,10,70,11
6,3,17,1,3,0,2,10,88,11
6,3,17,1,4,0,2,10,88,11
6,3,3,0,5,1,2,10,88,11
6,3,3,0,6,1,2,10,101,11
6,3,2,0,6,1,2,10,101,11
7,3,12,1,2,0,3,10,88,11
7,3,19,1,2,0,3,10,88,11
7,3,2,0,3,0,3,10,101,11
7,3,12,1,3,0,3,10,88,11
7,3,21,0,4,0,3,10,88,11
7,3,23,0,5,1,3,10,88,11
7,3,2,0,6,1,3,10,6,11
7,3,9,1,0,0,3,10,101,11
7,3,20,1,4,0,3,10,62,11
7,3,14,1,5,1,3,10,101,9
7,3,19,1,6,1,3,10,62,11
7,3,10,1,0,0,3,10,88,11
7,3,21,0,1,0,3,10,88,11
7,3,18,1,3,0,3,10,88,11
7,3,2,0,6,1,3,10,95,11
7,3,12,1,6,1,3,10,88,11
7,3,21,0,1,0,3,10,88,11
7,3,15,1,2,0,3,10,88,11
7,3,4,0,2,0,3,10,81,11
7,3,7,1,4,0,3,10,88,11
7,3,13,1,4,0,3,10,62,11
7,3,14,1,5,1,3,10,70,11
7,3,3,0,6,1,3,10,70,11
7,3,21,0,0,0,3,10,88,11
7,3,15,1,1,0,3,10,70,11
7,3,11,1,1,0,3,10,88,11
7,3,6,0,2,0,3,10,88,11
8,3,0,0,3,0,3,10,38,11
8,3,19,1,5,1,3,10,103,11
8,3,12,1,5,1,3,10,85,11
8,3,0,0,0,0,3,10,88,8
8,3,14,1,1,0,3,10,126,11
8,3,13,1,2,0,3,10,88,11
8,3,5,0,3,0,3,10,126,9
8,3,13,1,5,1,3,10,88,11
8,3,18,1,6,1,3,10,88,11
8,3,19,1,6,1,3,10,88,11
8,3,6,0,0,0,3,10,88,9
8,3,23,0,1,0,3,10,79,11
8,3,13,1,2,0,3,10,95,11
8,3,14,1,2,0,3,10,88,11
8,3,14,1,4,0,3,10,38,11
8,3,12,1,5,1,3,10,88,11
8,3,20,1,5,1,3,10,62,11
8,3,19,1,1,0,3,10,95,11
8,3,20,1,1,0,3,10,88,11
8,3,16,1,2,0,3,10,69,8
8,3,15,1,2,0,3,10,88,11
8,3,0,0,3,0,3,10,88,11
8,3,8,1,4,0,3,10,69,11
8,3,16,1,4,0,3,10,62,11
8,3,0,0,6,1,3,10,69,11
8,3,21,0,0,0,3,10,88,11
8,3,15,1,1,0,3,10,88,11
8,3,13,1,5,1,3,10,12,11
9,4,19,1,2,0,3,10,125,11
9,4,13,1,5,1,3,10,88,11
9,4,11,1,5,1,3,10,88,11
9,4,17,1,1,0,3,10,88,11
9,4,16,1,2,0,3,10,88,11
9,4,13,1,3,0,3,10,88,9
9,4,16,1,5,1,3,10,62,9
9,4,15,1,6,1,3,10,76,9
9,4,12,1,6,1,3,10,88,9
9,4,19,1,0,0,3,10,62,11
9,4,17,1,0,0,3,10,88,11
9,4,13,1,0,0,3,10,101,11
9,4,20,1,2,0,3,10,73,11
10,4,21,0,1,0,4,10,88,11
10,4,19,1,2,0,4,10,88,11
10,4,18,1,0,0,4,10,88,11
10,4,15,1,2,0,4,10,88,11
10,4,11,1,1,0,4,10,88,11
10,4,18,1,1,0,4,10,98,11
10,4,0,0,1,0,4,10,81,11
10,4,10,1,5,1,4,10,88,11
11,4,17,1,4,0,4,10,88,11
11,4,17,1,5,1,4,10,62,11
11,4,18,1,2,0,4,10,88,11
11,4,21,0,3,0,4,10,54,11
11,4,3,0,3,0,4,10,70,9
11,4,4,0,3,0,4,10,70,11
11,4,18,1,5,1,4,10,88,11
11,4,20,1,1,0,4,10,95,11
11,4,22,0,1,0,4,10,70,11
11,4,8,1,1,0,4,10,88,11
11,4,20,1,1,0,4,10,88,11
11,4,23,0,2,0,4,10,124,11
11,4,13,1,2,0,4,10,88,11
11,4,10,1,2,0,4,10,88,11
11,4,18,1,4,0,4,10,88,11
11,4,22,0,0,0,4,10,101,11
11,4,18,1,2,0,4,10,88,11
11,4,17,1,3,0,4,10,88,11
11,4,10,1,6,1,4,10,88,11
11,4,9,1,1,0,4,10,62,11
11,4,20,1,1,0,4,10,88,11
11,4,20,1,4,0,4,10,49,11
12,1,22,0,6,1,4,10,88,11
12,1,21,0,0,0,4,10,21,11
12,1,18,1,0,0,4,10,95,11
12,1,23,0,1,0,4,10,88,11
12,1,9,1,3,0,4,10,73,11
12,1,15,1,6,1,4,10,88,11
12,1,13,1,2,0,4,10,70,11
12,1,17,1,3,0,4,10,54,9
12,1,12,1,3,0,4,10,70,11
12,1,17,1,6,1,4,10,70,11
12,1,15,1,6,1,4,10,38,11
12,1,11,1,0,0,4,10,70,11
12,1,20,1,0,0,4,10,73,11
12,1,23,0,0,0,4,10,98,11
12,1,22,0,1,0,4,10,88,11
12,1,17,1,2,0,4,10,62,11
12,1,23,0,5,1,4,10,73,11
12,1,17,1,3,0,4,10,12,11
12,1,18,1,4,0,4,10,95,11
12,1,12,1,1,0,4,10,88,11
1,1,23,0,4,0,1,10,73,9
2,1,17,1,0,0,1,10,70,11
2,1,16,1,1,0,1,10,88,11
2,1,14,1,1,0,1,10,88,11
2,1,16,1,2,0,1,10,88,11
3,2,0,0,6,1,1,10,88,11
3,2,12,1,6,1,1,10,88,11
3,2,20,1,6,1,1,10,70,11
3,2,9,1,0,0,1,10,88,11
4,2,18,1,4,0,2,10,88,11
4,2,3,0,0,0,2,10,64,11
4,2,19,1,1,0,2,10,49,11
5,2,14,1,0,0,2,10,88,11
6,3,19,1,5,1,2,10,88,11
6,3,13,1,4,0,2,10,88,11
6,3,11,1,6,1,2,10,110,11
7,3,20,1,0,0,3,10,101,11
7,3,19,1,2,0,3,10,101,11
7,3,20,1,3,0,3,10,88,11
7,3,9,1,6,1,3,10,101,11
7,3,15,1,3,0,3,10,11,11
9,4,17,1,2,0,3,10,88,11
9,4,6,0,1,0,3,10,101,8
9,4,2,0,2,0,3,10,101,11
10,4,11,1,4,0,4,10,88,11
11,4,12,1,6,1,4,10,88,11
12,1,18,1,2,0,4,10,47,11
12,1,15,1,3,0,4,10,47,11
12,1,22,0,0,0,4,10,62,11
2,1,21,0,4,0,1,10,88,11
2,1,20,1,5,1,1,10,62,11
2,1,20,1,0,0,1,10,88,11
3,2,16,1,4,0,1,10,70,11
3,2,17,1,3,0,1,10,62,11
4,2,18,1,4,0,2,10,88,11
4,2,0,0,0,0,2,10,101,11
4,2,8,1,3,0,2,10,13,11
4,2,5,0,1,0,2,10,95,11
4,2,5,0,4,0,2,10,101,11
5,2,20,1,6,1,2,10,126,11
6,3,22,0,1,0,2,10,62,11
6,3,13,1,3,0,2,10,62,11
7,3,23,0,0,0,3,10,101,11
7,3,23,0,2,0,3,10,101,9
7,3,6,0,3,0,3,10,101,11
7,3,11,1,4,0,3,10,70,11
7,3,21,0,0,0,3,10,95,11
7,3,6,0,0,0,3,10,101,11
8,3,21,0,4,0,3,10,85,11
8,3,0,0,2,0,3,10,101,9
9,4,12,1,1,0,3,10,81,11
9,4,8,1,2,0,3,10,126,11
9,4,18,1,2,0,3,10,126,11
10,4,13,1,1,0,4,10,88,11
11,4,12,1,0,0,4,10,73,11
12,1,15,1,6,1,4,10,35,11
3,2,22,0,0,0,1,10,73,11
3,2,16,1,5,1,1,10,88,11
3,2,15,1,6,1,1,10,88,11
3,2,21,0,0,0,1,10,88,11
3,2,17,1,4,0,1,10,88,11
4,2,15,1,4,0,2,10,88,11
4,2,0,0,6,1,2,10,88,11
5,2,8,1,5,1,2,10,109,11
5,2,10,1,3,0,2,10,88,11
5,2,20,1,4,0,2,10,3,11
6,3,13,1,6,1,2,10,110,11
6,3,14,1,4,0,2,10,88,11
7,3,18,1,6,1,3,10,88,11
7,3,14,1,3,0,3,10,95,11
7,3,11,1,4,0,3,10,3,11
7,3,4,0,5,1,3,10,101,11
7,3,10,1,0,0,3,10,88,11
7,3,11,1,2,0,3,10,18,11
8,3,4,0,4,0,3,10,88,11
10,4,10,1,3,0,4,10,109,11
10,4,14,1,2,0,4,10,88,11
11,4,16,1,3,0,4,10,88,11
11,4,14,1,6,1,4,10,85,9
12,1,18,1,0,0,4,10,88,11
12,1,12,1,6,1,4,10,70,11
12,1,18,1,2,0,4,10,62,11
1,1,7,1,2,0,1,10,73,11
1,1,20,1,2,0,1,10,12,11
1,1,9,1,0,0,1,10,17,11
1,1,8,1,1,0,1,10,62,11
2,1,13,1,4,0,1,10,70,11
2,1,13,1,5,1,1,10,73,11
2,1,9,1,2,0,1,10,62,11
2,1,18,1,4,0,1,10,62,11
3,2,12,1,3,0,1,10,62,8
3,2,18,1,6,1,1,10,17,11
3,2,10,1,2,0,1,10,50,11
4,2,9,1,3,0,2,10,88,11
4,2,23,0,4,0,2,10,17,8
4,2,2,0,6,1,2,10,67,8
5,2,6,0,0,0,2,10,63,11
5,2,17,1,4,0,2,10,80,11
6,3,15,1,6,1,2,10,88,11
6,3,12,1,4,0,2,10,88,11
6,3,9,1,4,0,2,10,101,11
6,3,14,1,1,0,2,10,88,11
6,3,1,0,3,0,2,10,101,11
6,3,5,0,4,0,2,10,101,11
6,3,12,1,5,1,2,10,62,9
6,3,4,0,6,1,2,10,53,11
6,3,5,0,6,1,2,10,53,11
7,3,12,1,2,0,3,10,62,11
7,3,14,1,5,1,3,10,17,11
7,3,9,1,4,0,3,10,7,9
8,3,13,1,5,1,3,10,17,11
8,3,12,1,0,0,3,10,88,11
8,3,12,1,0,0,3,10,81,11
8,3,0,0,1,0,3,10,16,11
8,3,17,1,5,1,3,10,88,11
9,4,15,1,6,1,3,10,88,11
9,4,11,1,4,0,3,10,70,11
10,4,9,1,1,0,4,10,123,11
10,4,12,1,4,0,4,10,45,11
10,4,21,0,0,0,4,10,73,11
10,4,13,1,4,0,4,10,88,11
10,4,23,0,1,0,4,10,85,11
11,4,11,1,6,1,4,10,26,11
11,4,17,1,3,0,4,10,45,11
11,4,23,0,0,0,4,10,101,11
11,4,16,1,2,0,4,10,123,11
11,4,18,1,4,0,4,10,88,11
11,4,12,1,1,0,4,10,38,8
11,4,13,1,4,0,4,10,45,11
11,4,16,1,6,1,4,10,3,11
11,4,0,0,0,0,4,10,88,11
11,4,19,1,2,0,4,10,88,11
12,1,11,1,4,0,4,10,101,11
12,1,20,1,3,0,4,10,17,11
1,1,1,0,0,0,1,10,17,11
3,2,15,1,2,0,1,10,17,11
4,2,16,1,5,1,2,10,15,9
5,2,22,0,5,1,2,10,126,11
5,2,18,1,3,0,2,10,126,11
6,3,15,1,6,1,2,10,126,11
7,3,0,0,2,0,3,10,7,11
8,3,8,1,1,0,3,10,69,11
8,3,12,1,3,0,3,10,73,11
9,4,21,0,5,1,3,10,126,11
9,4,0,0,5,1,3,10,126,11
9,4,7,1,6,1,3,10,126,11
9,4,16,1,4,0,3,10,73,11
9,4,17,1,0,0,3,10,101,11
11,4,17,1,2,0,4,10,74,11
1,1,12,1,5,1,1,33,126,11
1,1,15,1,0,0,1,33,88,9
1,1,17,1,1,0,1,33,126,11
1,1,16,1,2,0,1,33,7,11
1,1,13,1,2,0,1,33,73,11
1,1,8,1,4,0,1,33,17,11
1,1,22,0,5,1,1,33,110,11
1,1,14,1,2,0,1,33,103,8
1,1,11,1,4,0,1,33,126,11
1,1,11,1,0,0,1,33,17,11
2,1,14,1,6,1,1,33,17,11
2,1,15,1,6,1,1,33,38,9
2,1,18,1,0,0,1,33,3,11
2,1,7,1,2,0,1,33,73,9
2,1,7,1,6,1,1,33,73,11
2,1,0,0,3,0,1,33,85,11
3,2,18,1,5,1,1,33,73,11
3,2,23,0,0,0,1,33,73,11
3,2,15,1,6,1,1,33,17,11
3,2,0,0,2,0,1,33,126,11
3,2,5,0,2,0,1,33,17,11
3,2,22,0,1,0,1,33,45,11
3,2,10,1,3,0,1,33,85,11
3,2,9,1,3,0,1,33,76,11
3,2,0,0,5,1,1,33,103,11
3,2,11,1,6,1,1,33,62,11
4,2,14,1,3,0,2,33,88,11
4,2,21,0,1,0,2,33,88,11
4,2,16,1,5,1,2,33,70,11
4,2,10,1,6,1,2,33,62,11
4,2,10,1,3,0,2,33,62,11
4,2,16,1,4,0,2,33,88,11
4,2,12,1,4,0,2,33,73,11
4,2,16,1,2,0,2,33,73,11
4,2,1,0,6,1,2,33,88,11
4,2,20,1,0,0,2,33,101,11
5,2,21,0,2,0,2,33,7,11
5,2,17,1,0,0,2,33,85,11
5,2,19,1,6,1,2,33,88,11
5,2,16,1,1,0,2,33,17,11
5,2,5,0,3,0,2,33,46,11
5,2,21,0,0,0,2,33,101,11
5,2,15,1,3,0,2,33,26,11
6,3,15,1,5,1,2,33,126,11
6,3,1,0,2,0,2,33,85,11
6,3,1,0,3,0,2,33,73,11
6,3,19,1,5,1,2,33,17,9
6,3,12,1,3,0,2,33,17,11
6,3,13,1,4,0,2,33,101,11
6,3,20,1,6,1,2,33,85,11
6,3,10,1,6,1,2,33,73,11
7,3,21,0,2,0,3,33,73,8
7,3,0,0,3,0,3,33,62,11
7,3,19,1,0,0,3,33,85,11
7,3,19,1,5,1,3,33,85,11
8,3,19,1,1,0,3,33,101,11
8,3,0,0,5,1,3,33,88,11
9,4,20,1,6,1,3,33,88,11
9,4,3,0,6,1,3,33,38,11
9,4,4,0,2,0,3,33,101,11
9,4,17,1,3,0,3,33,101,11
9,4,18,1,6,1,3,33,7,11
9,4,5,0,0,0,3,33,85,11
9,4,0,0,0,0,3,33,85,11
9,4,23,0,4,0,3,33,101,11
9,4,23,0,6,1,3,33,88,11
9,4,20,1,0,0,3,33,88,11
9,4,18,1,0,0,3,33,101,11
9,4,17,1,1,0,3,33,126,11
9,4,22,0,2,0,3,33,13,11
9,4,13,1,0,0,3,33,101,11
10,4,17,1,0,0,4,33,88,11
10,4,3,0,4,0,4,33,85,11
10,4,18,1,0,0,4,33,85,11
10,4,15,1,1,0,4,33,85,11
10,4,17,1,2,0,4,33,88,11
10,4,10,1,2,0,4,33,73,8
10,4,18,1,1,0,4,33,88,11
10,4,16,1,3,0,4,33,88,11
11,4,7,1,3,0,4,33,17,11
11,4,12,1,6,1,4,33,88,11
11,4,3,0,6,1,4,33,126,11
11,4,0,0,0,0,4,33,12,11
11,4,20,1,0,0,4,33,38,11
11,4,19,1,1,0,4,33,126,11
12,1,2,0,3,0,4,33,82,9
12,1,17,1,5,1,4,33,7,11
12,1,7,1,5,1,4,33,101,11
12,1,2,0,6,1,4,33,7,11
12,1,4,0,6,1,4,33,73,9
12,1,15,1,6,1,4,33,47,11
12,1,21,0,0,0,4,33,7,11
12,1,12,1,3,0,4,33,47,11
12,1,15,1,4,0,4,33,73,11
12,1,7,1,0,0,4,33,95,11
12,1,2,0,3,0,4,33,73,11
12,1,16,1,3,0,4,33,47,11
12,1,7,1,5,1,4,33,62,11
12,1,15,1,3,0,4,33,126,11
12,1,19,1,4,0,4,33,73,11
12,1,17,1,4,0,4,33,73,11
12,1,14,1,4,0,4,33,73,11
12,1,13,1,4,0,4,33,73,11
12,1,16,1,5,1,4,33,26,11
12,1,14,1,6,1,4,33,47,11
12,1,12,1,1,0,4,33,126,11
1,1,12,1,1,0,1,33,126,11
2,1,22,0,3,0,1,33,17,11
2,1,22,0,3,0,1,33,73,11
4,2,11,1,1,0,2,33,38,11
5,2,4,0,3,0,2,33,26,11
5,2,11,1,4,0,2,33,88,11
6,3,10,1,5,1,2,33,73,11
6,3,9,1,1,0,2,33,3,11
7,3,4,0,2,0,3,33,88,11
7,3,20,1,3,0,3,33,55,8
7,3,20,1,3,0,3,33,17,11
8,3,12,1,3,0,3,33,85,11
11,4,13,1,5,1,4,33,126,11
1,1,10,1,3,0,1,33,54,11
2,1,8,1,5,1,1,33,126,11
5,2,23,0,4,0,2,33,88,11
9,4,17,1,3,0,3,33,101,11
1,1,15,1,2,0,1,33,73,11
1,1,15,1,2,0,1,33,88,11
1,1,18,1,2,0,1,33,73,11
1,1,9,1,3,0,1,33,73,11
1,1,17,1,0,0,1,33,73,11
2,1,13,1,6,1,1,33,126,11
2,1,9,1,0,0,1,33,17,11
2,1,20,1,1,0,1,33,88,11
2,1,18,1,1,0,1,33,88,11
3,2,19,1,1,0,1,33,73,11
3,2,21,0,4,0,1,33,126,11
3,2,13,1,3,0,1,33,73,8
4,2,20,1,3,0,2,33,73,11
5,2,22,0,3,0,2,33,74,11
6,3,18,1,2,0,2,33,73,11
6,3,19,1,1,0,2,33,73,8
7,3,4,0,1,0,3,33,88,11
8,3,19,1,5,1,3,33,101,11
9,4,19,1,3,0,3,33,17,11
10,4,17,1,6,1,4,33,88,11
11,4,17,1,5,1,4,33,101,11
12,1,16,1,0,0,4,33,88,11
12,1,13,1,0,0,4,33,73,11
12,1,17,1,5,1,4,33,88,11
12,1,16,1,3,0,4,33,73,11
1,1,11,1,3,0,1,33,123,11
1,1,20,1,6,1,1,33,85,11
3,2,7,1,6,1,1,33,11,11
6,3,18,1,4,0,2,33,81,11
7,3,15,1,0,0,3,33,126,11
7,3,12,1,6,1,3,33,73,11
8,3,4,0,5,1,3,33,17,11
8,3,3,0,0,0,3,33,126,11
8,3,21,0,2,0,3,33,73,11
9,4,19,1,1,0,3,33,17,11
9,4,22,0,4,0,3,33,126,11
11,4,20,1,3,0,4,33,73,11
1,1,12,1,2,0,1,51,73,11
1,1,16,1,4,0,1,51,38,11
1,1,19,1,4,0,1,51,38,11
1,1,20,1,4,0,1,51,38,8
2,1,15,1,6,1,1,51,12,11
2,1,0,0,5,1,1,51,73,11
2,1,11,1,5,1,1,51,85,11
3,2,18,1,2,0,1,51,73,11
3,2,16,1,5,1,1,51,85,11
3,2,18,1,6,1,1,51,101,11
3,2,19,1,3,0,1,51,3,11
4,2,17,1,3,0,2,51,88,11
4,2,15,1,5,1,2,51,101,11
4,2,23,0,1,0,2,51,85,11
4,2,2,0,4,0,2,51,6,11
5,2,3,0,4,0,2,51,101,11
5,2,20,1,4,0,2,51,44,8
6,3,15,1,6,1,2,51,3,11
6,3,17,1,6,1,2,51,88,11
6,3,13,1,0,0,2,51,6,11
6,3,16,1,5,1,2,51,101,11
6,3,13,1,5,1,2,51,123,11
7,3,18,1,2,0,3,51,73,11
7,3,12,1,4,0,3,51,17,11
8,3,15,1,6,1,3,51,17,11
8,3,19,1,1,0,3,51,3,11
8,3,4,0,4,0,3,51,77,11
8,3,23,0,6,1,3,51,17,11
8,3,19,1,3,0,3,51,73,11
8,3,14,1,4,0,3,51,6,11
8,3,10,1,1,0,3,51,101,11
8,3,10,1,4,0,3,51,17,11
9,4,9,1,2,0,3,51,62,11
9,4,12,1,2,0,3,51,86,11
9,4,13,1,2,0,3,51,73,11
9,4,2,0,2,0,3,51,38,11
9,4,20,1,4,0,3,51,44,11
9,4,3,0,6,1,3,51,85,11
10,4,18,1,2,0,4,51,101,11
10,4,10,1,3,0,4,51,26,11
10,4,12,1,0,0,4,51,73,11
10,4,17,1,1,0,4,51,88,11
10,4,15,1,1,0,4,51,126,11
11,4,1,0,0,0,4,51,88,11
11,4,20,1,1,0,4,51,88,11
11,4,13,1,0,0,4,51,17,11
11,4,8,1,3,0,4,51,38,11
11,4,19,1,4,0,4,51,73,11
11,4,16,1,5,1,4,51,73,11
12,1,2,0,0,0,4,51,88,11
12,1,15,1,2,0,4,51,101,11
12,1,18,1,1,0,4,51,101,11
12,1,18,1,4,0,4,51,126,11
12,1,23,0,0,0,4,51,101,11
2,1,22,0,0,0,1,51,3,11
4,2,10,1,3,0,2,51,11,11
11,4,19,1,2,0,4,51,3,11
1,1,9,1,4,0,1,51,101,11
3,2,7,1,0,0,1,51,85,11
3,2,10,1,2,0,1,51,101,11
3,2,6,0,4,0,1,51,126,11
4,2,21,0,3,0,2,51,88,11
6,3,14,1,0,0,2,51,85,11
7,3,14,1,1,0,3,51,101,11
11,4,14,1,4,0,4,51,11,11
12,1,18,1,6,1,4,51,101,11
2,1,14,1,4,0,1,43,126,11
2,1,18,1,5,1,1,43,88,11
2,1,17,1,2,0,1,43,126,11
2,1,6,0,3,0,1,43,85,11
2,1,11,1,5,1,1,43,88,11
2,1,10,1,3,0,1,43,126,11
2,1,20,1,6,1,1,43,126,11
2,1,18,1,4,0,1,43,91,11
2,1,12,1,1,0,1,43,109,11
2,1,6,0,2,0,1,43,73,11
3,2,1,0,4,0,1,43,17,11
3,2,12,1,4,0,1,43,101,11
3,2,20,1,0,0,1,43,126,11
3,2,8,1,6,1,1,43,126,11
3,2,15,1,3,0,1,43,26,11
4,2,17,1,0,0,2,43,77,11
4,2,0,0,2,0,2,43,26,11
4,2,2,0,5,1,2,43,66,11
4,2,21,0,4,0,2,43,126,9
4,2,15,1,6,1,2,43,88,11
4,2,16,1,6,1,2,43,101,11
5,2,19,1,4,0,2,43,126,11
5,2,10,1,1,0,2,43,73,11
6,3,22,0,5,1,2,43,88,11
6,3,17,1,6,1,2,43,101,11
6,3,17,1,0,0,2,43,17,9
6,3,20,1,2,0,2,43,101,11
6,3,8,1,4,0,2,43,126,11
7,3,18,1,2,0,3,43,101,11
7,3,13,1,6,1,3,43,126,11
7,3,5,0,4,0,3,43,126,11
9,4,10,1,4,0,3,43,126,11
10,4,18,1,4,0,4,43,126,11
10,4,21,0,0,0,4,43,34,8
11,4,9,1,2,0,4,43,88,11
11,4,7,1,6,1,4,43,88,11
11,4,7,1,6,1,4,43,88,11
11,4,9,1,1,0,4,43,1,11
11,4,11,1,5,1,4,43,73,11
12,1,21,0,1,0,4,43,126,11
12,1,9,1,2,0,4,43,35,11
12,1,18,1,0,0,4,43,35,11
12,1,14,1,2,0,4,43,73,11
12,1,14,1,1,0,4,43,54,11
12,1,20,1,4,0,4,43,12,8
12,1,20,1,6,1,4,43,62,9
2,1,19,1,3,0,1,43,88,11
3,2,14,1,2,0,1,43,126,11
5,2,1,0,0,0,2,43,88,11
8,3,18,1,6,1,3,43,6,11
8,3,5,0,2,0,3,43,73,11
1,1,19,1,5,1,1,43,61,11
4,2,13,1,0,0,2,43,88,11
7,3,18,1,6,1,3,43,35,11
9,4,8,1,4,0,3,43,1,11
10,4,4,0,5,1,4,43,17,11
11,4,11,1,2,0,4,43,3,9
12,1,20,1,0,0,4,43,1,11
2,1,13,1,6,1,1,43,11,11
5,2,10,1,6,1,2,43,35,11
8,3,3,0,4,0,3,43,109,11
11,4,21,0,5,1,4,43,88,11
11,4,10,1,6,1,4,43,73,8
1,1,17,1,4,0,1,17,38,11
1,1,4,0,6,1,1,17,17,11
1,1,18,1,4,0,1,17,62,11
1,1,14,1,2,0,1,17,81,11
1,1,18,1,3,0,1,17,62,11
1,1,10,1,1,0,1,17,85,11
2,1,2,0,5,1,1,17,85,11
2,1,2,0,6,1,1,17,73,11
2,1,22,0,5,1,1,17,78,11
3,2,14,1,4,0,1,17,73,11
3,2,10,1,3,0,1,17,85,11
4,2,9,1,6,1,2,17,101,11
5,2,9,1,3,0,2,17,73,11
6,3,18,1,6,1,2,17,85,11
6,3,3,0,4,0,2,17,11,8
7,3,1,0,3,0,3,17,101,11
7,3,13,1,4,0,3,17,101,11
7,3,7,1,3,0,3,17,3,11
7,3,0,0,2,0,3,17,85,11
7,3,3,0,2,0,3,17,85,11
8,3,21,0,4,0,3,17,88,11
8,3,13,1,4,0,3,17,88,11
8,3,6,0,4,0,3,17,85,11
9,4,1,0,0,0,3,17,73,11
10,4,15,1,1,0,4,17,88,11
10,4,12,1,4,0,4,17,12,11
11,4,22,0,1,0,4,17,88,11
11,4,21,0,2,0,4,17,73,11
11,4,11,1,2,0,4,17,73,11
11,4,14,1,1,0,4,17,3,11
12,1,20,1,2,0,4,17,73,11
12,1,5,0,2,0,4,17,85,11
12,1,7,1,6,1,4,17,85,11
12,1,22,0,6,1,4,17,85,11
1,1,13,1,5,1,1,17,73,11
1,1,12,1,6,1,1,17,73,11
1,1,14,1,2,0,1,17,85,11
1,1,6,0,3,0,1,17,85,11
2,1,19,1,4,0,1,17,64,11
2,1,20,1,5,1,1,17,73,11
3,2,12,1,0,0,1,17,81,11
3,2,14,1,1,0,1,17,81,8
3,2,14,1,5,1,1,17,85,11
3,2,14,1,2,0,1,17,88,11
3,2,16,1,4,0,1,17,88,11
3,2,23,0,5,1,1,17,73,11
4,2,11,1,1,0,2,17,85,11
4,2,12,1,2,0,2,17,88,11
4,2,23,0,1,0,2,17,88,11
4,2,9,1,0,0,2,17,12,8
4,2,11,1,1,0,2,17,88,11
5,2,20,1,0,0,2,17,6,11
5,2,2,0,2,0,2,17,85,11
6,3,13,1,2,0,2,17,65,11
6,3,15,1,3,0,2,17,101,11
7,3,20,1,1,0,3,17,109,11
7,3,17,1,4,0,3,17,88,11
7,3,13,1,1,0,3,17,85,11
7,3,11,1,4,0,3,17,101,11
7,3,11,1,0,0,3,17,88,11
8,3,19,1,4,0,3,17,85,11
8,3,23,0,6,1,3,17,101,11
9,4,20,1,2,0,3,17,1,11
9,4,20,1,3,0,3,17,109,11
9,4,21,0,3,0,3,17,86,11
9,4,20,1,4,0,3,17,17,11
9,4,14,1,6,1,3,17,88,11
10,4,10,1,1,0,4,17,88,11
10,4,1,0,3,0,4,17,11,8
10,4,18,1,0,0,4,17,85,11
10,4,18,1,4,0,4,17,101,11
10,4,18,1,2,0,4,17,88,11
11,4,14,1,0,0,4,17,88,11
11,4,0,0,0,0,4,17,101,11
12,1,16,1,4,0,4,17,88,11
12,1,17,1,5,1,4,17,88,11
12,1,22,0,0,0,4,17,73,8
12,1,13,1,5,1,4,17,85,11
12,1,13,1,5,1,4,17,101,11
2,1,8,1,1,0,1,17,73,11
2,1,9,1,3,0,1,17,73,11
6,3,17,1,1,0,2,17,126,11
6,3,13,1,5,1,2,17,73,8
7,3,14,1,3,0,3,17,101,11
9,4,13,1,5,1,3,17,55,11
9,4,3,0,6,1,3,17,85,11
9,4,13,1,4,0,3,17,88,11
9,4,11,1,1,0,3,17,101,11
10,4,8,1,6,1,4,17,88,11
1,1,13,1,2,0,1,17,73,11
1,1,12,1,6,1,1,17,73,11
1,1,20,1,3,0,1,17,85,11
3,2,14,1,4,0,1,17,11,9
3,2,21,0,6,1,1,17,88,11
4,2,11,1,2,0,2,17,12,11
5,2,23,0,2,0,2,17,85,11
6,3,2,0,4,0,2,17,88,11
8,3,11,1,5,1,3,17,101,11
10,4,14,1,5,1,4,17,85,11
11,4,17,1,0,0,4,17,3,11
12,1,7,1,0,0,4,17,101,11
9,4,14,1,6,1,3,17,78,11
10,4,13,1,5,1,4,17,43,11
1,1,11,1,1,0,1,17,38,11
1,1,12,1,3,0,1,17,62,11
1,1,4,0,3,0,1,17,17,11
1,1,6,0,4,0,1,17,126,11
1,1,11,1,4,0,1,17,17,11
1,1,16,1,5,1,1,17,38,11
1,1,19,1,0,0,1,17,38,11
1,1,15,1,0,0,1,17,38,11
1,1,17,1,1,0,1,17,73,11
1,1,10,1,2,0,1,17,38,11
1,1,16,1,0,0,1,17,62,11
1,1,15,1,1,0,1,17,38,11
1,1,14,1,2,0,1,17,73,11
1,1,18,1,5,1,1,17,26,11
1,1,9,1,5,1,1,17,85,11
1,1,10,1,6,1,1,17,62,11
1,1,6,0,2,0,1,17,85,11
1,1,2,0,3,0,1,17,85,9
1,1,9,1,4,0,1,17,88,11
1,1,13,1,5,1,1,17,85,11
1,1,13,1,5,1,1,17,107,11
1,1,1,0,0,0,1,17,38,11
1,1,10,1,2,0,1,17,62,11
2,1,3,0,0,0,1,17,85,11
2,1,16,1,0,0,1,17,85,11
2,1,16,1,1,0,1,17,62,11
2,1,13,1,1,0,1,17,101,11
2,1,13,1,3,0,1,17,73,11
2,1,10,1,4,0,1,17,88,11
2,1,9,1,0,0,1,17,45,11
2,1,2,0,1,0,1,17,85,11
2,1,18,1,2,0,1,17,38,11
2,1,8,1,3,0,1,17,62,11
2,1,5,0,4,0,1,17,76,11
2,1,20,1,4,0,1,17,85,11
2,1,19,1,4,0,1,17,85,11
2,1,18,1,5,1,1,17,73,11
2,1,11,1,6,1,1,17,73,11
2,1,11,1,0,0,1,17,38,11
2,1,20,1,1,0,1,17,88,11
2,1,15,1,3,0,1,17,85,11
2,1,23,0,3,0,1,17,123,11
2,1,3,0,3,0,1,17,85,11
2,1,9,1,4,0,1,17,101,11
2,1,18,1,4,0,1,17,38,11
2,1,18,1,1,0,1,17,62,11
2,1,12,1,3,0,1,17,85,11
2,1,18,1,3,0,1,17,77,11
3,2,9,1,6,1,1,17,88,11
3,2,5,0,6,1,1,17,85,11
3,2,2,0,6,1,1,17,116,11
3,2,2,0,6,1,1,17,116,11
3,2,23,0,0,0,1,17,85,11
3,2,14,1,1,0,1,17,85,11
3,2,10,1,1,0,1,17,88,11
3,2,9,1,2,0,1,17,38,11
3,2,17,1,3,0,1,17,101,11
3,2,15,1,5,1,1,17,88,11
3,2,9,1,5,1,1,17,88,11
3,2,10,1,0,0,1,17,101,11
3,2,20,1,5,1,1,17,3,11
3,2,19,1,5,1,1,17,17,11
3,2,5,0,6,1,1,17,126,11
3,2,19,1,1,0,1,17,38,11
3,2,15,1,1,0,1,17,62,11
3,2,4,0,2,0,1,17,45,11
3,2,13,1,2,0,1,17,73,11
3,2,12,1,4,0,1,17,43,8
3,2,2,0,5,1,1,17,88,11
3,2,19,1,0,0,1,17,62,11
3,2,20,1,1,0,1,17,38,11
4,2,11,1,2,0,2,17,26,11
4,2,17,1,6,1,2,17,109,11
4,2,22,0,2,0,2,17,88,11
4,2,15,1,3,0,2,17,85,11
4,2,12,1,3,0,2,17,88,11
4,2,4,0,4,0,2,17,85,11
4,2,0,0,5,1,2,17,85,11
4,2,5,0,6,1,2,17,54,8
4,2,22,0,1,0,2,17,85,11
4,2,5,0,3,0,2,17,126,11
4,2,19,1,3,0,2,17,101,11
4,2,21,0,3,0,2,17,88,11
4,2,0,0,2,0,2,17,3,11
4,2,2,0,4,0,2,17,85,9
4,2,16,1,4,0,2,17,88,11
4,2,16,1,5,1,2,17,85,11
4,2,21,0,5,1,2,17,77,11
4,2,23,0,5,1,2,17,77,11
4,2,18,1,6,1,2,17,62,11
4,2,4,0,0,0,2,17,85,11
4,2,0,0,1,0,2,17,85,11
5,2,1,0,5,1,2,17,126,11
5,2,18,1,6,1,2,17,12,11
5,2,12,1,0,0,2,17,62,11
5,2,10,1,0,0,2,17,11,11
5,2,22,0,0,0,2,17,126,11
5,2,16,1,1,0,2,17,54,11
5,2,17,1,6,1,2,17,88,11
5,2,10,1,6,1,2,17,3,11
5,2,7,1,1,0,2,17,85,9
5,2,3,0,2,0,2,17,85,11
5,2,23,0,4,0,2,17,85,11
5,2,5,0,5,1,2,17,81,8
5,2,1,0,6,1,2,17,85,11
5,2,13,1,1,0,2,17,38,11
5,2,7,1,4,0,2,17,85,11
5,2,19,1,4,0,2,17,85,11
5,2,13,1,4,0,2,17,101,11
6,3,1,0,6,1,2,17,126,11
6,3,9,1,3,0,2,17,73,11
6,3,11,1,5,1,2,17,85,11
6,3,20,1,6,1,2,17,88,11
6,3,14,1,0,0,2,17,38,11
6,3,21,0,4,0,2,17,88,11
6,3,1,0,5,1,2,17,85,11
6,3,10,1,6,1,2,17,85,11
6,3,16,1,1,0,2,17,38,11
7,3,21,0,3,0,3,17,11,9
7,3,13,1,4,0,3,17,85,11
7,3,1,0,5,1,3,17,85,11
7,3,5,0,3,0,3,17,85,11
7,3,16,1,4,0,3,17,101,11
7,3,7,1,6,1,3,17,85,11
7,3,10,1,0,0,3,17,88,11
7,3,19,1,4,0,3,17,38,11
7,3,4,0,0,0,3,17,126,11
7,3,2,0,3,0,3,17,85,11
7,3,22,0,4,0,3,17,85,11
7,3,13,1,6,1,3,17,78,11
7,3,17,1,6,1,3,17,73,11
7,3,2,0,0,0,3,17,85,11
7,3,1,0,0,0,3,17,85,11
7,3,2,0,0,0,3,17,85,11
7,3,11,1,0,0,3,17,54,11
7,3,13,1,1,0,3,17,38,11
8,3,19,1,4,0,3,17,40,9
8,3,4,0,5,1,3,17,85,11
8,3,10,1,5,1,3,17,62,11
8,3,4,0,0,0,3,17,85,11
8,3,11,1,0,0,3,17,101,11
8,3,2,0,3,0,3,17,62,11
8,3,14,1,1,0,3,17,47,11
8,3,15,1,2,0,3,17,85,11
8,3,0,0,4,0,3,17,85,11
8,3,21,0,4,0,3,17,81,11
8,3,16,1,5,1,3,17,62,11
9,4,17,1,6,1,3,17,85,11
9,4,3,0,0,0,3,17,85,11
9,4,23,0,0,0,3,17,85,11
9,4,21,0,0,0,3,17,62,11
9,4,12,1,4,0,3,17,88,11
9,4,13,1,6,1,3,17,85,11
9,4,2,0,1,0,3,17,73,11
9,4,17,1,4,0,3,17,85,11
9,4,6,0,0,0,3,17,85,11
9,4,6,0,0,0,3,17,85,11
9,4,0,0,1,0,3,17,85,11
9,4,7,1,2,0,3,17,88,11
9,4,21,0,1,0,3,17,85,11
9,4,14,1,4,0,3,17,88,11
9,4,19,1,5,1,3,17,88,11
10,4,22,0,1,0,4,17,62,11
10,4,6,0,3,0,4,17,38,11
10,4,23,0,4,0,4,17,12,9
10,4,4,0,5,1,4,17,85,11
10,4,16,1,0,0,4,17,85,11
10,4,6,0,1,0,4,17,85,11
10,4,3,0,5,1,4,17,85,11
10,4,11,1,3,0,4,17,85,11
10,4,11,1,4,0,4,17,101,11
10,4,0,0,0,0,4,17,62,11
10,4,4,0,1,0,4,17,85,11
10,4,21,0,3,0,4,17,85,11
10,4,13,1,3,0,4,17,73,11
10,4,20,1,3,0,4,17,126,11
11,4,17,1,4,0,4,17,88,11
11,4,18,1,5,1,4,17,88,11
11,4,9,1,3,0,4,17,38,11
11,4,1,0,5,1,4,17,106,11
11,4,14,1,5,1,4,17,62,11
11,4,3,0,5,1,4,17,101,11
11,4,14,1,6,1,4,17,11,9
11,4,17,1,4,0,4,17,126,11
11,4,17,1,0,0,4,17,38,11
11,4,17,1,1,0,4,17,62,11
11,4,7,1,4,0,4,17,85,11
11,4,5,0,6,1,4,17,62,8
12,1,14,1,1,0,4,17,38,11
12,1,18,1,6,1,4,17,73,11
12,1,17,1,5,1,4,17,85,11
12,1,19,1,6,1,4,17,85,11
12,1,3,0,0,0,4,17,73,11
12,1,21,0,0,0,4,17,85,11
12,1,12,1,5,1,4,17,21,11
12,1,11,1,6,1,4,17,88,11
12,1,12,1,6,1,4,17,88,11
12,1,19,1,6,1,4,17,85,11
12,1,3,0,6,1,4,17,85,11
12,1,14,1,0,0,4,17,88,11
12,1,14,1,2,0,4,17,85,11
12,1,17,1,4,0,4,17,62,11
12,1,23,0,0,0,4,17,85,8
12,1,16,1,1,0,4,17,38,11
1,1,16,1,1,0,1,17,17,11
1,1,13,1,3,0,1,17,17,11
1,1,8,1,4,0,1,17,126,11
2,1,2,0,5,1,1,17,13,11
3,2,18,1,2,0,1,17,17,11
4,2,21,0,1,0,2,17,109,11
4,2,9,1,5,1,2,17,17,11
4,2,22,0,3,0,2,17,85,11
6,3,12,1,6,1,2,17,101,11
7,3,13,1,4,0,3,17,101,11
7,3,13,1,1,0,3,17,101,11
7,3,17,1,3,0,3,17,88,11
8,3,14,1,0,0,3,17,73,11
8,3,19,1,0,0,3,17,101,11
8,3,12,1,2,0,3,17,88,11
8,3,17,1,4,0,3,17,126,9
9,4,7,1,6,1,3,17,101,11
9,4,19,1,0,0,3,17,101,11
9,4,10,1,0,0,3,17,88,11
9,4,5,0,1,0,3,17,126,11
9,4,7,1,1,0,3,17,88,11
10,4,10,1,1,0,4,17,101,11
10,4,22,0,5,1,4,17,101,11
10,4,17,1,6,1,4,17,101,11
10,4,10,1,0,0,4,17,88,11
10,4,13,1,5,1,4,17,43,9
11,4,17,1,5,1,4,17,101,11
11,4,21,0,2,0,4,17,88,11
11,4,16,1,3,0,4,17,101,11
11,4,19,1,6,1,4,17,101,11
11,4,15,1,0,0,4,17,101,11
11,4,18,1,6,1,4,17,101,11
11,4,14,1,5,1,4,17,101,11
12,1,23,0,5,1,4,17,85,11
12,1,17,1,3,0,4,17,88,11
12,1,18,1,5,1,4,17,88,11
2,1,2,0,1,0,1,50,17,11
2,1,17,1,2,0,1,50,73,11
3,2,22,0,1,0,1,50,126,11
3,2,18,1,6,1,1,50,53,9
3,2,21,0,6,1,1,50,101,11
3,2,18,1,0,0,1,50,126,11
3,2,15,1,2,0,1,50,126,11
3,2,19,1,4,0,1,50,126,11
3,2,20,1,1,0,1,50,126,11
3,2,17,1,1,0,1,50,126,11
3,2,18,1,2,0,1,50,73,11
4,2,16,1,5,1,2,50,128,9
6,3,16,1,0,0,2,50,101,11
6,3,18,1,2,0,2,50,101,11
6,3,18,1,6,1,2,50,126,9
6,3,21,0,3,0,2,50,85,11
8,3,13,1,6,1,3,50,73,11
8,3,19,1,0,0,3,50,126,11
8,3,18,1,6,1,3,50,101,11
8,3,11,1,2,0,3,50,101,11
8,3,10,1,1,0,3,50,88,11
9,4,21,0,1,0,3,50,85,11
10,4,1,0,3,0,4,50,85,11
10,4,17,1,2,0,4,50,126,11
11,4,0,0,5,1,4,50,109,11
11,4,17,1,0,0,4,50,101,11
11,4,12,1,2,0,4,50,123,11
11,4,12,1,3,0,4,50,88,11
11,4,2,0,5,1,4,50,17,11
1,1,13,1,1,0,1,50,38,11
1,1,15,1,3,0,1,50,73,11
1,1,17,1,1,0,1,50,12,9
1,1,4,0,3,0,1,50,62,11
1,1,4,0,4,0,1,50,62,9
1,1,12,1,6,1,1,50,62,11
1,1,5,0,6,1,1,50,38,9
1,1,12,1,6,1,1,50,116,11
1,1,15,1,2,0,1,50,126,11
1,1,20,1,4,0,1,50,62,11
1,1,18,1,6,1,1,50,62,11
1,1,0,0,3,0,1,50,85,11
2,1,13,1,4,0,1,50,62,11
2,1,10,1,2,0,1,50,73,11
2,1,23,0,3,0,1,50,62,11
2,1,14,1,5,1,1,50,85,11
2,1,0,0,6,1,1,50,73,11
2,1,7,1,4,0,1,50,38,11
2,1,19,1,3,0,1,50,111,11
2,1,17,1,5,1,1,50,73,11
2,1,22,0,6,1,1,50,73,11
3,2,9,1,6,1,1,50,95,11
3,2,13,1,6,1,1,50,85,11
3,2,12,1,1,0,1,50,84,9
3,2,11,1,2,0,1,50,101,11
3,2,19,1,3,0,1,50,101,11
3,2,11,1,5,1,1,50,88,11
3,2,21,0,6,1,1,50,98,11
3,2,4,0,0,0,1,50,95,11
3,2,7,1,1,0,1,50,17,11
3,2,9,1,2,0,1,50,101,11
3,2,21,0,3,0,1,50,62,11
3,2,22,0,3,0,1,50,101,11
3,2,14,1,1,0,1,50,17,11
3,2,21,0,1,0,1,50,85,11
3,2,16,1,3,0,1,50,88,11
3,2,15,1,4,0,1,50,62,11
3,2,18,1,3,0,1,50,101,11
4,2,14,1,2,0,2,50,62,11
4,2,16,1,3,0,2,50,88,11
4,2,11,1,4,0,2,50,8,11
4,2,23,0,4,0,2,50,85,11
4,2,23,0,4,0,2,50,85,11
4,2,1,0,5,1,2,50,101,11
4,2,22,0,5,1,2,50,3,11
4,2,23,0,1,0,2,50,45,11
4,2,16,1,3,0,2,50,85,11
4,2,20,1,5,1,2,50,38,11
4,2,20,1,6,1,2,50,88,11
4,2,12,1,0,0,2,50,88,11
4,2,22,0,0,0,2,50,85,11
4,2,5,0,3,0,2,50,88,11
4,2,16,1,3,0,2,50,73,11
4,2,0,0,4,0,2,50,38,11
4,2,22,0,5,1,2,50,88,11
4,2,4,0,0,0,2,50,17,11
4,2,5,0,0,0,2,50,101,11
4,2,18,1,0,0,2,50,101,11
5,2,11,1,5,1,2,50,6,11
5,2,2,0,4,0,2,50,101,11
5,2,4,0,4,0,2,50,17,11
5,2,14,1,5,1,2,50,101,11
5,2,21,0,5,1,2,50,61,11
5,2,21,0,1,0,2,50,62,11
5,2,18,1,3,0,2,50,62,11
5,2,17,1,5,1,2,50,61,11
5,2,20,1,1,0,2,50,85,11
6,3,14,1,5,1,2,50,88,11
6,3,21,0,6,1,2,50,101,9
6,3,0,0,3,0,2,50,88,11
6,3,16,1,4,0,2,50,88,11
6,3,17,1,5,1,2,50,17,11
6,3,18,1,0,0,2,50,38,9
6,3,13,1,1,0,2,50,88,11
6,3,13,1,6,1,2,50,85,11
6,3,8,1,1,0,2,50,17,11
6,3,23,0,1,0,2,50,101,11
6,3,15,1,5,1,2,50,38,9
6,3,7,1,3,0,2,50,86,11
7,3,14,1,1,0,3,50,21,8
7,3,17,1,2,0,3,50,85,11
7,3,4,0,5,1,3,50,21,11
7,3,18,1,1,0,3,50,101,11
7,3,14,1,3,0,3,50,101,11
7,3,17,1,6,1,3,50,88,9
7,3,7,1,3,0,3,50,63,11
7,3,17,1,5,1,3,50,18,11
7,3,2,0,6,1,3,50,85,11
7,3,17,1,6,1,3,50,62,11
7,3,13,1,0,0,3,50,101,11
7,3,1,0,0,0,3,50,101,11
7,3,23,0,0,0,3,50,88,9
7,3,22,0,1,0,3,50,126,9
7,3,15,1,2,0,3,50,126,11
8,3,14,1,5,1,3,50,85,11
8,3,4,0,6,1,3,50,85,11
8,3,13,1,6,1,3,50,88,11
8,3,0,0,1,0,3,50,73,11
8,3,0,0,5,1,3,50,38,11
8,3,14,1,6,1,3,50,38,11
8,3,14,1,0,0,3,50,45,9
8,3,6,0,2,0,3,50,109,11
8,3,13,1,2,0,3,50,101,11
8,3,14,1,2,0,3,50,88,9
8,3,11,1,3,0,3,50,73,11
8,3,13,1,3,0,3,50,109,11
8,3,17,1,3,0,3,50,73,11
9,4,20,1,2,0,3,50,101,11
9,4,9,1,5,1,3,50,88,11
9,4,10,1,6,1,3,50,88,11
9,4,20,1,4,0,3,50,85,11
9,4,20,1,4,0,3,50,85,11
9,4,15,1,1,0,3,50,101,11
10,4,9,1,2,0,4,50,88,11
10,4,13,1,4,0,4,50,88,9
10,4,18,1,6,1,4,50,88,11
10,4,11,1,6,1,4,50,101,11
10,4,19,1,1,0,4,50,88,11
10,4,11,1,2,0,4,50,101,11
10,4,1,0,6,1,4,50,101,11
10,4,21,0,2,0,4,50,62,11
10,4,17,1,4,0,4,50,88,11
10,4,3,0,6,1,4,50,101,11
10,4,23,0,3,0,4,50,88,11
11,4,18,1,4,0,4,50,53,11
11,4,21,0,4,0,4,50,95,11
11,4,23,0,4,0,4,50,53,11
11,4,12,1,6,1,4,50,85,11
11,4,21,0,1,0,4,50,62,11
11,4,6,0,5,1,4,50,108,8
11,4,14,1,5,1,4,50,88,11
11,4,18,1,5,1,4,50,85,11
11,4,19,1,5,1,4,50,85,11
11,4,19,1,1,0,4,50,88,11
11,4,11,1,3,0,4,50,101,11
11,4,19,1,3,0,4,50,101,11
11,4,10,1,5,1,4,50,45,11
11,4,10,1,6,1,4,50,56,8
11,4,0,0,1,0,4,50,101,11
11,4,23,0,1,0,4,50,17,11
11,4,21,0,5,1,4,50,85,11
12,1,8,1,0,0,4,50,95,11
12,1,10,1,2,0,4,50,101,11
12,1,17,1,4,0,4,50,88,11
12,1,8,1,0,0,4,50,85,11
12,1,11,1,1,0,4,50,85,11
12,1,22,0,2,0,4,50,79,11
12,1,3,0,4,0,4,50,17,11
12,1,8,1,1,0,4,50,95,11
12,1,19,1,6,1,4,50,88,11
12,1,11,1,2,0,4,50,62,11
12,1,23,0,3,0,4,50,78,11
12,1,13,1,4,0,4,50,85,11
1,1,20,1,1,0,1,50,88,11
1,1,19,1,3,0,1,50,117,11
2,1,17,1,5,1,1,50,88,11
2,1,13,1,1,0,1,50,17,8
2,1,22,0,6,1,1,50,62,11
3,2,20,1,3,0,1,50,85,11
4,2,21,0,3,0,2,50,126,11
4,2,3,0,3,0,2,50,17,9
4,2,8,1,4,0,2,50,62,11
4,2,19,1,4,0,2,50,73,8
4,2,12,1,6,1,2,50,95,11
4,2,1,0,6,1,2,50,98,11
4,2,9,1,6,1,2,50,53,9
5,2,10,1,3,0,2,50,88,11
6,3,17,1,5,1,2,50,101,11
6,3,11,1,0,0,2,50,88,11
6,3,16,1,1,0,2,50,88,11
6,3,22,0,5,1,2,50,62,11
6,3,15,1,1,0,2,50,88,11
6,3,18,1,6,1,2,50,88,11
7,3,3,0,5,1,3,50,54,11
7,3,22,0,6,1,3,50,17,11
7,3,7,1,2,0,3,50,45,9
8,3,18,1,5,1,3,50,88,11
8,3,8,1,6,1,3,50,88,11
8,3,19,1,6,1,3,50,81,11
8,3,14,1,2,0,3,50,101,11
8,3,7,1,6,1,3,50,85,11
8,3,10,1,2,0,3,50,73,11
12,1,18,1,1,0,4,50,126,11
12,1,13,1,5,1,4,50,73,11
5,2,11,1,1,0,2,50,62,11
6,3,19,1,3,0,2,50,101,11
1,1,2,0,3,0,1,41,62,11
1,1,18,1,5,1,1,41,126,11
1,1,8,1,5,1,1,41,126,11
1,1,9,1,1,0,1,41,62,9
1,1,17,1,2,0,1,41,126,11
1,1,11,1,4,0,1,41,62,8
1,1,17,1,4,0,1,41,62,11
1,1,3,0,2,0,1,41,62,11
2,1,10,1,4,0,1,41,88,11
2,1,10,1,4,0,1,41,73,9
2,1,19,1,0,0,1,41,73,11
2,1,23,0,5,1,1,41,38,11
2,1,7,1,6,1,1,41,73,9
2,1,19,1,3,0,1,41,62,11
2,1,14,1,3,0,1,41,73,9
2,1,19,1,6,1,1,41,73,11
2,1,19,1,4,0,1,41,86,11
2,1,13,1,2,0,1,41,73,11
2,1,19,1,2,0,1,41,73,11
2,1,14,1,2,0,1,41,73,11
3,2,2,0,1,0,1,41,126,11
3,2,18,1,6,1,1,41,73,11
3,2,20,1,6,1,1,41,73,11
3,2,16,1,6,1,1,41,126,11
4,2,23,0,2,0,2,41,62,11
4,2,22,0,3,0,2,41,73,11
4,2,17,1,6,1,2,41,26,11
4,2,1,0,0,0,2,41,17,9
4,2,1,0,6,1,2,41,12,11
5,2,10,1,0,0,2,41,126,11
5,2,11,1,1,0,2,41,88,11
5,2,11,1,2,0,2,41,38,11
5,2,11,1,3,0,2,41,17,11
6,3,11,1,6,1,2,41,88,11
6,3,8,1,3,0,2,41,101,11
6,3,19,1,6,1,2,41,45,11
6,3,15,1,0,0,2,41,85,11
6,3,9,1,1,0,2,41,88,11
6,3,13,1,2,0,2,41,73,11
6,3,1,0,3,0,2,41,38,11
6,3,18,1,4,0,2,41,101,11
7,3,20,1,1,0,3,41,88,11
7,3,18,1,0,0,3,41,126,11
7,3,16,1,2,0,3,41,70,11
7,3,17,1,6,1,3,41,70,11
7,3,10,1,0,0,3,41,88,11
8,3,23,0,3,0,3,41,88,11
8,3,23,0,0,0,3,41,109,11
8,3,6,0,5,1,3,41,70,11
8,3,12,1,5,1,3,41,126,11
8,3,18,1,1,0,3,41,73,11
9,4,13,1,5,1,3,41,38,11
9,4,1,0,0,0,3,41,76,11
9,4,20,1,1,0,3,41,73,11
9,4,15,1,2,0,3,41,88,11
9,4,6,0,3,0,3,41,45,11
9,4,16,1,3,0,3,41,101,11
9,4,22,0,5,1,3,41,85,11
9,4,13,1,0,0,3,41,62,11
9,4,18,1,0,0,3,41,62,11
9,4,11,1,5,1,3,41,70,11
10,4,16,1,2,0,4,41,88,11
10,4,15,1,3,0,4,41,88,11
10,4,17,1,4,0,4,41,62,11
10,4,19,1,0,0,4,41,88,11
10,4,10,1,3,0,4,41,88,11
11,4,16,1,3,0,4,41,38,11
11,4,13,1,6,1,4,41,73,11
11,4,17,1,4,0,4,41,70,11
11,4,14,1,2,0,4,41,126,11
12,1,10,1,0,0,4,41,62,11
12,1,2,0,4,0,4,41,126,11
12,1,21,0,1,0,4,41,85,11
12,1,16,1,2,0,4,41,73,11
12,1,17,1,2,0,4,41,62,11
12,1,15,1,3,0,4,41,62,11
12,1,21,0,5,1,4,41,85,11
1,1,17,1,3,0,1,41,38,11
4,2,8,1,3,0,2,41,85,11
5,2,20,1,1,0,2,41,17,11
8,3,19,1,2,0,3,41,70,9
9,4,22,0,6,1,3,41,86,11
3,2,12,1,4,0,1,41,101,11
4,2,21,0,1,0,2,41,38,11
5,2,14,1,1,0,2,41,17,11
6,3,12,1,2,0,2,41,70,11
6,3,16,1,6,1,2,41,76,9
7,3,8,1,6,1,3,41,109,11
7,3,13,1,1,0,3,41,70,11
9,4,14,1,1,0,3,41,70,11
9,4,22,0,2,0,3,41,109,11
10,4,10,1,4,0,4,41,101,11
4,2,20,1,5,1,2,41,123,9
4,2,10,1,3,0,2,41,126,11
10,4,21,0,5,1,4,41,88,11
11,4,20,1,0,0,4,41,88,11
4,2,15,1,1,0,2,41,88,11
7,3,21,0,2,0,3,41,73,11
5,2,14,1,1,0,2,41,73,11
6,3,19,1,4,0,2,41,85,11
7,3,14,1,1,0,3,41,88,11
12,1,19,1,5,1,4,41,17,11
1,1,12,1,1,0,1,32,101,11
1,1,11,1,3,0,1,32,62,11
1,1,14,1,6,1,1,32,62,9
1,1,18,1,4,0,1,32,101,11
1,1,14,1,1,0,1,32,62,9
2,1,16,1,1,0,1,32,126,11
2,1,4,0,4,0,1,32,17,11
3,2,16,1,5,1,1,32,126,11
3,2,7,1,1,0,1,32,88,11
3,2,15,1,2,0,1,32,88,11
3,2,14,1,3,0,1,32,73,11
4,2,11,1,4,0,2,32,17,11
4,2,0,0,6,1,2,32,85,11
4,2,9,1,6,1,2,32,62,11
5,2,7,1,0,0,2,32,88,11
5,2,11,1,2,0,2,32,62,11
5,2,21,0,3,0,2,32,101,11
5,2,10,1,2,0,2,32,88,11
5,2,20,1,0,0,2,32,88,11
6,3,20,1,0,0,2,32,101,11
6,3,10,1,3,0,2,32,88,11
7,3,20,1,3,0,3,32,88,11
7,3,3,0,5,1,3,32,38,11
7,3,18,1,6,1,3,32,38,11
7,3,16,1,3,0,3,32,45,11
7,3,18,1,0,0,3,32,17,11
7,3,1,0,4,0,3,32,109,11
8,3,11,1,0,0,3,32,17,11
8,3,1,0,4,0,3,32,10,11
9,4,14,1,5,1,3,32,17,11
9,4,19,1,5,1,3,32,88,11
9,4,14,1,1,0,3,32,73,11
9,4,17,1,3,0,3,32,108,11
9,4,5,0,4,0,3,32,62,11
10,4,23,0,4,0,4,32,62,11
11,4,20,1,1,0,4,32,101,11
11,4,13,1,0,0,4,32,62,11
11,4,22,0,4,0,4,32,109,11
12,1,16,1,5,1,4,32,88,11
12,1,19,1,3,0,4,32,126,11
12,1,20,1,5,1,4,32,68,11
4,2,10,1,3,0,2,32,109,11
6,3,1,0,0,0,2,32,101,11
7,3,13,1,0,0,3,32,101,11
7,3,15,1,4,0,3,32,109,11
9,4,13,1,1,0,3,32,88,11
9,4,22,0,4,0,3,32,88,11
10,4,21,0,3,0,4,32,109,11
11,4,14,1,6,1,4,32,88,11
1,1,17,1,2,0,1,32,62,11
3,2,22,0,6,1,1,32,101,11
3,2,3,0,1,0,1,32,49,11
5,2,14,1,2,0,2,32,73,11
6,3,13,1,3,0,2,32,88,11
6,3,0,0,4,0,2,32,3,11
6,3,11,1,5,1,2,32,107,11
7,3,14,1,6,1,3,32,3,11
9,4,23,0,3,0,3,32,85,11
9,4,16,1,0,0,3,32,3,11
11,4,18,1,3,0,4,32,88,9
11,4,22,0,2,0,4,32,25,9
1,1,12,1,1,0,1,32,85,11
3,2,12,1,5,1,1,32,114,11
4,2,19,1,2,0,2,32,12,11
4,2,14,1,5,1,2,32,55,11
7,3,19,1,3,0,3,32,62,11
7,3,18,1,4,0,3,32,17,11
7,3,18,1,4,0,3,32,101,11
10,4,5,0,2,0,4,32,21,11
12,1,7,1,5,1,4,32,62,11
12,1,17,1,2,0,4,32,10,9
3,2,10,1,3,0,1,24,17,11
3,2,8,1,2,0,1,24,54,11
4,2,2,0,1,0,2,24,62,11
4,2,2,0,3,0,2,24,126,11
5,2,4,0,5,1,2,24,17,8
5,2,15,1,6,1,2,24,73,8
6,3,7,1,5,1,2,24,17,11
6,3,4,0,5,1,2,24,126,11
7,3,9,1,4,0,3,24,18,11
7,3,23,0,2,0,3,24,17,11
8,3,16,1,3,0,3,24,126,11
8,3,17,1,0,0,3,24,101,11
10,4,14,1,3,0,4,24,73,9
10,4,21,0,2,0,4,24,73,8
12,1,11,1,6,1,4,24,126,11
12,1,21,0,1,0,4,24,126,11
12,1,15,1,2,0,4,24,126,11
1,1,16,1,4,0,1,24,101,11
1,1,0,0,2,0,1,24,73,8
1,1,23,0,0,0,1,24,109,11
2,1,21,0,2,0,1,24,73,11
2,1,0,0,6,1,1,24,126,11
2,1,18,1,6,1,1,24,73,11
2,1,22,0,0,0,1,24,85,11
2,1,23,0,0,0,1,24,126,9
3,2,20,1,3,0,1,24,17,11
3,2,16,1,4,0,1,24,126,11
3,2,19,1,1,0,1,24,126,11
5,2,0,0,4,0,2,24,126,9
7,3,13,1,0,0,3,24,17,9
7,3,12,1,5,1,3,24,74,11
9,4,22,0,1,0,3,24,70,11
10,4,13,1,2,0,4,24,126,11
10,4,10,1,2,0,4,24,88,11
11,4,0,0,5,1,4,24,85,11
12,1,14,1,0,0,4,24,126,11
3,2,0,0,2,0,1,24,126,11
6,3,22,0,1,0,2,24,85,11
7,3,17,1,5,1,3,24,126,8
9,4,18,1,1,0,3,24,126,11
1,1,12,1,1,0,1,24,73,8
1,1,10,1,4,0,1,24,62,11
1,1,10,1,4,0,1,24,73,11
1,1,14,1,1,0,1,24,126,11
1,1,1,0,2,0,1,24,101,11
1,1,11,1,0,0,1,24,17,11
1,1,2,0,3,0,1,24,73,11
1,1,22,0,5,1,1,24,81,11
1,1,14,1,2,0,1,24,62,11
2,1,6,0,4,0,1,24,101,11
2,1,16,1,0,0,1,24,126,11
2,1,9,1,0,0,1,24,73,9
2,1,15,1,1,0,1,24,73,9
2,1,10,1,6,1,1,24,62,11
2,1,19,1,0,0,1,24,73,11
2,1,19,1,0,0,1,24,73,11
2,1,11,1,2,0,1,24,62,11
3,2,15,1,4,0,1,24,88,11
3,2,19,1,5,1,1,24,101,11
3,2,23,0,0,0,1,24,85,11
3,2,9,1,1,0,1,24,17,9
3,2,2,0,4,0,1,24,73,9
3,2,18,1,5,1,1,24,38,11
3,2,7,1,6,1,1,24,126,9
4,2,0,0,1,0,2,24,126,11
4,2,1,0,1,0,2,24,126,11
4,2,1,0,4,0,2,24,126,11
4,2,16,1,2,0,2,24,88,11
4,2,17,1,4,0,2,24,38,8
4,2,12,1,4,0,2,24,126,11
4,2,11,1,0,0,2,24,62,11
5,2,21,0,2,0,2,24,126,11
5,2,4,0,6,1,2,24,126,11
5,2,3,0,6,1,2,24,126,8
5,2,1,0,4,0,2,24,126,9
6,3,15,1,5,1,2,24,126,11
6,3,1,0,6,1,2,24,126,11
6,3,14,1,6,1,2,24,126,11
6,3,19,1,2,0,2,24,62,11
6,3,7,1,6,1,2,24,101,9
6,3,3,0,0,0,2,24,126,9
6,3,10,1,2,0,2,24,73,8
6,3,1,0,6,1,2,24,126,11
6,3,1,0,2,0,2,24,126,11
8,3,6,0,3,0,3,24,56,9
8,3,18,1,1,0,3,24,88,11
8,3,2,0,6,1,3,24,126,9
8,3,13,1,1,0,3,24,124,11
9,4,19,1,3,0,3,24,45,11
9,4,20,1,5,1,3,24,126,11
9,4,13,1,6,1,3,24,126,11
9,4,8,1,1,0,3,24,17,11
10,4,0,0,2,0,4,24,62,11
10,4,0,0,6,1,4,24,54,11
11,4,7,1,1,0,4,24,106,11
11,4,21,0,4,0,4,24,42,11
11,4,18,1,2,0,4,24,124,11
12,1,20,1,4,0,4,24,38,8
12,1,14,1,6,1,4,24,73,11
12,1,7,1,6,1,4,24,126,11
12,1,19,1,1,0,4,24,73,11
1,1,22,0,2,0,1,34,95,11
1,1,17,1,3,0,1,34,38,11
1,1,12,1,4,0,1,34,62,11
1,1,23,0,4,0,1,34,95,11
1,1,18,1,4,0,1,34,73,11
1,1,14,1,4,0,1,34,38,11
1,1,18,1,0,0,1,1,69,11
2,1,13,1,0,0,1,1,101,11
2,1,17,1,2,0,1,34,38,11
2,1,9,1,4,0,1,34,109,11
2,1,18,1,4,0,1,1,101,11
2,1,19,1,5,1,1,34,38,11
2,1,19,1,5,1,1,34,38,11
2,1,11,1,0,0,1,1,88,11
2,1,14,1,0,0,1,34,101,11
2,1,15,1,3,0,1,34,88,11
2,1,13,1,5,1,1,1,63,11
2,1,19,1,5,1,1,34,88,11
2,1,19,1,5,1,1,1,109,11
2,1,15,1,6,1,1,1,26,11
2,1,19,1,6,1,1,34,73,11
2,1,12,1,0,0,1,1,101,11
2,1,17,1,1,0,1,1,26,11
2,1,18,1,1,0,1,34,38,11
3,2,15,1,4,0,1,34,26,11
3,2,19,1,5,1,1,34,38,11
3,2,15,1,6,1,1,1,88,11
3,2,11,1,2,0,1,34,62,11
3,2,13,1,4,0,1,1,88,11
3,2,20,1,4,0,1,1,101,11
3,2,0,0,5,1,1,34,54,11
3,2,19,1,4,0,1,34,109,11
4,2,11,1,0,0,2,34,88,11
4,2,14,1,0,0,2,1,101,11
4,2,20,1,0,0,2,34,88,11
4,2,12,1,4,0,2,34,101,11
4,2,16,1,0,0,2,34,38,11
4,2,8,1,1,0,2,34,17,11
4,2,21,0,1,0,2,1,26,11
4,2,9,1,2,0,2,34,88,11
4,2,20,1,2,0,2,34,95,11
5,2,19,1,3,0,2,34,38,11
5,2,9,1,5,1,2,34,38,11
5,2,18,1,0,0,2,34,101,11
5,2,1,0,4,0,2,1,73,9
5,2,15,1,4,0,2,34,6,11
5,2,16,1,4,0,2,34,47,11
5,2,16,1,3,0,2,1,88,11
6,3,10,1,5,1,2,1,88,11
6,3,1,0,1,0,2,34,109,11
6,3,9,1,6,1,2,34,17,11
7,3,11,1,0,0,3,34,62,11
7,3,5,0,6,1,3,34,88,11
7,3,9,1,6,1,3,1,101,11
7,3,1,0,0,0,3,34,45,8
7,3,17,1,5,1,3,1,45,11
7,3,18,1,5,1,3,34,101,11
8,3,12,1,6,1,3,34,101,11
8,3,2,0,4,0,3,1,109,11
8,3,5,0,5,1,3,34,69,11
8,3,18,1,5,1,3,34,88,11
8,3,14,1,5,1,3,1,26,11
8,3,13,1,4,0,3,1,3,9
9,4,13,1,2,0,3,1,88,9
9,4,4,0,4,0,3,34,101,11
9,4,16,1,5,1,3,1,101,11
9,4,11,1,5,1,3,34,88,11
9,4,3,0,6,1,3,34,101,11
9,4,16,1,4,0,3,1,11,9
9,4,19,1,0,0,3,1,101,11
9,4,10,1,1,0,3,34,95,11
9,4,17,1,3,0,3,34,11,9
10,4,11,1,4,0,4,1,109,11
10,4,14,1,6,1,4,34,101,11
10,4,10,1,2,0,4,34,88,9
11,4,19,1,4,0,4,1,3,11
11,4,19,1,0,0,4,34,62,11
12,1,12,1,6,1,4,34,85,11
12,1,17,1,4,0,4,34,85,11
12,1,23,0,5,1,4,34,38,11
12,1,12,1,1,0,4,34,38,11
1,1,8,1,0,0,1,34,38,8
2,1,11,1,6,1,1,34,26,11
2,1,16,1,0,0,1,34,88,11
3,2,17,1,4,0,1,34,3,11
3,2,19,1,5,1,1,34,101,11
3,2,20,1,5,1,1,34,11,9
4,2,10,1,2,0,2,34,3,11
4,2,15,1,2,0,2,34,101,11
5,2,18,1,4,0,2,34,38,11
7,3,9,1,4,0,3,34,70,9
7,3,11,1,1,0,3,34,17,11
7,3,15,1,6,1,3,34,12,9
8,3,3,0,2,0,3,34,101,11
8,3,21,0,4,0,3,34,17,11
11,4,19,1,5,1,4,34,38,8
12,1,12,1,0,0,4,34,38,11
12,1,12,1,0,0,4,34,17,11
2,1,7,1,2,0,1,25,73,11
2,1,21,0,5,1,1,25,73,11
2,1,21,0,5,1,1,25,73,11
2,1,12,1,6,1,1,25,126,11
2,1,17,1,1,0,1,25,126,11
3,2,19,1,2,0,1,25,126,11
3,2,19,1,4,0,1,25,86,11
3,2,19,1,3,0,1,25,126,11
3,2,20,1,5,1,1,25,126,11
4,2,20,1,3,0,2,25,126,11
4,2,12,1,6,1,2,25,17,11
4,2,17,1,5,1,2,25,83,11
4,2,10,1,6,1,2,25,85,11
4,2,23,0,0,0,2,25,85,11
5,2,21,0,5,1,2,25,101,11
5,2,18,1,3,0,2,25,88,11
6,3,12,1,1,0,2,25,17,11
6,3,18,1,1,0,2,25,73,11
6,3,12,1,5,1,2,25,85,11
7,3,0,0,2,0,3,25,62,11
7,3,22,0,5,1,3,25,109,11
7,3,12,1,0,0,3,25,88,11
8,3,19,1,4,0,3,25,73,11
8,3,18,1,0,0,3,25,126,11
8,3,18,1,1,0,3,25,17,11
8,3,22,0,3,0,3,25,88,11
9,4,6,0,6,1,3,25,17,11
9,4,9,1,1,0,3,25,43,11
9,4,7,1,1,0,3,25,88,11
11,4,4,0,6,1,4,25,62,11
12,1,22,0,1,0,4,25,17,11
12,1,9,1,3,0,4,25,126,11
12,1,21,0,6,1,4,25,126,11
1,1,7,1,5,1,1,25,80,11
2,1,19,1,2,0,1,25,73,11
2,1,23,0,4,0,1,25,38,11
2,1,16,1,2,0,1,25,73,11
4,2,22,0,1,0,2,25,101,11
5,2,0,0,3,0,2,25,73,11
7,3,12,1,1,0,3,25,60,11
7,3,19,1,1,0,3,25,109,11
9,4,9,1,0,0,3,25,17,11
12,1,10,1,6,1,4,25,73,11
1,1,2,0,1,0,1,25,73,9
2,1,17,1,2,0,1,25,101,11
3,2,15,1,5,1,1,25,17,11
4,2,11,1,5,1,2,25,88,11
4,2,20,1,6,1,2,25,88,11
4,2,17,1,3,0,2,25,17,11
4,2,3,0,6,1,2,25,73,11
4,2,19,1,1,0,2,25,88,11
6,3,12,1,1,0,2,25,85,11
9,4,17,1,5,1,3,25,85,11
12,1,15,1,3,0,4,25,73,11
3,2,22,0,4,0,1,25,109,9
3,2,15,1,0,0,1,25,109,9
3,2,6,0,1,0,1,25,109,11
4,2,22,0,2,0,2,25,12,11
4,2,13,1,2,0,2,25,73,11
4,2,18,1,6,1,2,25,17,11
5,2,23,0,1,0,2,25,40,11
6,3,19,1,5,1,2,25,126,8
7,3,5,0,0,0,3,25,109,11
8,3,3,0,0,0,3,25,85,11
11,4,0,0,2,0,4,25,126,11
12,1,22,0,4,0,4,25,109,11
1,1,15,1,4,0,1,14,73,11
1,1,8,1,2,0,1,14,70,9
1,1,19,1,2,0,1,14,38,11
2,1,20,1,3,0,1,14,12,11
2,1,12,1,0,0,1,14,88,11
2,1,14,1,4,0,1,14,101,11
2,1,14,1,3,0,1,14,88,11
3,2,13,1,4,0,1,14,101,11
3,2,19,1,4,0,1,14,88,11
3,2,15,1,6,1,1,14,38,11
3,2,10,1,3,0,1,14,88,11
3,2,20,1,6,1,1,14,85,11
3,2,20,1,4,0,1,14,38,11
3,2,12,1,1,0,1,14,11,11
4,2,18,1,4,0,2,14,73,11
4,2,20,1,5,1,2,14,38,11
4,2,12,1,3,0,2,14,95,11
4,2,3,0,5,1,2,14,95,11
4,2,18,1,0,0,2,14,88,11
4,2,22,0,3,0,2,14,88,11
4,2,14,1,5,1,2,14,88,11
5,2,1,0,3,0,2,14,88,11
5,2,10,1,3,0,2,14,101,11
5,2,13,1,3,0,2,14,3,11
5,2,17,1,5,1,2,14,95,11
5,2,18,1,2,0,2,14,88,11
5,2,21,0,5,1,2,14,88,11
5,2,1,0,4,0,2,14,13,11
5,2,9,1,4,0,2,14,12,11
5,2,10,1,5,1,2,14,104,11
5,2,4,0,2,0,2,14,126,11
6,3,13,1,5,1,2,14,3,9
6,3,12,1,4,0,2,14,126,11
6,3,16,1,4,0,2,14,126,11
6,3,5,0,6,1,2,14,101,11
6,3,23,0,0,0,2,14,126,11
6,3,0,0,5,1,2,14,73,9
6,3,10,1,5,1,2,14,85,11
6,3,20,1,2,0,2,14,73,11
6,3,1,0,3,0,2,14,101,11
6,3,10,1,4,0,2,14,101,11
6,3,7,1,4,0,2,14,85,11
6,3,15,1,6,1,2,14,101,11
7,3,10,1,0,0,3,14,101,11
7,3,10,1,1,0,3,14,101,11
7,3,14,1,1,0,3,14,17,11
7,3,18,1,2,0,3,14,101,11
7,3,14,1,5,1,3,14,88,11
7,3,10,1,6,1,3,14,101,11
7,3,17,1,0,0,3,14,101,11
7,3,9,1,1,0,3,14,38,11
7,3,21,0,5,1,3,14,101,11
7,3,14,1,4,0,3,14,3,11
7,3,23,0,4,0,3,14,85,11
7,3,20,1,0,0,3,14,88,11
7,3,22,0,4,0,3,14,101,11
7,3,5,0,5,1,3,14,88,11
7,3,17,1,6,1,3,14,88,11
7,3,15,1,6,1,3,14,101,11
7,3,4,0,2,0,3,14,88,11
8,3,17,1,3,0,3,14,101,11
8,3,12,1,0,0,3,14,101,11
8,3,5,0,2,0,3,14,126,11
8,3,7,1,3,0,3,14,88,11
8,3,13,1,4,0,3,14,126,11
8,3,18,1,4,0,3,14,101,11
8,3,19,1,2,0,3,14,88,11
8,3,0,0,6,1,3,14,88,11
8,3,4,0,5,1,3,14,101,11
8,3,21,0,5,1,3,14,126,8
9,4,19,1,3,0,3,14,101,11
9,4,10,1,4,0,3,14,88,11
9,4,6,0,5,1,3,14,17,11
9,4,3,0,6,1,3,14,101,11
9,4,12,1,0,0,3,14,17,11
9,4,23,0,1,0,3,14,101,11
9,4,20,1,4,0,3,14,126,11
9,4,20,1,4,0,3,14,88,11
9,4,19,1,5,1,3,14,88,11
9,4,18,1,5,1,3,14,85,11
9,4,9,1,6,1,3,14,101,11
9,4,6,0,3,0,3,14,73,11
9,4,5,0,5,1,3,14,126,11
9,4,8,1,1,0,3,14,109,11
10,4,8,1,1,0,4,14,126,11
10,4,22,0,2,0,4,14,3,11
10,4,13,1,2,0,4,14,3,11
10,4,4,0,4,0,4,14,52,8
10,4,17,1,4,0,4,14,109,11
10,4,16,1,4,0,4,14,3,11
10,4,18,1,5,1,4,14,88,11
10,4,17,1,3,0,4,14,101,11
10,4,13,1,5,1,4,14,101,11
10,4,11,1,0,0,4,14,88,11
10,4,16,1,1,0,4,14,88,11
10,4,19,1,5,1,4,14,88,11
10,4,11,1,2,0,4,14,101,11
10,4,16,1,3,0,4,14,88,11
10,4,15,1,3,0,4,14,88,11
10,4,19,1,4,0,4,14,30,11
10,4,14,1,5,1,4,14,126,9
10,4,18,1,2,0,4,14,101,11
11,4,10,1,4,0,4,14,88,9
11,4,21,0,5,1,4,14,101,11
11,4,20,1,1,0,4,14,76,11
12,1,16,1,4,0,4,14,62,11
12,1,23,0,1,0,4,14,126,11
12,1,23,0,2,0,4,14,62,11
12,1,18,1,1,0,4,14,73,11
12,1,14,1,3,0,4,14,88,11
12,1,12,1,1,0,4,14,73,11
12,1,14,1,1,0,4,14,3,11
3,2,21,0,5,1,1,14,126,11
7,3,22,0,1,0,3,14,126,11
8,3,4,0,5,1,3,14,109,11
8,3,0,0,3,0,3,14,126,11
9,4,18,1,6,1,3,14,88,11
6,3,17,1,4,0,2,14,126,11
