@Relation urban_new_2015_fold10_train

@ATTRIBUTE f1_minas          NUMERIC  % Μήνας (1-12)
@ATTRIBUTE f2_epochi         NUMERIC  % Εποχή (1=Χειμ 2=Άνοιξ 3=Καλοκ 4=Φθιν)
@ATTRIBUTE f3_ora            NUMERIC  % Ώρα ημέρας (0-23)
@ATTRIBUTE f4_mera_nyxta     NUMERIC  % Μέρα=1 Νύχτα=0
@ATTRIBUTE f5_imera_evdom    NUMERIC  % Ημέρα εβδομάδας (0=Δευτ 6=Κυρ)
@ATTRIBUTE f6_savvatokyriako NUMERIC  % Σαββ/κο=1 Καθημ=0
@ATTRIBUTE f7_trimino        NUMERIC  % Τρίμηνο (1-4)
@ATTRIBUTE f8_nomos          NUMERIC  % Κωδικός Νομού
@ATTRIBUTE f9_typos_xorou    NUMERIC  % Κωδικός τύπου χώρου
@ATTRIBUTE class             {8,9,11} % 8=Μεγάλη 9=Μεσαία 11=Μικρή

@DATA
3,2,12,1,0,0,1,5,31,11
6,3,19,1,1,0,2,5,8,11
7,3,6,0,5,1,3,5,87,11
8,3,14,1,6,1,3,5,112,11
8,3,16,1,2,0,3,5,19,11
8,3,15,1,4,0,3,5,112,11
8,3,14,1,1,0,3,5,112,11
8,3,0,0,3,0,3,5,8,11
11,4,6,0,0,0,4,5,19,11
11,4,18,1,1,0,4,5,58,11
12,1,15,1,6,1,4,5,5,11
1,1,8,1,3,0,1,5,90,11
1,1,1,0,5,1,1,5,90,11
1,1,21,0,5,1,1,5,90,11
1,1,18,1,6,1,1,5,90,11
1,1,23,0,6,1,1,5,90,11
1,1,23,0,6,1,1,5,90,11
1,1,5,0,0,0,1,5,90,11
1,1,3,0,0,0,1,5,90,11
1,1,17,1,0,0,1,5,67,11
1,1,9,1,2,0,1,5,90,11
1,1,7,1,2,0,1,5,90,11
1,1,17,1,2,0,1,5,67,11
1,1,21,0,3,0,1,5,90,11
1,1,18,1,3,0,1,5,67,11
1,1,1,0,4,0,1,5,90,11
1,1,23,0,4,0,1,5,90,11
1,1,23,0,4,0,1,5,90,11
1,1,18,1,4,0,1,5,67,11
1,1,16,1,6,1,1,5,90,11
1,1,0,0,0,0,1,5,90,11
1,1,2,0,0,0,1,5,90,11
1,1,18,1,1,0,1,5,67,11
1,1,22,0,1,0,1,5,90,11
1,1,12,1,2,0,1,5,67,8
1,1,14,1,2,0,1,5,131,11
1,1,20,1,2,0,1,5,100,11
1,1,2,0,3,0,1,5,9,11
1,1,8,1,3,0,1,5,30,11
1,1,7,1,3,0,1,5,91,11
1,1,19,1,3,0,1,5,67,11
1,1,22,0,3,0,1,5,91,11
1,1,17,1,4,0,1,5,122,11
1,1,15,1,4,0,1,5,90,11
1,1,3,0,5,1,1,5,90,11
1,1,17,1,5,1,1,5,67,11
1,1,20,1,6,1,1,5,90,11
1,1,16,1,6,1,1,5,58,11
1,1,12,1,6,1,1,5,67,11
1,1,11,1,6,1,1,5,90,11
1,1,2,0,6,1,1,5,90,11
1,1,20,1,1,0,1,5,67,11
1,1,23,0,2,0,1,5,67,11
1,1,16,1,2,0,1,5,67,11
1,1,14,1,3,0,1,5,67,11
1,1,3,0,4,0,1,5,90,11
1,1,23,0,5,1,1,5,67,11
1,1,18,1,0,0,1,5,67,11
1,1,11,1,1,0,1,5,90,11
1,1,18,1,1,0,1,5,90,11
1,1,15,1,2,0,1,5,48,11
1,1,21,0,2,0,1,5,100,11
1,1,0,0,3,0,1,5,67,11
1,1,6,0,4,0,1,5,48,8
1,1,5,0,5,1,1,5,67,11
1,1,14,1,5,1,1,5,67,11
2,1,19,1,6,1,1,5,9,11
2,1,17,1,0,0,1,5,90,11
2,1,4,0,2,0,1,5,90,11
2,1,11,1,2,0,1,5,90,11
2,1,14,1,3,0,1,5,90,11
2,1,21,0,3,0,1,5,90,11
2,1,22,0,4,0,1,5,90,11
2,1,23,0,4,0,1,5,90,11
2,1,19,1,5,1,1,5,90,11
2,1,19,1,5,1,1,5,90,11
2,1,14,1,6,1,1,5,67,11
2,1,9,1,0,0,1,5,100,11
2,1,20,1,0,0,1,5,90,11
2,1,19,1,1,0,1,5,67,11
2,1,0,0,2,0,1,5,67,11
2,1,15,1,2,0,1,5,67,11
2,1,15,1,2,0,1,5,67,11
2,1,7,1,4,0,1,5,90,11
2,1,5,0,4,0,1,5,67,11
2,1,4,0,5,1,1,5,90,11
2,1,2,0,5,1,1,5,90,11
2,1,22,0,5,1,1,5,90,11
2,1,5,0,6,1,1,5,90,11
2,1,3,0,6,1,1,5,90,11
2,1,3,0,6,1,1,5,90,11
2,1,3,0,6,1,1,5,90,11
2,1,6,0,6,1,1,5,90,11
2,1,3,0,0,0,1,5,90,11
2,1,20,1,0,0,1,5,67,11
2,1,5,0,2,0,1,5,90,11
2,1,23,0,2,0,1,5,67,11
2,1,7,1,3,0,1,5,100,11
2,1,20,1,3,0,1,5,90,11
2,1,19,1,3,0,1,5,67,11
2,1,3,0,4,0,1,5,100,11
2,1,18,1,4,0,1,5,100,11
2,1,0,0,5,1,1,5,100,11
2,1,4,0,5,1,1,5,100,11
2,1,23,0,5,1,1,5,18,11
2,1,12,1,6,1,1,5,84,11
2,1,22,0,0,0,1,5,9,11
2,1,21,0,1,0,1,5,100,11
2,1,21,0,2,0,1,5,9,11
2,1,5,0,3,0,1,5,90,11
2,1,9,1,3,0,1,5,90,11
2,1,20,1,3,0,1,5,90,11
2,1,20,1,3,0,1,5,90,11
2,1,20,1,3,0,1,5,90,11
2,1,20,1,3,0,1,5,90,11
2,1,20,1,4,0,1,5,90,11
2,1,11,1,5,1,1,5,67,11
3,2,11,1,2,0,1,5,19,11
3,2,16,1,2,0,1,5,67,11
3,2,18,1,6,1,1,5,67,11
3,2,20,1,6,1,1,5,67,11
3,2,21,0,1,0,1,5,67,11
3,2,10,1,2,0,1,5,113,11
3,2,18,1,3,0,1,5,90,11
3,2,20,1,3,0,1,5,90,11
3,2,14,1,3,0,1,5,67,11
3,2,14,1,3,0,1,5,90,11
3,2,14,1,3,0,1,5,90,11
3,2,1,0,4,0,1,5,90,11
3,2,15,1,6,1,1,5,90,11
3,2,17,1,0,0,1,5,103,11
3,2,0,0,1,0,1,5,90,11
3,2,20,1,1,0,1,5,90,11
3,2,23,0,1,0,1,5,90,11
3,2,15,1,1,0,1,5,90,11
3,2,19,1,1,0,1,5,31,11
3,2,12,1,3,0,1,5,67,11
3,2,4,0,4,0,1,5,90,11
3,2,17,1,5,1,1,5,67,11
3,2,22,0,5,1,1,5,90,11
3,2,2,0,5,1,1,5,90,11
3,2,20,1,6,1,1,5,90,11
3,2,6,0,6,1,1,5,90,11
3,2,6,0,6,1,1,5,90,11
3,2,3,0,6,1,1,5,90,11
3,2,4,0,6,1,1,5,90,11
3,2,5,0,0,0,1,5,90,11
3,2,23,0,1,0,1,5,90,11
3,2,0,0,2,0,1,5,90,11
3,2,2,0,2,0,1,5,90,11
3,2,20,1,3,0,1,5,90,11
3,2,22,0,4,0,1,5,90,11
3,2,0,0,5,1,1,5,90,11
3,2,21,0,5,1,1,5,67,11
3,2,18,1,6,1,1,5,67,11
3,2,23,0,6,1,1,5,90,11
4,2,0,0,3,0,2,5,67,11
4,2,12,1,3,0,2,5,90,11
4,2,1,0,4,0,2,5,122,11
4,2,0,0,4,0,2,5,90,11
4,2,17,1,4,0,2,5,67,11
4,2,22,0,4,0,2,5,67,11
4,2,10,1,5,1,2,5,14,11
4,2,17,1,6,1,2,5,90,11
4,2,4,0,2,0,2,5,32,11
4,2,16,1,3,0,2,5,67,11
4,2,18,1,4,0,2,5,87,11
4,2,2,0,4,0,2,5,90,11
4,2,2,0,4,0,2,5,90,11
4,2,2,0,5,1,2,5,90,11
4,2,4,0,5,1,2,5,90,11
4,2,4,0,6,1,2,5,90,11
4,2,7,1,0,0,2,5,90,11
4,2,17,1,0,0,2,5,90,11
4,2,20,1,0,0,2,5,90,11
4,2,15,1,0,0,2,5,90,11
4,2,8,1,0,0,2,5,90,11
4,2,1,0,1,0,2,5,90,11
4,2,1,0,1,0,2,5,90,11
4,2,2,0,4,0,2,5,58,11
4,2,19,1,4,0,2,5,90,11
4,2,22,0,4,0,2,5,90,11
4,2,11,1,4,0,2,5,9,11
4,2,10,1,4,0,2,5,67,9
4,2,0,0,5,1,2,5,90,11
4,2,0,0,5,1,2,5,48,11
4,2,5,0,1,0,2,5,90,11
4,2,23,0,3,0,2,5,90,11
4,2,10,1,3,0,2,5,31,11
4,2,2,0,5,1,2,5,90,11
4,2,3,0,5,1,2,5,90,11
4,2,21,0,5,1,2,5,90,11
4,2,5,0,6,1,2,5,39,11
4,2,4,0,0,0,2,5,67,11
4,2,19,1,0,0,2,5,48,11
4,2,11,1,1,0,2,5,90,11
4,2,19,1,1,0,2,5,67,11
4,2,2,0,2,0,2,5,90,11
5,2,19,1,4,0,2,5,90,11
5,2,1,0,0,0,2,5,90,11
5,2,22,0,0,0,2,5,66,11
5,2,17,1,0,0,2,5,90,11
5,2,15,1,1,0,2,5,84,11
5,2,13,1,3,0,2,5,67,11
5,2,2,0,3,0,2,5,90,11
5,2,20,1,4,0,2,5,90,11
5,2,17,1,4,0,2,5,9,11
5,2,16,1,4,0,2,5,86,11
5,2,12,1,4,0,2,5,67,11
5,2,9,1,4,0,2,5,31,11
5,2,5,0,4,0,2,5,90,11
5,2,2,0,5,1,2,5,90,11
5,2,16,1,6,1,2,5,93,11
5,2,4,0,0,0,2,5,90,11
5,2,3,0,0,0,2,5,90,11
5,2,19,1,0,0,2,5,78,11
5,2,17,1,0,0,2,5,48,11
5,2,1,0,4,0,2,5,90,11
5,2,22,0,4,0,2,5,90,11
5,2,21,0,4,0,2,5,90,11
5,2,14,1,4,0,2,5,67,11
5,2,5,0,0,0,2,5,90,11
5,2,3,0,0,0,2,5,90,11
5,2,19,1,0,0,2,5,67,11
5,2,11,1,2,0,2,5,67,11
5,2,1,0,3,0,2,5,9,11
5,2,16,1,5,1,2,5,90,11
5,2,3,0,6,1,2,5,122,11
5,2,6,0,6,1,2,5,90,11
5,2,4,0,6,1,2,5,93,11
5,2,21,0,1,0,2,5,67,11
5,2,6,0,3,0,2,5,93,11
5,2,6,0,5,1,2,5,67,11
5,2,2,0,5,1,2,5,90,11
5,2,19,1,6,1,2,5,90,11
6,3,3,0,1,0,2,5,29,11
6,3,15,1,1,0,2,5,90,11
6,3,15,1,1,0,2,5,90,11
6,3,11,1,1,0,2,5,67,11
6,3,8,1,1,0,2,5,67,11
6,3,10,1,1,0,2,5,90,11
6,3,1,0,3,0,2,5,90,11
6,3,21,0,5,1,2,5,90,11
6,3,10,1,6,1,2,5,67,11
6,3,14,1,6,1,2,5,80,11
6,3,1,0,0,0,2,5,67,11
6,3,21,0,1,0,2,5,29,11
6,3,23,0,3,0,2,5,67,11
6,3,20,1,5,1,2,5,67,11
6,3,0,0,0,0,2,5,90,11
6,3,15,1,1,0,2,5,90,11
6,3,22,0,1,0,2,5,132,11
6,3,2,0,3,0,2,5,90,11
6,3,1,0,4,0,2,5,122,11
6,3,4,0,6,1,2,5,67,11
6,3,2,0,1,0,2,5,90,11
6,3,22,0,1,0,2,5,19,11
6,3,14,1,1,0,2,5,90,11
6,3,1,0,3,0,2,5,90,11
6,3,21,0,3,0,2,5,90,11
6,3,21,0,3,0,2,5,67,11
6,3,6,0,4,0,2,5,101,8
6,3,14,1,4,0,2,5,90,11
6,3,14,1,5,1,2,5,39,8
6,3,17,1,0,0,2,5,67,11
6,3,20,1,1,0,2,5,100,11
6,3,22,0,1,0,2,5,100,11
7,3,21,0,3,0,3,5,90,11
7,3,21,0,3,0,3,5,90,11
7,3,2,0,4,0,3,5,90,11
7,3,3,0,4,0,3,5,67,11
7,3,0,0,5,1,3,5,90,11
7,3,23,0,6,1,3,5,9,11
7,3,17,1,6,1,3,5,18,11
7,3,10,1,0,0,3,5,58,11
7,3,0,0,1,0,3,5,67,11
7,3,0,0,2,0,3,5,90,11
7,3,4,0,3,0,3,5,90,11
7,3,21,0,3,0,3,5,90,11
7,3,21,0,3,0,3,5,90,11
7,3,20,1,5,1,3,5,90,11
7,3,9,1,5,1,3,5,67,11
7,3,4,0,6,1,3,5,90,11
7,3,23,0,6,1,3,5,67,11
7,3,3,0,0,0,3,5,90,8
7,3,2,0,2,0,3,5,67,11
7,3,21,0,2,0,3,5,90,11
7,3,9,1,2,0,3,5,90,11
7,3,18,1,3,0,3,5,67,8
7,3,10,1,3,0,3,5,67,11
7,3,0,0,3,0,3,5,67,11
7,3,9,1,0,0,3,5,90,11
7,3,20,1,0,0,3,5,90,11
7,3,12,1,0,0,3,5,67,8
7,3,0,0,1,0,3,5,84,9
7,3,3,0,1,0,3,5,67,11
7,3,5,0,1,0,3,5,90,11
7,3,17,1,1,0,3,5,90,11
7,3,17,1,1,0,3,5,9,11
7,3,11,1,1,0,3,5,90,11
7,3,23,0,2,0,3,5,90,11
7,3,6,0,3,0,3,5,90,11
7,3,6,0,4,0,3,5,90,11
7,3,1,0,4,0,3,5,90,11
7,3,9,1,5,1,3,5,93,11
7,3,23,0,5,1,3,5,67,11
7,3,1,0,6,1,3,5,38,11
7,3,11,1,0,0,3,5,90,11
7,3,12,1,0,0,3,5,90,11
7,3,18,1,1,0,3,5,67,11
7,3,22,0,1,0,3,5,60,11
7,3,9,1,2,0,3,5,67,11
7,3,12,1,2,0,3,5,66,11
7,3,10,1,3,0,3,5,9,11
8,3,22,0,5,1,3,5,90,11
8,3,22,0,6,1,3,5,90,11
8,3,23,0,0,0,3,5,9,11
8,3,21,0,0,0,3,5,48,9
8,3,23,0,0,0,3,5,9,11
8,3,18,1,1,0,3,5,90,11
8,3,13,1,2,0,3,5,38,11
8,3,13,1,3,0,3,5,90,11
8,3,18,1,3,0,3,5,58,11
8,3,21,0,4,0,3,5,90,11
8,3,21,0,6,1,3,5,90,11
8,3,2,0,3,0,3,5,90,11
8,3,16,1,3,0,3,5,91,11
8,3,21,0,4,0,3,5,67,11
8,3,0,0,6,1,3,5,100,11
8,3,14,1,6,1,3,5,48,11
8,3,17,1,2,0,3,5,90,11
8,3,0,0,3,0,3,5,100,11
8,3,20,1,3,0,3,5,100,11
8,3,9,1,3,0,3,5,67,11
8,3,10,1,4,0,3,5,29,11
8,3,22,0,5,1,3,5,90,11
8,3,19,1,0,0,3,5,67,11
8,3,0,0,1,0,3,5,100,11
8,3,22,0,1,0,3,5,67,11
8,3,0,0,3,0,3,5,100,11
8,3,12,1,3,0,3,5,93,11
8,3,16,1,3,0,3,5,39,11
8,3,18,1,5,1,3,5,90,11
8,3,22,0,5,1,3,5,90,11
8,3,1,0,0,0,3,5,90,11
9,4,4,0,2,0,3,5,100,11
9,4,13,1,2,0,3,5,9,11
9,4,10,1,2,0,3,5,67,11
9,4,13,1,2,0,3,5,90,11
9,4,21,0,2,0,3,5,100,11
9,4,19,1,2,0,3,5,67,11
9,4,19,1,3,0,3,5,90,11
9,4,20,1,6,1,3,5,67,11
9,4,23,0,6,1,3,5,90,11
9,4,14,1,1,0,3,5,67,8
9,4,12,1,1,0,3,5,67,8
9,4,21,0,2,0,3,5,90,11
9,4,2,0,4,0,3,5,100,11
9,4,10,1,4,0,3,5,29,11
9,4,15,1,4,0,3,5,67,11
9,4,19,1,6,1,3,5,67,11
9,4,14,1,0,0,3,5,67,11
9,4,0,0,5,1,3,5,67,11
9,4,4,0,5,1,3,5,90,11
9,4,5,0,5,1,3,5,90,11
9,4,11,1,6,1,3,5,100,11
9,4,0,0,0,0,3,5,67,11
9,4,7,1,1,0,3,5,78,11
9,4,4,0,4,0,3,5,100,11
9,4,4,0,5,1,3,5,58,11
9,4,19,1,6,1,3,5,100,11
9,4,15,1,0,0,3,5,67,11
9,4,13,1,0,0,3,5,67,11
9,4,0,0,1,0,3,5,100,11
10,4,1,0,3,0,4,5,9,11
10,4,1,0,3,0,4,5,100,11
10,4,16,1,4,0,4,5,67,11
10,4,1,0,5,1,4,5,100,11
10,4,4,0,5,1,4,5,90,11
10,4,23,0,5,1,4,5,67,11
10,4,13,1,5,1,4,5,67,11
10,4,6,0,6,1,4,5,90,11
10,4,20,1,1,0,4,5,100,11
10,4,21,0,1,0,4,5,100,11
10,4,21,0,1,0,4,5,100,11
10,4,18,1,2,0,4,5,63,11
10,4,13,1,1,0,4,5,67,11
10,4,10,1,2,0,4,5,67,11
10,4,12,1,2,0,4,5,31,11
10,4,19,1,3,0,4,5,67,11
10,4,0,0,4,0,4,5,90,11
10,4,3,0,5,1,4,5,90,11
10,4,3,0,6,1,4,5,32,11
10,4,21,0,0,0,4,5,43,11
10,4,10,1,3,0,4,5,100,11
10,4,11,1,3,0,4,5,100,11
10,4,12,1,3,0,4,5,66,11
10,4,1,0,6,1,4,5,33,11
10,4,8,1,6,1,4,5,100,11
10,4,12,1,2,0,4,5,67,11
10,4,6,0,3,0,4,5,100,11
10,4,0,0,4,0,4,5,67,11
10,4,22,0,4,0,4,5,100,11
10,4,21,0,4,0,4,5,100,11
10,4,14,1,5,1,4,5,67,11
11,4,11,1,6,1,4,5,67,11
11,4,11,1,6,1,4,5,90,11
11,4,19,1,6,1,4,5,100,11
11,4,17,1,0,0,4,5,67,11
11,4,1,0,1,0,4,5,15,8
11,4,1,0,1,0,4,5,15,8
11,4,20,1,1,0,4,5,66,11
11,4,5,0,2,0,4,5,19,11
11,4,17,1,2,0,4,5,90,11
11,4,7,1,4,0,4,5,67,11
11,4,2,0,5,1,4,5,90,11
11,4,19,1,5,1,4,5,90,11
11,4,19,1,0,0,4,5,67,11
11,4,10,1,0,0,4,5,100,11
11,4,9,1,1,0,4,5,78,11
11,4,17,1,1,0,4,5,90,11
11,4,10,1,2,0,4,5,67,11
11,4,7,1,2,0,4,5,78,11
11,4,12,1,2,0,4,5,67,11
11,4,0,0,3,0,4,5,78,9
11,4,3,0,3,0,4,5,90,11
11,4,3,0,5,1,4,5,101,11
11,4,13,1,5,1,4,5,76,11
11,4,2,0,6,1,4,5,90,11
11,4,17,1,6,1,4,5,90,11
11,4,17,1,6,1,4,5,90,11
11,4,1,0,2,0,4,5,67,8
11,4,1,0,2,0,4,5,67,8
11,4,1,0,3,0,4,5,90,11
11,4,15,1,3,0,4,5,67,11
11,4,0,0,4,0,4,5,100,11
11,4,1,0,4,0,4,5,100,11
11,4,0,0,4,0,4,5,100,11
11,4,20,1,4,0,4,5,67,11
11,4,17,1,5,1,4,5,100,11
11,4,5,0,6,1,4,5,90,11
11,4,4,0,6,1,4,5,90,11
11,4,14,1,6,1,4,5,67,11
11,4,3,0,6,1,4,5,19,11
11,4,11,1,0,0,4,5,90,11
11,4,7,1,0,0,4,5,48,11
11,4,2,0,1,0,4,5,100,11
11,4,22,0,3,0,4,5,90,11
11,4,14,1,5,1,4,5,67,11
11,4,19,1,5,1,4,5,115,11
11,4,11,1,6,1,4,5,90,11
11,4,2,0,6,1,4,5,90,11
11,4,15,1,0,0,4,5,67,11
11,4,17,1,0,0,4,5,9,11
12,1,17,1,2,0,4,5,58,11
12,1,19,1,2,0,4,5,67,11
12,1,11,1,2,0,4,5,48,11
12,1,1,0,3,0,4,5,90,11
12,1,7,1,3,0,4,5,90,11
12,1,4,0,4,0,4,5,67,11
12,1,3,0,5,1,4,5,90,11
12,1,12,1,5,1,4,5,100,11
12,1,15,1,5,1,4,5,67,11
12,1,1,0,5,1,4,5,31,11
12,1,1,0,5,1,4,5,19,11
12,1,21,0,5,1,4,5,90,11
12,1,4,0,5,1,4,5,100,11
12,1,3,0,6,1,4,5,90,11
12,1,15,1,6,1,4,5,101,11
12,1,0,0,6,1,4,5,90,11
12,1,3,0,6,1,4,5,100,11
12,1,10,1,6,1,4,5,58,11
12,1,0,0,6,1,4,5,90,11
12,1,20,1,6,1,4,5,19,11
12,1,19,1,6,1,4,5,90,11
12,1,8,1,0,0,4,5,90,11
12,1,0,0,0,0,4,5,90,11
12,1,18,1,1,0,4,5,90,11
12,1,4,0,3,0,4,5,9,11
12,1,22,0,3,0,4,5,67,11
12,1,21,0,3,0,4,5,100,11
12,1,21,0,3,0,4,5,100,11
12,1,23,0,3,0,4,5,112,8
12,1,18,1,4,0,4,5,100,11
12,1,16,1,4,0,4,5,90,11
12,1,3,0,5,1,4,5,67,11
12,1,0,0,5,1,4,5,19,8
12,1,4,0,5,1,4,5,19,11
12,1,12,1,6,1,4,5,67,11
12,1,14,1,0,0,4,5,67,11
12,1,23,0,0,0,4,5,90,11
12,1,22,0,0,0,4,5,90,11
12,1,21,0,0,0,4,5,67,11
12,1,1,0,1,0,4,5,90,11
12,1,19,1,1,0,4,5,9,11
12,1,3,0,2,0,4,5,67,11
12,1,17,1,2,0,4,5,103,11
12,1,2,0,3,0,4,5,100,11
12,1,21,0,3,0,4,5,55,11
12,1,2,0,4,0,4,5,100,11
12,1,11,1,4,0,4,5,67,11
12,1,7,1,5,1,4,5,100,11
12,1,9,1,5,1,4,5,67,11
12,1,7,1,6,1,4,5,133,11
12,1,14,1,0,0,4,5,90,11
12,1,4,0,0,0,4,5,67,11
12,1,3,0,1,0,4,5,29,11
12,1,9,1,1,0,4,5,67,11
12,1,15,1,1,0,4,5,31,11
12,1,22,0,1,0,4,5,75,11
12,1,0,0,2,0,4,5,133,11
12,1,5,0,2,0,4,5,90,11
12,1,22,0,2,0,4,5,90,11
12,1,0,0,3,0,4,5,90,11
12,1,2,0,3,0,4,5,67,11
12,1,5,0,4,0,4,5,100,11
12,1,11,1,4,0,4,5,67,11
12,1,7,1,6,1,4,5,90,11
12,1,1,0,0,0,4,5,90,11
12,1,23,0,0,0,4,5,100,11
12,1,14,1,1,0,4,5,9,11
12,1,18,1,1,0,4,5,100,11
12,1,22,0,1,0,4,5,67,11
12,1,20,1,2,0,4,5,67,11
12,1,14,1,3,0,4,5,100,11
1,1,19,1,3,0,1,5,106,11
1,1,17,1,4,0,1,5,90,11
1,1,15,1,5,1,1,5,67,11
1,1,2,0,0,0,1,5,100,11
1,1,5,0,0,0,1,5,87,8
1,1,17,1,1,0,1,5,90,11
1,1,8,1,2,0,1,5,66,11
1,1,6,0,2,0,1,5,19,11
1,1,20,1,3,0,1,5,9,11
1,1,19,1,4,0,1,5,100,11
1,1,18,1,4,0,1,5,75,11
1,1,16,1,4,0,1,5,1,11
1,1,10,1,4,0,1,5,67,9
1,1,1,0,6,1,1,5,133,11
1,1,5,0,0,0,1,5,90,11
1,1,7,1,0,0,1,5,90,11
1,1,6,0,2,0,1,5,1,11
1,1,0,0,3,0,1,5,133,11
1,1,1,0,4,0,1,5,31,8
1,1,12,1,5,1,1,5,90,11
1,1,23,0,5,1,1,5,100,11
1,1,12,1,1,0,1,5,14,8
1,1,0,0,1,0,1,5,90,11
1,1,5,0,1,0,1,5,67,11
1,1,23,0,1,0,1,5,78,9
1,1,20,1,1,0,1,5,67,11
1,1,19,1,2,0,1,5,90,11
1,1,11,1,2,0,1,5,67,11
1,1,22,0,2,0,1,5,90,11
1,1,18,1,3,0,1,5,93,11
1,1,10,1,4,0,1,5,90,11
1,1,22,0,5,1,1,5,67,11
1,1,6,0,5,1,1,5,67,11
1,1,3,0,5,1,1,5,133,11
1,1,2,0,5,1,1,5,133,11
1,1,1,0,5,1,1,5,133,11
1,1,15,1,6,1,1,5,67,11
1,1,3,0,0,0,1,5,75,11
1,1,10,1,0,0,1,5,67,11
1,1,9,1,1,0,1,5,67,11
1,1,18,1,4,0,1,5,78,11
2,1,0,0,6,1,1,5,67,11
2,1,0,0,1,0,1,5,106,11
2,1,20,1,1,0,1,5,90,11
2,1,14,1,5,1,1,5,67,11
2,1,4,0,5,1,1,5,100,11
2,1,11,1,6,1,1,5,90,11
2,1,2,0,0,0,1,5,90,11
2,1,12,1,0,0,1,5,100,11
2,1,12,1,0,0,1,5,106,11
2,1,8,1,0,0,1,5,78,11
2,1,20,1,1,0,1,5,133,11
2,1,2,0,2,0,1,5,90,11
2,1,3,0,2,0,1,5,67,11
2,1,21,0,2,0,1,5,67,11
2,1,3,0,4,0,1,5,90,11
2,1,3,0,4,0,1,5,66,11
2,1,3,0,4,0,1,5,90,11
2,1,19,1,4,0,1,5,90,11
2,1,14,1,5,1,1,5,90,11
2,1,17,1,5,1,1,5,90,11
2,1,21,0,0,0,1,5,106,11
2,1,22,0,0,0,1,5,106,11
2,1,5,0,1,0,1,5,106,11
2,1,15,1,3,0,1,5,67,11
2,1,18,1,4,0,1,5,106,11
2,1,23,0,5,1,1,5,90,11
2,1,23,0,5,1,1,5,90,11
2,1,23,0,5,1,1,5,90,11
2,1,12,1,5,1,1,5,106,11
2,1,15,1,6,1,1,5,67,11
2,1,20,1,0,0,1,5,67,9
2,1,21,0,1,0,1,5,67,11
2,1,14,1,1,0,1,5,67,11
2,1,14,1,1,0,1,5,75,11
2,1,22,0,2,0,1,5,90,11
2,1,18,1,2,0,1,5,90,11
2,1,14,1,2,0,1,5,39,11
2,1,2,0,3,0,1,5,90,11
2,1,0,0,3,0,1,5,90,11
2,1,10,1,3,0,1,5,1,11
2,1,18,1,4,0,1,5,60,11
2,1,16,1,5,1,1,5,106,11
3,2,6,0,6,1,1,5,106,11
3,2,3,0,6,1,1,5,106,11
3,2,22,0,2,0,1,5,78,11
3,2,17,1,3,0,1,5,67,11
3,2,22,0,0,0,1,5,100,11
3,2,21,0,0,0,1,5,133,11
3,2,1,0,1,0,1,5,100,11
3,2,0,0,1,0,1,5,100,11
3,2,14,1,1,0,1,5,100,11
3,2,1,0,3,0,1,5,106,11
3,2,23,0,1,0,1,5,100,11
3,2,9,1,2,0,1,5,78,11
3,2,16,1,2,0,1,5,100,11
3,2,18,1,3,0,1,5,90,11
3,2,8,1,3,0,1,5,67,11
3,2,2,0,4,0,1,5,100,11
3,2,22,0,5,1,1,5,48,11
3,2,21,0,5,1,1,5,90,11
3,2,17,1,5,1,1,5,23,9
3,2,16,1,5,1,1,5,100,11
3,2,2,0,0,0,1,5,32,11
3,2,11,1,2,0,1,5,58,11
3,2,20,1,3,0,1,5,67,11
3,2,1,0,6,1,1,5,67,11
3,2,1,0,6,1,1,5,90,11
3,2,15,1,6,1,1,5,75,9
3,2,0,0,0,0,1,5,133,11
3,2,13,1,0,0,1,5,90,11
3,2,1,0,1,0,1,5,90,11
3,2,21,0,1,0,1,5,75,11
4,2,1,0,2,0,2,5,58,8
4,2,19,1,2,0,2,5,58,11
4,2,23,0,5,1,2,5,90,11
4,2,23,0,5,1,2,5,100,11
4,2,13,1,5,1,2,5,100,11
4,2,1,0,6,1,2,5,46,11
4,2,16,1,0,0,2,5,90,11
4,2,20,1,1,0,2,5,90,11
4,2,0,0,2,0,2,5,90,11
4,2,16,1,2,0,2,5,78,11
4,2,22,0,2,0,2,5,100,11
4,2,23,0,3,0,2,5,90,11
4,2,20,1,3,0,2,5,90,11
4,2,23,0,5,1,2,5,100,11
4,2,22,0,6,1,2,5,75,11
4,2,17,1,6,1,2,5,67,11
4,2,4,0,6,1,2,5,67,11
4,2,1,0,6,1,2,5,67,11
4,2,1,0,6,1,2,5,67,11
4,2,0,0,6,1,2,5,90,11
4,2,0,0,6,1,2,5,100,11
4,2,15,1,0,0,2,5,100,11
4,2,12,1,0,0,2,5,90,11
4,2,12,1,0,0,2,5,67,11
4,2,7,1,0,0,2,5,90,11
4,2,1,0,0,0,2,5,90,11
4,2,19,1,0,0,2,5,67,11
4,2,16,1,0,0,2,5,86,11
4,2,1,0,1,0,2,5,100,11
4,2,15,1,1,0,2,5,67,11
4,2,21,0,1,0,2,5,100,11
4,2,20,1,1,0,2,5,100,11
4,2,22,0,3,0,2,5,1,11
4,2,21,0,4,0,2,5,90,11
4,2,8,1,5,1,2,5,67,11
4,2,4,0,6,1,2,5,90,11
4,2,15,1,6,1,2,5,93,11
4,2,2,0,0,0,2,5,60,8
4,2,13,1,0,0,2,5,90,11
4,2,13,1,0,0,2,5,90,11
4,2,1,0,1,0,2,5,78,9
4,2,0,0,2,0,2,5,100,11
4,2,20,1,2,0,2,5,67,11
4,2,9,1,3,0,2,5,78,11
4,2,2,0,4,0,2,5,90,11
4,2,15,1,4,0,2,5,66,11
4,2,14,1,4,0,2,5,67,9
4,2,15,1,6,1,2,5,67,11
4,2,11,1,6,1,2,5,67,11
4,2,0,0,0,0,2,5,67,11
4,2,4,0,1,0,2,5,67,11
4,2,23,0,1,0,2,5,100,11
4,2,16,1,1,0,2,5,67,11
4,2,23,0,2,0,2,5,133,11
4,2,18,1,2,0,2,5,19,11
4,2,8,1,3,0,2,5,67,11
5,2,20,1,4,0,2,5,75,11
5,2,3,0,5,1,2,5,75,11
5,2,15,1,5,1,2,5,93,11
5,2,9,1,6,1,2,5,75,11
5,2,16,1,6,1,2,5,90,11
5,2,19,1,1,0,2,5,87,11
5,2,0,0,3,0,2,5,112,11
5,2,4,0,3,0,2,5,133,11
5,2,4,0,3,0,2,5,100,11
5,2,4,0,3,0,2,5,100,11
5,2,4,0,3,0,2,5,100,11
5,2,14,1,3,0,2,5,90,11
5,2,15,1,6,1,2,5,58,11
5,2,5,0,0,0,2,5,67,11
5,2,19,1,0,0,2,5,48,11
5,2,17,1,0,0,2,5,67,11
5,2,21,0,0,0,2,5,39,11
5,2,20,1,1,0,2,5,78,11
5,2,15,1,2,0,2,5,90,11
5,2,11,1,3,0,2,5,90,11
5,2,19,1,4,0,2,5,93,11
5,2,16,1,4,0,2,5,58,11
5,2,21,0,6,1,2,5,1,11
5,2,6,0,6,1,2,5,39,9
5,2,7,1,6,1,2,5,67,11
5,2,3,0,6,1,2,5,133,11
5,2,11,1,0,0,2,5,19,11
5,2,14,1,0,0,2,5,9,11
5,2,18,1,1,0,2,5,93,11
5,2,23,0,1,0,2,5,75,11
5,2,23,0,2,0,2,5,100,11
5,2,19,1,2,0,2,5,82,11
5,2,10,1,4,0,2,5,67,11
5,2,15,1,4,0,2,5,58,11
5,2,22,0,4,0,2,5,67,11
5,2,1,0,5,1,2,5,106,11
5,2,3,0,5,1,2,5,78,11
5,2,10,1,5,1,2,5,67,11
5,2,0,0,6,1,2,5,39,11
5,2,1,0,6,1,2,5,100,11
5,2,1,0,6,1,2,5,39,11
5,2,5,0,6,1,2,5,67,11
5,2,14,1,6,1,2,5,100,11
5,2,3,0,0,0,2,5,90,11
5,2,3,0,0,0,2,5,90,11
5,2,2,0,0,0,2,5,90,11
5,2,2,0,0,0,2,5,90,11
5,2,2,0,0,0,2,5,90,11
5,2,2,0,0,0,2,5,90,11
5,2,2,0,0,0,2,5,90,11
5,2,4,0,0,0,2,5,90,11
5,2,4,0,0,0,2,5,90,11
5,2,16,1,0,0,2,5,67,11
5,2,6,0,1,0,2,5,75,11
5,2,17,1,1,0,2,5,100,11
5,2,20,1,2,0,2,5,67,11
5,2,2,0,3,0,2,5,58,11
5,2,0,0,4,0,2,5,103,11
5,2,14,1,4,0,2,5,67,11
5,2,17,1,6,1,2,5,90,11
5,2,17,1,6,1,2,5,67,11
5,2,18,1,6,1,2,5,90,11
6,3,16,1,0,0,2,5,90,11
6,3,17,1,0,0,2,5,39,8
6,3,21,0,0,0,2,5,67,11
6,3,1,0,1,0,2,5,106,11
6,3,22,0,1,0,2,5,90,11
6,3,18,1,1,0,2,5,106,11
6,3,16,1,1,0,2,5,67,11
6,3,16,1,1,0,2,5,106,11
6,3,4,0,2,0,2,5,75,11
6,3,6,0,3,0,2,5,75,11
6,3,18,1,3,0,2,5,90,11
6,3,13,1,3,0,2,5,106,11
6,3,13,1,3,0,2,5,67,11
6,3,2,0,5,1,2,5,90,11
6,3,1,0,6,1,2,5,90,11
6,3,2,0,6,1,2,5,19,11
6,3,3,0,6,1,2,5,29,11
6,3,19,1,6,1,2,5,67,11
6,3,22,0,0,0,2,5,1,11
6,3,22,0,0,0,2,5,106,11
6,3,23,0,0,0,2,5,90,11
6,3,16,1,0,0,2,5,100,11
6,3,0,0,0,0,2,5,78,11
6,3,10,1,2,0,2,5,48,9
6,3,12,1,4,0,2,5,67,11
6,3,19,1,4,0,2,5,75,11
6,3,23,0,5,1,2,5,90,11
6,3,13,1,6,1,2,5,67,11
6,3,16,1,6,1,2,5,93,11
6,3,3,0,6,1,2,5,90,11
6,3,11,1,6,1,2,5,93,11
6,3,20,1,6,1,2,5,75,11
6,3,2,0,0,0,2,5,90,11
6,3,0,0,0,0,2,5,90,11
6,3,11,1,1,0,2,5,93,11
6,3,5,0,2,0,2,5,133,11
6,3,10,1,2,0,2,5,58,11
6,3,11,1,2,0,2,5,90,11
6,3,12,1,2,0,2,5,1,11
6,3,13,1,2,0,2,5,67,11
6,3,3,0,3,0,2,5,75,11
6,3,6,0,3,0,2,5,90,11
6,3,16,1,3,0,2,5,67,9
6,3,22,0,3,0,2,5,67,11
6,3,2,0,6,1,2,5,106,11
6,3,2,0,6,1,2,5,1,11
6,3,21,0,6,1,2,5,90,11
6,3,18,1,1,0,2,5,93,11
6,3,18,1,1,0,2,5,78,11
6,3,1,0,2,0,2,5,93,11
6,3,21,0,2,0,2,5,106,11
6,3,10,1,2,0,2,5,90,11
6,3,14,1,3,0,2,5,93,11
6,3,14,1,3,0,2,5,23,9
6,3,21,0,4,0,2,5,1,11
6,3,23,0,5,1,2,5,90,11
6,3,22,0,5,1,2,5,93,11
6,3,21,0,5,1,2,5,93,11
6,3,14,1,5,1,2,5,90,11
6,3,5,0,5,1,2,5,103,11
6,3,4,0,6,1,2,5,9,11
6,3,20,1,0,0,2,5,67,11
7,3,11,1,3,0,3,5,93,11
7,3,2,0,5,1,3,5,1,11
7,3,18,1,5,1,3,5,106,11
7,3,4,0,0,0,3,5,67,11
7,3,12,1,2,0,3,5,106,11
7,3,17,1,2,0,3,5,67,11
7,3,5,0,3,0,3,5,90,11
7,3,16,1,3,0,3,5,90,11
7,3,7,1,4,0,3,5,67,11
7,3,5,0,5,1,3,5,106,11
7,3,22,0,5,1,3,5,78,11
7,3,12,1,6,1,3,5,106,11
7,3,14,1,0,0,3,5,67,11
7,3,0,0,1,0,3,5,91,11
7,3,19,1,1,0,3,5,1,11
7,3,20,1,3,0,3,5,67,11
7,3,19,1,3,0,3,5,90,11
7,3,19,1,4,0,3,5,67,11
7,3,9,1,5,1,3,5,67,11
7,3,10,1,6,1,3,5,90,11
7,3,12,1,6,1,3,5,90,11
7,3,15,1,6,1,3,5,93,11
7,3,23,0,0,0,3,5,106,11
7,3,13,1,0,0,3,5,75,11
7,3,8,1,0,0,3,5,75,11
7,3,6,0,0,0,3,5,75,11
7,3,13,1,1,0,3,5,90,11
7,3,22,0,2,0,3,5,67,11
7,3,16,1,2,0,3,5,90,11
7,3,15,1,2,0,3,5,93,11
7,3,8,1,2,0,3,5,67,11
7,3,7,1,2,0,3,5,67,11
7,3,23,0,2,0,3,5,90,11
7,3,1,0,2,0,3,5,93,8
7,3,23,0,3,0,3,5,31,11
7,3,23,0,3,0,3,5,67,11
7,3,23,0,4,0,3,5,90,11
7,3,1,0,5,1,3,5,67,11
7,3,0,0,0,0,3,5,106,11
7,3,10,1,0,0,3,5,67,11
7,3,17,1,0,0,3,5,106,11
7,3,3,0,1,0,3,5,106,11
7,3,6,0,2,0,3,5,67,11
7,3,7,1,3,0,3,5,90,11
7,3,4,0,4,0,3,5,90,11
7,3,12,1,4,0,3,5,67,11
8,3,13,1,5,1,3,5,93,11
8,3,23,0,6,1,3,5,90,11
8,3,13,1,6,1,3,5,90,11
8,3,11,1,0,0,3,5,100,11
8,3,16,1,3,0,3,5,106,11
8,3,6,0,4,0,3,5,100,11
8,3,6,0,4,0,3,5,100,11
8,3,17,1,4,0,3,5,67,11
8,3,19,1,3,0,3,5,31,11
8,3,20,1,5,1,3,5,1,11
8,3,0,0,5,1,3,5,75,11
8,3,16,1,6,1,3,5,100,11
8,3,22,0,0,0,3,5,67,11
8,3,16,1,0,0,3,5,133,11
8,3,16,1,2,0,3,5,93,11
8,3,6,0,3,0,3,5,133,11
8,3,6,0,4,0,3,5,67,11
8,3,0,0,5,1,3,5,132,11
8,3,0,0,6,1,3,5,100,11
8,3,2,0,6,1,3,5,106,11
8,3,2,0,1,0,3,5,133,11
8,3,22,0,2,0,3,5,93,11
8,3,19,1,4,0,3,5,106,11
8,3,15,1,4,0,3,5,90,11
8,3,16,1,6,1,3,5,75,11
8,3,13,1,6,1,3,5,75,9
8,3,13,1,6,1,3,5,90,11
9,4,3,0,2,0,3,5,122,11
9,4,22,0,2,0,3,5,90,11
9,4,22,0,2,0,3,5,90,11
9,4,2,0,3,0,3,5,90,11
9,4,2,0,3,0,3,5,90,11
9,4,2,0,3,0,3,5,100,11
9,4,14,1,3,0,3,5,67,11
9,4,23,0,3,0,3,5,67,11
9,4,1,0,4,0,3,5,133,11
9,4,7,1,4,0,3,5,75,11
9,4,13,1,4,0,3,5,67,11
9,4,14,1,4,0,3,5,90,11
9,4,15,1,4,0,3,5,90,11
9,4,3,0,5,1,3,5,90,11
9,4,2,0,5,1,3,5,90,11
9,4,2,0,5,1,3,5,90,11
9,4,23,0,6,1,3,5,67,11
9,4,16,1,6,1,3,5,67,9
9,4,1,0,6,1,3,5,90,11
9,4,1,0,6,1,3,5,90,11
9,4,2,0,6,1,3,5,90,11
9,4,0,0,6,1,3,5,90,11
9,4,4,0,0,0,3,5,90,11
9,4,2,0,0,0,3,5,90,11
9,4,7,1,0,0,3,5,29,11
9,4,8,1,1,0,3,5,67,9
9,4,23,0,3,0,3,5,90,11
9,4,6,0,4,0,3,5,90,11
9,4,22,0,4,0,3,5,133,11
9,4,0,0,6,1,3,5,67,9
9,4,3,0,6,1,3,5,133,11
9,4,19,1,6,1,3,5,75,9
9,4,21,0,6,1,3,5,90,11
9,4,11,1,0,0,3,5,1,11
9,4,1,0,1,0,3,5,74,11
9,4,1,0,2,0,3,5,67,11
9,4,16,1,2,0,3,5,23,11
9,4,3,0,3,0,3,5,90,11
9,4,3,0,4,0,3,5,90,11
9,4,10,1,4,0,3,5,78,11
9,4,6,0,5,1,3,5,19,11
9,4,9,1,1,0,3,5,67,11
9,4,2,0,3,0,3,5,90,11
9,4,5,0,5,1,3,5,60,8
9,4,0,0,0,0,3,5,133,11
9,4,4,0,1,0,3,5,19,11
9,4,1,0,2,0,3,5,90,11
10,4,18,1,5,1,4,5,19,11
10,4,2,0,5,1,4,5,100,11
10,4,20,1,5,1,4,5,90,11
10,4,23,0,6,1,4,5,90,11
10,4,3,0,2,0,4,5,110,11
10,4,10,1,3,0,4,5,23,11
10,4,16,1,4,0,4,5,93,11
10,4,14,1,1,0,4,5,93,11
10,4,5,0,2,0,4,5,93,11
10,4,12,1,3,0,4,5,90,11
10,4,6,0,4,0,4,5,90,11
10,4,16,1,4,0,4,5,67,11
10,4,1,0,6,1,4,5,91,11
10,4,21,0,6,1,4,5,90,11
10,4,22,0,6,1,4,5,90,11
10,4,16,1,0,0,4,5,106,11
10,4,15,1,1,0,4,5,75,11
10,4,3,0,2,0,4,5,106,11
10,4,22,0,2,0,4,5,106,11
10,4,18,1,5,1,4,5,67,11
10,4,5,0,6,1,4,5,90,11
10,4,0,0,3,0,4,5,90,11
10,4,0,0,3,0,4,5,90,11
10,4,12,1,3,0,4,5,48,11
10,4,10,1,5,1,4,5,93,11
11,4,10,1,0,0,4,5,67,11
11,4,5,0,1,0,4,5,106,11
11,4,11,1,2,0,4,5,23,9
11,4,0,0,3,0,4,5,19,11
11,4,4,0,3,0,4,5,90,11
11,4,17,1,3,0,4,5,67,11
11,4,11,1,4,0,4,5,48,11
11,4,5,0,5,1,4,5,106,11
11,4,20,1,5,1,4,5,106,11
11,4,20,1,5,1,4,5,39,11
11,4,4,0,6,1,4,5,93,8
11,4,22,0,0,0,4,5,75,11
11,4,20,1,1,0,4,5,78,11
11,4,5,0,2,0,4,5,78,11
11,4,3,0,4,0,4,5,100,11
11,4,14,1,4,0,4,5,67,11
11,4,8,1,5,1,4,5,78,9
11,4,10,1,5,1,4,5,67,11
11,4,1,0,6,1,4,5,90,11
11,4,16,1,1,0,4,5,67,11
11,4,6,0,2,0,4,5,90,11
11,4,13,1,2,0,4,5,75,11
11,4,15,1,3,0,4,5,78,11
11,4,22,0,3,0,4,5,106,11
11,4,1,0,4,0,4,5,106,11
11,4,13,1,4,0,4,5,53,11
11,4,5,0,6,1,4,5,133,11
11,4,5,0,6,1,4,5,133,11
11,4,11,1,6,1,4,5,19,11
11,4,11,1,6,1,4,5,78,11
11,4,18,1,2,0,4,5,100,11
11,4,5,0,3,0,4,5,90,11
11,4,5,0,4,0,4,5,90,11
11,4,15,1,4,0,4,5,100,11
11,4,4,0,0,0,4,5,90,11
11,4,3,0,0,0,4,5,90,11
11,4,5,0,0,0,4,5,66,11
11,4,21,0,0,0,4,5,106,11
12,1,0,0,1,0,4,5,46,11
12,1,4,0,1,0,4,5,75,11
12,1,23,0,1,0,4,5,90,11
12,1,13,1,1,0,4,5,39,11
12,1,3,0,2,0,4,5,90,11
12,1,19,1,3,0,4,5,90,11
12,1,10,1,4,0,4,5,78,8
12,1,22,0,4,0,4,5,67,8
12,1,5,0,5,1,4,5,100,11
12,1,3,0,5,1,4,5,100,11
12,1,5,0,5,1,4,5,100,11
12,1,3,0,5,1,4,5,100,11
12,1,20,1,5,1,4,5,106,11
12,1,0,0,6,1,4,5,90,11
12,1,11,1,6,1,4,5,67,9
12,1,19,1,1,0,4,5,90,11
12,1,17,1,2,0,4,5,78,11
12,1,14,1,3,0,4,5,106,11
12,1,10,1,3,0,4,5,90,11
12,1,6,0,4,0,4,5,106,11
12,1,11,1,4,0,4,5,67,11
12,1,10,1,5,1,4,5,67,11
12,1,1,0,5,1,4,5,106,11
12,1,4,0,6,1,4,5,90,11
12,1,1,0,6,1,4,5,90,11
12,1,0,0,6,1,4,5,90,11
12,1,2,0,6,1,4,5,90,11
12,1,19,1,6,1,4,5,67,11
12,1,23,0,1,0,4,5,133,11
12,1,3,0,4,0,4,5,106,11
12,1,19,1,6,1,4,5,90,11
12,1,14,1,6,1,4,5,90,11
12,1,18,1,2,0,4,5,67,11
12,1,2,0,3,0,4,5,90,11
12,1,15,1,3,0,4,5,67,11
12,1,10,1,4,0,4,5,90,11
12,1,16,1,4,0,4,5,67,11
12,1,18,1,4,0,4,5,100,11
12,1,4,0,5,1,4,5,106,11
12,1,4,0,5,1,4,5,106,11
12,1,3,0,5,1,4,5,106,11
12,1,5,0,5,1,4,5,106,11
12,1,5,0,5,1,4,5,106,11
12,1,4,0,0,0,4,5,106,11
12,1,5,0,0,0,4,5,90,11
12,1,2,0,1,0,4,5,106,11
12,1,15,1,1,0,4,5,67,11
12,1,14,1,2,0,4,5,90,11
12,1,16,1,2,0,4,5,67,8
12,1,22,0,3,0,4,5,90,11
8,3,23,0,0,0,3,5,67,11
1,1,2,0,4,0,1,5,87,11
1,1,20,1,5,1,1,5,67,11
1,1,20,1,6,1,1,5,90,11
1,1,20,1,6,1,1,5,90,11
1,1,21,0,6,1,1,5,90,11
1,1,2,0,0,0,1,5,115,11
1,1,16,1,1,0,1,5,67,11
1,1,19,1,2,0,1,5,106,11
1,1,9,1,2,0,1,5,90,11
1,1,8,1,3,0,1,5,39,11
1,1,14,1,4,0,1,5,67,11
1,1,3,0,6,1,1,5,19,11
1,1,4,0,6,1,1,5,90,11
1,1,0,0,6,1,1,5,90,11
1,1,22,0,1,0,1,5,39,11
1,1,10,1,1,0,1,5,19,11
1,1,20,1,2,0,1,5,67,11
1,1,17,1,4,0,1,5,93,11
1,1,18,1,6,1,1,5,90,11
1,1,17,1,6,1,1,5,67,11
1,1,12,1,6,1,1,5,133,11
1,1,1,0,0,0,1,5,90,11
1,1,11,1,2,0,1,5,67,11
1,1,17,1,3,0,1,5,67,11
1,1,3,0,5,1,1,5,111,11
2,1,11,1,6,1,1,5,67,11
2,1,1,0,0,0,1,5,90,11
2,1,16,1,1,0,1,5,90,11
2,1,8,1,1,0,1,5,19,11
2,1,13,1,5,1,1,5,78,11
2,1,18,1,5,1,1,5,67,11
2,1,19,1,0,0,1,5,90,11
2,1,0,0,1,0,1,5,111,11
2,1,19,1,6,1,1,5,67,11
2,1,22,0,0,0,1,5,100,11
2,1,20,1,0,0,1,5,67,11
2,1,2,0,1,0,1,5,100,11
2,1,23,0,2,0,1,5,67,11
2,1,4,0,4,0,1,5,90,11
2,1,6,0,4,0,1,5,90,11
2,1,3,0,6,1,1,5,19,11
2,1,3,0,6,1,1,5,19,11
2,1,9,1,6,1,1,5,67,11
2,1,14,1,2,0,1,5,58,11
2,1,17,1,4,0,1,5,67,8
2,1,23,0,5,1,1,5,90,11
2,1,20,1,5,1,1,5,67,11
3,2,19,1,6,1,1,5,67,11
3,2,13,1,6,1,1,5,39,11
3,2,0,0,6,1,1,5,90,11
3,2,11,1,6,1,1,5,67,11
3,2,0,0,2,0,1,5,106,11
3,2,22,0,6,1,1,5,67,11
3,2,4,0,6,1,1,5,90,11
3,2,2,0,2,0,1,5,106,11
3,2,21,0,2,0,1,5,67,11
3,2,2,0,2,0,1,5,75,11
3,2,21,0,5,1,1,5,90,11
3,2,21,0,5,1,1,5,90,11
3,2,18,1,5,1,1,5,67,11
3,2,19,1,6,1,1,5,90,11
3,2,1,0,6,1,1,5,67,11
3,2,18,1,0,0,1,5,67,11
3,2,10,1,3,0,1,5,122,11
3,2,3,0,3,0,1,5,67,11
3,2,2,0,5,1,1,5,122,11
3,2,13,1,5,1,1,5,82,11
3,2,2,0,5,1,1,5,122,11
3,2,13,1,5,1,1,5,19,11
3,2,6,0,6,1,1,5,67,11
3,2,23,0,1,0,1,5,19,11
3,2,14,1,3,0,1,5,19,11
3,2,4,0,3,0,1,5,90,11
3,2,22,0,3,0,1,5,67,11
3,2,1,0,6,1,1,5,19,11
3,2,15,1,6,1,1,5,78,11
3,2,22,0,0,0,1,5,108,11
3,2,22,0,1,0,1,5,19,11
3,2,4,0,1,0,1,5,90,11
3,2,2,0,1,0,1,5,90,11
4,2,20,1,2,0,2,5,67,11
4,2,21,0,3,0,2,5,106,11
4,2,2,0,4,0,2,5,39,11
4,2,23,0,4,0,2,5,106,11
4,2,21,0,6,1,2,5,90,11
4,2,17,1,6,1,2,5,93,11
4,2,22,0,6,1,2,5,106,11
4,2,23,0,2,0,2,5,67,11
4,2,21,0,3,0,2,5,106,11
4,2,15,1,3,0,2,5,106,11
4,2,21,0,4,0,2,5,90,11
4,2,23,0,6,1,2,5,90,11
4,2,4,0,6,1,2,5,67,11
4,2,5,0,0,0,2,5,90,11
4,2,0,0,0,0,2,5,19,11
4,2,22,0,1,0,2,5,106,11
4,2,18,1,4,0,2,5,78,11
4,2,6,0,4,0,2,5,124,11
4,2,3,0,5,1,2,5,90,11
4,2,0,0,5,1,2,5,19,11
4,2,1,0,6,1,2,5,100,11
4,2,20,1,1,0,2,5,67,11
4,2,17,1,3,0,2,5,90,11
4,2,16,1,3,0,2,5,67,11
4,2,23,0,3,0,2,5,67,11
4,2,22,0,3,0,2,5,90,11
4,2,11,1,4,0,2,5,67,11
4,2,0,0,2,0,2,5,67,11
4,2,0,0,3,0,2,5,66,11
4,2,8,1,3,0,2,5,100,11
5,2,18,1,4,0,2,5,93,11
5,2,20,1,5,1,2,5,39,11
5,2,2,0,6,1,2,5,90,11
5,2,3,0,0,0,2,5,48,11
5,2,13,1,2,0,2,5,67,11
5,2,21,0,4,0,2,5,39,11
5,2,21,0,5,1,2,5,67,11
5,2,7,1,6,1,2,5,90,11
5,2,6,0,6,1,2,5,115,11
5,2,23,0,0,0,2,5,90,11
5,2,16,1,1,0,2,5,78,8
5,2,2,0,2,0,2,5,90,11
5,2,5,0,2,0,2,5,81,11
5,2,14,1,2,0,2,5,93,11
5,2,10,1,3,0,2,5,100,11
5,2,15,1,3,0,2,5,67,11
5,2,12,1,4,0,2,5,39,11
5,2,12,1,5,1,2,5,67,11
5,2,12,1,5,1,2,5,90,11
5,2,0,0,5,1,2,5,66,11
5,2,9,1,5,1,2,5,90,11
5,2,19,1,5,1,2,5,93,11
5,2,23,0,1,0,2,5,90,11
5,2,23,0,1,0,2,5,90,11
5,2,7,1,6,1,2,5,100,11
5,2,23,0,0,0,2,5,100,11
5,2,17,1,3,0,2,5,115,11
5,2,13,1,4,0,2,5,90,11
5,2,4,0,5,1,2,5,19,11
5,2,12,1,6,1,2,5,67,11
6,3,23,0,2,0,2,5,90,11
6,3,8,1,4,0,2,5,29,11
6,3,21,0,4,0,2,5,67,11
6,3,17,1,6,1,2,5,78,11
6,3,10,1,6,1,2,5,67,11
6,3,4,0,0,0,2,5,67,11
6,3,2,0,0,0,2,5,9,11
6,3,8,1,4,0,2,5,58,11
6,3,12,1,4,0,2,5,86,11
6,3,13,1,6,1,2,5,67,11
6,3,18,1,6,1,2,5,93,11
6,3,21,0,6,1,2,5,106,11
6,3,13,1,2,0,2,5,100,11
6,3,15,1,2,0,2,5,100,11
6,3,23,0,5,1,2,5,48,11
6,3,12,1,6,1,2,5,106,11
6,3,1,0,0,0,2,5,68,11
6,3,8,1,3,0,2,5,19,11
6,3,22,0,5,1,2,5,93,11
6,3,14,1,5,1,2,5,67,11
6,3,3,0,5,1,2,5,90,11
6,3,1,0,6,1,2,5,93,11
6,3,16,1,0,0,2,5,126,11
6,3,10,1,0,0,2,5,67,11
6,3,14,1,1,0,2,5,75,11
6,3,1,0,1,0,2,5,67,11
7,3,10,1,2,0,3,5,67,11
7,3,20,1,2,0,3,5,67,11
7,3,1,0,4,0,3,5,9,11
7,3,4,0,5,1,3,5,59,11
7,3,16,1,6,1,3,5,9,11
7,3,23,0,2,0,3,5,76,11
7,3,17,1,3,0,3,5,67,11
7,3,0,0,6,1,3,5,9,11
7,3,13,1,1,0,3,5,90,11
7,3,13,1,1,0,3,5,19,11
7,3,19,1,1,0,3,5,90,11
7,3,15,1,4,0,3,5,100,11
7,3,21,0,4,0,3,5,106,11
7,3,2,0,6,1,3,5,67,11
7,3,18,1,6,1,3,5,48,11
7,3,19,1,6,1,3,5,67,11
7,3,23,0,0,0,3,5,121,11
7,3,2,0,0,0,3,5,93,11
7,3,22,0,3,0,3,5,132,11
7,3,14,1,4,0,3,5,100,11
7,3,19,1,6,1,3,5,67,11
7,3,19,1,0,0,3,5,67,11
7,3,22,0,0,0,3,5,90,11
7,3,14,1,1,0,3,5,67,11
7,3,5,0,1,0,3,5,93,11
7,3,13,1,1,0,3,5,39,11
7,3,3,0,2,0,3,5,59,11
7,3,3,0,3,0,3,5,67,11
7,3,16,1,4,0,3,5,86,11
8,3,2,0,0,0,3,5,106,11
8,3,10,1,1,0,3,5,67,11
8,3,1,0,4,0,3,5,103,11
8,3,10,1,5,1,3,5,86,11
8,3,2,0,0,0,3,5,100,11
8,3,17,1,0,0,3,5,75,11
8,3,16,1,1,0,3,5,93,11
8,3,6,0,1,0,3,5,19,11
8,3,18,1,5,1,3,5,90,11
8,3,23,0,1,0,3,5,78,11
8,3,20,1,3,0,3,5,90,11
8,3,20,1,5,1,3,5,2,11
8,3,4,0,0,0,3,5,93,11
8,3,14,1,0,0,3,5,67,11
8,3,15,1,2,0,3,5,67,11
8,3,13,1,3,0,3,5,67,11
8,3,4,0,0,0,3,5,93,11
8,3,0,0,0,0,3,5,120,11
9,4,18,1,2,0,3,5,93,11
9,4,15,1,3,0,3,5,115,11
9,4,8,1,3,0,3,5,39,11
9,4,19,1,4,0,3,5,67,11
9,4,22,0,6,1,3,5,67,11
9,4,1,0,0,0,3,5,93,11
9,4,22,0,0,0,3,5,100,11
9,4,13,1,1,0,3,5,9,11
9,4,13,1,1,0,3,5,90,11
9,4,5,0,0,0,3,5,9,11
9,4,5,0,0,0,3,5,9,11
9,4,8,1,1,0,3,5,67,11
9,4,8,1,2,0,3,5,90,11
9,4,10,1,3,0,3,5,1,11
9,4,11,1,5,1,3,5,67,11
9,4,2,0,6,1,3,5,93,11
9,4,18,1,6,1,3,5,19,11
9,4,13,1,5,1,3,5,67,11
9,4,19,1,0,0,3,5,67,11
9,4,2,0,1,0,3,5,90,11
10,4,19,1,6,1,4,5,39,11
10,4,20,1,5,1,4,5,75,11
10,4,18,1,5,1,4,5,67,11
10,4,8,1,0,0,4,5,75,11
10,4,14,1,2,0,4,5,67,11
10,4,20,1,4,0,4,5,67,11
10,4,17,1,5,1,4,5,19,11
10,4,22,0,2,0,4,5,100,11
10,4,23,0,3,0,4,5,28,11
10,4,21,0,3,0,4,5,133,11
10,4,19,1,3,0,4,5,67,11
10,4,5,0,6,1,4,5,133,11
10,4,11,1,6,1,4,5,67,11
10,4,0,0,2,0,4,5,67,11
10,4,19,1,5,1,4,5,90,11
11,4,7,1,6,1,4,5,58,11
11,4,13,1,0,0,4,5,67,11
11,4,20,1,0,0,4,5,66,11
11,4,22,0,0,0,4,5,115,11
11,4,18,1,1,0,4,5,9,11
11,4,19,1,1,0,4,5,78,11
11,4,20,1,3,0,4,5,93,11
11,4,13,1,6,1,4,5,67,11
11,4,0,0,0,0,4,5,67,11
11,4,1,0,0,0,4,5,90,11
11,4,17,1,0,0,4,5,39,11
11,4,1,0,2,0,4,5,32,11
11,4,1,0,3,0,4,5,1,11
11,4,1,0,3,0,4,5,90,11
11,4,1,0,3,0,4,5,90,11
11,4,19,1,6,1,4,5,106,11
11,4,21,0,1,0,4,5,67,11
11,4,22,0,3,0,4,5,100,11
11,4,22,0,3,0,4,5,58,11
11,4,0,0,5,1,4,5,78,11
11,4,22,0,5,1,4,5,133,11
11,4,20,1,1,0,4,5,100,11
11,4,17,1,5,1,4,5,39,11
11,4,3,0,6,1,4,5,106,11
11,4,4,0,6,1,4,5,106,11
12,1,4,0,2,0,4,5,106,11
12,1,15,1,3,0,4,5,67,11
12,1,1,0,5,1,4,5,90,11
12,1,22,0,5,1,4,5,67,11
12,1,2,0,0,0,4,5,133,11
12,1,12,1,1,0,4,5,115,11
12,1,23,0,2,0,4,5,39,11
12,1,10,1,2,0,4,5,39,11
12,1,1,0,5,1,4,5,90,11
12,1,0,0,6,1,4,5,90,11
12,1,18,1,6,1,4,5,67,11
12,1,3,0,0,0,4,5,90,11
12,1,11,1,0,0,4,5,90,11
12,1,13,1,1,0,4,5,76,11
12,1,1,0,1,0,4,5,106,11
12,1,22,0,1,0,4,5,90,11
12,1,20,1,4,0,4,5,67,11
12,1,20,1,5,1,4,5,115,11
12,1,13,1,5,1,4,5,67,11
12,1,22,0,5,1,4,5,90,11
12,1,4,0,6,1,4,5,1,11
12,1,4,0,6,1,4,5,90,11
12,1,15,1,0,0,4,5,67,11
12,1,4,0,1,0,4,5,89,11
12,1,4,0,2,0,4,5,133,11
12,1,6,0,2,0,4,5,133,11
12,1,23,0,2,0,4,5,67,11
12,1,17,1,3,0,4,5,90,11
12,1,8,1,3,0,4,5,19,11
12,1,5,0,4,0,4,5,19,11
12,1,2,0,4,0,4,5,79,11
12,1,2,0,4,0,4,5,133,11
12,1,6,0,4,0,4,5,133,11
12,1,2,0,4,0,4,5,133,11
12,1,18,1,4,0,4,5,67,11
12,1,23,0,4,0,4,5,133,11
12,1,23,0,4,0,4,5,133,11
12,1,21,0,5,1,4,5,90,11
12,1,20,1,5,1,4,5,90,11
12,1,17,1,5,1,4,5,67,11
12,1,0,0,5,1,4,5,133,11
12,1,0,0,5,1,4,5,133,11
12,1,3,0,0,0,4,5,122,11
12,1,23,0,0,0,4,5,90,11
12,1,3,0,1,0,4,5,90,11
12,1,21,0,3,0,4,5,67,11
12,1,19,1,3,0,4,5,67,11
1,1,16,1,4,0,1,5,90,11
1,1,21,0,4,0,1,5,67,11
1,1,0,0,5,1,1,5,100,11
1,1,16,1,0,0,1,5,67,11
1,1,17,1,1,0,1,5,67,11
1,1,11,1,2,0,1,5,90,11
1,1,16,1,3,0,1,5,100,11
1,1,21,0,0,0,1,5,67,11
1,1,19,1,0,0,1,5,67,11
1,1,2,0,4,0,1,5,67,11
1,1,19,1,5,1,1,5,67,11
1,1,4,0,5,1,1,5,90,11
2,1,12,1,2,0,1,5,67,11
2,1,21,0,1,0,1,5,67,11
2,1,4,0,1,0,1,5,58,8
2,1,7,1,2,0,1,5,67,11
2,1,3,0,3,0,1,5,90,11
2,1,14,1,3,0,1,5,67,11
2,1,16,1,4,0,1,5,67,11
2,1,21,0,5,1,1,5,67,11
2,1,3,0,5,1,1,5,67,11
2,1,14,1,6,1,1,5,67,11
2,1,16,1,3,0,1,5,67,11
2,1,15,1,3,0,1,5,132,11
2,1,5,0,6,1,1,5,100,11
2,1,18,1,1,0,1,5,93,11
2,1,20,1,2,0,1,5,67,11
2,1,19,1,4,0,1,5,67,11
2,1,14,1,5,1,1,5,67,11
3,2,6,0,6,1,1,5,100,11
3,2,18,1,0,0,1,5,67,11
3,2,13,1,2,0,1,5,1,11
3,2,5,0,3,0,1,5,100,11
3,2,22,0,0,0,1,5,90,11
3,2,0,0,3,0,1,5,100,11
3,2,16,1,3,0,1,5,100,11
3,2,17,1,4,0,1,5,67,11
3,2,19,1,5,1,1,5,67,11
3,2,7,1,6,1,1,5,67,11
3,2,3,0,6,1,1,5,19,11
3,2,23,0,2,0,1,5,93,11
3,2,20,1,0,0,1,5,19,11
3,2,16,1,0,0,1,5,100,11
3,2,2,0,3,0,1,5,19,11
3,2,10,1,3,0,1,5,58,11
3,2,7,1,3,0,1,5,67,11
3,2,0,0,5,1,1,5,67,11
3,2,7,1,6,1,1,5,19,11
3,2,12,1,1,0,1,5,29,11
4,2,12,1,2,0,2,5,100,11
4,2,4,0,3,0,2,5,90,11
4,2,16,1,3,0,2,5,90,11
4,2,4,0,3,0,2,5,100,11
4,2,13,1,4,0,2,5,100,11
4,2,21,0,6,1,2,5,100,11
4,2,5,0,6,1,2,5,19,11
4,2,13,1,2,0,2,5,67,11
4,2,14,1,2,0,2,5,90,11
4,2,18,1,2,0,2,5,66,11
4,2,4,0,3,0,2,5,19,11
4,2,23,0,5,1,2,5,90,11
4,2,17,1,5,1,2,5,121,11
4,2,22,0,0,0,2,5,90,11
4,2,23,0,0,0,2,5,100,11
4,2,15,1,1,0,2,5,58,11
4,2,13,1,2,0,2,5,100,11
4,2,20,1,3,0,2,5,100,11
4,2,19,1,4,0,2,5,67,11
4,2,22,0,6,1,2,5,50,11
4,2,4,0,6,1,2,5,100,11
4,2,3,0,6,1,2,5,90,11
4,2,6,0,4,0,2,5,90,11
4,2,6,0,5,1,2,5,67,11
4,2,9,1,0,0,2,5,67,11
5,2,1,0,0,0,2,5,100,11
5,2,14,1,1,0,2,5,90,11
5,2,8,1,4,0,2,5,93,11
5,2,12,1,5,1,2,5,90,11
5,2,19,1,0,0,2,5,133,11
5,2,9,1,1,0,2,5,19,11
5,2,23,0,1,0,2,5,100,11
5,2,14,1,3,0,2,5,100,11
5,2,15,1,3,0,2,5,93,11
5,2,2,0,1,0,2,5,90,11
5,2,19,1,2,0,2,5,19,11
5,2,23,0,3,0,2,5,67,11
5,2,3,0,4,0,2,5,67,11
5,2,3,0,2,0,2,5,100,11
5,2,3,0,2,0,2,5,100,11
5,2,3,0,2,0,2,5,100,11
5,2,3,0,2,0,2,5,100,11
5,2,17,1,2,0,2,5,19,11
5,2,1,0,6,1,2,5,67,11
5,2,19,1,6,1,2,5,67,11
6,3,2,0,0,0,2,5,90,11
6,3,16,1,0,0,2,5,90,11
6,3,19,1,0,0,2,5,100,11
6,3,13,1,2,0,2,5,67,11
6,3,7,1,0,0,2,5,90,11
6,3,18,1,3,0,2,5,67,11
6,3,3,0,3,0,2,5,90,11
6,3,22,0,5,1,2,5,66,11
6,3,6,0,6,1,2,5,90,11
6,3,20,1,1,0,2,5,100,11
6,3,21,0,3,0,2,5,90,11
6,3,12,1,4,0,2,5,67,11
6,3,22,0,4,0,2,5,100,11
6,3,6,0,1,0,2,5,90,11
6,3,21,0,2,0,2,5,90,11
6,3,8,1,2,0,2,5,100,11
7,3,1,0,1,0,3,5,67,11
7,3,6,0,4,0,3,5,75,11
7,3,9,1,6,1,3,5,19,11
7,3,16,1,6,1,3,5,67,11
7,3,19,1,6,1,3,5,58,11
7,3,17,1,1,0,3,5,100,11
7,3,18,1,1,0,3,5,100,11
7,3,14,1,3,0,3,5,90,11
7,3,13,1,4,0,3,5,90,11
7,3,12,1,6,1,3,5,93,11
7,3,13,1,0,0,3,5,90,11
7,3,14,1,1,0,3,5,67,11
7,3,14,1,2,0,3,5,106,11
7,3,17,1,3,0,3,5,67,11
7,3,16,1,3,0,3,5,67,11
7,3,9,1,3,0,3,5,67,11
7,3,19,1,5,1,3,5,67,11
7,3,23,0,4,0,3,5,90,11
7,3,23,0,4,0,3,5,90,11
8,3,20,1,5,1,3,5,75,11
8,3,17,1,0,0,3,5,90,11
8,3,20,1,0,0,3,5,67,11
8,3,22,0,1,0,3,5,90,11
8,3,17,1,2,0,3,5,67,11
8,3,21,0,3,0,3,5,75,11
8,3,9,1,4,0,3,5,78,11
8,3,22,0,5,1,3,5,106,11
8,3,18,1,3,0,3,5,100,11
8,3,18,1,6,1,3,5,106,11
8,3,13,1,0,0,3,5,100,11
8,3,7,1,2,0,3,5,78,11
8,3,16,1,3,0,3,5,106,11
8,3,3,0,4,0,3,5,90,11
8,3,23,0,6,1,3,5,100,11
9,4,17,1,2,0,3,5,39,9
9,4,23,0,4,0,3,5,67,11
9,4,12,1,5,1,3,5,90,11
9,4,22,0,6,1,3,5,67,11
9,4,20,1,1,0,3,5,67,11
9,4,20,1,2,0,3,5,67,11
9,4,11,1,4,0,3,5,48,11
9,4,18,1,4,0,3,5,78,11
9,4,2,0,1,0,3,5,100,11
10,4,14,1,3,0,4,5,90,11
10,4,3,0,4,0,4,5,106,11
10,4,22,0,4,0,4,5,103,11
10,4,2,0,6,1,4,5,90,11
10,4,0,0,0,0,4,5,90,11
10,4,13,1,2,0,4,5,67,11
10,4,5,0,0,0,4,5,100,11
10,4,9,1,1,0,4,5,67,11
10,4,21,0,2,0,4,5,67,11
10,4,17,1,5,1,4,5,39,11
10,4,7,1,1,0,4,5,58,11
10,4,2,0,1,0,4,5,100,11
10,4,11,1,2,0,4,5,67,11
10,4,13,1,3,0,4,5,90,11
10,4,2,0,3,0,4,5,90,11
10,4,9,1,4,0,4,5,67,11
11,4,2,0,1,0,4,5,31,9
11,4,10,1,3,0,4,5,67,11
11,4,1,0,4,0,4,5,90,11
11,4,1,0,6,1,4,5,90,11
11,4,2,0,0,0,4,5,100,11
11,4,8,1,1,0,4,5,78,11
11,4,13,1,3,0,4,5,90,11
11,4,3,0,6,1,4,5,100,11
11,4,16,1,6,1,4,5,67,11
11,4,11,1,0,0,4,5,67,11
11,4,16,1,0,0,4,5,90,11
11,4,18,1,5,1,4,5,67,11
11,4,2,0,5,1,4,5,100,11
11,4,5,0,6,1,4,5,19,11
11,4,12,1,2,0,4,5,90,11
11,4,6,0,2,0,4,5,67,11
11,4,5,0,0,0,4,5,78,11
11,4,17,1,0,0,4,5,90,11
12,1,14,1,1,0,4,5,75,11
12,1,0,0,4,0,4,5,90,11
12,1,1,0,5,1,4,5,67,11
12,1,11,1,5,1,4,5,19,11
12,1,20,1,6,1,4,5,90,11
12,1,20,1,6,1,4,5,90,11
12,1,1,0,1,0,4,5,100,11
12,1,1,0,3,0,4,5,75,11
12,1,2,0,3,0,4,5,79,11
12,1,23,0,5,1,4,5,90,11
12,1,21,0,6,1,4,5,67,11
12,1,20,1,6,1,4,5,90,11
12,1,8,1,6,1,4,5,67,11
12,1,11,1,6,1,4,5,90,11
12,1,12,1,0,0,4,5,106,11
12,1,15,1,3,0,4,5,67,11
12,1,19,1,0,0,4,5,39,11
12,1,18,1,1,0,4,5,67,11
12,1,16,1,1,0,4,5,67,11
12,1,3,0,1,0,4,5,67,11
12,1,19,1,3,0,4,5,90,11
12,1,22,0,5,1,4,5,67,11
12,1,4,0,5,1,4,5,19,11
12,1,4,0,6,1,4,5,75,11
12,1,12,1,0,0,4,5,67,11
12,1,18,1,0,0,4,5,100,11
12,1,0,0,3,0,4,5,67,11
12,1,20,1,3,0,4,5,67,11
12,1,2,0,3,0,4,5,75,11
1,1,2,0,3,0,1,5,90,11
1,1,18,1,3,0,1,5,14,11
1,1,21,0,0,0,1,5,93,11
1,1,21,0,2,0,1,5,106,11
1,1,16,1,3,0,1,5,93,11
1,1,9,1,3,0,1,5,90,11
1,1,17,1,4,0,1,5,90,11
1,1,0,0,1,0,1,5,90,11
1,1,8,1,2,0,1,5,93,11
1,1,10,1,4,0,1,5,106,11
1,1,2,0,4,0,1,5,19,11
1,1,17,1,1,0,1,5,78,11
1,1,19,1,1,0,1,5,90,11
1,1,23,0,2,0,1,5,106,11
1,1,11,1,4,0,1,5,93,11
1,1,15,1,0,0,1,5,93,11
1,1,22,0,1,0,1,5,75,11
1,1,16,1,1,0,1,5,93,8
1,1,10,1,1,0,1,5,93,11
1,1,3,0,2,0,1,5,59,9
1,1,4,0,2,0,1,5,67,11
1,1,13,1,2,0,1,5,78,11
1,1,14,1,3,0,1,5,78,11
1,1,19,1,5,1,1,5,78,11
2,1,15,1,0,0,1,5,78,11
2,1,0,0,2,0,1,5,75,11
2,1,14,1,3,0,1,5,106,11
2,1,19,1,5,1,1,5,106,11
2,1,20,1,0,0,1,5,91,11
2,1,19,1,5,1,1,5,78,11
2,1,15,1,5,1,1,5,75,9
2,1,0,0,6,1,1,5,39,11
2,1,10,1,0,0,1,5,90,11
2,1,17,1,1,0,1,5,39,11
2,1,16,1,1,0,1,5,128,11
2,1,19,1,1,0,1,5,128,11
2,1,5,0,2,0,1,5,128,9
2,1,17,1,2,0,1,5,78,11
2,1,14,1,5,1,1,5,93,11
2,1,15,1,5,1,1,5,93,11
2,1,4,0,5,1,1,5,93,11
2,1,3,0,0,0,1,5,60,11
2,1,1,0,0,0,1,5,67,11
2,1,4,0,1,0,1,5,78,9
2,1,23,0,3,0,1,5,78,11
2,1,11,1,3,0,1,5,90,11
2,1,8,1,4,0,1,5,90,11
3,2,19,1,6,1,1,5,67,11
3,2,19,1,0,0,1,5,93,11
3,2,9,1,1,0,1,5,93,11
3,2,22,0,1,0,1,5,75,11
3,2,16,1,5,1,1,5,135,9
3,2,0,0,5,1,1,5,78,11
3,2,18,1,0,0,1,5,93,11
3,2,11,1,3,0,1,5,93,11
3,2,21,0,6,1,1,5,78,11
3,2,18,1,0,0,1,5,39,11
3,2,16,1,1,0,1,5,93,11
3,2,14,1,2,0,1,5,93,11
3,2,18,1,3,0,1,5,78,11
3,2,15,1,3,0,1,5,27,11
3,2,15,1,3,0,1,5,78,11
3,2,21,0,4,0,1,5,93,11
3,2,15,1,6,1,1,5,78,11
3,2,14,1,6,1,1,5,78,11
3,2,11,1,1,0,1,5,93,11
4,2,12,1,2,0,2,5,75,11
4,2,9,1,2,0,2,5,93,11
4,2,4,0,2,0,2,5,90,11
4,2,22,0,3,0,2,5,106,11
4,2,2,0,4,0,2,5,90,11
4,2,0,0,4,0,2,5,106,11
4,2,10,1,5,1,2,5,93,11
4,2,11,1,5,1,2,5,93,11
4,2,11,1,5,1,2,5,93,11
4,2,20,1,1,0,2,5,90,11
4,2,21,0,2,0,2,5,106,11
4,2,13,1,4,0,2,5,19,9
4,2,13,1,5,1,2,5,93,11
4,2,23,0,6,1,2,5,93,11
4,2,2,0,6,1,2,5,106,11
4,2,15,1,0,0,2,5,93,11
4,2,18,1,0,0,2,5,93,11
4,2,17,1,0,0,2,5,19,11
4,2,14,1,1,0,2,5,93,11
4,2,14,1,2,0,2,5,93,11
4,2,11,1,3,0,2,5,78,11
4,2,22,0,4,0,2,5,93,11
4,2,22,0,4,0,2,5,93,11
4,2,6,0,5,1,2,5,78,11
4,2,23,0,6,1,2,5,39,11
4,2,14,1,6,1,2,5,133,11
4,2,5,0,6,1,2,5,4,11
4,2,2,0,0,0,2,5,106,11
4,2,11,1,0,0,2,5,78,11
4,2,2,0,0,0,2,5,90,11
4,2,17,1,0,0,2,5,93,11
4,2,21,0,1,0,2,5,106,11
4,2,20,1,2,0,2,5,93,11
4,2,17,1,2,0,2,5,14,11
4,2,18,1,2,0,2,5,93,11
4,2,12,1,3,0,2,5,19,11
4,2,20,1,4,0,2,5,93,11
4,2,11,1,4,0,2,5,93,11
4,2,14,1,4,0,2,5,106,11
4,2,14,1,5,1,2,5,93,11
4,2,19,1,6,1,2,5,67,11
4,2,1,0,6,1,2,5,93,11
4,2,1,0,6,1,2,5,106,11
4,2,9,1,1,0,2,5,93,11
4,2,21,0,3,0,2,5,93,11
4,2,20,1,3,0,2,5,93,11
4,2,20,1,3,0,2,5,93,11
5,2,15,1,4,0,2,5,39,11
5,2,0,0,5,1,2,5,93,11
5,2,0,0,5,1,2,5,106,11
5,2,0,0,6,1,2,5,78,11
5,2,5,0,6,1,2,5,93,9
5,2,11,1,6,1,2,5,78,11
5,2,15,1,0,0,2,5,106,11
5,2,17,1,1,0,2,5,78,9
5,2,23,0,1,0,2,5,106,11
5,2,16,1,1,0,2,5,93,11
5,2,11,1,1,0,2,5,93,11
5,2,1,0,2,0,2,5,14,11
5,2,17,1,2,0,2,5,93,11
5,2,15,1,2,0,2,5,78,11
5,2,23,0,2,0,2,5,93,11
5,2,20,1,3,0,2,5,78,11
5,2,13,1,3,0,2,5,93,11
5,2,21,0,5,1,2,5,93,11
5,2,11,1,6,1,2,5,93,11
5,2,10,1,0,0,2,5,93,11
5,2,21,0,1,0,2,5,106,11
5,2,13,1,2,0,2,5,93,11
5,2,20,1,2,0,2,5,93,11
5,2,21,0,2,0,2,5,106,11
5,2,23,0,3,0,2,5,93,11
5,2,20,1,3,0,2,5,93,11
5,2,8,1,4,0,2,5,93,11
5,2,15,1,4,0,2,5,106,11
5,2,20,1,4,0,2,5,93,11
5,2,20,1,5,1,2,5,118,11
5,2,18,1,6,1,2,5,93,11
5,2,14,1,1,0,2,5,19,9
5,2,12,1,1,0,2,5,93,11
5,2,14,1,2,0,2,5,78,11
5,2,17,1,2,0,2,5,93,11
5,2,1,0,4,0,2,5,106,11
5,2,21,0,4,0,2,5,93,11
5,2,19,1,4,0,2,5,106,11
5,2,14,1,4,0,2,5,93,11
5,2,19,1,5,1,2,5,93,11
5,2,19,1,6,1,2,5,93,11
5,2,19,1,6,1,2,5,93,11
5,2,20,1,6,1,2,5,93,11
5,2,19,1,6,1,2,5,93,11
5,2,11,1,6,1,2,5,106,11
5,2,17,1,0,0,2,5,93,11
5,2,17,1,0,0,2,5,93,11
5,2,18,1,0,0,2,5,93,11
5,2,21,0,2,0,2,5,93,11
5,2,23,0,3,0,2,5,93,11
5,2,17,1,3,0,2,5,93,11
5,2,21,0,4,0,2,5,90,11
5,2,11,1,5,1,2,5,93,11
5,2,13,1,6,1,2,5,93,11
5,2,16,1,6,1,2,5,93,11
5,2,20,1,6,1,2,5,93,11
5,2,16,1,6,1,2,5,4,11
5,2,8,1,6,1,2,5,133,11
6,3,3,0,0,0,2,5,93,11
6,3,15,1,0,0,2,5,93,11
6,3,0,0,0,0,2,5,93,11
6,3,13,1,1,0,2,5,93,11
6,3,12,1,1,0,2,5,93,11
6,3,4,0,3,0,2,5,93,11
6,3,21,0,3,0,2,5,93,11
6,3,22,0,3,0,2,5,39,11
6,3,16,1,4,0,2,5,93,11
6,3,22,0,4,0,2,5,90,11
6,3,6,0,4,0,2,5,78,11
6,3,17,1,5,1,2,5,93,11
6,3,15,1,5,1,2,5,93,11
6,3,18,1,6,1,2,5,106,11
6,3,21,0,6,1,2,5,78,11
6,3,12,1,1,0,2,5,106,11
6,3,13,1,2,0,2,5,93,11
6,3,18,1,2,0,2,5,78,11
6,3,15,1,2,0,2,5,93,11
6,3,20,1,2,0,2,5,93,11
6,3,21,0,2,0,2,5,93,11
6,3,18,1,4,0,2,5,106,11
6,3,14,1,5,1,2,5,93,11
6,3,3,0,5,1,2,5,128,11
6,3,19,1,6,1,2,5,93,11
6,3,20,1,6,1,2,5,93,11
6,3,16,1,6,1,2,5,93,11
6,3,14,1,6,1,2,5,93,11
6,3,14,1,0,0,2,5,106,11
6,3,13,1,0,0,2,5,106,11
6,3,22,0,0,0,2,5,93,11
6,3,17,1,1,0,2,5,106,11
6,3,11,1,1,0,2,5,93,11
6,3,11,1,1,0,2,5,93,11
6,3,0,0,1,0,2,5,106,11
6,3,9,1,2,0,2,5,106,11
6,3,12,1,2,0,2,5,106,11
6,3,17,1,2,0,2,5,93,11
6,3,16,1,2,0,2,5,39,11
6,3,12,1,3,0,2,5,106,11
6,3,12,1,3,0,2,5,106,11
6,3,22,0,4,0,2,5,93,11
6,3,21,0,5,1,2,5,93,11
6,3,18,1,6,1,2,5,93,11
6,3,13,1,6,1,2,5,93,11
6,3,23,0,1,0,2,5,93,11
6,3,21,0,2,0,2,5,93,11
6,3,18,1,3,0,2,5,93,11
6,3,20,1,3,0,2,5,93,11
6,3,7,1,4,0,2,5,106,11
6,3,19,1,4,0,2,5,93,11
6,3,21,0,5,1,2,5,93,11
6,3,5,0,6,1,2,5,93,11
6,3,21,0,0,0,2,5,93,11
6,3,17,1,0,0,2,5,93,11
7,3,13,1,2,0,3,5,93,11
7,3,17,1,3,0,3,5,106,11
7,3,8,1,3,0,3,5,31,11
7,3,17,1,4,0,3,5,93,11
7,3,5,0,4,0,3,5,78,11
7,3,9,1,5,1,3,5,93,11
7,3,0,0,5,1,3,5,93,11
7,3,15,1,6,1,3,5,106,11
7,3,13,1,0,0,3,5,93,11
7,3,0,0,1,0,3,5,93,11
7,3,21,0,1,0,3,5,106,11
7,3,18,1,2,0,3,5,93,11
7,3,11,1,2,0,3,5,93,9
7,3,17,1,3,0,3,5,93,11
7,3,11,1,3,0,3,5,75,11
7,3,11,1,3,0,3,5,106,11
7,3,12,1,3,0,3,5,93,11
7,3,11,1,3,0,3,5,93,11
7,3,19,1,4,0,3,5,93,11
7,3,16,1,4,0,3,5,106,11
7,3,21,0,4,0,3,5,93,11
7,3,15,1,5,1,3,5,75,11
7,3,11,1,5,1,3,5,106,11
7,3,10,1,5,1,3,5,106,11
7,3,18,1,5,1,3,5,93,11
7,3,14,1,5,1,3,5,106,11
7,3,22,0,6,1,3,5,46,11
7,3,9,1,6,1,3,5,78,11
7,3,2,0,6,1,3,5,93,11
7,3,9,1,0,0,3,5,93,11
7,3,0,0,1,0,3,5,64,8
7,3,17,1,1,0,3,5,93,11
7,3,13,1,1,0,3,5,93,11
7,3,4,0,2,0,3,5,93,11
7,3,0,0,2,0,3,5,93,11
7,3,21,0,2,0,3,5,93,11
7,3,20,1,2,0,3,5,93,11
7,3,18,1,2,0,3,5,106,11
7,3,15,1,2,0,3,5,93,11
7,3,15,1,2,0,3,5,93,11
7,3,23,0,3,0,3,5,66,11
7,3,15,1,3,0,3,5,64,9
7,3,5,0,3,0,3,5,106,11
7,3,23,0,3,0,3,5,66,11
7,3,20,1,4,0,3,5,106,11
7,3,17,1,4,0,3,5,13,8
7,3,11,1,4,0,3,5,19,11
7,3,16,1,4,0,3,5,93,11
7,3,22,0,4,0,3,5,93,11
7,3,11,1,4,0,3,5,19,11
7,3,2,0,4,0,3,5,78,11
7,3,21,0,6,1,3,5,93,11
7,3,11,1,6,1,3,5,78,11
7,3,10,1,6,1,3,5,93,11
7,3,7,1,6,1,3,5,93,11
7,3,12,1,6,1,3,5,93,11
7,3,11,1,0,0,3,5,23,8
7,3,9,1,1,0,3,5,93,11
7,3,10,1,2,0,3,5,93,11
7,3,22,0,3,0,3,5,106,11
7,3,20,1,3,0,3,5,106,11
7,3,20,1,5,1,3,5,93,11
7,3,13,1,1,0,3,5,93,11
7,3,20,1,2,0,3,5,93,9
7,3,21,0,3,0,3,5,93,11
7,3,22,0,3,0,3,5,93,11
7,3,9,1,4,0,3,5,93,11
8,3,11,1,5,1,3,5,93,11
8,3,7,1,5,1,3,5,100,11
8,3,4,0,5,1,3,5,19,11
8,3,2,0,5,1,3,5,19,11
8,3,11,1,6,1,3,5,106,11
8,3,19,1,0,0,3,5,106,11
8,3,18,1,1,0,3,5,93,11
8,3,15,1,1,0,3,5,93,11
8,3,11,1,1,0,3,5,90,11
8,3,9,1,2,0,3,5,93,11
8,3,0,0,5,1,3,5,93,11
8,3,16,1,6,1,3,5,93,11
8,3,15,1,6,1,3,5,78,11
8,3,20,1,1,0,3,5,93,11
8,3,15,1,1,0,3,5,90,11
8,3,18,1,2,0,3,5,93,11
8,3,2,0,3,0,3,5,78,11
8,3,0,0,3,0,3,5,106,11
8,3,18,1,3,0,3,5,93,11
8,3,23,0,4,0,3,5,106,11
8,3,2,0,6,1,3,5,106,11
8,3,15,1,1,0,3,5,106,11
8,3,12,1,1,0,3,5,106,11
8,3,11,1,1,0,3,5,93,11
8,3,6,0,2,0,3,5,93,11
8,3,13,1,2,0,3,5,23,9
8,3,14,1,3,0,3,5,93,11
8,3,1,0,0,0,3,5,93,11
8,3,21,0,0,0,3,5,93,11
8,3,1,0,1,0,3,5,90,11
8,3,20,1,1,0,3,5,106,11
8,3,19,1,1,0,3,5,93,11
8,3,18,1,1,0,3,5,93,11
8,3,15,1,1,0,3,5,93,11
8,3,14,1,1,0,3,5,93,11
8,3,14,1,1,0,3,5,93,11
8,3,13,1,3,0,3,5,93,11
8,3,12,1,3,0,3,5,106,11
8,3,13,1,3,0,3,5,93,11
8,3,20,1,3,0,3,5,106,11
8,3,18,1,3,0,3,5,21,8
8,3,19,1,4,0,3,5,93,11
8,3,2,0,5,1,3,5,78,11
8,3,17,1,6,1,3,5,93,11
8,3,13,1,6,1,3,5,93,11
8,3,17,1,0,0,3,5,93,11
8,3,2,0,0,0,3,5,64,11
9,4,5,0,1,0,3,5,93,11
9,4,14,1,3,0,3,5,106,11
9,4,13,1,3,0,3,5,106,11
9,4,17,1,4,0,3,5,93,11
9,4,13,1,4,0,3,5,10,11
9,4,0,0,4,0,3,5,64,11
9,4,18,1,4,0,3,5,93,11
9,4,17,1,5,1,3,5,106,11
9,4,12,1,5,1,3,5,93,11
9,4,19,1,5,1,3,5,93,11
9,4,15,1,5,1,3,5,93,11
9,4,22,0,3,0,3,5,106,11
9,4,21,0,3,0,3,5,106,11
9,4,18,1,3,0,3,5,106,11
9,4,17,1,4,0,3,5,93,11
9,4,16,1,5,1,3,5,14,11
9,4,14,1,6,1,3,5,93,11
9,4,1,0,2,0,3,5,106,11
9,4,20,1,3,0,3,5,19,11
9,4,18,1,3,0,3,5,93,11
9,4,19,1,4,0,3,5,106,11
9,4,20,1,4,0,3,5,93,11
9,4,17,1,4,0,3,5,106,11
9,4,10,1,5,1,3,5,93,11
9,4,23,0,6,1,3,5,93,11
9,4,6,0,0,0,3,5,75,11
9,4,11,1,0,0,3,5,93,11
9,4,22,0,5,1,3,5,93,11
9,4,13,1,5,1,3,5,112,11
9,4,13,1,6,1,3,5,20,11
9,4,7,1,0,0,3,5,78,11
10,4,21,0,3,0,4,5,93,11
10,4,10,1,3,0,4,5,93,11
10,4,21,0,5,1,4,5,78,11
10,4,17,1,6,1,4,5,19,11
10,4,16,1,6,1,4,5,93,11
10,4,10,1,1,0,4,5,90,11
10,4,3,0,2,0,4,5,93,11
10,4,13,1,3,0,4,5,84,11
10,4,14,1,6,1,4,5,19,11
10,4,9,1,3,0,4,5,93,11
10,4,10,1,4,0,4,5,93,11
10,4,22,0,5,1,4,5,106,11
10,4,16,1,0,0,4,5,90,11
10,4,8,1,2,0,4,5,93,11
10,4,12,1,3,0,4,5,20,11
10,4,19,1,5,1,4,5,78,11
10,4,10,1,2,0,4,5,93,11
10,4,22,0,2,0,4,5,66,11
10,4,5,0,2,0,4,5,23,9
10,4,20,1,2,0,4,5,106,11
10,4,13,1,4,0,4,5,14,11
10,4,21,0,5,1,4,5,93,11
11,4,10,1,0,0,4,5,93,11
11,4,10,1,0,0,4,5,93,11
11,4,17,1,2,0,4,5,78,11
11,4,18,1,3,0,4,5,93,11
11,4,13,1,4,0,4,5,106,11
11,4,12,1,4,0,4,5,47,11
11,4,21,0,5,1,4,5,93,11
11,4,18,1,5,1,4,5,93,11
11,4,20,1,6,1,4,5,93,11
11,4,21,0,6,1,4,5,93,11
11,4,10,1,0,0,4,5,106,11
11,4,0,0,0,0,4,5,78,11
11,4,19,1,0,0,4,5,106,11
11,4,19,1,3,0,4,5,78,11
11,4,19,1,3,0,4,5,93,11
11,4,6,0,3,0,4,5,93,11
11,4,20,1,3,0,4,5,93,11
11,4,19,1,3,0,4,5,91,11
11,4,17,1,5,1,4,5,93,11
11,4,21,0,6,1,4,5,106,11
11,4,16,1,1,0,4,5,75,11
11,4,22,0,2,0,4,5,106,11
11,4,2,0,4,0,4,5,75,11
11,4,19,1,5,1,4,5,93,11
11,4,6,0,6,1,4,5,75,11
11,4,18,1,1,0,4,5,78,11
11,4,20,1,1,0,4,5,90,11
11,4,22,0,5,1,4,5,93,11
11,4,21,0,5,1,4,5,93,11
11,4,22,0,5,1,4,5,93,11
11,4,20,1,5,1,4,5,93,11
11,4,19,1,5,1,4,5,93,11
11,4,18,1,0,0,4,5,128,9
12,1,2,0,1,0,4,5,93,11
12,1,15,1,1,0,4,5,39,11
12,1,3,0,4,0,4,5,106,11
12,1,23,0,5,1,4,5,78,11
12,1,4,0,6,1,4,5,93,11
12,1,17,1,6,1,4,5,93,11
12,1,17,1,6,1,4,5,78,11
12,1,21,0,0,0,4,5,39,11
12,1,12,1,0,0,4,5,93,11
12,1,16,1,5,1,4,5,128,11
12,1,11,1,5,1,4,5,39,11
12,1,21,0,6,1,4,5,93,11
12,1,22,0,6,1,4,5,93,11
12,1,23,0,0,0,4,5,93,11
12,1,14,1,0,0,4,5,90,11
12,1,15,1,0,0,4,5,93,11
12,1,0,0,1,0,4,5,93,11
12,1,15,1,4,0,4,5,46,11
12,1,13,1,4,0,4,5,93,11
12,1,16,1,5,1,4,5,93,11
12,1,21,0,0,0,4,5,67,11
12,1,14,1,0,0,4,5,93,11
12,1,12,1,0,0,4,5,39,11
12,1,16,1,2,0,4,5,75,11
12,1,20,1,2,0,4,5,106,11
12,1,18,1,2,0,4,5,93,11
12,1,13,1,2,0,4,5,93,11
12,1,5,0,2,0,4,5,19,11
12,1,15,1,3,0,4,5,93,11
12,1,7,1,4,0,4,5,78,9
12,1,16,1,6,1,4,5,106,11
12,1,20,1,6,1,4,5,93,11
12,1,4,0,0,0,4,5,90,11
12,1,17,1,0,0,4,5,93,11
12,1,7,1,1,0,4,5,93,11
12,1,22,0,1,0,4,5,106,11
1,1,7,1,3,0,1,5,131,11
1,1,16,1,4,0,1,5,90,11
1,1,17,1,4,0,1,5,67,11
1,1,1,0,1,0,1,5,39,11
1,1,23,0,1,0,1,5,90,11
1,1,23,0,1,0,1,5,90,11
1,1,22,0,4,0,1,5,9,11
1,1,6,0,5,1,1,5,90,11
1,1,0,0,6,1,1,5,90,11
1,1,14,1,1,0,1,5,38,11
1,1,20,1,1,0,1,5,67,11
2,1,22,0,0,0,1,5,100,11
2,1,0,0,6,1,1,5,19,11
2,1,18,1,6,1,1,5,19,11
2,1,12,1,6,1,1,5,67,11
2,1,22,0,1,0,1,5,67,11
2,1,14,1,2,0,1,5,67,11
2,1,9,1,3,0,1,5,90,11
2,1,15,1,4,0,1,5,100,11
2,1,20,1,5,1,1,5,100,11
2,1,6,0,0,0,1,5,90,11
2,1,6,0,0,0,1,5,90,11
2,1,15,1,2,0,1,5,67,11
2,1,21,0,3,0,1,5,67,11
2,1,17,1,3,0,1,5,20,11
2,1,0,0,5,1,1,5,90,11
3,2,1,0,6,1,1,5,90,11
3,2,8,1,2,0,1,5,90,11
3,2,0,0,0,0,1,5,67,11
3,2,17,1,6,1,1,5,67,11
3,2,1,0,6,1,1,5,100,11
3,2,13,1,3,0,1,5,67,11
3,2,1,0,6,1,1,5,90,11
3,2,5,0,6,1,1,5,74,9
3,2,14,1,6,1,1,5,67,11
3,2,8,1,3,0,1,5,75,11
3,2,21,0,6,1,1,5,67,11
3,2,19,1,6,1,1,5,90,11
3,2,19,1,6,1,1,5,90,11
3,2,15,1,0,0,1,5,67,11
3,2,0,0,1,0,1,5,90,11
4,2,23,0,4,0,2,5,90,11
4,2,23,0,6,1,2,5,90,11
4,2,22,0,6,1,2,5,90,11
4,2,21,0,2,0,2,5,66,11
4,2,4,0,3,0,2,5,122,11
4,2,19,1,3,0,2,5,84,11
4,2,23,0,4,0,2,5,90,11
4,2,0,0,6,1,2,5,90,11
4,2,0,0,6,1,2,5,90,11
4,2,14,1,1,0,2,5,111,11
4,2,15,1,3,0,2,5,93,11
4,2,22,0,5,1,2,5,67,11
4,2,4,0,6,1,2,5,90,11
5,2,0,0,5,1,2,5,67,11
5,2,0,0,1,0,2,5,39,11
5,2,13,1,2,0,2,5,67,11
5,2,3,0,4,0,2,5,90,11
5,2,5,0,5,1,2,5,100,11
5,2,9,1,6,1,2,5,39,11
5,2,5,0,3,0,2,5,90,11
5,2,11,1,3,0,2,5,90,11
5,2,14,1,4,0,2,5,106,11
5,2,13,1,4,0,2,5,100,11
5,2,20,1,5,1,2,5,67,11
5,2,3,0,1,0,2,5,67,11
5,2,22,0,1,0,2,5,67,11
5,2,4,0,3,0,2,5,67,11
5,2,20,1,3,0,2,5,93,11
5,2,23,0,0,0,2,5,106,11
5,2,13,1,3,0,2,5,106,8
5,2,3,0,5,1,2,5,104,8
6,3,16,1,5,1,2,5,19,11
6,3,5,0,1,0,2,5,67,9
6,3,13,1,6,1,2,5,85,11
6,3,18,1,1,0,2,5,90,11
6,3,23,0,4,0,2,5,90,11
6,3,21,0,5,1,2,5,67,11
6,3,2,0,3,0,2,5,90,11
6,3,3,0,5,1,2,5,90,11
6,3,4,0,1,0,2,5,93,11
7,3,4,0,2,0,3,5,67,9
7,3,9,1,2,0,3,5,67,11
7,3,3,0,3,0,3,5,100,11
7,3,3,0,3,0,3,5,90,11
7,3,3,0,3,0,3,5,90,11
7,3,3,0,3,0,3,5,90,11
7,3,14,1,1,0,3,5,93,11
7,3,22,0,1,0,3,5,93,11
7,3,14,1,3,0,3,5,67,11
7,3,13,1,5,1,3,5,9,11
7,3,17,1,5,1,3,5,93,11
7,3,15,1,5,1,3,5,90,11
7,3,17,1,0,0,3,5,19,11
7,3,22,0,0,0,3,5,90,11
7,3,5,0,1,0,3,5,75,11
7,3,20,1,1,0,3,5,106,11
7,3,21,0,2,0,3,5,66,11
7,3,10,1,4,0,3,5,90,11
8,3,13,1,0,0,3,5,90,11
8,3,3,0,4,0,3,5,58,11
8,3,23,0,5,1,3,5,90,11
8,3,23,0,6,1,3,5,67,11
8,3,4,0,0,0,3,5,67,8
9,4,15,1,2,0,3,5,93,11
9,4,22,0,3,0,3,5,48,11
9,4,22,0,5,1,3,5,100,11
9,4,2,0,6,1,3,5,19,11
9,4,19,1,1,0,3,5,67,11
9,4,4,0,2,0,3,5,19,11
9,4,8,1,4,0,3,5,67,11
9,4,4,0,0,0,3,5,71,11
9,4,19,1,4,0,3,5,90,11
9,4,3,0,6,1,3,5,48,11
9,4,20,1,0,0,3,5,67,11
10,4,3,0,6,1,4,5,90,11
10,4,6,0,3,0,4,5,90,11
10,4,2,0,4,0,4,5,106,11
10,4,23,0,6,1,4,5,90,11
10,4,18,1,4,0,4,5,90,11
10,4,15,1,5,1,4,5,90,11
10,4,15,1,5,1,4,5,67,11
10,4,1,0,0,0,4,5,106,11
10,4,6,0,3,0,4,5,67,11
10,4,1,0,0,0,4,5,100,11
10,4,1,0,0,0,4,5,100,11
10,4,1,0,0,0,4,5,100,11
10,4,0,0,0,0,4,5,100,11
10,4,2,0,0,0,4,5,100,11
10,4,3,0,1,0,4,5,100,11
10,4,2,0,3,0,4,5,19,11
10,4,1,0,4,0,4,5,90,11
10,4,1,0,4,0,4,5,90,11
10,4,21,0,4,0,4,5,67,11
11,4,2,0,1,0,4,5,90,11
11,4,19,1,3,0,4,5,67,11
11,4,15,1,4,0,4,5,90,11
11,4,20,1,5,1,4,5,90,11
11,4,21,0,5,1,4,5,90,11
11,4,17,1,6,1,4,5,84,11
11,4,20,1,0,0,4,5,23,11
11,4,20,1,1,0,4,5,67,11
11,4,23,0,1,0,4,5,100,11
11,4,15,1,3,0,4,5,67,11
11,4,15,1,4,0,4,5,67,11
11,4,14,1,5,1,4,5,90,11
11,4,3,0,1,0,4,5,106,11
11,4,23,0,4,0,4,5,90,11
11,4,22,0,5,1,4,5,90,11
11,4,22,0,6,1,4,5,46,11
11,4,2,0,1,0,4,5,90,11
11,4,2,0,1,0,4,5,90,11
11,4,21,0,4,0,4,5,67,11
11,4,12,1,5,1,4,5,48,11
11,4,13,1,6,1,4,5,90,11
11,4,4,0,6,1,4,5,90,11
11,4,3,0,6,1,4,5,90,11
11,4,2,0,0,0,4,5,90,11
11,4,2,0,0,0,4,5,90,11
11,4,2,0,0,0,4,5,90,11
11,4,3,0,0,0,4,5,90,11
12,1,2,0,1,0,4,5,90,11
12,1,1,0,1,0,4,5,90,11
12,1,1,0,1,0,4,5,90,11
12,1,4,0,1,0,4,5,90,11
12,1,4,0,1,0,4,5,90,11
12,1,15,1,1,0,4,5,67,11
12,1,4,0,2,0,4,5,90,11
12,1,3,0,2,0,4,5,90,11
12,1,22,0,4,0,4,5,133,11
12,1,8,1,4,0,4,5,67,11
12,1,21,0,6,1,4,5,90,11
12,1,0,0,0,0,4,5,106,11
12,1,1,0,0,0,4,5,106,11
12,1,0,0,0,0,4,5,106,11
12,1,1,0,0,0,4,5,90,11
12,1,14,1,2,0,4,5,90,11
12,1,20,1,6,1,4,5,90,11
12,1,23,0,6,1,4,5,90,11
12,1,23,0,0,0,4,5,39,11
12,1,17,1,2,0,4,5,67,11
12,1,19,1,4,0,4,5,90,11
12,1,22,0,4,0,4,5,66,11
12,1,5,0,5,1,4,5,90,11
12,1,22,0,5,1,4,5,90,11
12,1,20,1,0,0,4,5,90,11
12,1,7,1,0,0,4,5,67,11
12,1,12,1,0,0,4,5,90,11
12,1,1,0,2,0,4,5,67,8
12,1,14,1,3,0,4,5,39,11
12,1,12,1,3,0,4,5,67,11
12,1,13,1,4,0,4,5,90,11
12,1,12,1,5,1,4,5,67,11
12,1,15,1,5,1,4,5,90,11
12,1,18,1,6,1,4,5,90,8
12,1,21,0,6,1,4,5,90,11
12,1,18,1,0,0,4,5,90,8
12,1,10,1,0,0,4,5,100,11
12,1,16,1,3,0,4,5,100,11
12,1,13,1,3,0,4,5,90,11
1,1,14,1,3,0,1,5,1,11
1,1,17,1,3,0,1,5,39,11
1,1,23,0,0,0,1,5,78,11
1,1,0,0,0,0,1,5,19,11
1,1,15,1,0,0,1,5,67,11
1,1,11,1,1,0,1,5,133,11
1,1,9,1,1,0,1,5,133,11
1,1,7,1,1,0,1,5,39,11
1,1,3,0,3,0,1,5,19,11
1,1,12,1,3,0,1,5,133,11
1,1,18,1,3,0,1,5,39,11
1,1,13,1,4,0,1,5,133,11
1,1,18,1,4,0,1,5,133,11
1,1,1,0,5,1,1,5,133,11
1,1,19,1,5,1,1,5,71,11
1,1,15,1,6,1,1,5,133,11
1,1,21,0,0,0,1,5,133,11
1,1,20,1,2,0,1,5,19,11
1,1,7,1,3,0,1,5,133,11
1,1,22,0,4,0,1,5,133,11
1,1,4,0,5,1,1,5,133,11
1,1,16,1,2,0,1,5,14,11
1,1,6,0,3,0,1,5,19,11
1,1,2,0,3,0,1,5,19,11
1,1,3,0,0,0,1,5,50,11
1,1,0,0,0,0,1,5,58,8
1,1,4,0,3,0,1,5,31,11
1,1,15,1,4,0,1,5,133,11
1,1,18,1,4,0,1,5,39,11
1,1,11,1,5,1,1,5,19,11
2,1,20,1,1,0,1,5,19,11
2,1,14,1,1,0,1,5,133,11
2,1,5,0,5,1,1,5,67,11
2,1,19,1,5,1,1,5,67,11
2,1,8,1,6,1,1,5,79,11
2,1,5,0,1,0,1,5,133,11
2,1,15,1,1,0,1,5,133,11
2,1,23,0,2,0,1,5,39,11
2,1,14,1,2,0,1,5,39,11
2,1,19,1,3,0,1,5,133,11
2,1,20,1,3,0,1,5,133,11
2,1,18,1,3,0,1,5,67,11
2,1,21,0,3,0,1,5,67,11
2,1,17,1,4,0,1,5,133,11
2,1,17,1,6,1,1,5,67,11
2,1,9,1,0,0,1,5,133,11
2,1,18,1,1,0,1,5,133,11
2,1,18,1,1,0,1,5,78,11
2,1,16,1,3,0,1,5,133,11
2,1,20,1,4,0,1,5,133,11
2,1,20,1,4,0,1,5,66,11
2,1,21,0,4,0,1,5,133,11
2,1,21,0,5,1,1,5,133,11
2,1,15,1,5,1,1,5,133,11
2,1,0,0,5,1,1,5,19,11
2,1,0,0,5,1,1,5,133,11
2,1,4,0,0,0,1,5,67,11
2,1,22,0,3,0,1,5,19,11
3,2,12,1,6,1,1,5,67,11
3,2,2,0,0,0,1,5,19,11
3,2,16,1,0,0,1,5,67,11
3,2,2,0,1,0,1,5,122,11
3,2,14,1,1,0,1,5,67,11
3,2,19,1,3,0,1,5,66,11
3,2,20,1,5,1,1,5,66,11
3,2,14,1,4,0,1,5,67,11
3,2,0,0,6,1,1,5,19,11
3,2,15,1,4,0,1,5,133,11
3,2,21,0,5,1,1,5,78,11
3,2,12,1,6,1,1,5,67,11
3,2,21,0,2,0,1,5,58,11
3,2,13,1,3,0,1,5,67,11
3,2,12,1,3,0,1,5,133,11
3,2,20,1,4,0,1,5,67,11
3,2,21,0,4,0,1,5,67,11
4,2,0,0,2,0,2,5,19,11
4,2,17,1,3,0,2,5,133,11
4,2,4,0,3,0,2,5,122,11
4,2,19,1,4,0,2,5,19,11
4,2,3,0,0,0,2,5,91,11
4,2,21,0,2,0,2,5,67,11
4,2,13,1,4,0,2,5,104,11
4,2,14,1,5,1,2,5,39,11
4,2,2,0,6,1,2,5,67,11
4,2,0,0,6,1,2,5,66,11
4,2,0,0,6,1,2,5,82,11
4,2,11,1,0,0,2,5,133,11
4,2,15,1,0,0,2,5,133,11
4,2,22,0,0,0,2,5,90,11
4,2,12,1,1,0,2,5,19,11
4,2,7,1,1,0,2,5,29,11
4,2,19,1,2,0,2,5,78,11
4,2,0,0,2,0,2,5,133,11
4,2,2,0,3,0,2,5,106,11
4,2,10,1,4,0,2,5,38,11
4,2,14,1,0,0,2,5,75,9
4,2,8,1,0,0,2,5,67,11
4,2,9,1,3,0,2,5,19,11
4,2,23,0,3,0,2,5,19,11
4,2,10,1,1,0,2,5,93,11
4,2,1,0,1,0,2,5,106,11
4,2,15,1,3,0,2,5,38,11
5,2,9,1,1,0,2,5,19,11
5,2,0,0,3,0,2,5,19,11
5,2,1,0,3,0,2,5,67,9
5,2,0,0,4,0,2,5,133,11
5,2,14,1,4,0,2,5,131,11
5,2,22,0,5,1,2,5,117,11
5,2,22,0,5,1,2,5,133,11
5,2,8,1,0,0,2,5,106,11
5,2,16,1,1,0,2,5,38,11
5,2,14,1,2,0,2,5,106,11
5,2,19,1,2,0,2,5,106,11
5,2,22,0,2,0,2,5,66,11
5,2,21,0,3,0,2,5,133,11
5,2,15,1,3,0,2,5,39,11
5,2,9,1,4,0,2,5,87,9
5,2,21,0,4,0,2,5,106,11
5,2,1,0,4,0,2,5,133,11
5,2,1,0,4,0,2,5,133,11
5,2,1,0,4,0,2,5,133,11
5,2,1,0,4,0,2,5,133,11
5,2,15,1,4,0,2,5,133,11
5,2,15,1,6,1,2,5,93,11
5,2,12,1,2,0,2,5,93,11
5,2,11,1,4,0,2,5,93,11
5,2,4,0,4,0,2,5,31,11
5,2,12,1,0,0,2,5,106,11
5,2,14,1,4,0,2,5,19,11
5,2,18,1,4,0,2,5,67,11
5,2,9,1,4,0,2,5,48,11
5,2,1,0,5,1,2,5,66,11
5,2,22,0,6,1,2,5,67,11
6,3,15,1,0,0,2,5,106,11
6,3,3,0,2,0,2,5,19,11
6,3,11,1,2,0,2,5,131,11
6,3,19,1,3,0,2,5,97,11
6,3,23,0,4,0,2,5,39,11
6,3,12,1,6,1,2,5,93,11
6,3,16,1,6,1,2,5,93,11
6,3,9,1,3,0,2,5,67,11
6,3,22,0,4,0,2,5,66,11
6,3,3,0,5,1,2,5,78,11
6,3,18,1,5,1,2,5,39,11
6,3,13,1,6,1,2,5,106,11
6,3,14,1,1,0,2,5,9,11
6,3,13,1,1,0,2,5,19,11
6,3,9,1,1,0,2,5,78,11
6,3,5,0,2,0,2,5,58,11
6,3,18,1,2,0,2,5,67,11
6,3,17,1,4,0,2,5,93,11
6,3,11,1,5,1,2,5,133,11
6,3,21,0,3,0,2,5,19,11
6,3,21,0,5,1,2,5,106,11
6,3,20,1,6,1,2,5,49,11
6,3,12,1,6,1,2,5,93,11
6,3,11,1,6,1,2,5,93,11
6,3,12,1,0,0,2,5,38,11
7,3,10,1,3,0,3,5,100,11
7,3,13,1,3,0,3,5,93,11
7,3,17,1,4,0,3,5,67,11
7,3,12,1,0,0,3,5,58,11
7,3,13,1,1,0,3,5,67,11
7,3,16,1,1,0,3,5,93,11
7,3,0,0,3,0,3,5,19,11
7,3,19,1,5,1,3,5,93,11
7,3,9,1,6,1,3,5,78,11
7,3,17,1,3,0,3,5,133,11
7,3,12,1,3,0,3,5,67,11
7,3,2,0,4,0,3,5,19,11
7,3,14,1,5,1,3,5,90,11
7,3,23,0,5,1,3,5,133,11
7,3,16,1,0,0,3,5,38,11
7,3,20,1,0,0,3,5,48,11
7,3,17,1,5,1,3,5,38,11
7,3,14,1,6,1,3,5,81,11
7,3,2,0,0,0,3,5,19,9
7,3,14,1,0,0,3,5,67,11
7,3,17,1,0,0,3,5,133,11
7,3,14,1,1,0,3,5,79,11
7,3,11,1,1,0,3,5,67,11
7,3,6,0,2,0,3,5,78,11
7,3,4,0,3,0,3,5,93,11
8,3,3,0,5,1,3,5,90,11
8,3,18,1,0,0,3,5,38,11
8,3,14,1,4,0,3,5,93,11
8,3,2,0,3,0,3,5,106,11
8,3,12,1,0,0,3,5,38,11
8,3,2,0,3,0,3,5,133,11
8,3,23,0,6,1,3,5,67,11
8,3,5,0,0,0,3,5,133,11
8,3,12,1,1,0,3,5,93,11
8,3,17,1,3,0,3,5,90,11
8,3,18,1,5,1,3,5,133,11
8,3,16,1,6,1,3,5,59,11
9,4,15,1,2,0,3,5,106,11
9,4,9,1,2,0,3,5,133,11
9,4,13,1,6,1,3,5,38,11
9,4,22,0,1,0,3,5,90,11
9,4,19,1,2,0,3,5,133,11
9,4,16,1,2,0,3,5,14,8
9,4,8,1,3,0,3,5,67,11
9,4,1,0,5,1,3,5,67,11
9,4,15,1,6,1,3,5,39,11
9,4,23,0,0,0,3,5,133,11
9,4,6,0,1,0,3,5,74,9
9,4,12,1,2,0,3,5,106,11
9,4,22,0,4,0,3,5,133,11
9,4,15,1,5,1,3,5,93,11
9,4,8,1,6,1,3,5,19,9
9,4,2,0,6,1,3,5,19,11
9,4,7,1,3,0,3,5,115,11
9,4,21,0,0,0,3,5,115,11
9,4,7,1,2,0,3,5,115,11
9,4,12,1,2,0,3,5,133,11
10,4,18,1,1,0,4,5,78,11
10,4,23,0,3,0,4,5,67,11
10,4,23,0,4,0,4,5,11,11
10,4,12,1,5,1,4,5,67,11
10,4,14,1,6,1,4,5,106,11
10,4,3,0,0,0,4,5,19,11
11,4,15,1,3,0,4,5,100,11
11,4,22,0,4,0,4,5,67,11
11,4,22,0,5,1,4,5,78,11
11,4,18,1,6,1,4,5,67,11
11,4,1,0,0,0,4,5,32,11
11,4,14,1,4,0,4,5,43,11
11,4,20,1,6,1,4,5,67,11
11,4,13,1,0,0,4,5,39,11
11,4,22,0,6,1,4,5,78,11
11,4,12,1,0,0,4,5,133,11
11,4,21,0,2,0,4,5,74,11
11,4,2,0,0,0,4,5,133,11
11,4,3,0,0,0,4,5,133,11
12,1,4,0,1,0,4,5,133,11
12,1,2,0,1,0,4,5,133,11
12,1,19,1,4,0,4,5,79,11
12,1,20,1,6,1,4,5,67,11
12,1,19,1,2,0,4,5,133,11
12,1,21,0,4,0,4,5,67,11
12,1,16,1,4,0,4,5,39,11
12,1,18,1,5,1,4,5,67,11
12,1,23,0,5,1,4,5,67,11
12,1,23,0,6,1,4,5,133,11
12,1,23,0,6,1,4,5,78,11
12,1,12,1,3,0,4,5,39,11
12,1,19,1,4,0,4,5,67,11
12,1,18,1,4,0,4,5,133,11
12,1,0,0,1,0,4,5,111,11
12,1,20,1,2,0,4,5,67,11
1,1,12,1,3,0,1,5,90,11
1,1,14,1,3,0,1,5,90,11
1,1,15,1,4,0,1,5,67,11
1,1,17,1,4,0,1,5,90,11
1,1,14,1,4,0,1,5,90,11
1,1,3,0,5,1,1,5,19,11
1,1,20,1,5,1,1,5,67,9
1,1,2,0,6,1,1,5,67,11
1,1,20,1,0,0,1,5,67,11
1,1,15,1,2,0,1,5,90,11
1,1,12,1,2,0,1,5,67,9
1,1,0,0,2,0,1,5,67,11
1,1,5,0,2,0,1,5,67,9
1,1,10,1,2,0,1,5,90,11
1,1,8,1,4,0,1,5,67,9
1,1,18,1,4,0,1,5,90,11
1,1,23,0,4,0,1,5,90,11
1,1,15,1,5,1,1,5,67,11
1,1,7,1,6,1,1,5,90,11
1,1,12,1,6,1,1,5,90,11
1,1,23,0,6,1,1,5,90,11
1,1,16,1,6,1,1,5,78,11
1,1,5,0,0,0,1,5,90,11
1,1,12,1,1,0,1,5,90,11
1,1,13,1,2,0,1,5,90,11
1,1,3,0,6,1,1,5,90,11
1,1,15,1,0,0,1,5,78,9
1,1,14,1,1,0,1,5,23,11
1,1,9,1,3,0,1,5,78,11
1,1,20,1,3,0,1,5,90,11
1,1,1,0,5,1,1,5,90,11
1,1,5,0,5,1,1,5,90,11
1,1,6,0,6,1,1,5,90,11
1,1,3,0,0,0,1,5,90,11
1,1,18,1,5,1,1,5,90,11
2,1,13,1,6,1,1,5,90,11
2,1,14,1,6,1,1,5,90,11
2,1,9,1,6,1,1,5,90,11
2,1,2,0,2,0,1,5,90,11
2,1,22,0,3,0,1,5,90,11
2,1,2,0,4,0,1,5,31,11
2,1,12,1,4,0,1,5,90,11
2,1,4,0,5,1,1,5,90,11
2,1,12,1,6,1,1,5,90,11
2,1,11,1,6,1,1,5,90,11
2,1,11,1,1,0,1,5,9,11
2,1,9,1,1,0,1,5,90,11
2,1,17,1,1,0,1,5,90,11
2,1,13,1,3,0,1,5,67,11
2,1,23,0,3,0,1,5,90,11
2,1,22,0,3,0,1,5,67,11
2,1,23,0,5,1,1,5,67,11
2,1,16,1,5,1,1,5,90,11
2,1,4,0,6,1,1,5,67,11
2,1,10,1,6,1,1,5,90,11
2,1,11,1,0,0,1,5,67,11
2,1,11,1,0,0,1,5,67,11
2,1,15,1,1,0,1,5,67,11
2,1,16,1,2,0,1,5,90,11
2,1,17,1,2,0,1,5,67,11
2,1,21,0,3,0,1,5,90,11
2,1,19,1,3,0,1,5,67,11
2,1,0,0,3,0,1,5,67,8
2,1,4,0,4,0,1,5,90,11
2,1,7,1,4,0,1,5,53,11
2,1,13,1,4,0,1,5,48,9
2,1,21,0,5,1,1,5,90,11
2,1,12,1,0,0,1,5,67,11
2,1,14,1,0,0,1,5,78,11
2,1,13,1,1,0,1,5,90,11
2,1,11,1,4,0,1,5,67,11
2,1,22,0,4,0,1,5,67,11
2,1,21,0,4,0,1,5,90,11
3,2,22,0,0,0,1,5,67,11
3,2,12,1,1,0,1,5,67,11
3,2,3,0,2,0,1,5,90,9
3,2,2,0,4,0,1,5,90,9
3,2,15,1,4,0,1,5,67,11
3,2,16,1,5,1,1,5,90,9
3,2,2,0,6,1,1,5,90,11
3,2,3,0,6,1,1,5,90,11
3,2,2,0,6,1,1,5,58,11
3,2,2,0,6,1,1,5,90,11
3,2,2,0,6,1,1,5,90,11
3,2,19,1,6,1,1,5,67,11
3,2,7,1,1,0,1,5,23,11
3,2,0,0,1,0,1,5,23,9
3,2,14,1,3,0,1,5,67,9
3,2,12,1,5,1,1,5,67,11
3,2,3,0,5,1,1,5,90,11
3,2,12,1,6,1,1,5,39,11
3,2,4,0,6,1,1,5,67,11
3,2,17,1,5,1,1,5,67,11
3,2,22,0,5,1,1,5,90,11
3,2,15,1,5,1,1,5,39,11
3,2,7,1,5,1,1,5,90,11
3,2,17,1,1,0,1,5,31,11
3,2,11,1,2,0,1,5,78,11
3,2,2,0,5,1,1,5,58,11
3,2,4,0,6,1,1,5,90,11
3,2,4,0,6,1,1,5,90,11
3,2,22,0,6,1,1,5,90,11
3,2,18,1,6,1,1,5,39,11
4,2,3,0,4,0,2,5,90,8
4,2,21,0,4,0,2,5,90,11
4,2,23,0,5,1,2,5,90,11
4,2,11,1,6,1,2,5,58,11
4,2,1,0,6,1,2,5,90,11
4,2,3,0,0,0,2,5,31,11
4,2,8,1,3,0,2,5,46,11
4,2,22,0,4,0,2,5,39,8
4,2,16,1,4,0,2,5,78,11
4,2,23,0,5,1,2,5,90,11
4,2,1,0,5,1,2,5,66,11
4,2,2,0,6,1,2,5,67,11
4,2,6,0,6,1,2,5,58,11
4,2,19,1,6,1,2,5,23,11
4,2,6,0,6,1,2,5,90,11
4,2,7,1,6,1,2,5,90,11
4,2,7,1,6,1,2,5,78,11
4,2,11,1,0,0,2,5,90,11
4,2,3,0,2,0,2,5,90,9
4,2,22,0,2,0,2,5,90,11
4,2,21,0,2,0,2,5,118,11
4,2,22,0,2,0,2,5,90,11
4,2,1,0,5,1,2,5,90,11
4,2,15,1,6,1,2,5,93,11
4,2,5,0,6,1,2,5,90,11
4,2,3,0,0,0,2,5,90,11
4,2,14,1,1,0,2,5,39,11
4,2,1,0,1,0,2,5,90,11
4,2,22,0,1,0,2,5,103,11
4,2,12,1,1,0,2,5,67,11
4,2,22,0,2,0,2,5,90,11
4,2,16,1,2,0,2,5,90,9
4,2,0,0,3,0,2,5,90,11
4,2,16,1,3,0,2,5,90,11
4,2,19,1,3,0,2,5,90,11
4,2,2,0,4,0,2,5,78,11
4,2,4,0,4,0,2,5,100,11
4,2,17,1,6,1,2,5,82,11
4,2,6,0,6,1,2,5,90,11
4,2,8,1,6,1,2,5,39,9
4,2,20,1,0,0,2,5,131,11
4,2,11,1,0,0,2,5,90,11
4,2,17,1,1,0,2,5,90,11
4,2,11,1,1,0,2,5,58,11
4,2,22,0,1,0,2,5,66,11
5,2,19,1,4,0,2,5,67,11
5,2,6,0,5,1,2,5,90,11
5,2,12,1,6,1,2,5,90,11
5,2,18,1,6,1,2,5,90,11
5,2,8,1,0,0,2,5,93,11
5,2,17,1,2,0,2,5,78,11
5,2,4,0,5,1,2,5,90,11
5,2,13,1,5,1,2,5,67,9
5,2,12,1,6,1,2,5,90,11
5,2,4,0,6,1,2,5,90,11
5,2,12,1,1,0,2,5,90,11
5,2,23,0,1,0,2,5,67,11
5,2,23,0,1,0,2,5,9,11
5,2,13,1,3,0,2,5,67,11
5,2,6,0,3,0,2,5,90,11
5,2,6,0,4,0,2,5,78,9
5,2,13,1,5,1,2,5,58,9
5,2,23,0,5,1,2,5,90,11
5,2,15,1,6,1,2,5,90,11
5,2,5,0,0,0,2,5,90,11
5,2,13,1,2,0,2,5,67,11
5,2,13,1,3,0,2,5,67,11
5,2,19,1,4,0,2,5,9,11
5,2,5,0,6,1,2,5,90,11
5,2,0,0,0,0,2,5,93,11
5,2,17,1,0,0,2,5,90,11
5,2,14,1,5,1,2,5,67,11
5,2,12,1,6,1,2,5,90,11
5,2,4,0,6,1,2,5,90,9
6,3,18,1,3,0,2,5,90,11
6,3,0,0,5,1,2,5,67,11
6,3,8,1,6,1,2,5,90,11
6,3,1,0,6,1,2,5,90,11
6,3,0,0,0,0,2,5,90,11
6,3,4,0,0,0,2,5,100,11
6,3,0,0,1,0,2,5,90,11
6,3,19,1,1,0,2,5,39,11
6,3,2,0,3,0,2,5,67,11
6,3,5,0,5,1,2,5,90,11
6,3,18,1,6,1,2,5,90,11
6,3,0,0,6,1,2,5,100,11
6,3,12,1,0,0,2,5,9,11
6,3,13,1,1,0,2,5,38,11
6,3,20,1,1,0,2,5,90,11
6,3,20,1,4,0,2,5,90,11
6,3,13,1,6,1,2,5,106,11
6,3,12,1,1,0,2,5,93,11
6,3,11,1,2,0,2,5,93,11
6,3,11,1,2,0,2,5,48,11
6,3,18,1,4,0,2,5,90,11
6,3,23,0,5,1,2,5,58,11
6,3,19,1,6,1,2,5,93,11
6,3,2,0,1,0,2,5,133,11
6,3,2,0,1,0,2,5,90,11
6,3,2,0,1,0,2,5,90,11
7,3,4,0,3,0,3,5,90,11
7,3,8,1,3,0,3,5,93,11
7,3,17,1,4,0,3,5,78,11
7,3,21,0,6,1,3,5,93,11
7,3,4,0,6,1,3,5,67,11
7,3,16,1,2,0,3,5,90,11
7,3,8,1,3,0,3,5,106,11
7,3,4,0,6,1,3,5,90,11
7,3,6,0,6,1,3,5,90,11
7,3,19,1,6,1,3,5,67,11
7,3,23,0,0,0,3,5,66,11
7,3,6,0,2,0,3,5,90,11
7,3,7,1,2,0,3,5,90,11
7,3,18,1,2,0,3,5,106,11
7,3,13,1,4,0,3,5,38,11
7,3,12,1,6,1,3,5,9,11
7,3,13,1,0,0,3,5,78,11
7,3,7,1,1,0,3,5,67,11
7,3,22,0,1,0,3,5,90,11
7,3,4,0,1,0,3,5,90,11
7,3,20,1,2,0,3,5,78,11
7,3,19,1,3,0,3,5,93,11
7,3,14,1,4,0,3,5,90,11
8,3,12,1,5,1,3,5,78,9
8,3,10,1,5,1,3,5,90,11
8,3,8,1,6,1,3,5,78,11
8,3,16,1,3,0,3,5,106,11
8,3,11,1,4,0,3,5,39,11
8,3,21,0,4,0,3,5,66,11
8,3,18,1,4,0,3,5,90,11
8,3,10,1,5,1,3,5,67,11
8,3,1,0,6,1,3,5,93,9
8,3,5,0,0,0,3,5,90,11
8,3,4,0,0,0,3,5,90,11
8,3,16,1,1,0,3,5,93,11
8,3,5,0,2,0,3,5,90,11
8,3,2,0,0,0,3,5,90,11
8,3,13,1,1,0,3,5,93,11
8,3,17,1,1,0,3,5,67,11
8,3,11,1,3,0,3,5,133,11
8,3,19,1,5,1,3,5,90,11
8,3,19,1,5,1,3,5,90,11
8,3,15,1,5,1,3,5,90,11
8,3,11,1,0,0,3,5,90,11
8,3,8,1,2,0,3,5,106,11
8,3,18,1,2,0,3,5,93,11
8,3,14,1,2,0,3,5,38,9
8,3,13,1,4,0,3,5,68,9
8,3,3,0,5,1,3,5,90,11
8,3,19,1,5,1,3,5,90,11
8,3,17,1,5,1,3,5,67,11
8,3,19,1,6,1,3,5,106,11
8,3,3,0,6,1,3,5,90,11
8,3,5,0,6,1,3,5,90,11
8,3,4,0,0,0,3,5,90,11
8,3,3,0,0,0,3,5,90,11
8,3,16,1,0,0,3,5,106,11
9,4,4,0,1,0,3,5,90,11
9,4,2,0,1,0,3,5,93,9
9,4,17,1,1,0,3,5,93,11
9,4,3,0,2,0,3,5,90,11
9,4,4,0,2,0,3,5,19,11
9,4,20,1,5,1,3,5,90,11
9,4,15,1,5,1,3,5,90,11
9,4,16,1,0,0,3,5,90,11
9,4,15,1,0,0,3,5,106,11
9,4,15,1,1,0,3,5,93,11
9,4,5,0,2,0,3,5,90,11
9,4,5,0,2,0,3,5,90,11
9,4,12,1,4,0,3,5,67,11
9,4,15,1,0,0,3,5,39,11
9,4,22,0,0,0,3,5,90,11
9,4,11,1,2,0,3,5,90,11
9,4,10,1,2,0,3,5,9,9
9,4,12,1,3,0,3,5,100,11
9,4,9,1,4,0,3,5,93,11
9,4,20,1,5,1,3,5,48,9
9,4,4,0,5,1,3,5,90,11
9,4,4,0,4,0,3,5,90,11
9,4,4,0,4,0,3,5,90,11
9,4,4,0,4,0,3,5,90,11
9,4,4,0,4,0,3,5,90,11
9,4,17,1,6,1,3,5,48,11
9,4,10,1,0,0,3,5,67,11
10,4,14,1,4,0,4,5,9,11
10,4,5,0,5,1,4,5,90,11
10,4,4,0,6,1,4,5,90,11
10,4,9,1,6,1,4,5,90,11
10,4,11,1,0,0,4,5,48,11
10,4,14,1,0,0,4,5,78,11
10,4,1,0,0,0,4,5,106,11
10,4,23,0,2,0,4,5,90,11
10,4,23,0,2,0,4,5,106,11
10,4,4,0,3,0,4,5,90,11
10,4,12,1,3,0,4,5,67,11
10,4,23,0,4,0,4,5,90,11
10,4,23,0,4,0,4,5,90,11
10,4,16,1,5,1,4,5,78,11
10,4,15,1,6,1,4,5,106,11
10,4,3,0,6,1,4,5,67,11
10,4,22,0,0,0,4,5,106,11
10,4,2,0,2,0,4,5,19,11
10,4,3,0,2,0,4,5,90,11
10,4,3,0,2,0,4,5,90,11
10,4,3,0,2,0,4,5,90,11
10,4,3,0,2,0,4,5,90,11
10,4,3,0,2,0,4,5,90,11
10,4,3,0,2,0,4,5,90,11
10,4,3,0,2,0,4,5,90,11
10,4,20,1,2,0,4,5,9,11
10,4,18,1,3,0,4,5,93,11
10,4,1,0,4,0,4,5,90,11
10,4,3,0,5,1,4,5,90,11
10,4,0,0,1,0,4,5,90,11
10,4,0,0,1,0,4,5,90,11
10,4,13,1,2,0,4,5,81,11
10,4,19,1,0,0,4,5,90,9
10,4,3,0,0,0,4,5,90,11
10,4,22,0,0,0,4,5,9,11
10,4,3,0,0,0,4,5,90,11
10,4,2,0,1,0,4,5,67,11
11,4,17,1,0,0,4,5,90,11
11,4,13,1,0,0,4,5,90,11
11,4,1,0,1,0,4,5,90,11
11,4,1,0,1,0,4,5,39,11
11,4,18,1,1,0,4,5,19,11
11,4,10,1,3,0,4,5,67,9
11,4,16,1,4,0,4,5,19,11
11,4,4,0,5,1,4,5,106,11
11,4,17,1,6,1,4,5,93,11
11,4,12,1,6,1,4,5,106,11
11,4,22,0,0,0,4,5,90,11
11,4,17,1,0,0,4,5,43,11
11,4,0,0,0,0,4,5,67,11
11,4,4,0,2,0,4,5,90,11
11,4,3,0,2,0,4,5,90,11
11,4,20,1,3,0,4,5,67,9
11,4,2,0,0,0,4,5,19,11
11,4,21,0,0,0,4,5,19,11
11,4,6,0,1,0,4,5,19,11
11,4,23,0,3,0,4,5,90,11
11,4,0,0,4,0,4,5,90,11
11,4,15,1,5,1,4,5,90,11
11,4,21,0,5,1,4,5,90,11
11,4,18,1,6,1,4,5,39,11
11,4,19,1,0,0,4,5,67,11
11,4,16,1,0,0,4,5,48,11
11,4,13,1,1,0,4,5,19,11
11,4,2,0,4,0,4,5,90,11
11,4,2,0,4,0,4,5,90,11
11,4,21,0,5,1,4,5,67,11
11,4,3,0,6,1,4,5,90,11
12,1,20,1,2,0,4,5,106,11
12,1,18,1,3,0,4,5,67,11
12,1,0,0,5,1,4,5,79,11
12,1,12,1,5,1,4,5,90,11
12,1,11,1,6,1,4,5,58,9
12,1,6,0,1,0,4,5,67,9
12,1,14,1,1,0,4,5,67,11
12,1,15,1,4,0,4,5,58,11
12,1,19,1,5,1,4,5,90,11
12,1,20,1,5,1,4,5,58,11
12,1,12,1,6,1,4,5,115,11
12,1,2,0,6,1,4,5,90,11
12,1,19,1,6,1,4,5,39,9
12,1,13,1,0,0,4,5,78,11
12,1,2,0,1,0,4,5,90,11
12,1,19,1,1,0,4,5,67,11
12,1,15,1,1,0,4,5,78,11
12,1,2,0,1,0,4,5,90,11
12,1,2,0,3,0,4,5,90,11
12,1,8,1,3,0,4,5,67,11
12,1,3,0,3,0,4,5,58,9
12,1,0,0,3,0,4,5,90,11
12,1,10,1,4,0,4,5,39,11
12,1,2,0,5,1,4,5,90,11
12,1,0,0,5,1,4,5,19,9
12,1,10,1,6,1,4,5,90,11
12,1,20,1,6,1,4,5,78,11
12,1,5,0,0,0,4,5,90,11
12,1,4,0,0,0,4,5,90,11
12,1,10,1,0,0,4,5,90,11
12,1,4,0,0,0,4,5,90,11
12,1,4,0,0,0,4,5,90,11
12,1,15,1,2,0,4,5,90,11
12,1,11,1,5,1,4,5,90,11
12,1,22,0,6,1,4,5,90,11
12,1,18,1,0,0,4,5,67,11
12,1,23,0,1,0,4,5,90,11
12,1,4,0,1,0,4,5,19,11
12,1,4,0,1,0,4,5,90,11
12,1,5,0,1,0,4,5,90,11
12,1,23,0,1,0,4,5,23,11
12,1,19,1,3,0,4,5,67,11
12,1,21,0,3,0,4,5,67,11
12,1,12,1,3,0,4,5,90,11
12,1,4,0,3,0,4,5,75,9
1,1,19,1,3,0,1,5,67,11
1,1,19,1,3,0,1,5,75,11
1,1,12,1,3,0,1,5,67,11
1,1,22,0,4,0,1,5,90,11
1,1,18,1,4,0,1,5,67,11
1,1,21,0,5,1,1,5,66,11
1,1,12,1,5,1,1,5,100,11
1,1,2,0,6,1,1,5,78,11
1,1,22,0,6,1,1,5,90,11
1,1,3,0,0,0,1,5,90,11
1,1,2,0,0,0,1,5,90,11
1,1,21,0,1,0,1,5,93,11
1,1,21,0,2,0,1,5,1,11
1,1,17,1,2,0,1,5,67,11
1,1,17,1,2,0,1,5,90,11
1,1,13,1,2,0,1,5,90,11
1,1,11,1,2,0,1,5,90,11
1,1,23,0,3,0,1,5,90,11
1,1,14,1,3,0,1,5,90,11
1,1,0,0,4,0,1,5,67,11
1,1,18,1,4,0,1,5,67,11
1,1,21,0,4,0,1,5,90,11
1,1,18,1,4,0,1,5,67,11
1,1,18,1,5,1,1,5,39,11
1,1,17,1,0,0,1,5,90,11
1,1,20,1,0,0,1,5,90,11
1,1,14,1,2,0,1,5,67,11
1,1,15,1,2,0,1,5,90,11
1,1,22,0,5,1,1,5,90,11
1,1,5,0,5,1,1,5,100,11
1,1,1,0,5,1,1,5,90,11
1,1,10,1,6,1,1,5,67,11
1,1,2,0,0,0,1,5,75,11
1,1,20,1,0,0,1,5,90,11
1,1,2,0,0,0,1,5,90,11
1,1,12,1,3,0,1,5,93,11
1,1,18,1,3,0,1,5,78,11
1,1,16,1,6,1,1,5,67,11
1,1,12,1,0,0,1,5,67,11
1,1,23,0,1,0,1,5,90,11
1,1,14,1,1,0,1,5,58,11
1,1,11,1,1,0,1,5,48,11
1,1,19,1,2,0,1,5,1,11
1,1,21,0,3,0,1,5,101,11
1,1,12,1,3,0,1,5,90,11
1,1,23,0,4,0,1,5,75,11
1,1,12,1,4,0,1,5,67,11
1,1,14,1,5,1,1,5,132,11
2,1,6,0,6,1,1,5,90,11
2,1,18,1,0,0,1,5,75,11
2,1,14,1,0,0,1,5,23,11
2,1,20,1,1,0,1,5,78,9
2,1,19,1,1,0,1,5,133,11
2,1,16,1,1,0,1,5,110,11
2,1,23,0,2,0,1,5,100,11
2,1,21,0,6,1,1,5,90,11
2,1,8,1,0,0,1,5,116,11
2,1,1,0,2,0,1,5,67,11
2,1,11,1,2,0,1,5,90,11
2,1,4,0,4,0,1,5,90,11
2,1,20,1,5,1,1,5,106,11
2,1,13,1,5,1,1,5,67,11
2,1,16,1,6,1,1,5,90,11
2,1,17,1,6,1,1,5,90,11
2,1,14,1,6,1,1,5,90,11
2,1,0,0,6,1,1,5,133,11
2,1,20,1,1,0,1,5,75,11
2,1,17,1,1,0,1,5,75,11
2,1,7,1,1,0,1,5,14,11
2,1,11,1,3,0,1,5,66,11
2,1,9,1,4,0,1,5,100,11
2,1,12,1,4,0,1,5,67,11
2,1,9,1,4,0,1,5,67,11
2,1,2,0,6,1,1,5,75,11
2,1,2,0,6,1,1,5,75,11
2,1,22,0,6,1,1,5,67,11
2,1,0,0,0,0,1,5,75,11
2,1,13,1,0,0,1,5,67,11
2,1,14,1,0,0,1,5,67,11
2,1,3,0,1,0,1,5,100,11
2,1,1,0,1,0,1,5,100,11
2,1,14,1,2,0,1,5,67,11
2,1,20,1,4,0,1,5,67,8
2,1,20,1,5,1,1,5,100,11
2,1,10,1,5,1,1,5,100,11
3,2,22,0,6,1,1,5,90,11
3,2,6,0,6,1,1,5,90,11
3,2,1,0,0,0,1,5,90,11
3,2,16,1,0,0,1,5,78,11
3,2,19,1,3,0,1,5,67,11
3,2,20,1,3,0,1,5,100,11
3,2,19,1,3,0,1,5,66,11
3,2,2,0,3,0,1,5,75,11
3,2,3,0,4,0,1,5,67,11
3,2,1,0,4,0,1,5,133,11
3,2,10,1,5,1,1,5,78,11
3,2,20,1,5,1,1,5,90,11
3,2,11,1,5,1,1,5,115,11
3,2,18,1,6,1,1,5,67,11
3,2,19,1,6,1,1,5,90,11
3,2,4,0,6,1,1,5,90,11
3,2,16,1,0,0,1,5,90,11
3,2,16,1,0,0,1,5,90,11
3,2,23,0,1,0,1,5,90,11
3,2,22,0,1,0,1,5,90,11
3,2,11,1,1,0,1,5,90,11
3,2,11,1,1,0,1,5,90,11
3,2,4,0,2,0,1,5,67,11
3,2,0,0,2,0,1,5,90,11
3,2,12,1,3,0,1,5,90,11
3,2,23,0,6,1,1,5,90,11
3,2,21,0,6,1,1,5,67,11
3,2,18,1,6,1,1,5,67,11
3,2,12,1,6,1,1,5,75,11
3,2,1,0,0,0,1,5,90,11
3,2,1,0,0,0,1,5,90,11
3,2,14,1,0,0,1,5,93,11
3,2,21,0,2,0,1,5,90,11
3,2,20,1,3,0,1,5,133,11
3,2,1,0,4,0,1,5,133,11
3,2,22,0,5,1,1,5,133,11
3,2,20,1,5,1,1,5,133,11
3,2,20,1,5,1,1,5,133,11
3,2,13,1,6,1,1,5,93,11
3,2,15,1,6,1,1,5,93,11
3,2,18,1,6,1,1,5,100,11
3,2,18,1,6,1,1,5,66,11
3,2,23,0,6,1,1,5,133,11
3,2,22,0,0,0,1,5,100,11
3,2,12,1,1,0,1,5,93,11
3,2,17,1,1,0,1,5,75,11
3,2,15,1,1,0,1,5,90,11
3,2,19,1,1,0,1,5,66,11
3,2,10,1,3,0,1,5,118,11
3,2,21,0,3,0,1,5,118,11
3,2,3,0,3,0,1,5,118,9
3,2,23,0,5,1,1,5,100,11
3,2,4,0,0,0,1,5,90,11
3,2,1,0,0,0,1,5,90,11
3,2,0,0,0,0,1,5,75,11
3,2,19,1,0,0,1,5,90,11
3,2,21,0,1,0,1,5,90,11
3,2,16,1,1,0,1,5,93,11
3,2,15,1,1,0,1,5,93,11
4,2,2,0,3,0,2,5,93,11
4,2,0,0,3,0,2,5,90,11
4,2,17,1,4,0,2,5,93,11
4,2,16,1,4,0,2,5,78,11
4,2,22,0,5,1,2,5,67,11
4,2,2,0,5,1,2,5,90,11
4,2,1,0,6,1,2,5,75,11
4,2,14,1,1,0,2,5,90,11
4,2,14,1,1,0,2,5,90,11
4,2,13,1,3,0,2,5,93,11
4,2,13,1,4,0,2,5,90,11
4,2,3,0,4,0,2,5,90,11
4,2,23,0,5,1,2,5,90,11
4,2,19,1,6,1,2,5,67,11
4,2,18,1,6,1,2,5,67,11
4,2,13,1,6,1,2,5,67,11
4,2,7,1,6,1,2,5,91,11
4,2,0,0,6,1,2,5,90,11
4,2,14,1,0,0,2,5,67,11
4,2,3,0,0,0,2,5,75,8
4,2,1,0,0,0,2,5,100,11
4,2,19,1,1,0,2,5,100,11
4,2,0,0,1,0,2,5,100,11
4,2,16,1,2,0,2,5,106,11
4,2,13,1,2,0,2,5,133,11
4,2,8,1,2,0,2,5,78,11
4,2,3,0,2,0,2,5,75,11
4,2,8,1,3,0,2,5,67,11
4,2,19,1,3,0,2,5,93,11
4,2,3,0,4,0,2,5,58,11
4,2,23,0,4,0,2,5,67,11
4,2,19,1,6,1,2,5,90,11
4,2,13,1,6,1,2,5,91,11
4,2,4,0,6,1,2,5,133,11
4,2,1,0,0,0,2,5,90,11
4,2,22,0,0,0,2,5,67,11
4,2,16,1,0,0,2,5,67,11
4,2,2,0,1,0,2,5,100,11
4,2,1,0,1,0,2,5,67,11
4,2,23,0,1,0,2,5,90,11
4,2,23,0,1,0,2,5,90,11
4,2,22,0,1,0,2,5,90,11
4,2,17,1,1,0,2,5,93,11
4,2,1,0,3,0,2,5,90,11
4,2,7,1,3,0,2,5,75,11
4,2,9,1,3,0,2,5,78,11
4,2,5,0,4,0,2,5,90,11
4,2,15,1,4,0,2,5,90,11
4,2,8,1,5,1,2,5,90,11
4,2,19,1,0,0,2,5,78,11
4,2,23,0,0,0,2,5,93,11
4,2,21,0,0,0,2,5,90,11
4,2,1,0,1,0,2,5,90,11
4,2,22,0,2,0,2,5,93,11
4,2,23,0,3,0,2,5,75,11
5,2,17,1,4,0,2,5,39,11
5,2,23,0,4,0,2,5,133,11
5,2,0,0,5,1,2,5,75,11
5,2,4,0,5,1,2,5,133,11
5,2,21,0,6,1,2,5,93,11
5,2,20,1,6,1,2,5,75,11
5,2,18,1,0,0,2,5,100,11
5,2,20,1,0,0,2,5,93,11
5,2,13,1,0,0,2,5,93,11
5,2,12,1,0,0,2,5,93,11
5,2,9,1,1,0,2,5,133,11
5,2,6,0,1,0,2,5,90,11
5,2,6,0,1,0,2,5,75,11
5,2,20,1,2,0,2,5,89,11
5,2,22,0,2,0,2,5,29,11
5,2,21,0,3,0,2,5,90,11
5,2,20,1,3,0,2,5,93,11
5,2,21,0,3,0,2,5,67,11
5,2,21,0,3,0,2,5,106,11
5,2,19,1,4,0,2,5,93,11
5,2,21,0,4,0,2,5,93,11
5,2,21,0,4,0,2,5,90,11
5,2,16,1,4,0,2,5,67,11
5,2,16,1,4,0,2,5,93,11
5,2,7,1,4,0,2,5,66,11
5,2,22,0,5,1,2,5,90,11
5,2,17,1,5,1,2,5,93,11
5,2,15,1,5,1,2,5,66,11
5,2,4,0,5,1,2,5,90,11
5,2,18,1,5,1,2,5,133,11
5,2,21,0,6,1,2,5,93,11
5,2,23,0,6,1,2,5,93,11
5,2,23,0,6,1,2,5,90,11
5,2,0,0,0,0,2,5,93,11
5,2,10,1,0,0,2,5,93,11
5,2,4,0,0,0,2,5,67,11
5,2,1,0,0,0,2,5,93,11
5,2,0,0,0,0,2,5,93,11
5,2,1,0,1,0,2,5,93,11
5,2,1,0,1,0,2,5,90,11
5,2,1,0,1,0,2,5,90,11
5,2,0,0,3,0,2,5,75,11
5,2,0,0,3,0,2,5,93,11
5,2,22,0,3,0,2,5,39,11
5,2,21,0,3,0,2,5,93,11
5,2,16,1,3,0,2,5,93,11
5,2,15,1,4,0,2,5,93,11
5,2,7,1,5,1,2,5,93,11
5,2,20,1,5,1,2,5,93,11
5,2,0,0,5,1,2,5,133,11
5,2,23,0,6,1,2,5,100,11
5,2,21,0,6,1,2,5,133,11
5,2,17,1,6,1,2,5,93,11
5,2,0,0,6,1,2,5,93,11
5,2,8,1,0,0,2,5,75,11
5,2,18,1,0,0,2,5,93,11
5,2,15,1,0,0,2,5,93,11
5,2,19,1,0,0,2,5,93,11
5,2,20,1,0,0,2,5,66,11
5,2,14,1,1,0,2,5,93,11
5,2,23,0,2,0,2,5,90,11
5,2,23,0,3,0,2,5,93,11
5,2,21,0,3,0,2,5,93,11
5,2,7,1,3,0,2,5,100,11
5,2,2,0,4,0,2,5,93,11
5,2,21,0,4,0,2,5,93,11
5,2,20,1,4,0,2,5,93,11
5,2,15,1,4,0,2,5,93,11
5,2,16,1,4,0,2,5,93,11
5,2,14,1,5,1,2,5,93,11
5,2,3,0,5,1,2,5,67,11
5,2,0,0,5,1,2,5,93,11
5,2,18,1,5,1,2,5,67,9
5,2,0,0,5,1,2,5,100,11
5,2,19,1,6,1,2,5,93,11
5,2,20,1,6,1,2,5,93,11
5,2,14,1,6,1,2,5,131,11
5,2,6,0,6,1,2,5,79,11
5,2,5,0,6,1,2,5,90,11
5,2,0,0,0,0,2,5,90,11
5,2,11,1,0,0,2,5,93,11
5,2,18,1,0,0,2,5,93,11
5,2,12,1,0,0,2,5,93,11
5,2,19,1,0,0,2,5,93,11
5,2,12,1,0,0,2,5,93,11
5,2,21,0,0,0,2,5,130,11
5,2,18,1,1,0,2,5,93,11
5,2,14,1,1,0,2,5,93,11
5,2,23,0,2,0,2,5,93,11
5,2,23,0,2,0,2,5,93,11
5,2,14,1,2,0,2,5,93,11
5,2,22,0,3,0,2,5,66,11
5,2,12,1,5,1,2,5,93,11
5,2,2,0,5,1,2,5,90,11
5,2,12,1,5,1,2,5,67,11
5,2,12,1,5,1,2,5,110,11
5,2,13,1,6,1,2,5,93,11
5,2,15,1,6,1,2,5,93,11
5,2,8,1,6,1,2,5,93,11
5,2,6,0,6,1,2,5,75,11
6,3,21,0,0,0,2,5,93,11
6,3,18,1,0,0,2,5,93,11
6,3,21,0,0,0,2,5,93,11
6,3,15,1,0,0,2,5,93,11
6,3,18,1,0,0,2,5,93,11
6,3,7,1,0,0,2,5,93,11
6,3,1,0,1,0,2,5,79,11
6,3,21,0,1,0,2,5,39,11
6,3,19,1,2,0,2,5,93,11
6,3,13,1,2,0,2,5,93,11
6,3,11,1,2,0,2,5,93,11
6,3,6,0,2,0,2,5,93,11
6,3,17,1,2,0,2,5,93,11
6,3,1,0,3,0,2,5,93,11
6,3,20,1,3,0,2,5,93,11
6,3,22,0,3,0,2,5,90,11
6,3,17,1,3,0,2,5,106,9
6,3,23,0,4,0,2,5,93,11
6,3,21,0,4,0,2,5,75,11
6,3,22,0,4,0,2,5,93,11
6,3,10,1,4,0,2,5,91,11
6,3,16,1,4,0,2,5,35,11
6,3,22,0,5,1,2,5,93,11
6,3,20,1,6,1,2,5,93,11
6,3,12,1,6,1,2,5,93,9
6,3,22,0,0,0,2,5,93,11
6,3,22,0,0,0,2,5,93,11
6,3,15,1,0,0,2,5,93,11
6,3,17,1,0,0,2,5,39,11
6,3,12,1,0,0,2,5,93,11
6,3,9,1,0,0,2,5,100,11
6,3,4,0,1,0,2,5,75,11
6,3,1,0,1,0,2,5,100,11
6,3,1,0,1,0,2,5,100,11
6,3,16,1,1,0,2,5,75,11
6,3,17,1,1,0,2,5,93,11
6,3,18,1,1,0,2,5,93,11
6,3,17,1,1,0,2,5,93,11
6,3,14,1,1,0,2,5,93,11
6,3,0,0,2,0,2,5,93,11
6,3,12,1,2,0,2,5,93,11
6,3,22,0,3,0,2,5,67,11
6,3,16,1,3,0,2,5,90,11
6,3,15,1,3,0,2,5,90,11
6,3,13,1,3,0,2,5,67,11
6,3,6,0,3,0,2,5,75,11
6,3,1,0,4,0,2,5,93,11
6,3,1,0,4,0,2,5,75,11
6,3,21,0,4,0,2,5,75,11
6,3,16,1,4,0,2,5,106,11
6,3,20,1,4,0,2,5,93,11
6,3,22,0,5,1,2,5,93,11
6,3,20,1,5,1,2,5,90,11
6,3,21,0,5,1,2,5,90,11
6,3,11,1,5,1,2,5,93,11
6,3,12,1,5,1,2,5,67,11
6,3,15,1,6,1,2,5,75,11
6,3,14,1,6,1,2,5,93,11
6,3,15,1,6,1,2,5,93,11
6,3,21,0,0,0,2,5,93,11
6,3,20,1,0,0,2,5,93,11
6,3,19,1,0,0,2,5,58,11
6,3,13,1,0,0,2,5,93,11
6,3,13,1,0,0,2,5,78,11
6,3,12,1,0,0,2,5,23,11
6,3,23,0,1,0,2,5,93,11
6,3,20,1,1,0,2,5,93,11
6,3,21,0,1,0,2,5,93,11
6,3,19,1,1,0,2,5,93,11
6,3,18,1,1,0,2,5,93,11
6,3,17,1,1,0,2,5,9,8
6,3,20,1,1,0,2,5,93,11
6,3,10,1,2,0,2,5,78,11
6,3,16,1,2,0,2,5,93,11
6,3,15,1,2,0,2,5,93,11
6,3,21,0,4,0,2,5,106,11
6,3,13,1,5,1,2,5,93,11
6,3,18,1,6,1,2,5,93,11
6,3,4,0,6,1,2,5,100,11
6,3,4,0,1,0,2,5,100,11
6,3,6,0,2,0,2,5,1,11
6,3,12,1,2,0,2,5,106,11
6,3,20,1,2,0,2,5,66,11
6,3,18,1,3,0,2,5,93,11
6,3,17,1,3,0,2,5,93,11
6,3,18,1,3,0,2,5,93,11
6,3,9,1,3,0,2,5,93,11
6,3,0,0,3,0,2,5,93,11
6,3,12,1,3,0,2,5,35,11
6,3,4,0,4,0,2,5,90,11
6,3,18,1,4,0,2,5,93,11
6,3,20,1,4,0,2,5,93,11
6,3,7,1,4,0,2,5,90,11
6,3,12,1,5,1,2,5,93,11
6,3,18,1,5,1,2,5,93,11
6,3,20,1,5,1,2,5,93,11
6,3,21,0,5,1,2,5,93,11
6,3,17,1,6,1,2,5,93,11
6,3,2,0,6,1,2,5,75,11
6,3,1,0,6,1,2,5,75,11
6,3,12,1,6,1,2,5,35,11
6,3,18,1,6,1,2,5,35,11
6,3,16,1,0,0,2,5,78,11
6,3,6,0,0,0,2,5,75,11
6,3,5,0,1,0,2,5,67,11
6,3,18,1,1,0,2,5,46,11
6,3,13,1,1,0,2,5,93,11
7,3,11,1,3,0,3,5,67,11
7,3,19,1,4,0,3,5,93,11
7,3,5,0,5,1,3,5,93,11
7,3,0,0,5,1,3,5,93,11
7,3,3,0,6,1,3,5,106,11
7,3,0,0,6,1,3,5,93,11
7,3,5,0,0,0,3,5,75,11
7,3,22,0,0,0,3,5,66,11
7,3,21,0,0,0,3,5,93,11
7,3,5,0,0,0,3,5,75,11
7,3,16,1,1,0,3,5,100,11
7,3,23,0,1,0,3,5,93,11
7,3,20,1,2,0,3,5,93,11
7,3,13,1,2,0,3,5,93,11
7,3,4,0,2,0,3,5,93,11
7,3,6,0,2,0,3,5,93,11
7,3,10,1,3,0,3,5,93,11
7,3,11,1,3,0,3,5,75,11
7,3,13,1,3,0,3,5,93,11
7,3,23,0,3,0,3,5,93,11
7,3,23,0,3,0,3,5,93,11
7,3,21,0,4,0,3,5,93,11
7,3,22,0,4,0,3,5,93,11
7,3,18,1,4,0,3,5,93,11
7,3,16,1,4,0,3,5,93,11
7,3,3,0,4,0,3,5,106,11
7,3,11,1,4,0,3,5,93,11
7,3,14,1,5,1,3,5,93,11
7,3,14,1,5,1,3,5,93,11
7,3,21,0,6,1,3,5,67,11
7,3,12,1,6,1,3,5,39,11
7,3,11,1,6,1,3,5,93,11
7,3,23,0,6,1,3,5,93,9
7,3,23,0,6,1,3,5,93,11
7,3,16,1,0,0,3,5,93,11
7,3,17,1,0,0,3,5,93,11
7,3,19,1,0,0,3,5,34,8
7,3,1,0,1,0,3,5,90,11
7,3,22,0,1,0,3,5,93,11
7,3,9,1,2,0,3,5,93,11
7,3,20,1,2,0,3,5,93,11
7,3,19,1,2,0,3,5,93,11
7,3,9,1,2,0,3,5,75,11
7,3,23,0,3,0,3,5,93,11
7,3,22,0,3,0,3,5,93,11
7,3,18,1,3,0,3,5,93,11
7,3,12,1,3,0,3,5,93,11
7,3,13,1,3,0,3,5,9,11
7,3,18,1,3,0,3,5,93,11
7,3,15,1,3,0,3,5,93,11
7,3,12,1,5,1,3,5,93,11
7,3,10,1,5,1,3,5,93,11
7,3,12,1,5,1,3,5,100,11
7,3,22,0,1,0,3,5,58,11
7,3,20,1,1,0,3,5,93,11
7,3,20,1,1,0,3,5,93,11
7,3,12,1,1,0,3,5,93,11
7,3,0,0,1,0,3,5,93,11
7,3,17,1,2,0,3,5,133,8
7,3,2,0,2,0,3,5,100,11
7,3,22,0,3,0,3,5,93,11
7,3,22,0,3,0,3,5,93,11
7,3,20,1,3,0,3,5,90,11
7,3,11,1,3,0,3,5,67,11
7,3,18,1,4,0,3,5,93,11
7,3,19,1,4,0,3,5,100,11
7,3,16,1,4,0,3,5,75,11
7,3,18,1,4,0,3,5,67,11
7,3,14,1,4,0,3,5,90,11
7,3,20,1,5,1,3,5,93,11
7,3,21,0,0,0,3,5,93,11
7,3,23,0,2,0,3,5,93,11
7,3,12,1,2,0,3,5,93,11
7,3,23,0,3,0,3,5,9,11
7,3,15,1,3,0,3,5,78,11
7,3,21,0,4,0,3,5,78,11
7,3,14,1,4,0,3,5,93,11
7,3,17,1,4,0,3,5,93,11
7,3,10,1,4,0,3,5,110,11
8,3,1,0,5,1,3,5,100,11
8,3,20,1,5,1,3,5,75,11
8,3,2,0,5,1,3,5,23,8
8,3,15,1,5,1,3,5,93,11
8,3,20,1,6,1,3,5,93,11
8,3,17,1,6,1,3,5,67,11
8,3,6,0,6,1,3,5,93,11
8,3,5,0,6,1,3,5,133,11
8,3,17,1,0,0,3,5,93,11
8,3,22,0,0,0,3,5,106,11
8,3,0,0,1,0,3,5,93,11
8,3,0,0,1,0,3,5,93,11
8,3,15,1,2,0,3,5,93,11
8,3,13,1,2,0,3,5,90,11
8,3,3,0,3,0,3,5,79,11
8,3,1,0,3,0,3,5,100,11
8,3,20,1,4,0,3,5,93,11
8,3,12,1,4,0,3,5,67,11
8,3,19,1,6,1,3,5,67,11
8,3,14,1,6,1,3,5,67,11
8,3,12,1,6,1,3,5,35,9
8,3,20,1,0,0,3,5,93,11
8,3,4,0,0,0,3,5,75,11
8,3,19,1,1,0,3,5,93,11
8,3,18,1,1,0,3,5,93,11
8,3,14,1,1,0,3,5,93,11
8,3,21,0,2,0,3,5,93,11
8,3,17,1,2,0,3,5,93,11
8,3,4,0,3,0,3,5,93,11
8,3,20,1,4,0,3,5,93,11
8,3,0,0,4,0,3,5,79,11
8,3,0,0,4,0,3,5,90,11
8,3,21,0,5,1,3,5,66,11
8,3,13,1,5,1,3,5,79,11
8,3,3,0,5,1,3,5,90,11
8,3,4,0,5,1,3,5,9,11
8,3,1,0,5,1,3,5,93,11
8,3,16,1,6,1,3,5,93,11
8,3,21,0,0,0,3,5,67,11
8,3,14,1,1,0,3,5,93,11
8,3,17,1,1,0,3,5,90,11
8,3,3,0,1,0,3,5,58,11
8,3,19,1,2,0,3,5,93,11
8,3,13,1,4,0,3,5,93,11
8,3,20,1,5,1,3,5,93,9
8,3,10,1,5,1,3,5,93,11
8,3,3,0,5,1,3,5,100,11
8,3,22,0,6,1,3,5,90,11
8,3,0,0,0,0,3,5,93,11
8,3,6,0,0,0,3,5,75,11
8,3,9,1,0,0,3,5,131,11
8,3,14,1,0,0,3,5,93,11
8,3,18,1,1,0,3,5,93,11
8,3,22,0,1,0,3,5,93,11
8,3,13,1,1,0,3,5,90,11
8,3,15,1,2,0,3,5,93,11
8,3,7,1,2,0,3,5,93,11
8,3,3,0,3,0,3,5,91,11
8,3,12,1,4,0,3,5,75,11
8,3,19,1,5,1,3,5,93,11
8,3,6,0,5,1,3,5,93,11
8,3,22,0,6,1,3,5,93,11
8,3,21,0,0,0,3,5,93,11
8,3,23,0,0,0,3,5,93,11
9,4,12,1,1,0,3,5,89,11
9,4,11,1,2,0,3,5,93,11
9,4,12,1,4,0,3,5,93,11
9,4,16,1,4,0,3,5,136,11
9,4,22,0,6,1,3,5,93,11
9,4,3,0,6,1,3,5,59,11
9,4,21,0,6,1,3,5,93,11
9,4,11,1,6,1,3,5,1,11
9,4,5,0,0,0,3,5,133,11
9,4,16,1,0,0,3,5,93,11
9,4,0,0,2,0,3,5,106,11
9,4,19,1,3,0,3,5,93,11
9,4,20,1,3,0,3,5,93,11
9,4,15,1,4,0,3,5,93,11
9,4,18,1,4,0,3,5,93,11
9,4,7,1,4,0,3,5,67,11
9,4,5,0,6,1,3,5,90,11
9,4,5,0,6,1,3,5,90,11
9,4,9,1,6,1,3,5,93,11
9,4,16,1,6,1,3,5,90,11
9,4,23,0,0,0,3,5,93,11
9,4,16,1,0,0,3,5,100,11
9,4,3,0,1,0,3,5,100,11
9,4,2,0,1,0,3,5,93,11
9,4,2,0,2,0,3,5,90,11
9,4,1,0,3,0,3,5,93,11
9,4,19,1,3,0,3,5,78,11
9,4,19,1,4,0,3,5,67,11
9,4,17,1,4,0,3,5,93,11
9,4,13,1,4,0,3,5,90,11
9,4,12,1,4,0,3,5,9,11
9,4,12,1,4,0,3,5,90,11
9,4,3,0,5,1,3,5,90,11
9,4,4,0,5,1,3,5,100,11
9,4,11,1,5,1,3,5,93,11
9,4,2,0,5,1,3,5,67,11
9,4,23,0,6,1,3,5,106,11
9,4,23,0,6,1,3,5,90,11
9,4,22,0,6,1,3,5,90,11
9,4,15,1,6,1,3,5,93,11
9,4,0,0,6,1,3,5,75,11
9,4,19,1,0,0,3,5,115,11
9,4,20,1,2,0,3,5,78,11
9,4,17,1,3,0,3,5,90,11
9,4,0,0,4,0,3,5,78,11
9,4,13,1,4,0,3,5,9,11
9,4,23,0,4,0,3,5,93,11
9,4,20,1,0,0,3,5,67,11
9,4,23,0,1,0,3,5,90,11
9,4,22,0,1,0,3,5,103,11
10,4,4,0,3,0,4,5,75,11
10,4,2,0,3,0,4,5,93,11
10,4,8,1,3,0,4,5,93,11
10,4,22,0,3,0,4,5,93,11
10,4,14,1,4,0,4,5,93,11
10,4,20,1,4,0,4,5,90,11
10,4,16,1,4,0,4,5,93,11
10,4,22,0,5,1,4,5,93,11
10,4,22,0,5,1,4,5,100,11
10,4,4,0,6,1,4,5,100,11
10,4,12,1,6,1,4,5,93,11
10,4,12,1,6,1,4,5,131,11
10,4,23,0,0,0,4,5,90,11
10,4,2,0,1,0,4,5,67,11
10,4,17,1,2,0,4,5,75,11
10,4,22,0,3,0,4,5,93,11
10,4,18,1,3,0,4,5,93,11
10,4,2,0,3,0,4,5,75,11
10,4,0,0,3,0,4,5,67,11
10,4,23,0,4,0,4,5,67,11
10,4,22,0,5,1,4,5,90,11
10,4,20,1,5,1,4,5,100,11
10,4,12,1,6,1,4,5,75,11
10,4,21,0,3,0,4,5,93,11
10,4,21,0,4,0,4,5,90,11
10,4,0,0,5,1,4,5,67,11
10,4,23,0,6,1,4,5,90,11
10,4,20,1,0,0,4,5,100,11
10,4,20,1,1,0,4,5,67,11
10,4,18,1,1,0,4,5,67,11
10,4,14,1,1,0,4,5,93,11
10,4,20,1,2,0,4,5,90,11
10,4,19,1,3,0,4,5,75,11
10,4,18,1,3,0,4,5,100,11
10,4,18,1,3,0,4,5,100,11
10,4,17,1,4,0,4,5,110,11
10,4,1,0,5,1,4,5,67,11
10,4,19,1,6,1,4,5,69,11
10,4,18,1,2,0,4,5,67,11
10,4,22,0,2,0,4,5,100,11
10,4,20,1,2,0,4,5,90,11
10,4,19,1,3,0,4,5,67,11
10,4,19,1,3,0,4,5,90,11
10,4,19,1,4,0,4,5,93,11
10,4,6,0,4,0,4,5,93,11
10,4,4,0,5,1,4,5,100,11
10,4,17,1,5,1,4,5,90,11
10,4,20,1,5,1,4,5,106,11
11,4,23,0,0,0,4,5,91,11
11,4,18,1,0,0,4,5,67,9
11,4,15,1,0,0,4,5,93,11
11,4,21,0,1,0,4,5,67,11
11,4,19,1,2,0,4,5,67,11
11,4,17,1,2,0,4,5,90,11
11,4,4,0,3,0,4,5,93,11
11,4,18,1,3,0,4,5,93,11
11,4,13,1,3,0,4,5,136,11
11,4,10,1,3,0,4,5,78,11
11,4,19,1,4,0,4,5,67,11
11,4,15,1,4,0,4,5,67,11
11,4,22,0,5,1,4,5,90,11
11,4,19,1,5,1,4,5,90,11
11,4,12,1,5,1,4,5,100,11
11,4,4,0,5,1,4,5,90,11
11,4,0,0,6,1,4,5,100,11
11,4,15,1,1,0,4,5,90,11
11,4,6,0,1,0,4,5,93,11
11,4,16,1,2,0,4,5,67,11
11,4,12,1,2,0,4,5,100,11
11,4,4,0,3,0,4,5,75,11
11,4,14,1,4,0,4,5,75,11
11,4,22,0,4,0,4,5,67,11
11,4,21,0,5,1,4,5,106,11
11,4,21,0,5,1,4,5,124,11
11,4,2,0,5,1,4,5,90,11
11,4,3,0,6,1,4,5,106,11
11,4,3,0,6,1,4,5,106,11
11,4,3,0,6,1,4,5,106,11
11,4,22,0,6,1,4,5,90,11
11,4,4,0,6,1,4,5,106,11
11,4,1,0,0,0,4,5,106,11
11,4,6,0,0,0,4,5,75,11
11,4,16,1,0,0,4,5,90,11
11,4,17,1,0,0,4,5,75,11
11,4,17,1,1,0,4,5,93,11
11,4,21,0,2,0,4,5,90,11
11,4,23,0,3,0,4,5,67,11
11,4,21,0,3,0,4,5,90,11
11,4,14,1,3,0,4,5,67,11
11,4,13,1,0,0,4,5,67,11
11,4,19,1,0,0,4,5,90,11
11,4,14,1,2,0,4,5,75,11
11,4,3,0,2,0,4,5,106,11
11,4,1,0,3,0,4,5,75,9
11,4,11,1,4,0,4,5,75,11
11,4,11,1,4,0,4,5,75,11
11,4,4,0,5,1,4,5,75,11
12,1,12,1,3,0,4,5,75,11
12,1,16,1,3,0,4,5,67,11
12,1,6,0,4,0,4,5,100,11
12,1,19,1,4,0,4,5,131,11
12,1,10,1,4,0,4,5,78,11
12,1,21,0,5,1,4,5,67,11
12,1,22,0,6,1,4,5,93,11
12,1,17,1,6,1,4,5,90,11
12,1,3,0,0,0,4,5,90,11
12,1,10,1,1,0,4,5,58,11
12,1,3,0,5,1,4,5,90,11
12,1,4,0,5,1,4,5,67,11
12,1,15,1,6,1,4,5,67,11
12,1,18,1,6,1,4,5,106,11
12,1,19,1,6,1,4,5,90,11
12,1,21,0,6,1,4,5,66,11
12,1,22,0,1,0,4,5,100,11
12,1,19,1,1,0,4,5,75,11
12,1,1,0,1,0,4,5,90,11
12,1,22,0,2,0,4,5,106,11
12,1,7,1,2,0,4,5,93,11
12,1,11,1,3,0,4,5,75,11
12,1,17,1,4,0,4,5,133,11
12,1,22,0,5,1,4,5,67,11
12,1,21,0,5,1,4,5,67,11
12,1,15,1,5,1,4,5,75,11
12,1,4,0,5,1,4,5,90,11
12,1,18,1,6,1,4,5,106,11
12,1,20,1,6,1,4,5,90,11
12,1,19,1,6,1,4,5,90,11
12,1,18,1,6,1,4,5,90,11
12,1,0,0,6,1,4,5,90,11
12,1,6,0,6,1,4,5,78,11
12,1,9,1,0,0,4,5,39,11
12,1,10,1,1,0,4,5,1,11
12,1,0,0,2,0,4,5,100,11
12,1,21,0,2,0,4,5,75,11
12,1,14,1,2,0,4,5,75,11
12,1,8,1,2,0,4,5,67,11
12,1,23,0,3,0,4,5,75,11
12,1,19,1,3,0,4,5,67,11
12,1,22,0,4,0,4,5,90,11
12,1,14,1,4,0,4,5,67,11
12,1,2,0,4,0,4,5,90,11
12,1,3,0,4,0,4,5,75,11
12,1,22,0,4,0,4,5,91,8
12,1,20,1,4,0,4,5,67,11
12,1,12,1,5,1,4,5,67,11
12,1,8,1,5,1,4,5,67,11
12,1,1,0,5,1,4,5,93,11
12,1,10,1,6,1,4,5,78,11
12,1,11,1,6,1,4,5,91,11
12,1,10,1,0,0,4,5,39,11
12,1,18,1,0,0,4,5,1,11
12,1,20,1,0,0,4,5,1,11
12,1,23,0,0,0,4,5,75,11
12,1,3,0,2,0,4,5,67,11
12,1,23,0,2,0,4,5,67,11
12,1,23,0,3,0,4,5,67,11
12,1,16,1,3,0,4,5,90,11
12,1,16,1,3,0,4,5,90,11
12,1,0,0,3,0,4,5,75,11
1,1,3,0,4,0,1,5,67,9
1,1,1,0,4,0,1,5,67,11
1,1,15,1,4,0,1,5,90,11
1,1,14,1,5,1,1,5,90,11
1,1,16,1,5,1,1,5,90,11
1,1,18,1,6,1,1,5,90,11
1,1,6,0,1,0,1,5,67,11
1,1,14,1,3,0,1,5,90,11
1,1,15,1,3,0,1,5,90,11
1,1,13,1,3,0,1,5,90,11
1,1,6,0,6,1,1,5,90,11
1,1,12,1,1,0,1,5,90,11
1,1,13,1,2,0,1,5,93,11
1,1,22,0,5,1,1,5,67,11
1,1,18,1,6,1,1,5,90,11
1,1,18,1,3,0,1,5,1,11
1,1,18,1,2,0,1,5,90,11
1,1,13,1,3,0,1,5,93,11
1,1,1,0,5,1,1,5,67,11
2,1,19,1,0,0,1,5,67,11
2,1,5,0,5,1,1,5,66,11
2,1,0,0,5,1,1,5,93,11
2,1,22,0,6,1,1,5,90,11
2,1,17,1,2,0,1,5,67,11
2,1,21,0,3,0,1,5,67,11
2,1,20,1,3,0,1,5,67,11
2,1,19,1,3,0,1,5,90,11
2,1,16,1,3,0,1,5,67,11
2,1,16,1,3,0,1,5,90,11
2,1,7,1,3,0,1,5,90,11
2,1,1,0,5,1,1,5,93,11
2,1,0,0,1,0,1,5,90,11
2,1,0,0,1,0,1,5,90,11
2,1,16,1,2,0,1,5,90,11
2,1,23,0,2,0,1,5,90,11
2,1,20,1,3,0,1,5,67,11
2,1,11,1,3,0,1,5,90,11
2,1,5,0,3,0,1,5,90,11
2,1,5,0,4,0,1,5,90,11
2,1,23,0,6,1,1,5,67,11
2,1,15,1,6,1,1,5,90,11
2,1,9,1,6,1,1,5,66,11
2,1,9,1,0,0,1,5,67,11
2,1,5,0,1,0,1,5,67,8
2,1,14,1,1,0,1,5,90,11
2,1,18,1,1,0,1,5,93,11
2,1,19,1,2,0,1,5,112,11
3,2,9,1,6,1,1,5,93,11
3,2,21,0,0,0,1,5,67,11
3,2,1,0,1,0,1,5,93,11
3,2,10,1,3,0,1,5,93,11
3,2,21,0,3,0,1,5,93,8
3,2,14,1,4,0,1,5,93,11
3,2,22,0,5,1,1,5,93,11
3,2,21,0,5,1,1,5,90,11
3,2,18,1,6,1,1,5,90,11
3,2,11,1,6,1,1,5,93,11
3,2,16,1,1,0,1,5,122,11
3,2,2,0,3,0,1,5,90,11
3,2,23,0,3,0,1,5,93,11
3,2,21,0,5,1,1,5,90,11
3,2,8,1,5,1,1,5,90,11
3,2,8,1,6,1,1,5,93,11
3,2,4,0,0,0,1,5,67,11
4,2,1,0,2,0,2,5,90,11
4,2,1,0,2,0,2,5,90,11
4,2,21,0,4,0,2,5,93,11
4,2,8,1,0,0,2,5,93,11
4,2,16,1,1,0,2,5,90,11
4,2,13,1,2,0,2,5,67,11
4,2,22,0,3,0,2,5,90,11
4,2,15,1,3,0,2,5,90,11
4,2,17,1,6,1,2,5,93,11
4,2,11,1,6,1,2,5,67,11
4,2,22,0,6,1,2,5,93,11
4,2,4,0,1,0,2,5,90,11
4,2,3,0,4,0,2,5,90,11
4,2,4,0,4,0,2,5,90,11
4,2,3,0,4,0,2,5,90,11
4,2,3,0,4,0,2,5,93,11
4,2,13,1,5,1,2,5,93,11
4,2,12,1,1,0,2,5,93,11
4,2,17,1,6,1,2,5,67,11
4,2,1,0,0,0,2,5,67,11
5,2,16,1,0,0,2,5,67,11
5,2,17,1,2,0,2,5,14,11
5,2,15,1,4,0,2,5,93,11
5,2,13,1,5,1,2,5,67,11
5,2,17,1,5,1,2,5,93,11
5,2,9,1,5,1,2,5,93,11
5,2,6,0,5,1,2,5,90,11
5,2,21,0,5,1,2,5,93,11
5,2,14,1,6,1,2,5,93,11
5,2,21,0,0,0,2,5,90,11
5,2,21,0,0,0,2,5,90,11
5,2,12,1,1,0,2,5,93,8
5,2,1,0,2,0,2,5,90,11
5,2,12,1,3,0,2,5,93,11
5,2,18,1,4,0,2,5,103,11
5,2,11,1,2,0,2,5,93,11
5,2,17,1,2,0,2,5,93,11
5,2,15,1,2,0,2,5,93,11
6,3,1,0,0,0,2,5,90,11
6,3,13,1,0,0,2,5,67,11
6,3,15,1,1,0,2,5,93,11
6,3,2,0,3,0,2,5,93,11
6,3,6,0,1,0,2,5,93,11
6,3,10,1,4,0,2,5,90,11
6,3,11,1,5,1,2,5,67,11
6,3,3,0,6,1,2,5,14,11
6,3,21,0,3,0,2,5,14,11
6,3,16,1,3,0,2,5,93,9
6,3,17,1,5,1,2,5,90,11
6,3,7,1,6,1,2,5,93,11
6,3,18,1,6,1,2,5,93,11
6,3,18,1,1,0,2,5,93,11
7,3,15,1,3,0,3,5,93,11
7,3,16,1,4,0,3,5,93,11
7,3,18,1,4,0,3,5,39,11
7,3,2,0,5,1,3,5,100,11
7,3,3,0,6,1,3,5,90,11
7,3,1,0,0,0,3,5,90,11
7,3,19,1,0,0,3,5,93,11
7,3,18,1,4,0,3,5,93,11
7,3,11,1,1,0,3,5,93,11
7,3,19,1,3,0,3,5,93,11
7,3,23,0,4,0,3,5,67,11
8,3,22,0,3,0,3,5,93,11
8,3,14,1,5,1,3,5,93,11
8,3,21,0,1,0,3,5,90,11
8,3,16,1,2,0,3,5,93,11
8,3,8,1,4,0,3,5,90,11
8,3,9,1,1,0,3,5,93,11
8,3,9,1,2,0,3,5,90,11
9,4,18,1,3,0,3,5,93,11
9,4,0,0,3,0,3,5,66,11
9,4,16,1,4,0,3,5,93,11
9,4,14,1,4,0,3,5,93,9
9,4,3,0,4,0,3,5,90,11
9,4,19,1,6,1,3,5,93,11
9,4,19,1,4,0,3,5,93,11
9,4,9,1,4,0,3,5,93,11
9,4,18,1,6,1,3,5,14,8
9,4,3,0,6,1,3,5,90,11
9,4,1,0,0,0,3,5,90,11
9,4,1,0,0,0,3,5,90,11
9,4,3,0,0,0,3,5,90,9
9,4,1,0,0,0,3,5,93,11
9,4,23,0,4,0,3,5,90,11
9,4,12,1,0,0,3,5,67,11
9,4,22,0,1,0,3,5,67,11
9,4,11,1,1,0,3,5,90,11
9,4,23,0,2,0,3,5,66,11
9,4,22,0,3,0,3,5,90,11
9,4,22,0,3,0,3,5,93,11
9,4,7,1,5,1,3,5,90,11
10,4,0,0,4,0,4,5,93,11
10,4,12,1,2,0,4,5,93,11
10,4,12,1,4,0,4,5,93,9
10,4,4,0,1,0,4,5,93,11
10,4,10,1,1,0,4,5,58,11
10,4,22,0,5,1,4,5,93,11
10,4,9,1,1,0,4,5,93,11
10,4,5,0,2,0,4,5,90,11
10,4,13,1,2,0,4,5,93,11
10,4,20,1,3,0,4,5,90,11
11,4,17,1,0,0,4,5,93,11
11,4,17,1,3,0,4,5,90,11
11,4,12,1,5,1,4,5,90,11
11,4,22,0,6,1,4,5,90,11
11,4,17,1,6,1,4,5,90,11
11,4,18,1,0,0,4,5,67,11
11,4,20,1,5,1,4,5,67,11
11,4,16,1,5,1,4,5,93,11
11,4,12,1,6,1,4,5,90,11
11,4,11,1,0,0,4,5,90,11
11,4,13,1,2,0,4,5,58,11
11,4,21,0,2,0,4,5,67,11
11,4,22,0,2,0,4,5,90,11
11,4,9,1,0,0,4,5,67,11
12,1,16,1,4,0,4,5,93,9
12,1,12,1,4,0,4,5,93,11
12,1,17,1,5,1,4,5,67,11
12,1,11,1,5,1,4,5,90,11
12,1,12,1,6,1,4,5,67,8
12,1,14,1,1,0,4,5,93,9
12,1,12,1,6,1,4,5,90,11
12,1,22,0,0,0,4,5,90,11
12,1,18,1,3,0,4,5,67,11
12,1,22,0,4,0,4,5,14,8
12,1,16,1,5,1,4,5,90,11
12,1,8,1,5,1,4,5,29,8
12,1,14,1,3,0,4,5,93,11
12,1,17,1,4,0,4,5,48,11
12,1,18,1,4,0,4,5,93,11
12,1,14,1,5,1,4,5,90,11
12,1,22,0,5,1,4,5,59,11
12,1,18,1,5,1,4,5,90,11
12,1,10,1,6,1,4,5,93,11
12,1,18,1,6,1,4,5,90,11
12,1,10,1,0,0,4,5,19,11
12,1,12,1,0,0,4,5,93,11
1,1,12,1,5,1,1,5,93,11
1,1,1,0,6,1,1,5,133,11
1,1,17,1,1,0,1,5,93,11
1,1,17,1,2,0,1,5,39,11
1,1,21,0,5,1,1,5,78,9
1,1,18,1,5,1,1,5,93,11
1,1,21,0,6,1,1,5,93,11
2,1,3,0,3,0,1,5,133,11
2,1,11,1,0,0,1,5,93,11
3,2,14,1,3,0,1,5,78,11
3,2,21,0,3,0,1,5,93,11
3,2,17,1,5,1,1,5,78,11
3,2,2,0,0,0,1,5,93,11
4,2,13,1,4,0,2,5,19,11
4,2,8,1,2,0,2,5,93,11
4,2,12,1,6,1,2,5,103,11
4,2,19,1,2,0,2,5,93,11
4,2,21,0,1,0,2,5,93,11
4,2,20,1,2,0,2,5,23,11
5,2,11,1,4,0,2,5,106,11
5,2,20,1,6,1,2,5,90,11
5,2,21,0,6,1,2,5,90,11
6,3,21,0,1,0,2,5,93,11
6,3,2,0,1,0,2,5,93,11
6,3,16,1,2,0,2,5,19,11
6,3,7,1,4,0,2,5,71,11
6,3,7,1,0,0,2,5,78,9
6,3,17,1,1,0,2,5,93,9
7,3,15,1,5,1,3,5,93,9
7,3,1,0,0,0,3,5,90,11
7,3,0,0,4,0,3,5,93,11
7,3,14,1,5,1,3,5,78,9
7,3,17,1,3,0,3,5,93,9
7,3,0,0,3,0,3,5,19,11
7,3,19,1,5,1,3,5,130,9
7,3,11,1,6,1,3,5,93,9
7,3,0,0,2,0,3,5,93,11
7,3,4,0,3,0,3,5,93,11
8,3,14,1,6,1,3,5,93,9
8,3,21,0,6,1,3,5,93,11
8,3,21,0,4,0,3,5,78,11
8,3,21,0,6,1,3,5,106,11
8,3,19,1,3,0,3,5,78,11
8,3,15,1,5,1,3,5,78,11
8,3,17,1,3,0,3,5,93,11
9,4,22,0,2,0,3,5,78,11
9,4,3,0,2,0,3,5,93,11
9,4,10,1,5,1,3,5,19,11
9,4,12,1,5,1,3,5,93,11
10,4,14,1,3,0,4,5,106,11
10,4,15,1,4,0,4,5,90,11
10,4,16,1,0,0,4,5,133,11
10,4,11,1,5,1,4,5,19,11
10,4,18,1,0,0,4,5,93,11
10,4,17,1,1,0,4,5,93,11
10,4,3,0,4,0,4,5,75,11
11,4,14,1,0,0,4,5,9,11
11,4,15,1,1,0,4,5,90,11
11,4,7,1,1,0,4,5,19,11
11,4,22,0,1,0,4,5,78,11
12,1,13,1,1,0,4,5,93,11
12,1,18,1,6,1,4,5,90,11
12,1,12,1,6,1,4,5,90,11
12,1,17,1,1,0,4,5,106,11
12,1,18,1,2,0,4,5,19,11
12,1,12,1,3,0,4,5,90,11
1,1,21,0,4,0,1,5,78,11
1,1,20,1,2,0,1,5,133,11
8,3,5,0,2,0,3,5,106,11
8,3,10,1,6,1,3,5,19,11
9,4,10,1,0,0,3,5,39,11
9,4,12,1,4,0,3,5,19,11
9,4,16,1,1,0,3,5,78,11
9,4,22,0,2,0,3,5,48,11
10,4,1,0,2,0,4,5,78,11
10,4,9,1,0,0,4,5,90,11
10,4,11,1,6,1,4,5,93,11
10,4,3,0,3,0,4,5,19,11
10,4,10,1,4,0,4,5,78,11
10,4,23,0,2,0,4,5,39,11
11,4,8,1,2,0,4,5,93,11
11,4,2,0,3,0,4,5,93,11
11,4,13,1,6,1,4,5,93,11
11,4,13,1,2,0,4,5,93,11
11,4,20,1,6,1,4,5,93,11
11,4,21,0,0,0,4,5,78,11
11,4,23,0,0,0,4,5,78,11
12,1,19,1,5,1,4,5,87,11
12,1,19,1,6,1,4,5,19,11
12,1,12,1,6,1,4,5,39,11
12,1,12,1,3,0,4,5,85,11
12,1,12,1,5,1,4,5,78,11
12,1,15,1,6,1,4,5,93,11
12,1,17,1,2,0,4,5,115,11
1,1,5,0,3,0,1,5,106,11
1,1,13,1,3,0,1,5,90,11
1,1,18,1,3,0,1,5,19,11
1,1,13,1,6,1,1,5,100,11
1,1,14,1,1,0,1,5,39,11
1,1,21,0,1,0,1,5,67,11
1,1,8,1,2,0,1,5,78,11
1,1,19,1,3,0,1,5,67,11
1,1,21,0,6,1,1,5,103,11
1,1,19,1,0,0,1,5,67,11
1,1,12,1,2,0,1,5,100,11
1,1,19,1,2,0,1,5,67,11
1,1,2,0,3,0,1,5,90,11
1,1,22,0,3,0,1,5,100,11
1,1,0,0,4,0,1,5,90,11
2,1,13,1,6,1,1,5,86,11
2,1,1,0,1,0,1,5,19,11
2,1,21,0,6,1,1,5,67,11
2,1,9,1,1,0,1,5,67,11
2,1,21,0,2,0,1,5,113,11
2,1,14,1,2,0,1,5,67,11
2,1,23,0,2,0,1,5,90,11
2,1,17,1,6,1,1,5,90,11
2,1,13,1,2,0,1,5,67,11
3,2,12,1,6,1,1,5,90,11
3,2,21,0,6,1,1,5,66,11
3,2,18,1,0,0,1,5,93,11
3,2,18,1,1,0,1,5,67,11
3,2,12,1,1,0,1,5,78,11
3,2,23,0,3,0,1,5,67,11
3,2,12,1,5,1,1,5,67,11
3,2,8,1,3,0,1,5,19,11
3,2,23,0,5,1,1,5,67,11
3,2,6,0,0,0,1,5,81,8
3,2,16,1,3,0,1,5,67,11
3,2,23,0,3,0,1,5,90,11
3,2,23,0,3,0,1,5,90,11
3,2,2,0,5,1,1,5,93,9
3,2,15,1,6,1,1,5,90,11
3,2,5,0,1,0,1,5,90,11
3,2,16,1,4,0,1,5,67,11
3,2,23,0,0,0,1,5,90,11
4,2,21,0,5,1,2,5,90,11
4,2,16,1,6,1,2,5,90,11
4,2,16,1,6,1,2,5,90,11
4,2,18,1,1,0,2,5,67,11
4,2,22,0,5,1,2,5,90,11
4,2,13,1,6,1,2,5,19,11
4,2,1,0,2,0,2,5,93,11
4,2,2,0,1,0,2,5,93,9
4,2,22,0,1,0,2,5,106,11
4,2,16,1,2,0,2,5,14,11
4,2,20,1,2,0,2,5,106,11
5,2,19,1,0,0,2,5,67,11
5,2,19,1,1,0,2,5,93,11
5,2,18,1,3,0,2,5,106,11
5,2,18,1,0,0,2,5,31,11
5,2,18,1,4,0,2,5,93,11
5,2,12,1,1,0,2,5,106,11
5,2,13,1,2,0,2,5,90,11
5,2,15,1,4,0,2,5,90,11
5,2,14,1,5,1,2,5,93,11
5,2,13,1,5,1,2,5,67,11
5,2,14,1,2,0,2,5,67,11
5,2,12,1,2,0,2,5,93,11
5,2,19,1,6,1,2,5,93,11
6,3,15,1,0,0,2,5,93,9
6,3,19,1,0,0,2,5,93,11
6,3,20,1,1,0,2,5,67,11
6,3,7,1,2,0,2,5,90,11
6,3,23,0,2,0,2,5,29,11
6,3,5,0,3,0,2,5,90,11
6,3,17,1,3,0,2,5,131,11
6,3,21,0,1,0,2,5,106,11
6,3,11,1,1,0,2,5,93,11
6,3,13,1,2,0,2,5,93,11
6,3,11,1,2,0,2,5,93,11
6,3,19,1,2,0,2,5,93,11
6,3,21,0,2,0,2,5,93,11
6,3,22,0,2,0,2,5,93,11
6,3,13,1,4,0,2,5,93,11
6,3,2,0,4,0,2,5,90,11
6,3,22,0,6,1,2,5,90,11
6,3,22,0,6,1,2,5,106,11
6,3,15,1,2,0,2,5,93,11
6,3,22,0,0,0,2,5,106,11
6,3,13,1,1,0,2,5,93,11
6,3,9,1,1,0,2,5,90,11
6,3,3,0,2,0,2,5,90,11
6,3,3,0,4,0,2,5,90,11
6,3,18,1,5,1,2,5,39,9
7,3,11,1,4,0,3,5,93,11
7,3,18,1,0,0,3,5,106,11
7,3,17,1,1,0,3,5,93,9
7,3,2,0,2,0,3,5,93,11
7,3,2,0,0,0,3,5,90,11
7,3,5,0,2,0,3,5,90,11
7,3,11,1,2,0,3,5,93,11
7,3,23,0,4,0,3,5,93,11
7,3,22,0,4,0,3,5,93,11
7,3,11,1,5,1,3,5,93,11
7,3,19,1,0,0,3,5,106,11
7,3,21,0,1,0,3,5,90,11
7,3,1,0,3,0,3,5,90,9
7,3,1,0,3,0,3,5,93,11
7,3,15,1,3,0,3,5,90,11
7,3,15,1,3,0,3,5,90,11
7,3,2,0,4,0,3,5,67,11
7,3,17,1,4,0,3,5,106,9
8,3,22,0,5,1,3,5,67,11
8,3,14,1,3,0,3,5,106,11
8,3,6,0,3,0,3,5,2,8
8,3,15,1,4,0,3,5,90,11
8,3,19,1,5,1,3,5,67,11
8,3,22,0,1,0,3,5,106,11
8,3,0,0,1,0,3,5,93,11
8,3,13,1,3,0,3,5,67,11
8,3,23,0,0,0,3,5,90,11
8,3,16,1,4,0,3,5,14,9
8,3,1,0,5,1,3,5,14,11
8,3,22,0,0,0,3,5,39,11
9,4,17,1,3,0,3,5,67,11
9,4,2,0,6,1,3,5,90,11
9,4,12,1,1,0,3,5,90,11
9,4,4,0,5,1,3,5,90,11
9,4,17,1,5,1,3,5,90,11
9,4,13,1,1,0,3,5,90,11
9,4,3,0,1,0,3,5,90,11
9,4,14,1,1,0,3,5,90,11
10,4,2,0,6,1,4,5,23,11
10,4,21,0,6,1,4,5,90,11
10,4,9,1,0,0,4,5,90,11
10,4,20,1,2,0,4,5,23,11
10,4,6,0,4,0,4,5,67,11
10,4,21,0,3,0,4,5,67,11
10,4,2,0,5,1,4,5,90,11
10,4,10,1,6,1,4,5,48,11
10,4,15,1,5,1,4,5,14,11
10,4,14,1,0,0,4,5,90,11
10,4,22,0,1,0,4,5,90,11
10,4,22,0,3,0,4,5,90,11
10,4,0,0,5,1,4,5,90,11
11,4,5,0,2,0,4,5,67,11
11,4,9,1,4,0,4,5,67,11
11,4,0,0,5,1,4,5,90,11
11,4,17,1,6,1,4,5,90,11
11,4,21,0,1,0,4,5,93,11
11,4,1,0,2,0,4,5,90,11
11,4,20,1,4,0,4,5,67,11
11,4,22,0,1,0,4,5,90,11
11,4,12,1,3,0,4,5,93,11
11,4,20,1,1,0,4,5,90,11
11,4,18,1,3,0,4,5,90,11
11,4,2,0,6,1,4,5,19,11
12,1,18,1,3,0,4,5,90,11
12,1,1,0,4,0,4,5,90,11
12,1,22,0,4,0,4,5,90,11
12,1,0,0,1,0,4,5,90,11
12,1,17,1,1,0,4,5,106,11
12,1,12,1,1,0,4,5,14,9
12,1,3,0,4,0,4,5,90,11
12,1,11,1,6,1,4,5,67,11
12,1,19,1,6,1,4,5,90,11
12,1,5,0,3,0,4,5,14,11
12,1,19,1,6,1,4,5,90,11
12,1,17,1,0,0,4,5,90,11
12,1,15,1,4,0,4,5,84,11
12,1,11,1,5,1,4,5,90,11
12,1,10,1,0,0,4,5,67,11
12,1,19,1,1,0,4,5,90,11
1,1,12,1,3,0,1,5,19,11
1,1,17,1,4,0,1,5,78,11
1,1,16,1,5,1,1,5,67,11
1,1,14,1,6,1,1,5,106,11
1,1,14,1,2,0,1,5,106,11
1,1,15,1,5,1,1,5,67,11
1,1,22,0,2,0,1,5,90,11
1,1,19,1,5,1,1,5,93,11
1,1,0,0,6,1,1,5,67,11
1,1,16,1,6,1,1,5,78,11
1,1,19,1,6,1,1,5,19,11
1,1,9,1,0,0,1,5,67,11
1,1,22,0,1,0,1,5,67,11
1,1,19,1,5,1,1,5,67,11
1,1,19,1,6,1,1,5,133,11
2,1,20,1,3,0,1,5,90,11
2,1,11,1,3,0,1,5,103,11
2,1,23,0,6,1,1,5,93,11
2,1,17,1,0,0,1,5,67,11
2,1,12,1,1,0,1,5,67,11
2,1,11,1,3,0,1,5,50,11
2,1,21,0,4,0,1,5,78,11
2,1,19,1,2,0,1,5,31,9
3,2,11,1,1,0,1,5,77,11
3,2,6,0,3,0,1,5,78,11
3,2,22,0,5,1,1,5,133,11
3,2,17,1,6,1,1,5,67,11
3,2,23,0,6,1,1,5,59,9
3,2,17,1,2,0,1,5,48,11
3,2,12,1,2,0,1,5,14,9
3,2,21,0,2,0,1,5,78,11
3,2,15,1,4,0,1,5,43,11
3,2,18,1,5,1,1,5,67,11
3,2,16,1,0,0,1,5,103,11
4,2,23,0,5,1,2,5,133,11
4,2,19,1,5,1,2,5,58,11
4,2,22,0,6,1,2,5,78,11
4,2,16,1,4,0,2,5,67,11
4,2,0,0,5,1,2,5,67,11
4,2,1,0,6,1,2,5,67,11
4,2,16,1,2,0,2,5,80,11
4,2,19,1,4,0,2,5,78,11
4,2,23,0,1,0,2,5,133,11
4,2,1,0,6,1,2,5,90,11
4,2,10,1,1,0,2,5,39,11
4,2,15,1,1,0,2,5,39,9
5,2,8,1,2,0,2,5,67,11
5,2,4,0,0,0,2,5,108,11
5,2,21,0,4,0,2,5,90,11
5,2,13,1,0,0,2,5,67,11
5,2,23,0,0,0,2,5,133,11
5,2,12,1,1,0,2,5,19,11
5,2,16,1,2,0,2,5,93,11
6,3,21,0,0,0,2,5,93,11
6,3,13,1,1,0,2,5,93,11
6,3,15,1,2,0,2,5,93,11
6,3,2,0,2,0,2,5,81,11
6,3,23,0,0,0,2,5,133,11
6,3,23,0,6,1,2,5,90,11
6,3,4,0,6,1,2,5,90,11
6,3,18,1,0,0,2,5,132,11
6,3,11,1,2,0,2,5,93,9
6,3,23,0,2,0,2,5,133,11
6,3,4,0,4,0,2,5,19,11
6,3,4,0,4,0,2,5,133,11
6,3,21,0,5,1,2,5,113,11
7,3,9,1,2,0,3,5,93,11
7,3,23,0,0,0,3,5,67,9
7,3,3,0,3,0,3,5,67,11
7,3,4,0,1,0,3,5,81,9
7,3,2,0,0,0,3,5,133,11
7,3,4,0,0,0,3,5,90,11
7,3,19,1,3,0,3,5,133,9
7,3,4,0,4,0,3,5,90,11
8,3,14,1,4,0,3,5,106,11
8,3,9,1,2,0,3,5,19,11
8,3,11,1,3,0,3,5,90,11
8,3,13,1,3,0,3,5,19,9
8,3,4,0,5,1,3,5,67,11
9,4,14,1,3,0,3,5,67,11
9,4,0,0,4,0,3,5,90,11
9,4,18,1,0,0,3,5,81,11
9,4,21,0,5,1,3,5,67,11
9,4,13,1,5,1,3,5,66,11
9,4,13,1,2,0,3,5,67,11
9,4,20,1,3,0,3,5,67,9
9,4,9,1,4,0,3,5,19,11
9,4,6,0,0,0,3,5,67,9
10,4,6,0,4,0,4,5,67,11
10,4,17,1,6,1,4,5,48,11
10,4,0,0,1,0,4,5,90,11
10,4,2,0,2,0,4,5,19,9
10,4,13,1,2,0,4,5,67,11
11,4,19,1,3,0,4,5,67,11
11,4,3,0,5,1,4,5,90,11
11,4,18,1,6,1,4,5,90,11
11,4,16,1,6,1,4,5,93,11
11,4,17,1,5,1,4,5,90,11
11,4,23,0,0,0,4,5,58,11
11,4,21,0,0,0,4,5,78,11
11,4,15,1,1,0,4,5,67,11
11,4,9,1,4,0,4,5,67,11
11,4,11,1,0,0,4,5,58,11
12,1,2,0,2,0,4,5,50,11
12,1,7,1,5,1,4,5,14,11
12,1,22,0,5,1,4,5,19,11
12,1,9,1,1,0,4,5,39,11
12,1,18,1,1,0,4,5,90,11
12,1,0,0,2,0,4,5,78,11
12,1,23,0,3,0,4,5,100,11
12,1,8,1,3,0,4,5,91,9
12,1,8,1,3,0,4,5,91,9
12,1,22,0,1,0,4,5,30,11
12,1,17,1,5,1,4,5,90,11
12,1,23,0,1,0,4,5,133,11
12,1,20,1,1,0,4,5,19,11
12,1,14,1,6,1,4,5,78,11
1,1,13,1,3,0,1,5,100,11
1,1,6,0,4,0,1,5,100,11
1,1,4,0,5,1,1,5,58,11
1,1,10,1,6,1,1,5,100,11
1,1,14,1,6,1,1,5,100,11
1,1,0,0,0,0,1,5,67,11
1,1,13,1,1,0,1,5,67,11
1,1,15,1,2,0,1,5,67,11
1,1,21,0,2,0,1,5,39,11
1,1,7,1,3,0,1,5,29,11
1,1,18,1,3,0,1,5,100,11
1,1,20,1,1,0,1,5,90,11
1,1,22,0,2,0,1,5,93,11
1,1,13,1,3,0,1,5,39,11
1,1,19,1,4,0,1,5,100,11
1,1,23,0,2,0,1,5,90,11
1,1,15,1,4,0,1,5,67,11
1,1,8,1,6,1,1,5,67,11
1,1,0,0,2,0,1,5,69,11
1,1,20,1,4,0,1,5,67,11
2,1,12,1,6,1,1,5,93,11
2,1,11,1,6,1,1,5,67,11
2,1,22,0,0,0,1,5,58,8
2,1,15,1,0,0,1,5,100,11
2,1,2,0,2,0,1,5,90,11
2,1,3,0,5,1,1,5,90,11
2,1,1,0,6,1,1,5,67,11
2,1,13,1,6,1,1,5,93,11
2,1,17,1,1,0,1,5,67,11
2,1,8,1,2,0,1,5,19,11
2,1,4,0,3,0,1,5,67,9
2,1,21,0,4,0,1,5,67,11
2,1,12,1,3,0,1,5,93,11
2,1,7,1,4,0,1,5,66,11
3,2,19,1,0,0,1,5,39,11
3,2,11,1,0,0,1,5,39,11
3,2,8,1,2,0,1,5,39,11
3,2,3,0,0,0,1,5,90,11
3,2,22,0,1,0,1,5,14,8
3,2,21,0,1,0,1,5,93,11
4,2,10,1,1,0,2,5,133,11
4,2,8,1,3,0,2,5,48,9
4,2,0,0,5,1,2,5,90,11
4,2,22,0,5,1,2,5,90,11
4,2,17,1,5,1,2,5,90,11
4,2,4,0,6,1,2,5,67,11
4,2,17,1,6,1,2,5,90,11
4,2,5,0,6,1,2,5,67,11
4,2,0,0,6,1,2,5,90,11
4,2,20,1,0,0,2,5,93,11
4,2,13,1,1,0,2,5,67,11
4,2,2,0,2,0,2,5,90,11
4,2,0,0,4,0,2,5,90,11
4,2,8,1,5,1,2,5,93,11
4,2,21,0,5,1,2,5,90,11
4,2,17,1,5,1,2,5,100,11
4,2,16,1,0,0,2,5,93,11
4,2,13,1,1,0,2,5,19,11
4,2,10,1,2,0,2,5,93,11
5,2,1,0,4,0,2,5,90,11
5,2,19,1,5,1,2,5,93,11
5,2,14,1,6,1,2,5,93,11
5,2,20,1,2,0,2,5,78,11
5,2,21,0,2,0,2,5,93,11
5,2,21,0,5,1,2,5,106,11
5,2,8,1,0,0,2,5,19,11
5,2,9,1,0,0,2,5,39,11
5,2,13,1,0,0,2,5,9,11
5,2,21,0,4,0,2,5,93,9
5,2,12,1,5,1,2,5,93,11
5,2,0,0,5,1,2,5,93,11
5,2,3,0,6,1,2,5,100,11
5,2,3,0,6,1,2,5,100,11
5,2,4,0,6,1,2,5,100,11
5,2,19,1,1,0,2,5,93,11
5,2,13,1,5,1,2,5,39,11
5,2,1,0,6,1,2,5,100,11
5,2,13,1,0,0,2,5,93,9
6,3,1,0,2,0,2,5,19,11
6,3,14,1,6,1,2,5,39,9
6,3,14,1,0,0,2,5,130,9
6,3,9,1,6,1,2,5,67,11
6,3,13,1,6,1,2,5,78,11
6,3,2,0,1,0,2,5,133,9
6,3,10,1,1,0,2,5,67,11
6,3,14,1,1,0,2,5,48,9
6,3,1,0,4,0,2,5,93,11
6,3,6,0,1,0,2,5,58,11
7,3,12,1,3,0,3,5,90,11
7,3,21,0,5,1,3,5,93,11
7,3,17,1,6,1,3,5,100,11
7,3,10,1,1,0,3,5,78,11
7,3,9,1,2,0,3,5,90,11
7,3,22,0,2,0,3,5,39,11
7,3,21,0,3,0,3,5,106,11
7,3,3,0,0,0,3,5,90,11
7,3,21,0,2,0,3,5,39,11
7,3,16,1,4,0,3,5,39,8
7,3,12,1,5,1,3,5,78,9
7,3,11,1,3,0,3,5,67,11
8,3,22,0,6,1,3,5,106,11
8,3,12,1,1,0,3,5,19,11
8,3,14,1,5,1,3,5,67,11
8,3,12,1,6,1,3,5,19,11
8,3,0,0,0,0,3,5,100,11
8,3,0,0,2,0,3,5,100,11
8,3,19,1,2,0,3,5,48,11
8,3,12,1,5,1,3,5,93,11
8,3,1,0,6,1,3,5,133,8
9,4,23,0,2,0,3,5,100,11
9,4,1,0,2,0,3,5,58,11
9,4,4,0,3,0,3,5,90,9
9,4,22,0,0,0,3,5,58,11
9,4,9,1,1,0,3,5,90,11
9,4,19,1,3,0,3,5,133,11
9,4,16,1,5,1,3,5,67,11
10,4,10,1,5,1,4,5,67,11
10,4,22,0,5,1,4,5,100,11
10,4,1,0,6,1,4,5,79,11
10,4,13,1,0,0,4,5,104,11
10,4,3,0,3,0,4,5,100,11
10,4,13,1,0,0,4,5,100,11
10,4,12,1,2,0,4,5,78,11
10,4,22,0,4,0,4,5,67,11
10,4,2,0,1,0,4,5,19,11
10,4,22,0,1,0,4,5,90,11
10,4,12,1,4,0,4,5,67,11
10,4,17,1,1,0,4,5,67,11
10,4,23,0,3,0,4,5,48,11
10,4,2,0,5,1,4,5,100,11
10,4,6,0,5,1,4,5,100,11
11,4,2,0,1,0,4,5,90,11
11,4,22,0,2,0,4,5,93,11
11,4,9,1,6,1,4,5,90,11
11,4,23,0,6,1,4,5,100,11
11,4,20,1,4,0,4,5,66,11
11,4,15,1,0,0,4,5,78,9
11,4,16,1,4,0,4,5,67,11
11,4,0,0,6,1,4,5,100,11
11,4,12,1,2,0,4,5,67,11
11,4,12,1,0,0,4,5,67,11
12,1,19,1,2,0,4,5,100,11
12,1,19,1,4,0,4,5,93,11
12,1,0,0,1,0,4,5,100,11
12,1,22,0,3,0,4,5,78,11
12,1,21,0,3,0,4,5,67,11
12,1,6,0,1,0,4,5,100,11
12,1,4,0,2,0,4,5,100,11
12,1,23,0,2,0,4,5,67,11
1,1,22,0,4,0,1,5,100,11
1,1,12,1,4,0,1,5,93,11
1,1,8,1,1,0,1,5,67,11
1,1,22,0,4,0,1,5,19,11
1,1,1,0,6,1,1,5,90,11
1,1,11,1,4,0,1,5,67,11
1,1,20,1,1,0,1,5,78,11
2,1,23,0,2,0,1,5,67,11
2,1,14,1,4,0,1,5,19,11
2,1,17,1,5,1,1,5,93,11
2,1,9,1,1,0,1,5,74,9
2,1,15,1,3,0,1,5,67,9
2,1,12,1,4,0,1,5,133,11
2,1,12,1,1,0,1,5,104,9
3,2,11,1,3,0,1,5,67,9
3,2,11,1,5,1,1,5,72,11
3,2,11,1,6,1,1,5,67,11
3,2,13,1,0,0,1,5,104,8
3,2,0,0,2,0,1,5,104,11
3,2,11,1,5,1,1,5,39,11
4,2,3,0,6,1,2,5,133,11
4,2,3,0,6,1,2,5,133,11
4,2,10,1,4,0,2,5,133,11
4,2,3,0,4,0,2,5,106,11
4,2,14,1,0,0,2,5,90,11
4,2,19,1,4,0,2,5,67,11
4,2,19,1,3,0,2,5,90,11
5,2,10,1,4,0,2,5,93,11
5,2,6,0,6,1,2,5,100,11
5,2,2,0,4,0,2,5,114,9
5,2,23,0,5,1,2,5,84,11
5,2,5,0,5,1,2,5,93,11
5,2,4,0,6,1,2,5,90,11
5,2,23,0,3,0,2,5,67,11
5,2,7,1,2,0,2,5,106,11
6,3,11,1,2,0,2,5,93,11
6,3,2,0,2,0,2,5,90,11
6,3,1,0,3,0,2,5,90,11
6,3,15,1,6,1,2,5,106,11
6,3,17,1,1,0,2,5,106,11
7,3,14,1,6,1,3,5,93,11
7,3,23,0,1,0,3,5,90,11
7,3,13,1,5,1,3,5,130,11
7,3,18,1,5,1,3,5,106,11
7,3,14,1,4,0,3,5,47,11
7,3,8,1,0,0,3,5,106,11
7,3,15,1,1,0,3,5,38,11
8,3,11,1,5,1,3,5,38,11
8,3,17,1,1,0,3,5,90,11
8,3,12,1,2,0,3,5,93,11
8,3,15,1,5,1,3,5,106,11
9,4,15,1,6,1,3,5,106,11
9,4,16,1,4,0,3,5,90,11
9,4,16,1,0,0,3,5,67,11
9,4,22,0,1,0,3,5,118,11
9,4,17,1,3,0,3,5,66,11
10,4,21,0,4,0,4,5,106,11
10,4,5,0,1,0,4,5,75,9
11,4,1,0,0,0,4,5,90,11
11,4,5,0,0,0,4,5,90,11
12,1,1,0,0,0,4,5,133,11
12,1,0,0,0,0,4,5,133,11
12,1,21,0,1,0,4,5,133,11
12,1,14,1,2,0,4,5,67,8
12,1,23,0,3,0,4,5,106,11
12,1,22,0,3,0,4,5,100,11
12,1,18,1,0,0,4,5,106,11
12,1,20,1,3,0,4,5,67,9
1,1,21,0,3,0,1,5,133,11
1,1,15,1,0,0,1,5,109,9
1,1,12,1,1,0,1,5,90,11
1,1,19,1,2,0,1,5,93,11
1,1,3,0,5,1,1,5,46,8
1,1,11,1,2,0,1,5,78,9
1,1,13,1,3,0,1,5,19,11
1,1,12,1,6,1,1,5,14,11
1,1,22,0,2,0,1,5,93,9
1,1,22,0,0,0,1,5,93,11
1,1,4,0,3,0,1,5,58,11
2,1,19,1,1,0,1,5,31,11
2,1,14,1,4,0,1,5,75,11
2,1,1,0,0,0,1,5,93,11
2,1,14,1,3,0,1,5,133,11
2,1,17,1,4,0,1,5,112,9
2,1,6,0,5,1,1,5,106,11
2,1,20,1,0,0,1,5,93,11
2,1,14,1,5,1,1,5,23,11
2,1,11,1,6,1,1,5,93,11
2,1,15,1,3,0,1,5,106,9
2,1,4,0,4,0,1,5,93,11
2,1,13,1,4,0,1,5,112,11
3,2,17,1,0,0,1,5,93,8
3,2,18,1,1,0,1,5,93,11
3,2,1,0,3,0,1,5,78,11
3,2,12,1,4,0,1,5,93,11
3,2,21,0,5,1,1,5,93,9
4,2,16,1,2,0,2,5,93,11
4,2,21,0,4,0,2,5,93,11
4,2,22,0,4,0,2,5,93,11
4,2,18,1,5,1,2,5,93,11
4,2,20,1,5,1,2,5,93,11
4,2,12,1,6,1,2,5,93,11
4,2,21,0,0,0,2,5,67,11
4,2,22,0,0,0,2,5,93,9
4,2,11,1,1,0,2,5,93,11
4,2,10,1,1,0,2,5,93,11
4,2,11,1,1,0,2,5,93,11
4,2,12,1,1,0,2,5,93,11
4,2,0,0,2,0,2,5,93,11
4,2,7,1,2,0,2,5,93,11
4,2,3,0,5,1,2,5,90,11
4,2,3,0,5,1,2,5,90,11
4,2,3,0,5,1,2,5,90,11
4,2,4,0,5,1,2,5,90,11
4,2,17,1,6,1,2,5,90,11
4,2,21,0,6,1,2,5,67,11
4,2,7,1,0,0,2,5,93,11
4,2,8,1,0,0,2,5,67,11
4,2,17,1,0,0,2,5,93,11
4,2,1,0,1,0,2,5,93,11
4,2,12,1,2,0,2,5,93,11
4,2,20,1,3,0,2,5,90,9
4,2,0,0,4,0,2,5,93,11
4,2,1,0,4,0,2,5,93,11
4,2,2,0,4,0,2,5,106,11
4,2,0,0,6,1,2,5,106,11
4,2,17,1,6,1,2,5,93,11
4,2,12,1,0,0,2,5,90,11
4,2,15,1,0,0,2,5,93,11
4,2,19,1,1,0,2,5,106,11
4,2,6,0,2,0,2,5,93,11
4,2,20,1,2,0,2,5,91,11
4,2,1,0,3,0,2,5,90,11
4,2,1,0,3,0,2,5,93,9
4,2,13,1,3,0,2,5,90,11
4,2,17,1,3,0,2,5,75,9
4,2,1,0,4,0,2,5,93,11
4,2,15,1,4,0,2,5,93,11
4,2,10,1,5,1,2,5,93,11
4,2,20,1,5,1,2,5,93,11
4,2,21,0,5,1,2,5,93,11
4,2,20,1,6,1,2,5,93,11
4,2,14,1,3,0,2,5,93,11
5,2,10,1,4,0,2,5,93,11
5,2,0,0,5,1,2,5,11,11
5,2,14,1,5,1,2,5,130,11
5,2,2,0,6,1,2,5,90,11
5,2,7,1,6,1,2,5,16,11
5,2,13,1,6,1,2,5,93,11
5,2,13,1,0,0,2,5,133,11
5,2,4,0,1,0,2,5,90,11
5,2,7,1,1,0,2,5,93,11
5,2,23,0,1,0,2,5,23,11
5,2,0,0,2,0,2,5,93,9
5,2,0,0,2,0,2,5,106,11
5,2,1,0,3,0,2,5,93,11
5,2,13,1,3,0,2,5,93,11
5,2,11,1,3,0,2,5,93,11
5,2,22,0,3,0,2,5,93,11
5,2,23,0,3,0,2,5,93,11
5,2,8,1,4,0,2,5,40,8
5,2,9,1,5,1,2,5,93,11
5,2,16,1,5,1,2,5,75,11
5,2,2,0,6,1,2,5,1,11
5,2,0,0,6,1,2,5,90,11
5,2,15,1,6,1,2,5,90,11
5,2,18,1,6,1,2,5,93,11
5,2,19,1,6,1,2,5,93,11
5,2,11,1,0,0,2,5,93,11
5,2,18,1,1,0,2,5,93,11
5,2,23,0,1,0,2,5,93,11
5,2,9,1,2,0,2,5,100,11
5,2,15,1,4,0,2,5,114,11
5,2,23,0,5,1,2,5,58,11
5,2,9,1,6,1,2,5,19,11
5,2,11,1,1,0,2,5,90,11
5,2,13,1,1,0,2,5,93,11
5,2,0,0,2,0,2,5,14,11
5,2,23,0,2,0,2,5,90,11
5,2,0,0,4,0,2,5,67,11
5,2,9,1,4,0,2,5,93,11
5,2,13,1,4,0,2,5,106,11
5,2,14,1,4,0,2,5,130,9
5,2,15,1,4,0,2,5,93,11
5,2,17,1,4,0,2,5,78,11
5,2,10,1,5,1,2,5,93,11
5,2,17,1,5,1,2,5,93,9
5,2,13,1,6,1,2,5,93,9
5,2,18,1,6,1,2,5,106,9
5,2,20,1,6,1,2,5,93,11
5,2,17,1,0,0,2,5,93,11
5,2,11,1,0,0,2,5,93,11
5,2,16,1,0,0,2,5,93,8
5,2,1,0,1,0,2,5,93,11
5,2,11,1,1,0,2,5,4,11
5,2,0,0,2,0,2,5,93,11
5,2,10,1,3,0,2,5,93,11
5,2,14,1,3,0,2,5,93,11
5,2,15,1,5,1,2,5,93,9
5,2,16,1,5,1,2,5,93,11
5,2,10,1,6,1,2,5,93,11
5,2,16,1,6,1,2,5,27,9
5,2,21,0,6,1,2,5,93,11
6,3,0,0,0,0,2,5,106,11
6,3,16,1,0,0,2,5,130,8
6,3,1,0,1,0,2,5,93,11
6,3,17,1,1,0,2,5,93,11
6,3,11,1,2,0,2,5,93,11
6,3,21,0,2,0,2,5,93,11
6,3,11,1,3,0,2,5,93,9
6,3,19,1,3,0,2,5,93,11
6,3,6,0,4,0,2,5,75,11
6,3,10,1,4,0,2,5,93,11
6,3,12,1,5,1,2,5,93,9
6,3,16,1,5,1,2,5,93,11
6,3,19,1,5,1,2,5,93,11
6,3,13,1,5,1,2,5,93,8
6,3,4,0,6,1,2,5,19,11
6,3,16,1,6,1,2,5,93,11
6,3,12,1,6,1,2,5,93,11
6,3,13,1,6,1,2,5,106,11
6,3,13,1,6,1,2,5,93,11
6,3,14,1,0,0,2,5,93,11
6,3,17,1,0,0,2,5,93,11
6,3,19,1,0,0,2,5,93,11
6,3,0,0,1,0,2,5,93,11
6,3,9,1,1,0,2,5,93,11
6,3,19,1,1,0,2,5,93,11
6,3,15,1,1,0,2,5,130,9
6,3,23,0,1,0,2,5,133,11
6,3,22,0,1,0,2,5,75,9
6,3,10,1,2,0,2,5,130,9
6,3,16,1,2,0,2,5,93,11
6,3,1,0,3,0,2,5,93,11
6,3,22,0,3,0,2,5,93,11
6,3,10,1,4,0,2,5,93,11
6,3,21,0,4,0,2,5,93,9
6,3,0,0,5,1,2,5,93,11
6,3,9,1,5,1,2,5,93,11
6,3,16,1,5,1,2,5,93,11
6,3,20,1,5,1,2,5,93,11
6,3,14,1,6,1,2,5,49,11
6,3,15,1,0,0,2,5,93,11
6,3,9,1,0,0,2,5,93,11
6,3,16,1,0,0,2,5,35,8
6,3,17,1,1,0,2,5,35,11
6,3,15,1,2,0,2,5,1,11
6,3,8,1,3,0,2,5,27,9
6,3,20,1,4,0,2,5,93,9
6,3,8,1,6,1,2,5,114,9
6,3,14,1,1,0,2,5,93,9
6,3,1,0,2,0,2,5,106,11
6,3,3,0,2,0,2,5,106,11
6,3,13,1,3,0,2,5,93,11
6,3,11,1,5,1,2,5,93,11
6,3,21,0,5,1,2,5,93,8
6,3,22,0,5,1,2,5,93,11
6,3,23,0,5,1,2,5,93,11
6,3,23,0,5,1,2,5,93,11
6,3,11,1,6,1,2,5,93,9
6,3,14,1,0,0,2,5,93,11
6,3,1,0,1,0,2,5,40,8
6,3,12,1,1,0,2,5,106,11
7,3,14,1,3,0,3,5,93,11
7,3,14,1,3,0,3,5,93,11
7,3,7,1,4,0,3,5,90,11
7,3,20,1,4,0,3,5,93,11
7,3,21,0,4,0,3,5,93,9
7,3,14,1,6,1,3,5,90,9
7,3,13,1,6,1,3,5,93,11
7,3,22,0,6,1,3,5,75,11
7,3,10,1,0,0,3,5,93,11
7,3,6,0,3,0,3,5,93,9
7,3,17,1,3,0,3,5,93,11
7,3,15,1,4,0,3,5,27,9
7,3,9,1,4,0,3,5,93,11
7,3,13,1,4,0,3,5,93,11
7,3,2,0,5,1,3,5,90,11
7,3,10,1,5,1,3,5,93,11
7,3,11,1,5,1,3,5,93,11
7,3,20,1,6,1,3,5,106,11
7,3,19,1,6,1,3,5,93,11
7,3,22,0,6,1,3,5,93,11
7,3,14,1,6,1,3,5,93,8
7,3,11,1,0,0,3,5,93,9
7,3,0,0,1,0,3,5,75,9
7,3,8,1,1,0,3,5,93,11
7,3,18,1,1,0,3,5,74,9
7,3,13,1,2,0,3,5,93,11
7,3,20,1,2,0,3,5,93,11
7,3,13,1,3,0,3,5,93,11
7,3,12,1,5,1,3,5,93,11
7,3,15,1,5,1,3,5,130,9
7,3,20,1,5,1,3,5,93,11
7,3,21,0,5,1,3,5,35,8
7,3,6,0,6,1,3,5,93,11
7,3,16,1,6,1,3,5,27,9
7,3,17,1,6,1,3,5,130,9
7,3,4,0,1,0,3,5,93,11
7,3,8,1,1,0,3,5,93,11
7,3,13,1,1,0,3,5,93,11
7,3,21,0,1,0,3,5,106,11
7,3,10,1,2,0,3,5,93,9
7,3,12,1,2,0,3,5,130,8
7,3,16,1,2,0,3,5,130,9
7,3,9,1,3,0,3,5,93,11
7,3,19,1,4,0,3,5,93,11
7,3,21,0,4,0,3,5,93,11
7,3,1,0,5,1,3,5,93,11
7,3,5,0,5,1,3,5,93,11
7,3,13,1,5,1,3,5,39,11
7,3,17,1,0,0,3,5,106,11
7,3,22,0,0,0,3,5,65,11
7,3,0,0,1,0,3,5,106,11
7,3,6,0,1,0,3,5,93,11
7,3,21,0,1,0,3,5,90,11
7,3,3,0,4,0,3,5,90,11
7,3,21,0,4,0,3,5,93,11
8,3,1,0,5,1,3,5,23,11
8,3,4,0,0,0,3,5,93,11
8,3,10,1,0,0,3,5,93,11
8,3,19,1,0,0,3,5,106,9
8,3,12,1,1,0,3,5,93,11
8,3,22,0,1,0,3,5,93,11
8,3,16,1,2,0,3,5,75,11
8,3,18,1,2,0,3,5,93,11
8,3,1,0,3,0,3,5,93,11
8,3,2,0,3,0,3,5,93,11
8,3,2,0,3,0,3,5,93,11
8,3,5,0,6,1,3,5,106,11
8,3,16,1,6,1,3,5,93,9
8,3,9,1,6,1,3,5,78,11
8,3,21,0,1,0,3,5,93,11
8,3,12,1,2,0,3,5,130,11
8,3,19,1,2,0,3,5,93,11
8,3,13,1,3,0,3,5,27,11
8,3,17,1,3,0,3,5,93,11
8,3,19,1,5,1,3,5,93,11
8,3,7,1,0,0,3,5,93,11
8,3,14,1,0,0,3,5,106,9
8,3,12,1,0,0,3,5,93,11
8,3,2,0,1,0,3,5,93,11
8,3,11,1,2,0,3,5,75,11
8,3,6,0,3,0,3,5,93,9
8,3,22,0,3,0,3,5,133,11
8,3,12,1,5,1,3,5,93,11
8,3,0,0,0,0,3,5,93,9
8,3,6,0,0,0,3,5,46,11
8,3,13,1,0,0,3,5,93,11
8,3,3,0,2,0,3,5,93,9
8,3,3,0,2,0,3,5,93,11
8,3,22,0,2,0,3,5,1,11
8,3,11,1,4,0,3,5,93,11
8,3,10,1,5,1,3,5,93,11
8,3,15,1,5,1,3,5,93,9
8,3,21,0,5,1,3,5,93,11
8,3,23,0,6,1,3,5,93,11
9,4,21,0,2,0,3,5,23,11
9,4,12,1,3,0,3,5,93,11
9,4,11,1,5,1,3,5,46,11
9,4,23,0,5,1,3,5,74,8
9,4,1,0,6,1,3,5,67,11
9,4,5,0,0,0,3,5,75,11
9,4,20,1,0,0,3,5,93,11
9,4,23,0,0,0,3,5,93,11
9,4,15,1,1,0,3,5,15,11
9,4,17,1,2,0,3,5,14,11
9,4,18,1,3,0,3,5,93,11
9,4,0,0,6,1,3,5,93,11
9,4,11,1,6,1,3,5,65,11
9,4,21,0,6,1,3,5,106,11
9,4,7,1,0,0,3,5,93,11
9,4,13,1,1,0,3,5,93,11
9,4,22,0,1,0,3,5,93,11
9,4,20,1,2,0,3,5,35,8
9,4,8,1,5,1,3,5,93,11
9,4,0,0,0,0,3,5,82,11
9,4,5,0,0,0,3,5,81,11
9,4,5,0,1,0,3,5,19,11
9,4,11,1,2,0,3,5,39,11
9,4,19,1,0,0,3,5,106,11
10,4,17,1,3,0,4,5,46,9
10,4,17,1,4,0,4,5,93,11
10,4,1,0,5,1,4,5,93,11
10,4,10,1,5,1,4,5,67,11
10,4,7,1,6,1,4,5,19,11
10,4,0,0,0,0,4,5,75,11
10,4,12,1,5,1,4,5,19,9
10,4,19,1,1,0,4,5,93,9
10,4,10,1,4,0,4,5,14,11
10,4,18,1,5,1,4,5,93,11
10,4,23,0,6,1,4,5,90,11
10,4,14,1,2,0,4,5,75,11
10,4,9,1,4,0,4,5,75,11
11,4,16,1,0,0,4,5,93,11
11,4,9,1,2,0,4,5,90,11
11,4,1,0,0,0,4,5,75,11
11,4,12,1,1,0,4,5,90,11
11,4,20,1,1,0,4,5,75,9
11,4,23,0,3,0,4,5,106,11
11,4,7,1,0,0,4,5,75,11
11,4,19,1,1,0,4,5,75,11
11,4,17,1,3,0,4,5,93,11
11,4,14,1,5,1,4,5,93,11
11,4,15,1,0,0,4,5,14,11
11,4,14,1,1,0,4,5,93,11
11,4,9,1,2,0,4,5,75,11
11,4,17,1,3,0,4,5,75,11
11,4,12,1,4,0,4,5,23,9
11,4,17,1,4,0,4,5,78,11
11,4,20,1,5,1,4,5,90,11
12,1,14,1,5,1,4,5,93,11
12,1,9,1,1,0,4,5,93,11
12,1,11,1,0,0,4,5,93,11
12,1,13,1,4,0,4,5,90,11
12,1,0,0,1,0,4,5,90,11
12,1,1,0,2,0,4,5,1,11
12,1,18,1,0,0,4,5,19,11
12,1,10,1,2,0,4,5,78,11
1,1,10,1,6,1,1,5,19,11
1,1,19,1,1,0,1,5,13,11
1,1,20,1,4,0,1,5,91,11
2,1,12,1,4,0,1,5,133,11
3,2,16,1,5,1,1,5,93,11
4,2,0,0,2,0,2,5,96,9
4,2,14,1,6,1,2,5,4,11
4,2,19,1,0,0,2,5,93,11
5,2,17,1,1,0,2,5,93,11
5,2,12,1,4,0,2,5,93,11
6,3,5,0,2,0,2,5,93,11
6,3,20,1,3,0,2,5,91,11
6,3,7,1,1,0,2,5,14,11
6,3,13,1,3,0,2,5,93,11
6,3,16,1,4,0,2,5,93,9
6,3,1,0,4,0,2,5,4,11
6,3,12,1,6,1,2,5,93,11
6,3,11,1,2,0,2,5,106,11
6,3,12,1,4,0,2,5,4,11
6,3,1,0,5,1,2,5,4,11
6,3,19,1,1,0,2,5,13,11
6,3,2,0,4,0,2,5,106,11
7,3,15,1,3,0,3,5,93,11
7,3,17,1,2,0,3,5,106,11
7,3,12,1,3,0,3,5,90,11
8,3,18,1,6,1,3,5,133,11
8,3,15,1,1,0,3,5,106,11
8,3,0,0,3,0,3,5,93,11
8,3,13,1,0,0,3,5,27,8
8,3,11,1,0,0,3,5,48,11
8,3,17,1,1,0,3,5,4,11
9,4,12,1,4,0,3,5,106,11
9,4,20,1,4,0,3,5,27,11
9,4,23,0,1,0,3,5,19,11
9,4,19,1,1,0,3,5,91,11
9,4,12,1,3,0,3,5,67,11
9,4,14,1,5,1,3,5,4,11
10,4,16,1,3,0,4,5,14,11
10,4,19,1,2,0,4,5,67,11
10,4,9,1,5,1,4,5,133,11
11,4,13,1,6,1,4,5,106,11
11,4,19,1,5,1,4,5,67,11
11,4,19,1,4,0,4,5,103,11
12,1,21,0,6,1,4,5,133,11
1,1,19,1,4,0,1,5,13,9
2,1,20,1,6,1,1,5,78,11
5,2,1,0,5,1,2,5,106,11
8,3,14,1,4,0,3,5,27,11
1,1,19,1,5,1,1,5,106,11
1,1,14,1,3,0,1,5,123,11
1,1,15,1,5,1,1,5,78,11
1,1,0,0,1,0,1,5,67,11
1,1,15,1,1,0,1,5,90,11
1,1,20,1,2,0,1,5,50,11
1,1,17,1,3,0,1,5,78,11
1,1,15,1,3,0,1,5,106,11
1,1,18,1,3,0,1,5,90,11
1,1,18,1,2,0,1,5,90,11
2,1,12,1,6,1,1,5,4,11
2,1,1,0,2,0,1,5,82,11
2,1,9,1,1,0,1,5,115,11
2,1,20,1,1,0,1,5,115,11
2,1,21,0,1,0,1,5,115,11
2,1,19,1,3,0,1,5,123,11
2,1,18,1,6,1,1,5,90,11
2,1,19,1,6,1,1,5,90,11
2,1,19,1,6,1,1,5,90,11
2,1,19,1,6,1,1,5,90,11
2,1,21,0,6,1,1,5,90,11
2,1,19,1,0,0,1,5,90,11
2,1,17,1,1,0,1,5,90,11
2,1,22,0,5,1,1,5,69,11
2,1,19,1,5,1,1,5,106,11
2,1,19,1,5,1,1,5,106,11
3,2,18,1,6,1,1,5,90,11
3,2,19,1,6,1,1,5,90,11
3,2,15,1,1,0,1,5,93,11
3,2,16,1,1,0,1,5,78,11
3,2,12,1,6,1,1,5,74,11
3,2,12,1,6,1,1,5,90,11
3,2,10,1,1,0,1,5,90,11
3,2,10,1,3,0,1,5,90,11
3,2,20,1,6,1,1,5,90,11
4,2,21,0,4,0,2,5,90,11
4,2,21,0,4,0,2,5,90,11
4,2,20,1,4,0,2,5,103,11
4,2,21,0,4,0,2,5,90,11
4,2,11,1,6,1,2,5,106,11
4,2,15,1,6,1,2,5,90,11
4,2,10,1,6,1,2,5,90,11
4,2,0,0,1,0,2,5,90,11
4,2,9,1,1,0,2,5,93,11
4,2,18,1,5,1,2,5,106,11
4,2,0,0,0,0,2,5,93,11
4,2,23,0,0,0,2,5,90,11
4,2,20,1,2,0,2,5,78,11
4,2,4,0,3,0,2,5,90,11
4,2,3,0,5,1,2,5,106,11
4,2,21,0,0,0,2,5,106,11
4,2,4,0,1,0,2,5,106,11
4,2,10,1,5,1,2,5,68,9
4,2,13,1,2,0,2,5,48,11
5,2,5,0,6,1,2,5,23,11
5,2,1,0,6,1,2,5,19,11
5,2,0,0,1,0,2,5,79,11
5,2,11,1,2,0,2,5,78,11
5,2,19,1,2,0,2,5,106,11
5,2,0,0,3,0,2,5,90,11
5,2,21,0,3,0,2,5,131,11
5,2,22,0,1,0,2,5,90,11
6,3,10,1,5,1,2,5,106,11
6,3,7,1,1,0,2,5,78,11
6,3,15,1,4,0,2,5,93,11
6,3,22,0,6,1,2,5,93,11
7,3,22,0,4,0,3,5,78,11
7,3,12,1,1,0,3,5,115,11
7,3,16,1,5,1,3,5,130,11
7,3,23,0,5,1,3,5,93,11
7,3,23,0,6,1,3,5,93,11
7,3,16,1,3,0,3,5,78,11
8,3,2,0,2,0,3,5,50,11
8,3,13,1,6,1,3,5,93,11
8,3,17,1,6,1,3,5,78,11
9,4,14,1,1,0,3,5,133,11
9,4,10,1,0,0,3,5,14,11
9,4,17,1,6,1,3,5,90,11
10,4,9,1,6,1,4,5,14,11
10,4,18,1,2,0,4,5,78,11
11,4,18,1,5,1,4,5,115,11
11,4,1,0,5,1,4,5,106,11
11,4,10,1,5,1,4,5,19,11
11,4,18,1,6,1,4,5,133,11
11,4,22,0,6,1,4,5,133,11
12,1,16,1,3,0,4,5,78,11
12,1,6,0,0,0,4,5,90,11
12,1,15,1,6,1,4,5,100,11
12,1,14,1,4,0,4,5,78,11
12,1,10,1,6,1,4,5,50,11
12,1,11,1,4,0,4,5,78,11
12,1,19,1,1,0,4,5,106,11
1,1,22,0,3,0,1,5,78,8
1,1,6,0,5,1,1,5,90,11
1,1,18,1,2,0,1,5,93,11
1,1,11,1,4,0,1,5,90,11
1,1,12,1,5,1,1,5,93,11
1,1,19,1,5,1,1,5,78,8
1,1,16,1,0,0,1,5,78,11
1,1,14,1,1,0,1,5,93,11
1,1,21,0,1,0,1,5,39,11
1,1,13,1,3,0,1,5,93,11
1,1,23,0,6,1,1,5,133,11
1,1,7,1,0,0,1,5,78,11
1,1,14,1,2,0,1,5,93,11
2,1,15,1,0,0,1,5,93,11
2,1,16,1,2,0,1,5,90,11
2,1,15,1,3,0,1,5,78,11
2,1,16,1,3,0,1,5,93,11
3,2,12,1,3,0,1,5,90,11
3,2,17,1,0,0,1,5,4,11
3,2,13,1,1,0,1,5,93,11
3,2,10,1,4,0,1,5,93,11
3,2,19,1,5,1,1,5,14,11
3,2,17,1,1,0,1,5,93,11
3,2,0,0,4,0,1,5,133,11
3,2,0,0,4,0,1,5,133,11
3,2,1,0,4,0,1,5,133,11
3,2,14,1,2,0,1,5,78,11
3,2,0,0,3,0,1,5,66,11
3,2,12,1,5,1,1,5,48,11
3,2,7,1,6,1,1,5,93,11
3,2,2,0,6,1,1,5,19,11
3,2,0,0,1,0,1,5,90,11
4,2,7,1,2,0,2,5,90,11
4,2,13,1,6,1,2,5,48,11
4,2,14,1,6,1,2,5,93,11
4,2,21,0,6,1,2,5,90,11
4,2,2,0,6,1,2,5,133,11
4,2,2,0,6,1,2,5,133,11
4,2,3,0,6,1,2,5,133,11
4,2,3,0,6,1,2,5,133,11
4,2,15,1,3,0,2,5,78,11
4,2,5,0,3,0,2,5,106,11
4,2,4,0,6,1,2,5,106,11
4,2,13,1,2,0,2,5,93,11
4,2,2,0,2,0,2,5,75,11
4,2,3,0,2,0,2,5,75,11
4,2,12,1,6,1,2,5,52,11
4,2,1,0,6,1,2,5,106,11
4,2,2,0,6,1,2,5,75,11
4,2,12,1,0,0,2,5,93,11
4,2,14,1,1,0,2,5,93,11
5,2,4,0,4,0,2,5,90,11
5,2,2,0,6,1,2,5,90,11
5,2,9,1,3,0,2,5,93,11
5,2,12,1,0,0,2,5,75,11
5,2,14,1,1,0,2,5,90,11
5,2,14,1,2,0,2,5,93,11
5,2,22,0,2,0,2,5,19,11
5,2,5,0,5,1,2,5,93,11
5,2,22,0,5,1,2,5,115,11
6,3,10,1,3,0,2,5,93,11
6,3,11,1,3,0,2,5,93,11
6,3,2,0,0,0,2,5,90,11
6,3,18,1,0,0,2,5,90,11
6,3,9,1,1,0,2,5,93,11
6,3,5,0,6,1,2,5,90,11
6,3,6,0,6,1,2,5,90,11
6,3,22,0,6,1,2,5,39,11
6,3,20,1,6,1,2,5,93,11
6,3,13,1,1,0,2,5,93,11
6,3,2,0,3,0,2,5,100,11
6,3,3,0,3,0,2,5,100,11
6,3,8,1,3,0,2,5,39,11
6,3,17,1,2,0,2,5,14,11
6,3,16,1,5,1,2,5,52,11
7,3,7,1,1,0,3,5,75,11
7,3,1,0,2,0,3,5,106,11
7,3,7,1,2,0,3,5,93,11
7,3,15,1,2,0,3,5,106,11
7,3,16,1,4,0,3,5,93,11
7,3,7,1,0,0,3,5,100,11
7,3,10,1,0,0,3,5,93,11
7,3,12,1,0,0,3,5,93,11
7,3,22,0,1,0,3,5,93,11
7,3,21,0,2,0,3,5,93,11
7,3,21,0,4,0,3,5,93,11
7,3,8,1,5,1,3,5,52,11
7,3,15,1,6,1,3,5,93,11
7,3,16,1,6,1,3,5,93,11
7,3,18,1,0,0,3,5,106,11
7,3,7,1,2,0,3,5,93,11
7,3,17,1,3,0,3,5,93,11
8,3,11,1,1,0,3,5,93,11
8,3,18,1,2,0,3,5,48,8
8,3,14,1,5,1,3,5,93,11
8,3,14,1,6,1,3,5,106,11
8,3,17,1,1,0,3,5,93,11
8,3,21,0,2,0,3,5,106,11
8,3,18,1,3,0,3,5,13,11
8,3,14,1,3,0,3,5,93,11
8,3,13,1,0,0,3,5,93,11
8,3,19,1,2,0,3,5,93,11
8,3,4,0,4,0,3,5,93,11
8,3,10,1,4,0,3,5,100,11
8,3,19,1,6,1,3,5,4,11
8,3,20,1,6,1,3,5,93,11
9,4,11,1,4,0,3,5,48,11
9,4,2,0,6,1,3,5,90,11
9,4,6,0,6,1,3,5,93,11
9,4,21,0,6,1,3,5,93,11
9,4,21,0,6,1,3,5,93,11
10,4,13,1,2,0,4,5,93,11
10,4,12,1,2,0,4,5,93,11
10,4,12,1,4,0,4,5,93,11
10,4,5,0,5,1,4,5,75,11
10,4,14,1,6,1,4,5,93,11
10,4,0,0,0,0,4,5,93,11
10,4,17,1,1,0,4,5,93,11
10,4,4,0,5,1,4,5,93,9
10,4,13,1,5,1,4,5,132,11
11,4,9,1,2,0,4,5,93,11
11,4,11,1,3,0,4,5,133,11
11,4,18,1,5,1,4,5,90,11
11,4,18,1,1,0,4,5,133,11
11,4,8,1,2,0,4,5,93,11
11,4,14,1,2,0,4,5,93,11
11,4,16,1,5,1,4,5,93,11
11,4,10,1,6,1,4,5,93,11
11,4,12,1,6,1,4,5,93,11
11,4,21,0,6,1,4,5,93,11
11,4,15,1,0,0,4,5,93,11
11,4,20,1,0,0,4,5,106,11
11,4,11,1,1,0,4,5,78,11
11,4,18,1,2,0,4,5,93,11
11,4,1,0,6,1,4,5,67,11
12,1,17,1,2,0,4,5,106,11
12,1,12,1,4,0,4,5,93,11
12,1,12,1,1,0,4,5,106,11
12,1,16,1,0,0,4,5,75,11
12,1,19,1,0,0,4,5,4,11
12,1,20,1,0,0,4,5,93,11
12,1,11,1,2,0,4,5,93,11
12,1,20,1,1,0,4,5,123,11
12,1,15,1,2,0,4,5,93,11
1,1,11,1,3,0,1,5,106,11
1,1,18,1,5,1,1,5,78,11
1,1,18,1,6,1,1,5,93,11
1,1,12,1,6,1,1,5,90,11
1,1,12,1,1,0,1,5,90,11
1,1,2,0,5,1,1,5,90,11
1,1,11,1,2,0,1,5,93,11
1,1,3,0,4,0,1,5,90,11
1,1,10,1,4,0,1,5,93,11
1,1,13,1,4,0,1,5,93,11
1,1,19,1,2,0,1,5,93,11
1,1,21,0,2,0,1,5,106,11
1,1,7,1,3,0,1,5,93,11
1,1,15,1,3,0,1,5,93,11
1,1,11,1,4,0,1,5,93,11
1,1,3,0,5,1,1,5,106,11
1,1,19,1,3,0,1,5,89,11
2,1,14,1,2,0,1,5,93,11
2,1,17,1,3,0,1,5,106,11
2,1,18,1,3,0,1,5,93,11
2,1,18,1,5,1,1,5,14,11
2,1,13,1,5,1,1,5,93,11
2,1,18,1,6,1,1,5,93,11
2,1,19,1,0,0,1,5,115,11
2,1,12,1,5,1,1,5,106,11
2,1,16,1,1,0,1,5,106,11
2,1,17,1,2,0,1,5,93,11
2,1,8,1,4,0,1,5,14,11
2,1,20,1,5,1,1,5,106,11
2,1,2,0,6,1,1,5,106,11
2,1,19,1,6,1,1,5,93,11
2,1,13,1,3,0,1,5,93,11
3,2,1,0,6,1,1,5,106,11
3,2,14,1,6,1,1,5,93,11
3,2,21,0,1,0,1,5,106,11
3,2,19,1,2,0,1,5,93,11
3,2,16,1,4,0,1,5,106,11
3,2,6,0,0,0,1,5,106,11
3,2,0,0,1,0,1,5,93,11
3,2,22,0,4,0,1,5,78,11
3,2,11,1,0,0,1,5,93,11
3,2,16,1,4,0,1,5,93,11
3,2,11,1,5,1,1,5,106,11
3,2,10,1,0,0,1,5,93,11
3,2,19,1,1,0,1,5,93,11
3,2,19,1,6,1,1,5,93,11
3,2,17,1,0,0,1,5,93,11
4,2,4,0,2,0,2,5,101,11
4,2,8,1,4,0,2,5,93,11
4,2,15,1,4,0,2,5,93,11
4,2,17,1,4,0,2,5,93,11
4,2,19,1,6,1,2,5,93,11
4,2,19,1,6,1,2,5,4,11
4,2,12,1,0,0,2,5,78,11
4,2,20,1,1,0,2,5,93,11
4,2,16,1,4,0,2,5,27,11
4,2,23,0,4,0,2,5,14,9
4,2,10,1,5,1,2,5,93,11
4,2,8,1,5,1,2,5,93,11
4,2,11,1,5,1,2,5,93,11
4,2,10,1,6,1,2,5,106,11
4,2,17,1,0,0,2,5,93,11
4,2,20,1,3,0,2,5,93,11
5,2,4,0,6,1,2,5,93,11
5,2,13,1,0,0,2,5,93,11
5,2,21,0,1,0,2,5,93,11
5,2,19,1,2,0,2,5,93,11
5,2,22,0,2,0,2,5,93,11
5,2,17,1,2,0,2,5,93,11
5,2,20,1,2,0,2,5,93,11
5,2,14,1,3,0,2,5,90,9
5,2,20,1,6,1,2,5,93,11
5,2,15,1,2,0,2,5,13,9
5,2,19,1,4,0,2,5,106,11
5,2,8,1,5,1,2,5,93,11
5,2,14,1,2,0,2,5,93,11
5,2,14,1,2,0,2,5,93,11
5,2,11,1,3,0,2,5,90,11
5,2,21,0,3,0,2,5,93,11
5,2,23,0,6,1,2,5,106,11
6,3,8,1,1,0,2,5,93,11
6,3,15,1,0,0,2,5,90,11
6,3,0,0,1,0,2,5,78,11
6,3,16,1,2,0,2,5,93,11
6,3,11,1,2,0,2,5,93,11
6,3,20,1,2,0,2,5,93,11
6,3,12,1,3,0,2,5,93,11
6,3,2,0,6,1,2,5,93,11
6,3,10,1,0,0,2,5,93,11
7,3,12,1,3,0,3,5,93,11
7,3,10,1,4,0,3,5,93,9
7,3,19,1,0,0,3,5,93,11
7,3,14,1,1,0,3,5,106,11
7,3,18,1,2,0,3,5,93,11
7,3,20,1,2,0,3,5,93,11
7,3,16,1,3,0,3,5,93,11
7,3,16,1,3,0,3,5,93,9
7,3,6,0,1,0,3,5,106,11
7,3,9,1,1,0,3,5,93,11
7,3,12,1,4,0,3,5,93,8
7,3,15,1,4,0,3,5,93,8
7,3,14,1,4,0,3,5,93,11
7,3,17,1,5,1,3,5,93,11
7,3,18,1,5,1,3,5,93,9
7,3,20,1,0,0,3,5,93,11
7,3,11,1,1,0,3,5,93,11
7,3,16,1,0,0,3,5,93,11
7,3,19,1,1,0,3,5,93,11
7,3,4,0,3,0,3,5,23,9
8,3,18,1,1,0,3,5,106,11
8,3,13,1,3,0,3,5,46,9
8,3,9,1,1,0,3,5,75,11
8,3,18,1,1,0,3,5,93,11
8,3,14,1,1,0,3,5,93,11
8,3,14,1,2,0,3,5,93,9
8,3,17,1,2,0,3,5,93,11
8,3,12,1,3,0,3,5,90,11
8,3,12,1,5,1,3,5,106,11
8,3,23,0,5,1,3,5,93,11
8,3,7,1,0,0,3,5,93,11
8,3,11,1,1,0,3,5,93,11
8,3,5,0,4,0,3,5,93,11
8,3,20,1,4,0,3,5,93,11
8,3,17,1,1,0,3,5,93,11
8,3,10,1,4,0,3,5,93,11
8,3,15,1,6,1,3,5,93,8
9,4,20,1,4,0,3,5,106,11
9,4,7,1,5,1,3,5,67,11
9,4,12,1,6,1,3,5,90,11
9,4,15,1,6,1,3,5,106,11
9,4,12,1,4,0,3,5,75,11
9,4,8,1,5,1,3,5,93,11
9,4,15,1,1,0,3,5,106,11
9,4,9,1,5,1,3,5,93,11
9,4,21,0,0,0,3,5,59,8
9,4,5,0,2,0,3,5,81,11
9,4,12,1,6,1,3,5,93,11
9,4,19,1,6,1,3,5,93,11
9,4,20,1,6,1,3,5,106,11
10,4,13,1,4,0,4,5,93,11
10,4,10,1,6,1,4,5,93,11
10,4,5,0,5,1,4,5,90,11
10,4,17,1,6,1,4,5,78,11
10,4,22,0,0,0,4,5,14,8
10,4,14,1,0,0,4,5,93,11
10,4,17,1,0,0,4,5,93,11
10,4,18,1,0,0,4,5,93,11
10,4,10,1,3,0,4,5,93,11
10,4,18,1,3,0,4,5,93,11
10,4,18,1,4,0,4,5,93,11
10,4,13,1,5,1,4,5,93,11
11,4,16,1,1,0,4,5,93,11
11,4,6,0,2,0,4,5,93,11
11,4,12,1,2,0,4,5,93,11
11,4,9,1,3,0,4,5,93,11
11,4,14,1,5,1,4,5,93,11
11,4,8,1,4,0,4,5,90,11
11,4,8,1,5,1,4,5,50,11
11,4,17,1,5,1,4,5,93,11
11,4,15,1,6,1,4,5,90,11
11,4,17,1,0,0,4,5,27,11
11,4,10,1,2,0,4,5,93,11
11,4,15,1,2,0,4,5,93,11
11,4,17,1,3,0,4,5,14,9
11,4,14,1,5,1,4,5,93,11
11,4,4,0,6,1,4,5,19,11
11,4,13,1,6,1,4,5,23,8
11,4,11,1,6,1,4,5,93,11
11,4,16,1,0,0,4,5,90,11
12,1,9,1,2,0,4,5,106,11
12,1,12,1,4,0,4,5,90,11
12,1,9,1,6,1,4,5,106,11
12,1,11,1,6,1,4,5,106,11
12,1,11,1,1,0,4,5,93,11
12,1,9,1,2,0,4,5,106,11
12,1,10,1,2,0,4,5,93,11
12,1,15,1,2,0,4,5,93,11
12,1,8,1,4,0,4,5,106,11
12,1,10,1,1,0,4,5,78,8
12,1,18,1,1,0,4,5,93,11
12,1,8,1,2,0,4,5,75,11
12,1,9,1,3,0,4,5,106,11
12,1,7,1,4,0,4,5,93,11
12,1,17,1,5,1,4,5,106,11
12,1,18,1,1,0,4,5,39,11
12,1,14,1,5,1,4,5,106,11
12,1,19,1,6,1,4,5,93,11
12,1,11,1,0,0,4,5,93,11
12,1,15,1,1,0,4,5,106,11
12,1,10,1,2,0,4,5,27,11
12,1,11,1,3,0,4,5,106,11
1,1,14,1,3,0,1,5,106,11
1,1,12,1,3,0,1,5,106,11
1,1,14,1,2,0,1,5,106,11
1,1,0,0,5,1,1,5,93,9
1,1,17,1,5,1,1,5,93,11
1,1,18,1,5,1,1,5,93,11
1,1,11,1,6,1,1,5,106,11
1,1,8,1,0,0,1,5,106,11
1,1,16,1,3,0,1,5,78,11
1,1,16,1,4,0,1,5,93,11
1,1,10,1,5,1,1,5,93,11
1,1,18,1,6,1,1,5,106,11
1,1,21,0,2,0,1,5,4,11
1,1,8,1,2,0,1,5,39,11
1,1,17,1,4,0,1,5,93,11
1,1,22,0,5,1,1,5,133,11
1,1,10,1,0,0,1,5,93,11
1,1,7,1,0,0,1,5,93,11
1,1,14,1,1,0,1,5,133,11
1,1,16,1,3,0,1,5,19,11
1,1,8,1,5,1,1,5,133,11
2,1,16,1,0,0,1,5,93,11
2,1,12,1,2,0,1,5,4,11
2,1,12,1,1,0,1,5,23,11
2,1,15,1,3,0,1,5,106,11
2,1,16,1,5,1,1,5,90,11
2,1,18,1,6,1,1,5,39,11
2,1,13,1,6,1,1,5,90,11
2,1,16,1,6,1,1,5,90,11
2,1,13,1,3,0,1,5,90,11
2,1,22,0,4,0,1,5,93,11
2,1,5,0,6,1,1,5,106,11
2,1,18,1,2,0,1,5,93,11
2,1,23,0,4,0,1,5,4,11
2,1,12,1,5,1,1,5,90,11
3,2,3,0,6,1,1,5,78,9
3,2,22,0,0,0,1,5,59,11
3,2,18,1,1,0,1,5,93,11
3,2,6,0,5,1,1,5,93,11
3,2,18,1,6,1,1,5,90,11
3,2,14,1,6,1,1,5,4,11
3,2,15,1,4,0,1,5,93,11
3,2,13,1,5,1,1,5,78,11
3,2,7,1,6,1,1,5,19,11
3,2,20,1,0,0,1,5,4,11
3,2,21,0,5,1,1,5,108,11
3,2,20,1,5,1,1,5,93,11
3,2,11,1,5,1,1,5,39,11
4,2,18,1,3,0,2,5,106,11
4,2,19,1,4,0,2,5,106,11
4,2,11,1,5,1,2,5,90,11
4,2,15,1,5,1,2,5,44,11
4,2,11,1,5,1,2,5,90,11
4,2,14,1,5,1,2,5,90,11
4,2,17,1,1,0,2,5,93,11
4,2,22,0,2,0,2,5,130,11
4,2,0,0,3,0,2,5,93,11
4,2,12,1,6,1,2,5,106,11
4,2,18,1,0,0,2,5,93,11
4,2,10,1,1,0,2,5,106,11
4,2,2,0,2,0,2,5,93,11
4,2,14,1,4,0,2,5,106,11
4,2,7,1,5,1,2,5,93,11
5,2,22,0,4,0,2,5,93,11
5,2,16,1,4,0,2,5,106,11
5,2,20,1,1,0,2,5,93,9
5,2,22,0,1,0,2,5,90,11
5,2,13,1,2,0,2,5,106,11
5,2,8,1,3,0,2,5,93,11
5,2,10,1,4,0,2,5,106,11
5,2,11,1,6,1,2,5,93,11
5,2,17,1,1,0,2,5,93,11
5,2,10,1,4,0,2,5,93,11
5,2,14,1,4,0,2,5,93,11
5,2,8,1,5,1,2,5,39,11
5,2,13,1,1,0,2,5,93,11
5,2,16,1,2,0,2,5,78,11
5,2,9,1,3,0,2,5,130,11
5,2,14,1,6,1,2,5,4,11
6,3,9,1,0,0,2,5,93,11
6,3,18,1,3,0,2,5,93,11
6,3,0,0,6,1,2,5,90,11
6,3,7,1,2,0,2,5,93,11
6,3,12,1,4,0,2,5,93,11
6,3,15,1,0,0,2,5,106,11
6,3,5,0,2,0,2,5,106,11
6,3,12,1,5,1,2,5,93,11
6,3,4,0,5,1,2,5,93,11
6,3,10,1,5,1,2,5,93,11
6,3,21,0,2,0,2,5,14,11
6,3,22,0,3,0,2,5,93,11
6,3,12,1,6,1,2,5,93,11
6,3,17,1,6,1,2,5,93,11
7,3,22,0,2,0,3,5,93,11
7,3,19,1,3,0,3,5,93,11
7,3,19,1,4,0,3,5,93,11
7,3,17,1,6,1,3,5,90,11
7,3,10,1,4,0,3,5,93,11
7,3,0,0,6,1,3,5,93,11
7,3,21,0,2,0,3,5,93,11
7,3,1,0,5,1,3,5,93,11
7,3,11,1,5,1,3,5,106,11
7,3,11,1,1,0,3,5,93,11
7,3,0,0,5,1,3,5,50,11
7,3,9,1,0,0,3,5,133,11
7,3,0,0,2,0,3,5,93,11
7,3,9,1,4,0,3,5,93,11
8,3,15,1,6,1,3,5,106,11
8,3,15,1,6,1,3,5,106,11
8,3,5,0,5,1,3,5,78,11
8,3,10,1,5,1,3,5,19,9
8,3,10,1,0,0,3,5,93,11
8,3,17,1,6,1,3,5,78,11
8,3,11,1,0,0,3,5,93,11
8,3,18,1,0,0,3,5,4,9
8,3,20,1,0,0,3,5,93,9
8,3,13,1,2,0,3,5,93,11
8,3,15,1,2,0,3,5,4,9
9,4,11,1,4,0,3,5,78,11
9,4,8,1,1,0,3,5,93,11
9,4,7,1,5,1,3,5,93,11
9,4,21,0,6,1,3,5,93,11
9,4,3,0,0,0,3,5,35,11
9,4,17,1,2,0,3,5,93,11
9,4,8,1,0,0,3,5,130,11
9,4,20,1,2,0,3,5,93,11
10,4,11,1,3,0,4,5,93,11
10,4,18,1,6,1,4,5,93,11
10,4,16,1,4,0,4,5,106,11
10,4,11,1,1,0,4,5,93,11
10,4,12,1,4,0,4,5,93,11
10,4,14,1,2,0,4,5,93,11
10,4,1,0,5,1,4,5,90,11
11,4,10,1,4,0,4,5,93,11
11,4,23,0,4,0,4,5,106,11
11,4,10,1,5,1,4,5,78,11
11,4,8,1,2,0,4,5,67,11
11,4,13,1,2,0,4,5,93,11
11,4,18,1,3,0,4,5,93,11
11,4,18,1,4,0,4,5,115,11
11,4,13,1,1,0,4,5,93,11
11,4,12,1,6,1,4,5,93,11
11,4,10,1,1,0,4,5,93,11
11,4,18,1,4,0,4,5,78,11
11,4,19,1,5,1,4,5,93,11
12,1,11,1,1,0,4,5,93,11
12,1,13,1,4,0,4,5,93,11
12,1,11,1,5,1,4,5,90,11
12,1,18,1,6,1,4,5,4,11
12,1,11,1,1,0,4,5,106,11
12,1,9,1,5,1,4,5,93,11
12,1,11,1,5,1,4,5,93,11
12,1,3,0,0,0,4,5,78,11
12,1,16,1,2,0,4,5,4,11
12,1,15,1,3,0,4,5,39,11
12,1,11,1,5,1,4,5,39,11
12,1,11,1,5,1,4,5,93,11
12,1,18,1,6,1,4,5,130,11
12,1,13,1,0,0,4,5,93,11
12,1,18,1,0,0,4,5,78,11
12,1,22,0,2,0,4,5,48,11
1,1,16,1,3,0,1,42,93,11
1,1,13,1,4,0,1,42,93,11
1,1,15,1,6,1,1,42,91,11
1,1,15,1,0,0,1,42,90,11
1,1,15,1,2,0,1,42,90,11
1,1,16,1,2,0,1,42,93,11
1,1,16,1,2,0,1,42,90,11
1,1,18,1,3,0,1,42,69,11
1,1,21,0,5,1,1,42,90,11
1,1,17,1,0,0,1,42,14,11
1,1,21,0,1,0,1,42,90,11
1,1,21,0,1,0,1,42,90,11
1,1,14,1,3,0,1,42,93,11
1,1,14,1,4,0,1,42,90,11
1,1,22,0,1,0,1,42,90,11
1,1,10,1,3,0,1,42,19,11
1,1,23,0,4,0,1,42,90,11
1,1,1,0,5,1,1,42,79,11
1,1,22,0,3,0,1,42,90,11
2,1,14,1,6,1,1,42,39,11
2,1,5,0,3,0,1,42,90,11
2,1,20,1,5,1,1,42,90,11
2,1,23,0,5,1,1,42,90,11
2,1,23,0,3,0,1,42,90,11
2,1,0,0,4,0,1,42,90,11
2,1,20,1,4,0,1,42,90,11
2,1,0,0,5,1,1,42,90,11
2,1,17,1,6,1,1,42,90,11
2,1,20,1,1,0,1,42,90,11
2,1,2,0,2,0,1,42,90,11
2,1,12,1,2,0,1,42,90,11
2,1,14,1,2,0,1,42,93,11
2,1,22,0,2,0,1,42,90,11
2,1,18,1,6,1,1,42,93,11
2,1,11,1,3,0,1,42,115,11
2,1,17,1,4,0,1,42,100,11
3,2,7,1,2,0,1,42,93,11
3,2,12,1,4,0,1,42,67,11
3,2,17,1,0,0,1,42,100,11
3,2,22,0,5,1,1,42,100,11
3,2,17,1,6,1,1,42,93,11
3,2,17,1,6,1,1,42,67,11
3,2,0,0,2,0,1,42,100,11
3,2,23,0,2,0,1,42,14,9
3,2,23,0,2,0,1,42,14,9
3,2,1,0,4,0,1,42,78,11
3,2,21,0,3,0,1,42,115,11
3,2,12,1,6,1,1,42,78,11
4,2,2,0,4,0,2,42,66,11
4,2,1,0,5,1,2,42,100,11
4,2,17,1,5,1,2,42,19,9
4,2,19,1,5,1,2,42,115,11
4,2,14,1,2,0,2,42,67,11
4,2,17,1,4,0,2,42,78,11
4,2,21,0,4,0,2,42,133,11
4,2,22,0,4,0,2,42,67,11
4,2,19,1,0,0,2,42,106,11
4,2,5,0,4,0,2,42,82,9
4,2,19,1,5,1,2,42,67,11
4,2,23,0,5,1,2,42,100,11
4,2,15,1,0,0,2,42,93,11
4,2,12,1,2,0,2,42,78,11
4,2,22,0,2,0,2,42,78,8
4,2,1,0,5,1,2,42,100,11
4,2,22,0,3,0,2,42,66,11
5,2,5,0,4,0,2,42,46,9
5,2,21,0,4,0,2,42,66,11
5,2,22,0,0,0,2,42,52,11
5,2,16,1,1,0,2,42,25,11
5,2,22,0,2,0,2,42,90,11
5,2,16,1,5,1,2,42,93,11
5,2,13,1,0,0,2,42,19,11
5,2,11,1,1,0,2,42,14,11
5,2,23,0,2,0,2,42,66,11
5,2,0,0,0,0,2,42,100,11
5,2,22,0,1,0,2,42,100,11
5,2,11,1,2,0,2,42,67,11
5,2,12,1,6,1,2,42,106,11
6,3,1,0,1,0,2,42,81,9
6,3,21,0,1,0,2,42,19,11
6,3,17,1,3,0,2,42,9,11
6,3,23,0,3,0,2,42,93,11
6,3,11,1,4,0,2,42,14,11
6,3,18,1,5,1,2,42,78,9
7,3,16,1,5,1,3,42,93,11
7,3,16,1,1,0,3,42,106,11
7,3,13,1,2,0,3,42,93,11
7,3,12,1,1,0,3,42,115,11
8,3,23,0,0,0,3,42,93,11
8,3,9,1,1,0,3,42,78,11
8,3,15,1,1,0,3,42,115,11
8,3,18,1,1,0,3,42,19,11
8,3,12,1,3,0,3,42,78,11
8,3,18,1,3,0,3,42,106,11
8,3,18,1,3,0,3,42,93,11
8,3,22,0,3,0,3,42,93,11
9,4,3,0,1,0,3,42,100,11
9,4,10,1,6,1,3,42,48,11
9,4,4,0,0,0,3,42,100,11
9,4,21,0,1,0,3,42,93,11
9,4,22,0,2,0,3,42,100,11
9,4,13,1,3,0,3,42,19,11
9,4,11,1,4,0,3,42,93,11
9,4,15,1,0,0,3,42,106,11
9,4,0,0,5,1,3,42,66,11
9,4,23,0,5,1,3,42,100,11
9,4,14,1,6,1,3,42,93,11
9,4,15,1,6,1,3,42,93,11
10,4,3,0,6,1,4,42,100,11
10,4,3,0,6,1,4,42,100,11
10,4,4,0,6,1,4,42,100,11
10,4,6,0,6,1,4,42,78,9
10,4,13,1,6,1,4,42,25,11
10,4,0,0,6,1,4,42,66,11
10,4,0,0,5,1,4,42,100,11
10,4,15,1,6,1,4,42,25,11
10,4,19,1,1,0,4,42,93,11
10,4,7,1,3,0,4,42,25,11
10,4,11,1,2,0,4,42,25,11
10,4,18,1,4,0,4,42,106,11
10,4,19,1,5,1,4,42,23,11
11,4,3,0,6,1,4,42,67,11
11,4,11,1,0,0,4,42,25,9
11,4,17,1,0,0,4,42,78,11
11,4,15,1,5,1,4,42,106,11
11,4,15,1,2,0,4,42,106,11
11,4,14,1,6,1,4,42,25,11
11,4,19,1,0,0,4,42,93,11
11,4,13,1,4,0,4,42,100,11
11,4,18,1,6,1,4,42,19,11
12,1,20,1,3,0,4,42,67,11
12,1,20,1,3,0,4,42,106,11
12,1,6,0,4,0,4,42,106,11
12,1,0,0,5,1,4,42,100,11
12,1,3,0,5,1,4,42,100,11
12,1,20,1,6,1,4,42,100,11
12,1,9,1,1,0,4,42,100,11
12,1,17,1,3,0,4,42,84,11
12,1,16,1,4,0,4,42,100,11
12,1,23,0,5,1,4,42,67,11
12,1,23,0,6,1,4,42,100,11
12,1,12,1,0,0,4,42,114,9
12,1,15,1,2,0,4,42,67,11
12,1,21,0,2,0,4,42,123,9
12,1,11,1,4,0,4,42,106,11
12,1,18,1,5,1,4,42,39,11
12,1,15,1,2,0,4,42,93,11
12,1,17,1,3,0,4,42,48,11
12,1,4,0,5,1,4,42,100,11
12,1,9,1,0,0,4,42,67,11
12,1,12,1,3,0,4,42,78,9
1,1,20,1,4,0,1,42,78,11
1,1,20,1,2,0,1,42,14,11
3,2,10,1,6,1,1,42,100,11
3,2,12,1,5,1,1,42,19,8
4,2,12,1,3,0,2,42,19,8
4,2,7,1,4,0,2,42,78,11
4,2,20,1,5,1,2,42,115,11
4,2,14,1,2,0,2,42,65,9
5,2,17,1,2,0,2,42,115,11
5,2,12,1,6,1,2,42,20,11
7,3,0,0,2,0,3,42,19,9
7,3,3,0,6,1,3,42,93,11
8,3,23,0,1,0,3,42,19,9
8,3,9,1,2,0,3,42,93,11
9,4,21,0,6,1,3,42,19,9
9,4,20,1,2,0,3,42,19,11
10,4,23,0,5,1,4,42,78,9
10,4,14,1,0,0,4,42,75,11
10,4,12,1,2,0,4,42,65,8
11,4,7,1,0,0,4,42,115,11
11,4,12,1,0,0,4,42,78,8
12,1,12,1,5,1,4,42,14,9
12,1,10,1,6,1,4,42,100,11
1,1,2,0,4,0,1,42,78,9
1,1,12,1,4,0,1,42,93,9
1,1,20,1,4,0,1,42,90,11
2,1,17,1,5,1,1,42,39,11
3,2,16,1,1,0,1,42,78,11
3,2,19,1,1,0,1,42,25,11
4,2,22,0,6,1,2,42,19,11
4,2,9,1,0,0,2,42,65,9
6,3,20,1,3,0,2,42,115,11
6,3,23,0,1,0,2,42,93,11
7,3,0,0,3,0,3,42,93,11
7,3,15,1,4,0,3,42,115,11
7,3,18,1,4,0,3,42,115,11
7,3,0,0,0,0,3,42,79,11
9,4,14,1,3,0,3,42,19,9
10,4,13,1,0,0,4,42,39,11
11,4,13,1,6,1,4,42,78,9
1,1,12,1,3,0,1,42,19,11
7,3,12,1,0,0,3,42,106,11
10,4,6,0,2,0,4,42,46,11
10,4,9,1,3,0,4,42,19,11
1,1,8,1,0,0,1,21,133,11
1,1,15,1,0,0,1,21,133,11
1,1,9,1,1,0,1,21,78,11
1,1,15,1,4,0,1,21,78,11
1,1,19,1,0,0,1,21,75,11
1,1,14,1,1,0,1,21,67,11
1,1,22,0,3,0,1,21,14,11
2,1,7,1,3,0,1,21,133,11
2,1,11,1,3,0,1,21,133,11
2,1,19,1,3,0,1,21,67,11
2,1,4,0,0,0,1,21,75,11
3,2,20,1,6,1,1,21,109,11
3,2,21,0,0,0,1,21,109,9
4,2,17,1,3,0,2,21,67,11
4,2,11,1,5,1,2,21,67,9
5,2,0,0,4,0,2,21,78,9
5,2,11,1,0,0,2,21,93,11
5,2,21,0,6,1,2,21,39,9
6,3,1,0,5,1,2,21,78,11
6,3,11,1,0,0,2,21,35,11
6,3,21,0,2,0,2,21,58,9
7,3,12,1,6,1,3,21,93,11
7,3,16,1,1,0,3,21,4,9
7,3,16,1,4,0,3,21,117,11
7,3,22,0,2,0,3,21,57,11
7,3,12,1,4,0,3,21,35,11
8,3,16,1,2,0,3,21,130,9
8,3,3,0,5,1,3,21,75,11
8,3,20,1,4,0,3,21,103,11
9,4,13,1,1,0,3,21,74,11
9,4,13,1,3,0,3,21,106,11
9,4,13,1,0,0,3,21,67,11
10,4,13,1,4,0,4,21,39,11
10,4,12,1,1,0,4,21,103,11
10,4,7,1,4,0,4,21,67,11
10,4,4,0,2,0,4,21,75,11
11,4,18,1,2,0,4,21,78,9
11,4,21,0,5,1,4,21,90,11
11,4,22,0,5,1,4,21,90,11
11,4,22,0,5,1,4,21,90,11
11,4,22,0,5,1,4,21,90,11
11,4,22,0,5,1,4,21,90,11
1,1,15,1,6,1,1,21,74,9
2,1,13,1,5,1,1,21,78,11
2,1,17,1,6,1,1,21,75,11
4,2,0,0,0,0,2,21,88,8
5,2,13,1,0,0,2,21,39,11
5,2,7,1,2,0,2,21,87,11
6,3,9,1,1,0,2,21,75,11
7,3,11,1,2,0,3,21,75,11
7,3,8,1,2,0,3,21,75,9
8,3,19,1,5,1,3,21,74,9
9,4,6,0,1,0,3,21,78,9
10,4,18,1,0,0,4,21,78,11
11,4,13,1,1,0,4,21,27,11
1,1,0,0,3,0,1,21,78,11
1,1,23,0,1,0,1,21,1,11
1,1,10,1,2,0,1,21,78,11
1,1,17,1,4,0,1,21,93,11
1,1,8,1,0,0,1,21,78,11
1,1,21,0,1,0,1,21,93,11
1,1,9,1,0,0,1,21,78,11
2,1,19,1,0,0,1,21,90,11
2,1,3,0,6,1,1,21,78,11
4,2,1,0,0,0,2,21,67,11
5,2,11,1,4,0,2,21,78,11
6,3,18,1,4,0,2,21,1,11
6,3,8,1,5,1,2,21,4,11
6,3,21,0,6,1,2,21,93,11
6,3,21,0,5,1,2,21,93,11
7,3,22,0,1,0,3,21,9,11
7,3,11,1,3,0,3,21,4,11
8,3,13,1,5,1,3,21,93,11
8,3,12,1,4,0,3,21,4,11
8,3,14,1,1,0,3,21,19,11
9,4,3,0,5,1,3,21,75,11
9,4,11,1,6,1,3,21,78,11
10,4,9,1,6,1,4,21,25,11
10,4,18,1,2,0,4,21,14,11
11,4,18,1,0,0,4,21,78,11
11,4,13,1,2,0,4,21,90,11
11,4,17,1,6,1,4,21,19,11
11,4,19,1,0,0,4,21,78,9
12,1,23,0,6,1,4,21,78,11
12,1,20,1,5,1,4,21,93,11
1,1,12,1,1,0,1,21,93,11
1,1,14,1,4,0,1,21,133,11
2,1,15,1,1,0,1,21,84,11
2,1,10,1,2,0,1,21,93,8
2,1,1,0,5,1,1,21,90,11
4,2,10,1,3,0,2,21,58,11
5,2,13,1,4,0,2,21,78,8
7,3,10,1,1,0,3,21,93,11
7,3,10,1,6,1,3,21,106,11
10,4,9,1,6,1,4,21,90,11
12,1,23,0,0,0,4,21,90,11
12,1,15,1,3,0,4,21,93,11
1,1,3,0,4,0,1,9,67,9
1,1,9,1,0,0,1,9,133,11
1,1,3,0,4,0,1,9,133,11
1,1,18,1,5,1,1,9,133,11
1,1,12,1,2,0,1,9,65,9
1,1,2,0,0,0,1,9,67,11
2,1,15,1,0,0,1,9,103,11
2,1,19,1,2,0,1,9,67,11
2,1,20,1,4,0,1,9,115,11
3,2,17,1,6,1,1,9,133,11
3,2,20,1,4,0,1,9,14,9
3,2,6,0,4,0,1,9,13,11
3,2,11,1,0,0,1,9,23,11
3,2,1,0,3,0,1,9,88,9
3,2,10,1,1,0,1,9,67,11
4,2,11,1,6,1,2,9,93,9
4,2,15,1,1,0,2,9,67,11
4,2,7,1,5,1,2,9,67,11
4,2,21,0,0,0,2,9,133,11
5,2,14,1,2,0,2,9,93,11
5,2,12,1,1,0,2,9,13,11
5,2,12,1,1,0,2,9,65,11
5,2,17,1,1,0,2,9,58,11
5,2,19,1,4,0,2,9,19,11
5,2,0,0,5,1,2,9,78,9
7,3,7,1,0,0,3,9,113,9
7,3,17,1,4,0,3,9,114,9
7,3,23,0,4,0,3,9,78,11
7,3,11,1,6,1,3,9,65,11
8,3,21,0,3,0,3,9,78,9
8,3,14,1,4,0,3,9,39,11
9,4,4,0,0,0,3,9,90,11
9,4,18,1,2,0,3,9,93,11
9,4,22,0,2,0,3,9,39,11
9,4,16,1,6,1,3,9,93,11
9,4,12,1,4,0,3,9,93,11
9,4,19,1,2,0,3,9,13,9
10,4,17,1,5,1,4,9,39,9
10,4,1,0,6,1,4,9,133,11
11,4,20,1,5,1,4,9,66,11
11,4,23,0,5,1,4,9,106,11
12,1,9,1,5,1,4,9,90,11
12,1,8,1,1,0,4,9,25,11
12,1,2,0,4,0,4,9,90,11
12,1,19,1,3,0,4,9,19,11
12,1,22,0,4,0,4,9,67,11
12,1,20,1,0,0,4,9,78,9
12,1,19,1,2,0,4,9,133,11
12,1,23,0,3,0,4,9,67,11
1,1,18,1,1,0,1,9,133,11
2,1,12,1,3,0,1,9,93,9
4,2,13,1,6,1,2,9,93,11
9,4,13,1,4,0,3,9,19,11
2,1,9,1,2,0,1,9,19,9
1,1,9,1,3,0,1,37,100,11
1,1,13,1,3,0,1,37,100,11
1,1,22,0,3,0,1,37,67,11
1,1,13,1,4,0,1,37,100,11
1,1,19,1,4,0,1,37,100,11
1,1,6,0,6,1,1,37,100,11
1,1,18,1,6,1,1,37,19,11
1,1,2,0,0,0,1,37,100,11
1,1,11,1,0,0,1,37,67,11
1,1,16,1,0,0,1,37,67,11
1,1,21,0,1,0,1,37,67,11
1,1,11,1,2,0,1,37,106,11
1,1,22,0,3,0,1,37,67,11
1,1,18,1,4,0,1,37,78,9
1,1,9,1,4,0,1,37,67,11
1,1,21,0,5,1,1,37,106,11
1,1,17,1,5,1,1,37,106,11
1,1,12,1,6,1,1,37,100,11
1,1,12,1,6,1,1,37,93,11
1,1,18,1,6,1,1,37,131,11
1,1,19,1,1,0,1,37,78,11
1,1,5,0,3,0,1,37,100,11
1,1,20,1,1,0,1,37,100,11
1,1,15,1,3,0,1,37,78,11
1,1,17,1,4,0,1,37,100,11
1,1,20,1,5,1,1,37,67,11
1,1,16,1,6,1,1,37,67,11
1,1,12,1,0,0,1,37,90,11
1,1,12,1,0,0,1,37,100,11
1,1,13,1,1,0,1,37,67,11
1,1,10,1,2,0,1,37,78,11
1,1,22,0,2,0,1,37,100,11
1,1,17,1,3,0,1,37,100,11
1,1,15,1,4,0,1,37,93,11
1,1,20,1,4,0,1,37,98,11
2,1,20,1,0,0,1,37,100,11
2,1,10,1,1,0,1,37,19,9
2,1,15,1,3,0,1,37,100,11
2,1,11,1,4,0,1,37,78,11
2,1,23,0,6,1,1,37,78,9
2,1,21,0,0,0,1,37,67,11
2,1,13,1,1,0,1,37,100,11
2,1,7,1,2,0,1,37,100,11
2,1,13,1,2,0,1,37,106,11
2,1,15,1,2,0,1,37,106,11
2,1,8,1,3,0,1,37,78,11
2,1,21,0,3,0,1,37,67,11
2,1,11,1,5,1,1,37,106,11
2,1,15,1,6,1,1,37,78,9
2,1,19,1,6,1,1,37,67,11
2,1,19,1,1,0,1,37,106,11
2,1,20,1,1,0,1,37,39,11
2,1,15,1,1,0,1,37,13,9
2,1,12,1,2,0,1,37,106,11
2,1,12,1,3,0,1,37,106,11
2,1,13,1,3,0,1,37,106,11
2,1,14,1,4,0,1,37,67,11
2,1,5,0,5,1,1,37,79,11
2,1,2,0,5,1,1,37,67,11
2,1,22,0,0,0,1,37,67,11
2,1,0,0,4,0,1,37,14,9
2,1,2,0,5,1,1,37,100,11
3,2,21,0,0,0,1,37,67,11
3,2,12,1,2,0,1,37,106,11
3,2,20,1,2,0,1,37,78,11
3,2,19,1,4,0,1,37,67,11
3,2,17,1,0,0,1,37,100,11
3,2,21,0,4,0,1,37,106,11
3,2,6,0,5,1,1,37,106,11
3,2,19,1,5,1,1,37,100,11
3,2,20,1,0,0,1,37,67,11
3,2,19,1,1,0,1,37,100,11
3,2,21,0,3,0,1,37,67,11
3,2,14,1,4,0,1,37,67,11
3,2,16,1,5,1,1,37,39,11
3,2,17,1,6,1,1,37,19,11
3,2,15,1,0,0,1,37,100,11
3,2,17,1,1,0,1,37,106,11
3,2,0,0,3,0,1,37,79,11
3,2,22,0,4,0,1,37,67,11
3,2,21,0,5,1,1,37,78,11
3,2,4,0,1,0,1,37,78,8
4,2,23,0,4,0,2,37,67,11
4,2,13,1,0,0,2,37,67,11
4,2,13,1,3,0,2,37,19,11
4,2,14,1,3,0,2,37,67,11
4,2,20,1,3,0,2,37,67,11
4,2,11,1,4,0,2,37,106,11
4,2,12,1,4,0,2,37,67,11
4,2,21,0,4,0,2,37,106,11
4,2,1,0,6,1,2,37,67,11
4,2,21,0,0,0,2,37,100,11
4,2,1,0,1,0,2,37,100,11
4,2,16,1,1,0,2,37,93,11
4,2,0,0,2,0,2,37,17,11
4,2,14,1,4,0,2,37,93,11
4,2,19,1,4,0,2,37,93,11
4,2,17,1,6,1,2,37,100,11
4,2,2,0,2,0,2,37,19,11
4,2,17,1,2,0,2,37,100,11
5,2,18,1,4,0,2,37,67,11
5,2,21,0,5,1,2,37,100,11
5,2,17,1,2,0,2,37,106,11
5,2,20,1,1,0,2,37,78,11
5,2,10,1,3,0,2,37,93,11
5,2,13,1,3,0,2,37,93,11
5,2,21,0,5,1,2,37,106,11
5,2,12,1,0,0,2,37,93,11
5,2,11,1,1,0,2,37,106,11
5,2,12,1,1,0,2,37,57,11
5,2,18,1,6,1,2,37,93,11
6,3,13,1,0,0,2,37,106,11
6,3,18,1,0,0,2,37,106,11
6,3,10,1,1,0,2,37,106,11
6,3,14,1,1,0,2,37,93,11
6,3,11,1,2,0,2,37,106,11
6,3,20,1,2,0,2,37,93,11
6,3,8,1,6,1,2,37,48,11
6,3,22,0,2,0,2,37,65,8
6,3,14,1,3,0,2,37,93,11
6,3,11,1,4,0,2,37,93,11
6,3,12,1,4,0,2,37,67,11
6,3,14,1,5,1,2,37,100,11
6,3,20,1,6,1,2,37,106,11
6,3,18,1,6,1,2,37,46,11
6,3,9,1,0,0,2,37,46,11
6,3,14,1,0,0,2,37,93,11
6,3,10,1,2,0,2,37,93,11
6,3,16,1,3,0,2,37,78,11
6,3,15,1,4,0,2,37,93,11
6,3,13,1,5,1,2,37,93,11
6,3,14,1,5,1,2,37,93,11
6,3,15,1,5,1,2,37,93,11
6,3,19,1,5,1,2,37,131,11
6,3,21,0,5,1,2,37,100,11
6,3,12,1,0,0,2,37,106,11
7,3,14,1,6,1,3,37,13,11
7,3,15,1,3,0,3,37,106,11
7,3,4,0,4,0,3,37,113,11
7,3,17,1,5,1,3,37,93,11
7,3,21,0,5,1,3,37,19,11
7,3,13,1,6,1,3,37,106,11
7,3,12,1,1,0,3,37,93,11
7,3,16,1,1,0,3,37,93,11
7,3,15,1,2,0,3,37,93,11
7,3,20,1,5,1,3,37,66,11
7,3,13,1,3,0,3,37,93,11
7,3,14,1,3,0,3,37,78,11
7,3,14,1,6,1,3,37,93,11
7,3,17,1,6,1,3,37,100,11
7,3,21,0,6,1,3,37,93,11
7,3,19,1,2,0,3,37,93,11
7,3,20,1,2,0,3,37,93,11
7,3,22,0,3,0,3,37,100,11
8,3,13,1,5,1,3,37,93,11
8,3,8,1,1,0,3,37,106,11
8,3,18,1,1,0,3,37,93,9
8,3,11,1,2,0,3,37,106,11
8,3,19,1,2,0,3,37,93,11
8,3,17,1,5,1,3,37,130,11
8,3,10,1,5,1,3,37,13,11
8,3,20,1,5,1,3,37,106,11
8,3,10,1,6,1,3,37,93,11
8,3,12,1,0,0,3,37,106,11
8,3,21,0,0,0,3,37,100,11
8,3,17,1,1,0,3,37,106,11
8,3,14,1,2,0,3,37,19,11
8,3,13,1,3,0,3,37,93,11
8,3,7,1,4,0,3,37,93,11
8,3,20,1,4,0,3,37,93,11
8,3,15,1,5,1,3,37,106,11
8,3,20,1,0,0,3,37,93,11
8,3,22,0,1,0,3,37,106,11
8,3,22,0,2,0,3,37,100,11
8,3,22,0,3,0,3,37,93,11
8,3,17,1,4,0,3,37,106,11
8,3,17,1,1,0,3,37,93,11
8,3,0,0,2,0,3,37,100,11
8,3,14,1,2,0,3,37,93,11
8,3,16,1,3,0,3,37,19,11
8,3,14,1,4,0,3,37,93,11
8,3,17,1,4,0,3,37,93,11
8,3,11,1,5,1,3,37,93,11
8,3,18,1,5,1,3,37,93,11
8,3,1,0,6,1,3,37,19,11
8,3,9,1,6,1,3,37,93,11
8,3,15,1,0,0,3,37,93,11
9,4,15,1,3,0,3,37,93,11
9,4,19,1,3,0,3,37,93,11
9,4,13,1,5,1,3,37,106,11
9,4,9,1,6,1,3,37,93,11
9,4,10,1,6,1,3,37,93,11
9,4,21,0,6,1,3,37,106,11
9,4,2,0,0,0,3,37,106,11
9,4,11,1,0,0,3,37,4,11
9,4,16,1,2,0,3,37,106,11
9,4,18,1,2,0,3,37,93,11
9,4,5,0,5,1,3,37,115,11
9,4,12,1,6,1,3,37,93,11
9,4,9,1,0,0,3,37,67,11
9,4,11,1,1,0,3,37,93,11
9,4,17,1,1,0,3,37,84,11
9,4,19,1,1,0,3,37,93,11
9,4,13,1,4,0,3,37,106,11
9,4,13,1,4,0,3,37,93,11
9,4,14,1,6,1,3,37,93,11
9,4,11,1,0,0,3,37,93,11
9,4,17,1,0,0,3,37,93,11
9,4,14,1,3,0,3,37,4,11
9,4,19,1,2,0,3,37,78,11
10,4,10,1,3,0,4,37,93,11
10,4,20,1,3,0,4,37,67,11
10,4,1,0,4,0,4,37,100,11
10,4,7,1,5,1,4,37,19,11
10,4,18,1,4,0,4,37,93,11
10,4,21,0,4,0,4,37,106,11
10,4,0,0,3,0,4,37,19,11
10,4,15,1,4,0,4,37,106,11
11,4,17,1,6,1,4,37,39,11
11,4,18,1,1,0,4,37,67,11
11,4,13,1,2,0,4,37,48,11
11,4,0,0,4,0,4,37,67,11
11,4,17,1,6,1,4,37,93,11
11,4,10,1,2,0,4,37,106,11
11,4,5,0,0,0,4,37,75,11
11,4,19,1,1,0,4,37,100,11
11,4,22,0,1,0,4,37,14,11
11,4,11,1,3,0,4,37,75,11
11,4,19,1,4,0,4,37,93,11
11,4,1,0,5,1,4,37,29,11
12,1,18,1,1,0,4,37,67,11
12,1,15,1,4,0,4,37,106,11
12,1,13,1,4,0,4,37,133,11
12,1,11,1,5,1,4,37,93,11
12,1,19,1,5,1,4,37,67,11
12,1,11,1,0,0,4,37,19,11
12,1,9,1,4,0,4,37,67,11
12,1,23,0,4,0,4,37,19,11
12,1,4,0,4,0,4,37,100,11
12,1,11,1,4,0,4,37,93,11
12,1,17,1,4,0,4,37,67,11
12,1,17,1,4,0,4,37,100,11
12,1,19,1,4,0,4,37,39,11
12,1,17,1,5,1,4,37,100,11
12,1,11,1,1,0,4,37,78,11
12,1,19,1,1,0,4,37,78,11
12,1,9,1,3,0,4,37,93,11
12,1,16,1,3,0,4,37,100,11
12,1,22,0,3,0,4,37,67,11
1,1,12,1,6,1,1,37,78,11
1,1,16,1,6,1,1,37,93,11
1,1,20,1,1,0,1,37,69,11
2,1,20,1,5,1,1,37,4,11
7,3,21,0,2,0,3,37,106,11
10,4,10,1,1,0,4,37,98,11
1,1,12,1,4,0,1,37,4,11
1,1,15,1,6,1,1,37,14,11
2,1,20,1,1,0,1,37,93,11
2,1,17,1,2,0,1,37,106,11
2,1,13,1,0,0,1,37,106,11
2,1,13,1,4,0,1,37,106,11
3,2,15,1,1,0,1,37,19,11
4,2,20,1,3,0,2,37,133,11
4,2,13,1,3,0,2,37,25,11
5,2,13,1,2,0,2,37,84,11
6,3,16,1,1,0,2,37,106,11
8,3,23,0,4,0,3,37,93,11
8,3,18,1,4,0,3,37,93,11
8,3,12,1,2,0,3,37,93,11
9,4,11,1,5,1,3,37,93,11
9,4,14,1,0,0,3,37,93,11
9,4,16,1,3,0,3,37,93,11
9,4,16,1,5,1,3,37,106,11
12,1,13,1,4,0,4,37,106,11
12,1,22,0,0,0,4,37,19,8
12,1,15,1,3,0,4,37,13,11
1,1,22,0,6,1,1,11,39,11
1,1,22,0,6,1,1,11,14,11
1,1,3,0,1,0,1,11,39,11
1,1,16,1,3,0,1,11,20,11
1,1,14,1,5,1,1,11,93,11
1,1,21,0,1,0,1,11,78,11
1,1,2,0,3,0,1,11,48,11
2,1,21,0,0,0,1,11,67,11
2,1,15,1,0,0,1,11,78,11
2,1,19,1,0,0,1,11,67,11
2,1,11,1,3,0,1,11,67,11
2,1,20,1,6,1,1,11,133,11
3,2,14,1,6,1,1,11,133,11
3,2,22,0,3,0,1,11,52,11
3,2,17,1,2,0,1,11,67,11
3,2,13,1,5,1,1,11,133,11
3,2,20,1,1,0,1,11,67,11
3,2,15,1,3,0,1,11,78,11
3,2,12,1,5,1,1,11,67,11
3,2,7,1,1,0,1,11,133,11
4,2,20,1,4,0,2,11,78,11
4,2,15,1,0,0,2,11,67,11
4,2,14,1,3,0,2,11,19,11
4,2,14,1,4,0,2,11,58,11
4,2,16,1,3,0,2,11,9,11
4,2,10,1,4,0,2,11,90,11
4,2,12,1,6,1,2,11,48,11
4,2,1,0,0,0,2,11,100,11
4,2,15,1,0,0,2,11,78,11
4,2,20,1,1,0,2,11,65,11
5,2,19,1,6,1,2,11,67,11
5,2,1,0,1,0,2,11,133,11
5,2,16,1,1,0,2,11,93,11
5,2,0,0,3,0,2,11,93,11
5,2,1,0,1,0,2,11,79,11
5,2,13,1,3,0,2,11,67,11
6,3,1,0,4,0,2,11,25,11
6,3,1,0,6,1,2,11,48,11
6,3,14,1,2,0,2,11,27,9
7,3,12,1,2,0,3,11,106,11
7,3,20,1,0,0,3,11,59,11
7,3,9,1,2,0,3,11,19,11
8,3,18,1,2,0,3,11,41,11
8,3,14,1,1,0,3,11,93,11
8,3,9,1,2,0,3,11,93,11
8,3,10,1,5,1,3,11,67,11
8,3,22,0,6,1,3,11,67,11
9,4,14,1,6,1,3,11,14,11
9,4,10,1,3,0,3,11,39,11
9,4,18,1,6,1,3,11,93,11
10,4,20,1,3,0,4,11,60,11
10,4,1,0,6,1,4,11,81,11
10,4,22,0,6,1,4,11,75,11
10,4,10,1,4,0,4,11,39,9
10,4,7,1,1,0,4,11,19,11
10,4,17,1,3,0,4,11,19,9
10,4,9,1,5,1,4,11,93,11
11,4,8,1,0,0,4,11,65,8
11,4,17,1,6,1,4,11,9,11
11,4,10,1,2,0,4,11,93,11
12,1,14,1,2,0,4,11,14,11
12,1,11,1,1,0,4,11,19,11
1,1,13,1,0,0,1,11,67,11
1,1,8,1,2,0,1,11,121,11
1,1,9,1,3,0,1,11,133,11
1,1,17,1,3,0,1,11,39,11
1,1,21,0,3,0,1,11,133,11
1,1,21,0,1,0,1,11,39,11
1,1,18,1,5,1,1,11,133,11
1,1,18,1,0,0,1,11,133,11
1,1,22,0,6,1,1,11,133,11
1,1,20,1,5,1,1,11,78,11
2,1,8,1,4,0,1,11,133,11
2,1,18,1,2,0,1,11,93,11
2,1,22,0,3,0,1,11,69,9
2,1,12,1,3,0,1,11,106,11
2,1,10,1,3,0,1,11,106,11
2,1,18,1,4,0,1,11,133,11
2,1,1,0,0,0,1,11,133,11
2,1,18,1,2,0,1,11,93,11
3,2,0,0,2,0,1,11,133,11
3,2,16,1,2,0,1,11,106,11
3,2,16,1,3,0,1,11,133,11
3,2,0,0,5,1,1,11,133,11
3,2,15,1,5,1,1,11,39,11
3,2,14,1,1,0,1,11,39,11
3,2,22,0,5,1,1,11,14,11
3,2,23,0,4,0,1,11,133,11
3,2,5,0,6,1,1,11,133,11
3,2,4,0,2,0,1,11,67,11
3,2,14,1,3,0,1,11,93,11
4,2,17,1,2,0,2,11,133,11
4,2,16,1,5,1,2,11,133,11
5,2,22,0,2,0,2,11,133,11
5,2,15,1,1,0,2,11,93,11
5,2,19,1,3,0,2,11,133,11
5,2,14,1,6,1,2,11,93,11
5,2,11,1,0,0,2,11,78,11
5,2,3,0,3,0,2,11,133,11
6,3,4,0,0,0,2,11,133,11
6,3,16,1,4,0,2,11,133,11
7,3,2,0,6,1,3,11,78,8
7,3,14,1,3,0,3,11,93,8
8,3,15,1,3,0,3,11,14,11
8,3,11,1,3,0,3,11,93,11
8,3,21,0,1,0,3,11,67,11
8,3,11,1,4,0,3,11,78,11
9,4,16,1,0,0,3,11,93,11
10,4,15,1,3,0,4,11,78,11
10,4,16,1,4,0,4,11,25,11
11,4,23,0,3,0,4,11,133,11
11,4,0,0,5,1,4,11,133,11
12,1,16,1,4,0,4,11,51,11
12,1,9,1,6,1,4,11,133,11
7,3,0,0,5,1,3,11,106,11
9,4,21,0,2,0,3,11,93,9
1,1,12,1,5,1,1,11,78,11
1,1,17,1,4,0,1,11,67,11
1,1,11,1,3,0,1,11,67,11
2,1,21,0,1,0,1,11,39,11
2,1,9,1,2,0,1,11,93,11
3,2,17,1,0,0,1,11,78,11
3,2,10,1,4,0,1,11,67,11
3,2,17,1,4,0,1,11,78,9
3,2,19,1,3,0,1,11,4,11
3,2,8,1,6,1,1,11,39,11
3,2,19,1,2,0,1,11,75,11
4,2,14,1,1,0,2,11,78,11
4,2,18,1,3,0,2,11,39,9
4,2,15,1,0,0,2,11,20,11
4,2,14,1,6,1,2,11,93,11
6,3,20,1,5,1,2,11,23,11
7,3,20,1,2,0,3,11,4,9
9,4,18,1,1,0,3,11,78,11
10,4,13,1,3,0,4,11,39,11
10,4,20,1,6,1,4,11,13,11
11,4,2,0,3,0,4,11,78,9
11,4,23,0,6,1,4,11,106,11
12,1,2,0,4,0,4,11,39,11
9,4,12,1,6,1,3,11,78,8
1,1,3,0,4,0,1,19,133,11
1,1,21,0,4,0,1,19,67,11
1,1,14,1,6,1,1,19,67,11
1,1,12,1,0,0,1,19,48,11
1,1,21,0,1,0,1,19,67,11
1,1,7,1,2,0,1,19,133,11
1,1,5,0,3,0,1,19,133,11
1,1,5,0,4,0,1,19,133,11
1,1,5,0,4,0,1,19,133,11
1,1,2,0,5,1,1,19,133,11
1,1,4,0,5,1,1,19,58,11
1,1,5,0,1,0,1,19,101,11
1,1,19,1,1,0,1,19,58,11
1,1,13,1,1,0,1,19,67,11
1,1,16,1,1,0,1,19,67,11
1,1,7,1,1,0,1,19,133,9
1,1,7,1,1,0,1,19,133,11
1,1,7,1,2,0,1,19,67,11
1,1,16,1,2,0,1,19,67,11
1,1,3,0,2,0,1,19,133,11
1,1,2,0,4,0,1,19,19,11
1,1,5,0,5,1,1,19,19,11
1,1,2,0,6,1,1,19,19,11
1,1,7,1,6,1,1,19,133,11
1,1,5,0,0,0,1,19,133,11
1,1,15,1,0,0,1,19,66,11
1,1,1,0,1,0,1,19,78,8
1,1,19,1,2,0,1,19,131,11
1,1,4,0,4,0,1,19,100,11
1,1,2,0,4,0,1,19,100,11
1,1,1,0,2,0,1,19,58,11
1,1,22,0,3,0,1,19,133,11
1,1,6,0,5,1,1,19,133,11
1,1,0,0,5,1,1,19,67,11
2,1,0,0,6,1,1,19,67,11
2,1,20,1,2,0,1,19,133,11
2,1,17,1,0,0,1,19,133,11
2,1,9,1,4,0,1,19,100,11
2,1,23,0,5,1,1,19,48,11
2,1,19,1,5,1,1,19,100,11
2,1,10,1,2,0,1,19,48,11
2,1,12,1,4,0,1,19,67,11
2,1,1,0,4,0,1,19,48,11
2,1,4,0,4,0,1,19,23,11
2,1,1,0,5,1,1,19,133,11
2,1,2,0,5,1,1,19,133,11
2,1,19,1,5,1,1,19,133,11
2,1,11,1,6,1,1,19,39,11
2,1,9,1,1,0,1,19,67,11
2,1,11,1,1,0,1,19,67,11
2,1,16,1,1,0,1,19,75,11
2,1,21,0,3,0,1,19,67,11
3,2,8,1,6,1,1,19,67,11
3,2,3,0,3,0,1,19,75,11
3,2,1,0,1,0,1,19,67,11
3,2,6,0,2,0,1,19,67,9
3,2,5,0,6,1,1,19,133,11
3,2,5,0,0,0,1,19,75,9
3,2,1,0,1,0,1,19,133,11
3,2,12,1,2,0,1,19,78,11
3,2,15,1,3,0,1,19,67,11
3,2,14,1,5,1,1,19,75,11
3,2,2,0,0,0,1,19,133,11
3,2,0,0,0,0,1,19,133,11
3,2,3,0,4,0,1,19,58,11
3,2,10,1,5,1,1,19,67,11
3,2,15,1,0,0,1,19,67,8
4,2,23,0,2,0,2,19,67,11
4,2,6,0,3,0,2,19,133,11
4,2,11,1,3,0,2,19,66,11
4,2,0,0,3,0,2,19,133,11
4,2,3,0,4,0,2,19,100,11
4,2,3,0,5,1,2,19,133,11
4,2,0,0,6,1,2,19,110,11
4,2,19,1,1,0,2,19,67,11
4,2,7,1,4,0,2,19,67,11
4,2,4,0,6,1,2,19,100,11
4,2,21,0,6,1,2,19,67,11
4,2,10,1,3,0,2,19,75,11
4,2,0,0,4,0,2,19,133,11
4,2,5,0,4,0,2,19,133,11
4,2,6,0,4,0,2,19,133,11
4,2,1,0,5,1,2,19,19,11
4,2,15,1,0,0,2,19,133,11
4,2,10,1,1,0,2,19,67,11
4,2,5,0,4,0,2,19,67,11
4,2,4,0,5,1,2,19,133,11
4,2,5,0,5,1,2,19,133,11
4,2,10,1,5,1,2,19,67,11
4,2,0,0,6,1,2,19,48,11
5,2,2,0,5,1,2,19,133,11
5,2,2,0,5,1,2,19,133,11
5,2,13,1,2,0,2,19,31,11
5,2,4,0,3,0,2,19,100,11
5,2,20,1,5,1,2,19,75,11
5,2,4,0,5,1,2,19,133,11
5,2,19,1,2,0,2,19,133,11
5,2,10,1,3,0,2,19,19,11
5,2,2,0,0,0,2,19,133,11
5,2,2,0,3,0,2,19,100,11
5,2,4,0,6,1,2,19,133,11
6,3,6,0,2,0,2,19,100,11
6,3,9,1,2,0,2,19,133,11
6,3,4,0,2,0,2,19,133,11
6,3,18,1,0,0,2,19,67,11
6,3,14,1,4,0,2,19,67,11
6,3,17,1,5,1,2,19,67,11
6,3,2,0,6,1,2,19,100,11
6,3,2,0,6,1,2,19,100,11
6,3,1,0,6,1,2,19,133,11
6,3,18,1,1,0,2,19,59,11
6,3,5,0,2,0,2,19,18,11
6,3,5,0,3,0,2,19,133,11
6,3,15,1,4,0,2,19,131,11
6,3,22,0,6,1,2,19,67,11
6,3,21,0,0,0,2,19,133,11
6,3,22,0,1,0,2,19,30,11
6,3,18,1,2,0,2,19,93,11
6,3,18,1,3,0,2,19,58,11
6,3,23,0,4,0,2,19,106,11
6,3,17,1,0,0,2,19,133,11
6,3,14,1,1,0,2,19,67,11
7,3,10,1,2,0,3,19,67,11
7,3,16,1,3,0,3,19,133,11
7,3,14,1,6,1,3,19,78,11
7,3,18,1,1,0,3,19,67,11
7,3,8,1,2,0,3,19,53,11
7,3,16,1,3,0,3,19,67,11
7,3,4,0,5,1,3,19,133,11
7,3,21,0,3,0,3,19,75,11
7,3,0,0,1,0,3,19,67,11
7,3,19,1,1,0,3,19,67,11
7,3,16,1,3,0,3,19,75,11
7,3,18,1,4,0,3,19,48,11
7,3,11,1,0,0,3,19,58,11
7,3,21,0,4,0,3,19,78,9
8,3,20,1,1,0,3,19,106,11
8,3,11,1,0,0,3,19,75,11
8,3,22,0,1,0,3,19,67,11
8,3,15,1,2,0,3,19,75,11
8,3,2,0,2,0,3,19,67,9
8,3,16,1,3,0,3,19,133,11
8,3,1,0,5,1,3,19,133,9
8,3,17,1,5,1,3,19,67,11
8,3,9,1,0,0,3,19,86,11
8,3,18,1,1,0,3,19,87,11
8,3,21,0,2,0,3,19,133,11
8,3,21,0,2,0,3,19,133,11
8,3,7,1,0,0,3,19,75,11
8,3,23,0,0,0,3,19,67,11
9,4,15,1,2,0,3,19,67,11
9,4,5,0,3,0,3,19,67,11
9,4,2,0,3,0,3,19,75,11
9,4,21,0,6,1,3,19,67,11
9,4,3,0,1,0,3,19,103,11
9,4,1,0,1,0,3,19,66,11
9,4,9,1,2,0,3,19,67,11
9,4,5,0,0,0,3,19,133,11
9,4,4,0,0,0,3,19,133,11
9,4,11,1,1,0,3,19,48,11
9,4,11,1,3,0,3,19,67,11
9,4,21,0,5,1,3,19,67,11
9,4,22,0,5,1,3,19,93,11
9,4,4,0,6,1,3,19,100,11
9,4,1,0,2,0,3,19,67,8
10,4,1,0,3,0,4,19,66,11
10,4,11,1,6,1,4,19,67,11
10,4,14,1,2,0,4,19,67,11
10,4,3,0,2,0,4,19,48,8
10,4,4,0,5,1,4,19,67,11
10,4,5,0,6,1,4,19,67,11
10,4,7,1,0,0,4,19,67,11
10,4,21,0,0,0,4,19,133,11
10,4,20,1,3,0,4,19,48,11
10,4,21,0,3,0,4,19,67,11
10,4,0,0,4,0,4,19,67,11
11,4,21,0,0,0,4,19,67,11
11,4,8,1,1,0,4,19,67,11
11,4,23,0,1,0,4,19,14,11
11,4,13,1,3,0,4,19,67,11
11,4,12,1,4,0,4,19,67,11
11,4,21,0,4,0,4,19,67,11
11,4,9,1,5,1,4,19,75,11
11,4,17,1,5,1,4,19,75,11
11,4,12,1,0,0,4,19,29,11
11,4,13,1,2,0,4,19,67,11
11,4,7,1,2,0,4,19,133,11
11,4,8,1,3,0,4,19,91,11
11,4,4,0,4,0,4,19,133,11
11,4,4,0,4,0,4,19,133,11
11,4,1,0,5,1,4,19,48,8
11,4,6,0,5,1,4,19,67,8
11,4,10,1,6,1,4,19,67,9
11,4,5,0,0,0,4,19,100,11
11,4,0,0,0,0,4,19,100,11
11,4,5,0,1,0,4,19,100,11
11,4,17,1,3,0,4,19,67,11
11,4,5,0,4,0,4,19,133,11
11,4,11,1,4,0,4,19,48,11
11,4,8,1,6,1,4,19,58,11
11,4,2,0,6,1,4,19,133,11
11,4,5,0,1,0,4,19,133,9
11,4,23,0,3,0,4,19,82,11
11,4,4,0,5,1,4,19,133,11
11,4,11,1,0,0,4,19,67,9
12,1,20,1,1,0,4,19,67,11
12,1,17,1,2,0,4,19,29,11
12,1,9,1,2,0,4,19,67,11
12,1,22,0,5,1,4,19,100,11
12,1,9,1,5,1,4,19,11,11
12,1,16,1,6,1,4,19,133,11
12,1,20,1,5,1,4,19,67,11
12,1,23,0,1,0,4,19,78,11
12,1,3,0,4,0,4,19,133,11
12,1,9,1,6,1,4,19,67,11
12,1,12,1,1,0,4,19,75,11
12,1,17,1,4,0,4,19,67,11
12,1,16,1,4,0,4,19,67,11
12,1,17,1,6,1,4,19,67,11
1,1,3,0,3,0,1,19,67,11
1,1,17,1,3,0,1,19,100,11
1,1,14,1,3,0,1,19,100,11
1,1,20,1,3,0,1,19,39,11
1,1,12,1,3,0,1,19,67,11
1,1,12,1,3,0,1,19,100,11
1,1,18,1,4,0,1,19,67,11
1,1,14,1,4,0,1,19,106,11
1,1,1,0,4,0,1,19,133,11
1,1,20,1,4,0,1,19,39,11
1,1,5,0,4,0,1,19,78,11
1,1,20,1,5,1,1,19,78,11
1,1,18,1,5,1,1,19,67,11
1,1,20,1,5,1,1,19,67,8
1,1,16,1,6,1,1,19,93,11
1,1,6,0,6,1,1,19,114,11
1,1,21,0,0,0,1,19,67,11
1,1,21,0,0,0,1,19,100,11
1,1,23,0,0,0,1,19,100,11
1,1,10,1,0,0,1,19,100,11
1,1,12,1,1,0,1,19,39,11
1,1,0,0,1,0,1,19,66,11
1,1,15,1,1,0,1,19,100,11
1,1,21,0,2,0,1,19,39,11
1,1,15,1,2,0,1,19,91,11
1,1,13,1,2,0,1,19,93,11
1,1,12,1,2,0,1,19,106,11
1,1,16,1,3,0,1,19,67,11
1,1,13,1,3,0,1,19,100,11
1,1,15,1,4,0,1,19,133,11
1,1,9,1,4,0,1,19,93,11
1,1,6,0,4,0,1,19,100,11
1,1,6,0,4,0,1,19,100,11
1,1,1,0,4,0,1,19,100,11
1,1,16,1,5,1,1,19,100,11
1,1,15,1,6,1,1,19,106,11
1,1,21,0,6,1,1,19,67,11
1,1,14,1,0,0,1,19,99,11
1,1,21,0,1,0,1,19,67,11
1,1,19,1,2,0,1,19,67,11
1,1,20,1,3,0,1,19,106,11
1,1,16,1,4,0,1,19,106,11
1,1,12,1,5,1,1,19,48,11
1,1,21,0,0,0,1,19,133,11
1,1,14,1,0,0,1,19,133,11
1,1,14,1,0,0,1,19,100,11
1,1,19,1,2,0,1,19,100,11
1,1,16,1,3,0,1,19,106,11
1,1,15,1,3,0,1,19,100,11
1,1,16,1,4,0,1,19,58,11
1,1,13,1,4,0,1,19,14,11
1,1,12,1,4,0,1,19,39,11
1,1,13,1,6,1,1,19,100,11
1,1,16,1,0,0,1,19,78,11
1,1,3,0,0,0,1,19,106,11
1,1,1,0,0,0,1,19,100,11
1,1,1,0,5,1,1,19,67,11
1,1,15,1,5,1,1,19,100,11
2,1,4,0,6,1,1,19,19,11
2,1,13,1,6,1,1,19,106,11
2,1,13,1,1,0,1,19,67,11
2,1,22,0,2,0,1,19,93,11
2,1,4,0,2,0,1,19,67,11
2,1,23,0,3,0,1,19,78,11
2,1,9,1,3,0,1,19,93,11
2,1,19,1,4,0,1,19,67,11
2,1,0,0,0,0,1,19,70,11
2,1,19,1,1,0,1,19,133,11
2,1,16,1,2,0,1,19,67,11
2,1,20,1,2,0,1,19,67,11
2,1,17,1,3,0,1,19,78,11
2,1,13,1,4,0,1,19,133,11
2,1,8,1,6,1,1,19,39,11
2,1,21,0,6,1,1,19,78,11
2,1,14,1,6,1,1,19,106,11
2,1,14,1,6,1,1,19,93,11
2,1,19,1,0,0,1,19,100,11
2,1,1,0,0,0,1,19,100,11
2,1,6,0,1,0,1,19,100,11
2,1,16,1,2,0,1,19,78,11
2,1,13,1,2,0,1,19,67,11
2,1,14,1,2,0,1,19,67,11
2,1,20,1,2,0,1,19,23,11
2,1,14,1,4,0,1,19,67,11
2,1,19,1,4,0,1,19,78,11
2,1,21,0,5,1,1,19,100,11
2,1,14,1,5,1,1,19,67,11
2,1,14,1,6,1,1,19,67,11
2,1,0,0,4,0,1,19,19,11
3,2,14,1,1,0,1,19,67,11
3,2,9,1,2,0,1,19,48,9
3,2,21,0,3,0,1,19,67,11
3,2,10,1,6,1,1,19,93,11
3,2,11,1,6,1,1,19,106,11
3,2,12,1,6,1,1,19,67,11
3,2,4,0,1,0,1,19,19,9
3,2,22,0,1,0,1,19,39,11
3,2,18,1,1,0,1,19,19,11
3,2,16,1,1,0,1,19,67,11
3,2,22,0,4,0,1,19,67,11
3,2,9,1,4,0,1,19,14,11
3,2,14,1,4,0,1,19,67,11
3,2,21,0,5,1,1,19,67,11
3,2,9,1,5,1,1,19,39,11
3,2,12,1,6,1,1,19,39,11
3,2,8,1,0,0,1,19,106,11
3,2,21,0,2,0,1,19,67,9
3,2,1,0,2,0,1,19,67,11
3,2,18,1,3,0,1,19,78,9
3,2,3,0,3,0,1,19,133,11
3,2,18,1,4,0,1,19,93,11
3,2,13,1,5,1,1,19,106,11
3,2,4,0,5,1,1,19,133,11
3,2,18,1,5,1,1,19,100,11
3,2,13,1,5,1,1,19,39,11
3,2,14,1,0,0,1,19,9,11
3,2,8,1,1,0,1,19,67,11
3,2,20,1,1,0,1,19,67,9
3,2,14,1,1,0,1,19,67,11
3,2,1,0,3,0,1,19,106,11
3,2,8,1,3,0,1,19,19,11
3,2,20,1,6,1,1,19,39,11
3,2,10,1,0,0,1,19,39,11
3,2,20,1,0,0,1,19,67,11
4,2,6,0,2,0,2,19,100,11
4,2,4,0,2,0,2,19,133,11
4,2,4,0,3,0,2,19,100,11
4,2,11,1,3,0,2,19,66,11
4,2,3,0,3,0,2,19,133,11
4,2,13,1,0,0,2,19,67,11
4,2,14,1,0,0,2,19,67,11
4,2,13,1,1,0,2,19,78,11
4,2,0,0,2,0,2,19,78,11
4,2,11,1,3,0,2,19,67,11
4,2,21,0,3,0,2,19,100,11
4,2,16,1,5,1,2,19,133,11
4,2,20,1,6,1,2,19,117,9
4,2,16,1,6,1,2,19,39,11
4,2,23,0,3,0,2,19,93,11
4,2,10,1,3,0,2,19,93,11
4,2,12,1,5,1,2,19,106,11
4,2,13,1,6,1,2,19,14,11
4,2,14,1,6,1,2,19,100,11
4,2,12,1,6,1,2,19,100,11
4,2,18,1,0,0,2,19,93,11
4,2,19,1,2,0,2,19,67,11
4,2,9,1,3,0,2,19,39,11
4,2,22,0,5,1,2,19,39,11
4,2,16,1,5,1,2,19,106,11
4,2,23,0,0,0,2,19,100,11
4,2,22,0,1,0,2,19,106,11
4,2,22,0,1,0,2,19,67,11
4,2,11,1,3,0,2,19,67,11
5,2,12,1,4,0,2,19,106,11
5,2,14,1,4,0,2,19,4,11
5,2,20,1,4,0,2,19,14,11
5,2,15,1,5,1,2,19,100,11
5,2,20,1,3,0,2,19,39,11
5,2,5,0,5,1,2,19,93,11
5,2,12,1,5,1,2,19,58,11
5,2,16,1,5,1,2,19,67,11
5,2,6,0,0,0,2,19,106,11
5,2,20,1,0,0,2,19,91,11
5,2,15,1,1,0,2,19,78,11
5,2,13,1,1,0,2,19,67,11
5,2,15,1,3,0,2,19,78,11
5,2,16,1,4,0,2,19,93,11
5,2,3,0,4,0,2,19,67,11
5,2,13,1,6,1,2,19,100,11
5,2,22,0,6,1,2,19,58,8
5,2,15,1,6,1,2,19,100,11
5,2,14,1,6,1,2,19,100,11
5,2,14,1,6,1,2,19,100,11
5,2,15,1,6,1,2,19,100,11
5,2,16,1,0,0,2,19,106,11
5,2,5,0,1,0,2,19,67,11
5,2,20,1,1,0,2,19,106,11
5,2,14,1,1,0,2,19,67,11
5,2,22,0,1,0,2,19,19,11
5,2,0,0,2,0,2,19,14,11
5,2,0,0,2,0,2,19,78,11
5,2,15,1,4,0,2,19,67,11
5,2,3,0,5,1,2,19,19,9
5,2,16,1,6,1,2,19,93,11
5,2,21,0,1,0,2,19,113,11
5,2,17,1,1,0,2,19,46,9
5,2,15,1,4,0,2,19,93,11
5,2,1,0,4,0,2,19,67,11
5,2,17,1,5,1,2,19,46,11
5,2,13,1,6,1,2,19,100,11
5,2,13,1,6,1,2,19,100,11
5,2,21,0,6,1,2,19,106,11
5,2,19,1,6,1,2,19,93,11
6,3,17,1,0,0,2,19,93,11
6,3,14,1,1,0,2,19,93,11
6,3,15,1,1,0,2,19,4,11
6,3,9,1,1,0,2,19,25,11
6,3,4,0,1,0,2,19,124,11
6,3,3,0,1,0,2,19,93,11
6,3,0,0,4,0,2,19,105,11
6,3,16,1,5,1,2,19,67,11
6,3,8,1,1,0,2,19,82,11
6,3,16,1,2,0,2,19,106,11
6,3,2,0,2,0,2,19,19,11
6,3,18,1,4,0,2,19,93,11
6,3,17,1,5,1,2,19,4,11
6,3,0,0,6,1,2,19,100,11
6,3,17,1,6,1,2,19,106,11
6,3,20,1,6,1,2,19,93,11
6,3,19,1,6,1,2,19,106,11
6,3,22,0,0,0,2,19,133,11
6,3,6,0,2,0,2,19,67,11
6,3,3,0,2,0,2,19,79,11
6,3,11,1,5,1,2,19,67,11
6,3,12,1,6,1,2,19,67,11
6,3,11,1,6,1,2,19,67,11
6,3,17,1,0,0,2,19,117,11
6,3,14,1,1,0,2,19,19,11
6,3,19,1,1,0,2,19,4,11
6,3,16,1,1,0,2,19,93,11
6,3,0,0,2,0,2,19,19,11
6,3,17,1,4,0,2,19,93,11
6,3,14,1,5,1,2,19,106,11
6,3,15,1,6,1,2,19,13,11
6,3,17,1,1,0,2,19,78,11
7,3,19,1,2,0,3,19,117,11
7,3,17,1,3,0,3,19,67,11
7,3,21,0,3,0,3,19,106,11
7,3,2,0,3,0,3,19,9,11
7,3,14,1,5,1,3,19,14,11
7,3,20,1,1,0,3,19,67,11
7,3,14,1,2,0,3,19,93,11
7,3,14,1,3,0,3,19,67,9
7,3,16,1,5,1,3,19,93,11
7,3,23,0,5,1,3,19,93,11
7,3,0,0,6,1,3,19,93,11
7,3,14,1,6,1,3,19,100,11
7,3,14,1,6,1,3,19,100,11
7,3,22,0,0,0,3,19,93,11
7,3,13,1,2,0,3,19,93,11
7,3,17,1,2,0,3,19,67,11
7,3,14,1,2,0,3,19,100,11
7,3,20,1,3,0,3,19,4,11
7,3,19,1,3,0,3,19,67,11
7,3,1,0,3,0,3,19,19,11
7,3,18,1,5,1,3,19,106,11
7,3,13,1,5,1,3,19,67,11
7,3,20,1,5,1,3,19,67,11
7,3,20,1,5,1,3,19,117,11
7,3,20,1,2,0,3,19,82,11
7,3,15,1,2,0,3,19,100,11
7,3,9,1,5,1,3,19,93,11
7,3,22,0,5,1,3,19,93,11
7,3,15,1,5,1,3,19,40,11
7,3,22,0,5,1,3,19,93,11
7,3,22,0,5,1,3,19,19,11
7,3,14,1,0,0,3,19,60,11
7,3,14,1,2,0,3,19,67,11
7,3,20,1,4,0,3,19,106,11
8,3,20,1,5,1,3,19,93,11
8,3,13,1,6,1,3,19,93,11
8,3,23,0,0,0,3,19,93,11
8,3,18,1,1,0,3,19,93,11
8,3,7,1,2,0,3,19,78,11
8,3,6,0,2,0,3,19,100,11
8,3,14,1,5,1,3,19,106,11
8,3,14,1,5,1,3,19,93,11
8,3,13,1,6,1,3,19,100,11
8,3,21,0,1,0,3,19,67,11
8,3,10,1,1,0,3,19,67,11
8,3,23,0,2,0,3,19,100,11
8,3,14,1,3,0,3,19,106,11
8,3,21,0,3,0,3,19,93,11
8,3,18,1,4,0,3,19,93,11
8,3,17,1,4,0,3,19,122,11
8,3,1,0,5,1,3,19,67,11
8,3,12,1,5,1,3,19,93,11
8,3,11,1,5,1,3,19,100,11
8,3,20,1,6,1,3,19,93,11
8,3,23,0,0,0,3,19,106,11
8,3,17,1,0,0,3,19,100,11
8,3,16,1,0,0,3,19,93,11
8,3,16,1,1,0,3,19,100,11
8,3,13,1,3,0,3,19,19,11
8,3,20,1,6,1,3,19,46,11
8,3,1,0,0,0,3,19,100,11
8,3,18,1,1,0,3,19,46,11
8,3,20,1,2,0,3,19,23,11
8,3,6,0,2,0,3,19,19,11
8,3,12,1,3,0,3,19,19,11
8,3,11,1,3,0,3,19,48,11
8,3,13,1,4,0,3,19,76,11
8,3,3,0,4,0,3,19,133,11
8,3,2,0,4,0,3,19,19,11
8,3,10,1,5,1,3,19,93,11
8,3,22,0,5,1,3,19,67,11
8,3,17,1,0,0,3,19,106,11
9,4,11,1,1,0,3,19,106,11
9,4,23,0,1,0,3,19,67,11
9,4,10,1,2,0,3,19,4,11
9,4,13,1,4,0,3,19,19,11
9,4,14,1,6,1,3,19,91,11
9,4,15,1,6,1,3,19,100,11
9,4,14,1,6,1,3,19,100,11
9,4,14,1,0,0,3,19,19,11
9,4,18,1,0,0,3,19,67,11
9,4,2,0,1,0,3,19,67,11
9,4,10,1,1,0,3,19,121,11
9,4,5,0,4,0,3,19,67,11
9,4,13,1,5,1,3,19,67,11
9,4,3,0,5,1,3,19,67,11
9,4,11,1,6,1,3,19,89,11
9,4,15,1,6,1,3,19,78,11
9,4,8,1,0,0,3,19,67,11
9,4,0,0,0,0,3,19,67,11
9,4,15,1,1,0,3,19,106,11
9,4,0,0,1,0,3,19,100,11
9,4,3,0,1,0,3,19,19,11
9,4,20,1,2,0,3,19,93,11
9,4,17,1,2,0,3,19,67,11
9,4,12,1,2,0,3,19,19,11
9,4,5,0,4,0,3,19,133,11
9,4,21,0,5,1,3,19,67,11
9,4,16,1,5,1,3,19,100,11
9,4,7,1,0,0,3,19,19,11
10,4,10,1,3,0,4,19,19,11
10,4,22,0,3,0,4,19,67,11
10,4,3,0,4,0,4,19,19,11
10,4,5,0,4,0,4,19,100,11
10,4,14,1,5,1,4,19,100,11
10,4,14,1,5,1,4,19,100,11
10,4,19,1,0,0,4,19,89,11
10,4,18,1,0,0,4,19,19,11
10,4,19,1,2,0,4,19,19,11
10,4,10,1,4,0,4,19,67,11
10,4,5,0,4,0,4,19,19,11
10,4,17,1,4,0,4,19,12,11
10,4,20,1,5,1,4,19,78,11
10,4,4,0,2,0,4,19,106,11
10,4,15,1,3,0,4,19,14,11
10,4,21,0,3,0,4,19,66,11
10,4,5,0,4,0,4,19,78,11
10,4,0,0,5,1,4,19,82,11
10,4,21,0,0,0,4,19,67,11
10,4,19,1,5,1,4,19,100,11
10,4,18,1,5,1,4,19,100,11
10,4,15,1,5,1,4,19,100,11
10,4,13,1,6,1,4,19,100,11
10,4,16,1,6,1,4,19,100,11
10,4,15,1,6,1,4,19,67,11
10,4,13,1,6,1,4,19,100,11
10,4,12,1,0,0,4,19,93,11
10,4,6,0,2,0,4,19,23,11
10,4,19,1,2,0,4,19,23,11
10,4,20,1,3,0,4,19,39,11
10,4,4,0,5,1,4,19,19,11
11,4,4,0,6,1,4,19,19,9
11,4,17,1,0,0,4,19,39,11
11,4,22,0,1,0,4,19,106,11
11,4,22,0,2,0,4,19,100,11
11,4,16,1,3,0,4,19,39,11
11,4,16,1,4,0,4,19,100,11
11,4,4,0,5,1,4,19,100,11
11,4,12,1,6,1,4,19,67,11
11,4,23,0,6,1,4,19,67,11
11,4,17,1,0,0,4,19,78,11
11,4,14,1,0,0,4,19,14,11
11,4,21,0,2,0,4,19,78,11
11,4,11,1,3,0,4,19,93,11
11,4,19,1,3,0,4,19,9,11
11,4,15,1,3,0,4,19,93,11
11,4,12,1,3,0,4,19,78,11
11,4,16,1,4,0,4,19,106,11
11,4,0,0,5,1,4,19,106,11
11,4,0,0,5,1,4,19,106,11
11,4,1,0,6,1,4,19,100,11
11,4,1,0,1,0,4,19,100,11
11,4,22,0,2,0,4,19,100,11
11,4,0,0,4,0,4,19,100,11
11,4,17,1,4,0,4,19,100,11
11,4,1,0,2,0,4,19,67,11
11,4,9,1,3,0,4,19,117,11
11,4,3,0,3,0,4,19,93,11
11,4,2,0,4,0,4,19,19,11
11,4,8,1,6,1,4,19,78,9
11,4,12,1,6,1,4,19,93,11
11,4,18,1,0,0,4,19,79,11
12,1,5,0,1,0,4,19,100,11
12,1,0,0,1,0,4,19,100,11
12,1,14,1,2,0,4,19,67,11
12,1,21,0,3,0,4,19,106,11
12,1,21,0,3,0,4,19,78,11
12,1,4,0,4,0,4,19,106,11
12,1,12,1,0,0,4,19,103,11
12,1,2,0,0,0,4,19,100,11
12,1,7,1,2,0,4,19,78,11
12,1,11,1,2,0,4,19,19,11
12,1,20,1,2,0,4,19,93,11
12,1,9,1,3,0,4,19,100,11
12,1,20,1,3,0,4,19,39,11
12,1,17,1,3,0,4,19,93,11
12,1,10,1,4,0,4,19,100,11
12,1,5,0,4,0,4,19,100,11
12,1,5,0,5,1,4,19,91,11
12,1,17,1,5,1,4,19,78,11
12,1,11,1,6,1,4,19,19,11
12,1,14,1,0,0,4,19,92,11
12,1,16,1,0,0,4,19,93,11
12,1,5,0,0,0,4,19,133,11
12,1,20,1,1,0,4,19,67,11
12,1,17,1,1,0,4,19,67,11
12,1,16,1,1,0,4,19,78,11
12,1,17,1,3,0,4,19,67,11
12,1,8,1,4,0,4,19,78,11
12,1,18,1,4,0,4,19,19,9
12,1,22,0,6,1,4,19,67,11
12,1,10,1,0,0,4,19,19,11
12,1,17,1,1,0,4,19,106,11
12,1,20,1,3,0,4,19,106,11
12,1,18,1,3,0,4,19,78,11
12,1,21,0,4,0,4,19,67,11
12,1,15,1,4,0,4,19,133,11
12,1,16,1,4,0,4,19,106,11
12,1,0,0,4,0,4,19,133,11
12,1,0,0,4,0,4,19,133,11
12,1,3,0,5,1,4,19,100,11
12,1,16,1,5,1,4,19,106,11
12,1,15,1,5,1,4,19,93,11
12,1,23,0,5,1,4,19,133,11
12,1,8,1,6,1,4,19,106,11
12,1,14,1,6,1,4,19,67,11
12,1,20,1,0,0,4,19,133,11
12,1,22,0,0,0,4,19,67,11
12,1,4,0,0,0,4,19,19,11
12,1,5,0,0,0,4,19,100,11
12,1,1,0,1,0,4,19,133,11
12,1,2,0,1,0,4,19,19,11
12,1,16,1,1,0,4,19,67,11
12,1,19,1,2,0,4,19,106,11
12,1,16,1,3,0,4,19,67,11
12,1,4,0,3,0,4,19,14,9
12,1,21,0,3,0,4,19,106,11
1,1,21,0,6,1,1,19,100,11
1,1,17,1,6,1,1,19,106,11
1,1,23,0,1,0,1,19,93,11
1,1,21,0,3,0,1,19,100,11
1,1,16,1,4,0,1,19,67,11
2,1,14,1,3,0,1,19,39,11
3,2,6,0,0,0,1,19,100,11
3,2,19,1,4,0,1,19,39,11
3,2,12,1,1,0,1,19,39,11
3,2,15,1,1,0,1,19,106,11
3,2,14,1,4,0,1,19,78,11
3,2,17,1,1,0,1,19,78,11
4,2,12,1,3,0,2,19,78,9
4,2,16,1,2,0,2,19,39,11
4,2,18,1,2,0,2,19,106,11
4,2,20,1,2,0,2,19,106,11
4,2,23,0,0,0,2,19,93,11
4,2,19,1,1,0,2,19,93,11
5,2,18,1,6,1,2,19,114,9
5,2,20,1,6,1,2,19,114,11
5,2,11,1,0,0,2,19,4,11
5,2,1,0,2,0,2,19,114,11
5,2,19,1,5,1,2,19,106,11
5,2,22,0,1,0,2,19,19,11
5,2,11,1,1,0,2,19,19,11
5,2,19,1,3,0,2,19,4,11
5,2,20,1,3,0,2,19,106,11
5,2,20,1,2,0,2,19,100,11
6,3,14,1,3,0,2,19,90,11
6,3,13,1,0,0,2,19,39,11
6,3,8,1,3,0,2,19,19,9
6,3,11,1,5,1,2,19,78,11
6,3,16,1,1,0,2,19,106,11
6,3,11,1,2,0,2,19,106,11
6,3,23,0,3,0,2,19,19,9
6,3,16,1,0,0,2,19,100,11
7,3,13,1,3,0,3,19,106,11
7,3,11,1,4,0,3,19,100,11
7,3,22,0,5,1,3,19,39,9
7,3,1,0,6,1,3,19,134,9
7,3,20,1,3,0,3,19,106,11
7,3,19,1,4,0,3,19,93,11
7,3,21,0,4,0,3,19,4,11
7,3,23,0,4,0,3,19,39,11
8,3,21,0,0,0,3,19,81,11
8,3,16,1,1,0,3,19,100,11
9,4,9,1,2,0,3,19,4,11
10,4,12,1,4,0,4,19,4,11
10,4,22,0,6,1,4,19,100,11
10,4,21,0,4,0,4,19,78,11
10,4,19,1,4,0,4,19,39,11
11,4,13,1,3,0,4,19,93,11
11,4,15,1,5,1,4,19,4,11
12,1,22,0,3,0,4,19,39,11
12,1,12,1,4,0,4,19,106,11
12,1,21,0,6,1,4,19,78,11
12,1,21,0,2,0,4,19,100,11
12,1,14,1,2,0,4,19,106,11
12,1,19,1,5,1,4,19,78,11
12,1,14,1,1,0,4,19,19,11
12,1,14,1,3,0,4,19,39,11
1,1,18,1,3,0,1,19,39,11
1,1,11,1,3,0,1,19,78,11
1,1,20,1,5,1,1,19,106,11
1,1,9,1,6,1,1,19,78,11
1,1,11,1,0,0,1,19,106,11
1,1,15,1,2,0,1,19,129,11
1,1,19,1,4,0,1,19,78,9
1,1,18,1,6,1,1,19,14,9
1,1,11,1,0,0,1,19,106,11
1,1,3,0,0,0,1,19,19,11
1,1,14,1,1,0,1,19,4,11
1,1,11,1,6,1,1,19,14,11
1,1,5,0,3,0,1,19,19,11
2,1,1,0,1,0,1,19,39,11
2,1,12,1,1,0,1,19,4,11
2,1,13,1,2,0,1,19,78,11
2,1,19,1,0,0,1,19,67,11
2,1,14,1,2,0,1,19,39,11
2,1,4,0,2,0,1,19,4,11
2,1,13,1,2,0,1,19,114,9
2,1,16,1,4,0,1,19,78,11
2,1,2,0,4,0,1,19,93,11
2,1,22,0,1,0,1,19,78,11
2,1,19,1,3,0,1,19,39,11
2,1,8,1,5,1,1,19,19,11
3,2,11,1,3,0,1,19,78,11
3,2,18,1,6,1,1,19,78,11
3,2,19,1,4,0,1,19,78,11
3,2,7,1,6,1,1,19,100,11
3,2,15,1,1,0,1,19,4,11
3,2,18,1,5,1,1,19,4,11
3,2,15,1,5,1,1,19,78,11
3,2,8,1,6,1,1,19,67,11
3,2,23,0,5,1,1,19,39,11
3,2,10,1,0,0,1,19,78,11
3,2,1,0,0,0,1,19,19,9
4,2,20,1,2,0,2,19,19,9
4,2,17,1,3,0,2,19,4,11
4,2,15,1,3,0,2,19,4,11
4,2,12,1,3,0,2,19,4,11
4,2,18,1,0,0,2,19,106,11
4,2,22,0,2,0,2,19,106,11
4,2,21,0,4,0,2,19,93,11
4,2,18,1,0,0,2,19,13,11
4,2,9,1,2,0,2,19,106,11
4,2,16,1,3,0,2,19,4,11
4,2,19,1,6,1,2,19,106,11
4,2,12,1,2,0,2,19,106,11
5,2,9,1,4,0,2,19,106,11
5,2,20,1,4,0,2,19,106,11
5,2,12,1,5,1,2,19,19,11
5,2,12,1,1,0,2,19,106,11
5,2,20,1,2,0,2,19,132,11
5,2,0,0,2,0,2,19,106,11
5,2,3,0,2,0,2,19,106,11
5,2,19,1,4,0,2,19,106,11
5,2,13,1,3,0,2,19,67,11
5,2,12,1,5,1,2,19,106,11
5,2,15,1,1,0,2,19,106,11
5,2,18,1,2,0,2,19,106,11
5,2,18,1,5,1,2,19,106,11
6,3,14,1,2,0,2,19,93,11
6,3,17,1,5,1,2,19,106,11
6,3,11,1,6,1,2,19,93,11
6,3,16,1,0,0,2,19,19,11
6,3,13,1,2,0,2,19,93,11
6,3,16,1,2,0,2,19,93,11
6,3,12,1,2,0,2,19,106,11
6,3,10,1,2,0,2,19,106,11
6,3,11,1,4,0,2,19,106,11
6,3,16,1,0,0,2,19,106,11
6,3,14,1,0,0,2,19,59,11
7,3,7,1,2,0,3,19,78,11
7,3,18,1,0,0,3,19,106,11
7,3,14,1,2,0,3,19,25,11
7,3,18,1,2,0,3,19,106,11
7,3,19,1,3,0,3,19,106,11
7,3,16,1,5,1,3,19,106,11
7,3,1,0,5,1,3,19,106,11
7,3,17,1,6,1,3,19,106,11
7,3,19,1,4,0,3,19,106,11
7,3,17,1,4,0,3,19,106,11
7,3,18,1,5,1,3,19,4,11
7,3,10,1,5,1,3,19,114,11
7,3,13,1,1,0,3,19,106,11
7,3,17,1,4,0,3,19,93,11
7,3,15,1,5,1,3,19,19,11
7,3,18,1,6,1,3,19,106,11
7,3,18,1,0,0,3,19,4,11
7,3,18,1,1,0,3,19,106,11
7,3,18,1,4,0,3,19,106,11
8,3,19,1,5,1,3,19,106,11
8,3,18,1,6,1,3,19,39,11
8,3,17,1,2,0,3,19,4,11
8,3,18,1,3,0,3,19,93,11
8,3,15,1,3,0,3,19,93,11
8,3,10,1,4,0,3,19,19,11
8,3,12,1,4,0,3,19,87,11
8,3,12,1,5,1,3,19,106,11
8,3,13,1,6,1,3,19,106,11
8,3,20,1,1,0,3,19,106,11
8,3,17,1,1,0,3,19,19,11
8,3,14,1,4,0,3,19,19,11
8,3,11,1,4,0,3,19,4,11
8,3,12,1,4,0,3,19,78,11
8,3,10,1,5,1,3,19,19,9
8,3,16,1,4,0,3,19,19,11
8,3,20,1,0,0,3,19,106,11
9,4,15,1,1,0,3,19,4,11
9,4,8,1,1,0,3,19,19,11
9,4,19,1,3,0,3,19,93,11
9,4,18,1,4,0,3,19,19,11
9,4,2,0,2,0,3,19,100,11
9,4,14,1,4,0,3,19,19,11
9,4,9,1,4,0,3,19,106,11
9,4,17,1,6,1,3,19,114,11
9,4,22,0,0,0,3,19,106,11
9,4,13,1,0,0,3,19,106,11
9,4,16,1,4,0,3,19,106,11
9,4,14,1,1,0,3,19,106,11
10,4,11,1,6,1,4,19,78,11
10,4,4,0,1,0,4,19,19,11
10,4,23,0,2,0,4,19,106,11
10,4,7,1,0,0,4,19,19,11
11,4,11,1,6,1,4,19,39,11
11,4,17,1,1,0,4,19,106,11
11,4,13,1,2,0,4,19,106,11
12,1,17,1,2,0,4,19,39,9
12,1,13,1,3,0,4,19,114,11
12,1,17,1,6,1,4,19,106,11
12,1,18,1,6,1,4,19,131,11
12,1,10,1,0,0,4,19,100,11
12,1,21,0,1,0,4,19,78,11
12,1,12,1,1,0,4,19,114,9
12,1,15,1,2,0,4,19,106,11
12,1,16,1,1,0,4,19,106,11
12,1,17,1,1,0,4,19,106,11
12,1,20,1,2,0,4,19,39,11
12,1,1,0,2,0,4,19,67,11
1,1,15,1,3,0,1,19,67,11
1,1,18,1,3,0,1,19,100,11
1,1,1,0,5,1,1,19,100,11
1,1,20,1,5,1,1,19,106,11
1,1,21,0,6,1,1,19,100,11
1,1,18,1,6,1,1,19,100,11
1,1,5,0,6,1,1,19,100,11
1,1,14,1,6,1,1,19,67,11
1,1,4,0,0,0,1,19,100,11
1,1,18,1,0,0,1,19,100,11
1,1,12,1,2,0,1,19,100,11
1,1,18,1,3,0,1,19,39,11
1,1,14,1,3,0,1,19,67,9
1,1,19,1,3,0,1,19,89,9
1,1,1,0,3,0,1,19,100,11
1,1,15,1,4,0,1,19,67,11
1,1,10,1,4,0,1,19,100,11
1,1,20,1,6,1,1,19,39,11
1,1,23,0,0,0,1,19,100,11
1,1,18,1,0,0,1,19,67,11
1,1,17,1,1,0,1,19,67,11
1,1,20,1,1,0,1,19,67,11
1,1,17,1,2,0,1,19,67,11
1,1,19,1,3,0,1,19,78,11
1,1,2,0,3,0,1,19,93,11
1,1,2,0,4,0,1,19,67,11
1,1,21,0,5,1,1,19,100,11
1,1,18,1,5,1,1,19,100,11
1,1,9,1,6,1,1,19,100,11
1,1,12,1,6,1,1,19,100,11
1,1,14,1,6,1,1,19,106,11
1,1,20,1,3,0,1,19,67,11
1,1,12,1,6,1,1,19,67,11
1,1,0,0,0,0,1,19,67,11
1,1,19,1,2,0,1,19,67,11
1,1,21,0,2,0,1,19,67,11
1,1,18,1,4,0,1,19,67,11
1,1,1,0,4,0,1,19,100,11
1,1,23,0,5,1,1,19,78,11
2,1,14,1,0,0,1,19,90,11
2,1,15,1,2,0,1,19,75,9
2,1,3,0,5,1,1,19,100,11
2,1,23,0,6,1,1,19,58,11
2,1,19,1,0,0,1,19,67,11
2,1,8,1,0,0,1,19,67,11
2,1,20,1,1,0,1,19,39,9
2,1,18,1,2,0,1,19,67,11
2,1,9,1,2,0,1,19,67,11
2,1,23,0,3,0,1,19,78,11
2,1,22,0,3,0,1,19,100,11
2,1,23,0,3,0,1,19,100,11
2,1,22,0,3,0,1,19,100,11
2,1,20,1,3,0,1,19,39,11
2,1,2,0,4,0,1,19,100,11
2,1,8,1,5,1,1,19,67,11
2,1,19,1,6,1,1,19,67,11
2,1,0,0,6,1,1,19,100,11
2,1,16,1,6,1,1,19,100,11
2,1,16,1,6,1,1,19,100,11
2,1,0,0,6,1,1,19,100,11
2,1,13,1,0,0,1,19,67,11
2,1,23,0,0,0,1,19,100,11
2,1,11,1,1,0,1,19,39,11
2,1,14,1,1,0,1,19,19,11
2,1,22,0,2,0,1,19,91,11
2,1,13,1,3,0,1,19,78,11
2,1,21,0,3,0,1,19,67,11
2,1,20,1,3,0,1,19,67,11
2,1,23,0,4,0,1,19,91,11
2,1,15,1,4,0,1,19,67,11
2,1,20,1,4,0,1,19,67,11
2,1,3,0,5,1,1,19,100,11
2,1,2,0,5,1,1,19,100,11
2,1,8,1,5,1,1,19,75,11
2,1,18,1,5,1,1,19,67,11
2,1,22,0,5,1,1,19,67,11
2,1,14,1,6,1,1,19,67,9
2,1,17,1,0,0,1,19,100,11
2,1,3,0,2,0,1,19,67,11
2,1,9,1,2,0,1,19,75,11
3,2,8,1,2,0,1,19,67,11
3,2,11,1,3,0,1,19,67,11
3,2,18,1,3,0,1,19,67,11
3,2,21,0,5,1,1,19,91,11
3,2,10,1,5,1,1,19,67,11
3,2,0,0,6,1,1,19,67,11
3,2,9,1,1,0,1,19,100,11
3,2,12,1,5,1,1,19,100,11
3,2,11,1,0,0,1,19,67,11
3,2,9,1,1,0,1,19,67,11
3,2,18,1,0,0,1,19,67,11
3,2,11,1,1,0,1,19,67,11
3,2,20,1,0,0,1,19,67,11
3,2,21,0,1,0,1,19,67,9
3,2,0,0,1,0,1,19,75,11
4,2,8,1,3,0,2,19,67,11
4,2,23,0,3,0,2,19,75,11
4,2,23,0,4,0,2,19,19,11
4,2,14,1,5,1,2,19,67,11
4,2,1,0,5,1,2,19,122,11
4,2,20,1,5,1,2,19,67,11
4,2,6,0,6,1,2,19,100,11
4,2,18,1,0,0,2,19,67,11
4,2,10,1,0,0,2,19,115,11
4,2,23,0,1,0,2,19,67,11
4,2,20,1,3,0,2,19,78,11
4,2,19,1,5,1,2,19,75,11
4,2,23,0,5,1,2,19,100,11
4,2,1,0,5,1,2,19,100,11
4,2,1,0,6,1,2,19,67,11
4,2,14,1,0,0,2,19,75,11
4,2,8,1,1,0,2,19,67,11
4,2,0,0,2,0,2,19,75,11
4,2,11,1,2,0,2,19,67,11
4,2,22,0,4,0,2,19,67,11
5,2,20,1,0,0,2,19,67,11
5,2,18,1,1,0,2,19,67,11
5,2,17,1,1,0,2,19,67,11
5,2,8,1,1,0,2,19,19,11
5,2,17,1,2,0,2,19,67,11
5,2,12,1,4,0,2,19,67,11
5,2,12,1,1,0,2,19,67,11
5,2,20,1,2,0,2,19,67,11
5,2,13,1,2,0,2,19,67,11
5,2,18,1,3,0,2,19,48,11
5,2,2,0,3,0,2,19,100,11
5,2,19,1,4,0,2,19,93,11
5,2,17,1,5,1,2,19,100,11
5,2,13,1,5,1,2,19,100,11
5,2,5,0,1,0,2,19,75,11
5,2,11,1,1,0,2,19,67,11
5,2,7,1,1,0,2,19,100,11
5,2,19,1,2,0,2,19,66,11
5,2,12,1,3,0,2,19,115,11
5,2,3,0,6,1,2,19,19,11
5,2,16,1,6,1,2,19,106,11
6,3,13,1,2,0,2,19,67,11
6,3,0,0,3,0,2,19,100,11
6,3,6,0,0,0,2,19,67,11
6,3,22,0,2,0,2,19,67,11
6,3,9,1,3,0,2,19,67,11
6,3,11,1,3,0,2,19,67,11
6,3,17,1,4,0,2,19,67,11
6,3,18,1,5,1,2,19,106,11
6,3,13,1,5,1,2,19,115,11
6,3,2,0,5,1,2,19,100,11
6,3,0,0,6,1,2,19,67,11
6,3,21,0,1,0,2,19,4,11
6,3,1,0,1,0,2,19,100,11
6,3,11,1,4,0,2,19,58,11
6,3,6,0,0,0,2,19,67,11
6,3,23,0,2,0,2,19,78,11
6,3,11,1,6,1,2,19,58,11
7,3,3,0,2,0,3,19,100,11
7,3,18,1,4,0,3,19,67,11
7,3,13,1,4,0,3,19,67,11
7,3,17,1,2,0,3,19,78,11
7,3,19,1,4,0,3,19,67,11
7,3,14,1,4,0,3,19,39,11
7,3,19,1,5,1,3,19,67,11
7,3,21,0,6,1,3,19,78,11
7,3,12,1,0,0,3,19,117,9
7,3,16,1,2,0,3,19,93,11
7,3,12,1,2,0,3,19,67,11
7,3,22,0,3,0,3,19,67,11
7,3,20,1,3,0,3,19,58,11
7,3,17,1,3,0,3,19,130,11
7,3,20,1,6,1,3,19,93,11
7,3,15,1,0,0,3,19,58,8
7,3,15,1,0,0,3,19,58,8
7,3,17,1,1,0,3,19,67,11
7,3,19,1,2,0,3,19,67,11
7,3,10,1,3,0,3,19,78,11
7,3,15,1,4,0,3,19,75,11
7,3,13,1,2,0,3,19,67,11
7,3,4,0,3,0,3,19,19,11
8,3,8,1,5,1,3,19,93,11
8,3,21,0,5,1,3,19,19,11
8,3,13,1,0,0,3,19,67,9
8,3,22,0,3,0,3,19,19,9
8,3,8,1,0,0,3,19,58,11
8,3,15,1,3,0,3,19,100,11
8,3,8,1,0,0,3,19,48,11
8,3,4,0,2,0,3,19,48,11
8,3,19,1,3,0,3,19,67,11
8,3,1,0,3,0,3,19,19,11
8,3,18,1,6,1,3,19,82,11
8,3,14,1,6,1,3,19,67,11
8,3,21,0,0,0,3,19,100,11
8,3,0,0,1,0,3,19,100,9
8,3,17,1,4,0,3,19,93,11
8,3,1,0,6,1,3,19,67,9
8,3,23,0,0,0,3,19,100,11
8,3,21,0,0,0,3,19,67,11
8,3,14,1,0,0,3,19,67,11
9,4,15,1,3,0,3,19,67,11
9,4,11,1,2,0,3,19,67,11
9,4,13,1,3,0,3,19,67,11
9,4,12,1,5,1,3,19,67,11
9,4,17,1,0,0,3,19,93,11
9,4,9,1,0,0,3,19,75,11
9,4,5,0,1,0,3,19,74,9
9,4,23,0,2,0,3,19,67,11
9,4,3,0,3,0,3,19,78,11
9,4,15,1,3,0,3,19,93,11
9,4,12,1,4,0,3,19,67,11
9,4,4,0,5,1,3,19,100,11
9,4,17,1,5,1,3,19,93,11
9,4,22,0,5,1,3,19,100,11
9,4,15,1,3,0,3,19,67,11
9,4,18,1,3,0,3,19,58,11
9,4,13,1,4,0,3,19,93,11
9,4,4,0,4,0,3,19,100,11
10,4,3,0,4,0,4,19,81,11
10,4,2,0,5,1,4,19,58,11
10,4,0,0,6,1,4,19,58,11
10,4,16,1,1,0,4,19,67,11
10,4,18,1,2,0,4,19,67,11
10,4,12,1,2,0,4,19,67,11
10,4,16,1,2,0,4,19,67,11
10,4,16,1,2,0,4,19,100,11
10,4,1,0,3,0,4,19,79,11
10,4,12,1,3,0,4,19,67,11
10,4,11,1,5,1,4,19,19,11
10,4,9,1,1,0,4,19,131,11
10,4,8,1,5,1,4,19,19,11
11,4,4,0,6,1,4,19,100,11
11,4,22,0,1,0,4,19,67,11
11,4,12,1,2,0,4,19,67,11
11,4,13,1,3,0,4,19,30,11
11,4,13,1,6,1,4,19,67,11
11,4,23,0,2,0,4,19,67,11
11,4,13,1,3,0,4,19,67,11
11,4,14,1,5,1,4,19,67,11
11,4,15,1,6,1,4,19,67,11
11,4,10,1,0,0,4,19,75,11
11,4,18,1,1,0,4,19,67,11
11,4,21,0,1,0,4,19,67,11
11,4,17,1,1,0,4,19,67,11
11,4,15,1,3,0,4,19,75,11
11,4,21,0,4,0,4,19,100,11
11,4,20,1,4,0,4,19,67,11
11,4,7,1,6,1,4,19,67,11
11,4,0,0,6,1,4,19,100,11
11,4,13,1,3,0,4,19,67,11
11,4,3,0,3,0,4,19,75,11
11,4,4,0,4,0,4,19,100,11
11,4,9,1,4,0,4,19,67,11
11,4,21,0,6,1,4,19,39,11
12,1,19,1,1,0,4,19,91,11
12,1,7,1,1,0,4,19,67,11
12,1,11,1,1,0,4,19,67,11
12,1,15,1,1,0,4,19,67,11
12,1,10,1,2,0,4,19,28,11
12,1,20,1,3,0,4,19,67,11
12,1,20,1,3,0,4,19,67,11
12,1,15,1,4,0,4,19,67,11
12,1,18,1,4,0,4,19,73,11
12,1,19,1,5,1,4,19,106,11
12,1,8,1,6,1,4,19,67,11
12,1,11,1,0,0,4,19,112,11
12,1,20,1,1,0,4,19,67,11
12,1,23,0,2,0,4,19,90,11
12,1,17,1,6,1,4,19,75,11
12,1,5,0,0,0,4,19,75,11
12,1,15,1,1,0,4,19,100,11
12,1,20,1,2,0,4,19,67,11
12,1,11,1,2,0,4,19,48,11
12,1,17,1,4,0,4,19,67,11
12,1,15,1,4,0,4,19,100,11
12,1,10,1,4,0,4,19,67,11
12,1,20,1,4,0,4,19,67,11
12,1,11,1,5,1,4,19,59,11
12,1,23,0,0,0,4,19,67,11
12,1,19,1,0,0,4,19,67,11
12,1,1,0,0,0,4,19,100,11
12,1,17,1,2,0,4,19,78,11
12,1,19,1,3,0,4,19,100,11
12,1,13,1,3,0,4,19,67,11
12,1,0,0,6,1,4,19,78,11
12,1,0,0,6,1,4,19,78,9
12,1,22,0,0,0,4,19,100,11
12,1,23,0,0,0,4,19,100,11
12,1,22,0,0,0,4,19,100,11
12,1,21,0,1,0,4,19,100,11
12,1,3,0,1,0,4,19,67,9
12,1,21,0,2,0,4,19,67,11
4,2,11,1,6,1,2,19,75,11
8,3,15,1,5,1,3,19,5,11
10,4,22,0,4,0,4,19,19,11
1,1,22,0,3,0,1,19,93,11
1,1,17,1,4,0,1,19,13,8
1,1,17,1,5,1,1,19,106,11
1,1,18,1,6,1,1,19,75,11
1,1,16,1,6,1,1,19,106,11
1,1,22,0,0,0,1,19,78,11
1,1,14,1,0,0,1,19,78,11
1,1,15,1,0,0,1,19,106,11
1,1,9,1,1,0,1,19,46,9
1,1,11,1,2,0,1,19,19,11
1,1,15,1,2,0,1,19,4,11
1,1,14,1,3,0,1,19,93,11
1,1,13,1,4,0,1,19,4,11
1,1,17,1,6,1,1,19,106,11
1,1,6,0,0,0,1,19,106,11
1,1,14,1,1,0,1,19,106,11
1,1,14,1,2,0,1,19,106,11
1,1,16,1,2,0,1,19,93,9
1,1,18,1,3,0,1,19,4,11
1,1,17,1,3,0,1,19,133,11
1,1,20,1,4,0,1,19,67,11
1,1,1,0,4,0,1,19,133,9
1,1,10,1,6,1,1,19,133,11
1,1,18,1,3,0,1,19,14,11
2,1,15,1,1,0,1,19,99,8
2,1,20,1,4,0,1,19,19,11
2,1,18,1,5,1,1,19,121,11
2,1,13,1,6,1,1,19,106,11
2,1,19,1,4,0,1,19,133,11
2,1,16,1,5,1,1,19,4,11
2,1,18,1,5,1,1,19,4,11
2,1,18,1,5,1,1,19,106,11
2,1,10,1,6,1,1,19,39,11
2,1,16,1,5,1,1,19,121,11
3,2,13,1,0,0,1,19,90,11
3,2,21,0,1,0,1,19,93,11
3,2,18,1,1,0,1,19,78,8
3,2,12,1,2,0,1,19,93,11
3,2,21,0,6,1,1,19,67,11
3,2,10,1,1,0,1,19,75,11
3,2,14,1,3,0,1,19,133,11
3,2,12,1,3,0,1,19,19,11
3,2,0,0,4,0,1,19,108,11
3,2,17,1,5,1,1,19,75,11
3,2,8,1,5,1,1,19,106,11
3,2,22,0,1,0,1,19,78,11
3,2,18,1,2,0,1,19,115,11
3,2,21,0,6,1,1,19,78,11
4,2,21,0,2,0,2,19,115,11
4,2,23,0,2,0,2,19,67,11
4,2,16,1,3,0,2,19,106,11
4,2,17,1,5,1,2,19,4,9
4,2,17,1,2,0,2,19,112,11
4,2,16,1,3,0,2,19,4,11
4,2,15,1,0,0,2,19,4,9
4,2,20,1,1,0,2,19,93,11
4,2,22,0,1,0,2,19,4,11
4,2,12,1,1,0,2,19,4,11
4,2,0,0,2,0,2,19,133,11
4,2,9,1,2,0,2,19,93,11
4,2,10,1,2,0,2,19,106,11
4,2,14,1,2,0,2,19,106,9
4,2,17,1,2,0,2,19,106,11
4,2,18,1,5,1,2,19,106,11
4,2,16,1,5,1,2,19,106,11
4,2,20,1,1,0,2,19,106,11
4,2,16,1,1,0,2,19,133,11
4,2,13,1,1,0,2,19,4,9
4,2,17,1,1,0,2,19,133,11
4,2,17,1,3,0,2,19,133,11
4,2,17,1,3,0,2,19,106,11
4,2,13,1,4,0,2,19,23,11
4,2,17,1,4,0,2,19,27,8
4,2,14,1,6,1,2,19,4,11
5,2,15,1,6,1,2,19,19,11
5,2,22,0,1,0,2,19,93,11
5,2,14,1,1,0,2,19,57,11
5,2,23,0,2,0,2,19,19,11
5,2,19,1,2,0,2,19,78,9
5,2,15,1,3,0,2,19,133,11
5,2,0,0,4,0,2,19,93,9
5,2,18,1,3,0,2,19,93,9
5,2,14,1,5,1,2,19,106,11
5,2,1,0,5,1,2,19,93,11
5,2,17,1,5,1,2,19,93,11
5,2,0,0,0,0,2,19,93,11
5,2,16,1,0,0,2,19,133,9
5,2,12,1,1,0,2,19,93,9
5,2,22,0,1,0,2,19,133,11
5,2,18,1,5,1,2,19,93,11
5,2,18,1,4,0,2,19,121,9
5,2,15,1,4,0,2,19,121,9
5,2,15,1,6,1,2,19,4,9
6,3,12,1,1,0,2,19,19,11
6,3,18,1,1,0,2,19,93,11
6,3,13,1,2,0,2,19,133,11
6,3,22,0,2,0,2,19,133,11
6,3,15,1,3,0,2,19,14,11
6,3,20,1,5,1,2,19,133,11
6,3,10,1,2,0,2,19,106,11
6,3,17,1,4,0,2,19,93,9
6,3,22,0,5,1,2,19,106,11
6,3,17,1,6,1,2,19,106,11
6,3,5,0,6,1,2,19,67,11
6,3,17,1,1,0,2,19,93,9
6,3,16,1,2,0,2,19,106,11
6,3,9,1,3,0,2,19,90,9
6,3,1,0,6,1,2,19,114,8
6,3,10,1,0,0,2,19,19,11
6,3,12,1,4,0,2,19,106,11
6,3,19,1,5,1,2,19,14,9
6,3,10,1,0,0,2,19,93,11
6,3,14,1,0,0,2,19,93,11
7,3,6,0,3,0,3,19,19,11
7,3,3,0,3,0,3,19,75,9
7,3,16,1,4,0,3,19,19,11
7,3,16,1,4,0,3,19,106,11
7,3,8,1,5,1,3,19,107,9
7,3,11,1,6,1,3,19,67,11
7,3,22,0,6,1,3,19,93,11
7,3,15,1,6,1,3,19,106,11
7,3,14,1,0,0,3,19,106,11
7,3,13,1,1,0,3,19,93,11
7,3,10,1,2,0,3,19,106,11
7,3,17,1,3,0,3,19,106,11
7,3,10,1,3,0,3,19,79,11
7,3,8,1,3,0,3,19,133,11
7,3,11,1,5,1,3,19,4,11
7,3,22,0,6,1,3,19,106,11
7,3,19,1,6,1,3,19,93,11
7,3,14,1,6,1,3,19,93,11
7,3,23,0,0,0,3,19,93,11
7,3,3,0,0,0,3,19,99,11
7,3,13,1,1,0,3,19,106,11
7,3,17,1,1,0,3,19,4,11
7,3,20,1,1,0,3,19,93,11
7,3,11,1,2,0,3,19,93,11
7,3,14,1,2,0,3,19,93,11
7,3,21,0,2,0,3,19,106,11
7,3,20,1,4,0,3,19,106,11
7,3,9,1,0,0,3,19,78,11
7,3,10,1,1,0,3,19,58,11
7,3,15,1,3,0,3,19,93,11
7,3,9,1,4,0,3,19,93,11
8,3,12,1,2,0,3,19,19,11
8,3,8,1,3,0,3,19,59,11
8,3,18,1,3,0,3,19,78,11
8,3,16,1,3,0,3,19,106,11
8,3,20,1,3,0,3,19,106,11
8,3,20,1,0,0,3,19,133,9
8,3,14,1,3,0,3,19,133,11
8,3,20,1,3,0,3,19,48,11
8,3,13,1,4,0,3,19,106,11
8,3,17,1,1,0,3,19,4,11
8,3,17,1,1,0,3,19,106,11
8,3,4,0,1,0,3,19,133,11
8,3,9,1,1,0,3,19,15,8
8,3,16,1,1,0,3,19,93,11
8,3,12,1,3,0,3,19,106,11
8,3,17,1,3,0,3,19,93,11
8,3,22,0,3,0,3,19,106,11
8,3,20,1,4,0,3,19,4,11
8,3,11,1,5,1,3,19,133,11
8,3,12,1,0,0,3,19,4,11
8,3,0,0,0,0,3,19,93,11
9,4,9,1,3,0,3,19,106,11
9,4,22,0,5,1,3,19,106,11
9,4,10,1,5,1,3,19,93,11
9,4,22,0,6,1,3,19,4,11
9,4,9,1,0,0,3,19,106,11
9,4,8,1,0,0,3,19,106,11
9,4,15,1,2,0,3,19,106,11
9,4,8,1,5,1,3,19,19,11
9,4,18,1,6,1,3,19,106,11
9,4,17,1,5,1,3,19,93,11
9,4,22,0,6,1,3,19,106,11
9,4,8,1,0,0,3,19,78,11
9,4,22,0,4,0,3,19,133,11
9,4,13,1,6,1,3,19,133,11
9,4,21,0,0,0,3,19,133,11
10,4,15,1,3,0,4,19,12,11
10,4,1,0,3,0,4,19,23,8
10,4,18,1,4,0,4,19,106,11
10,4,15,1,4,0,4,19,106,11
10,4,2,0,5,1,4,19,75,11
10,4,18,1,5,1,4,19,93,11
10,4,10,1,6,1,4,19,99,11
10,4,15,1,1,0,4,19,106,11
10,4,17,1,2,0,4,19,93,11
10,4,15,1,3,0,4,19,93,11
10,4,17,1,6,1,4,19,67,11
10,4,23,0,0,0,4,19,93,11
10,4,17,1,2,0,4,19,90,11
10,4,23,0,2,0,4,19,4,11
11,4,15,1,6,1,4,19,133,11
11,4,17,1,2,0,4,19,4,11
11,4,8,1,5,1,4,19,75,11
11,4,0,0,0,0,4,19,78,11
11,4,4,0,1,0,4,19,58,11
11,4,5,0,1,0,4,19,78,9
11,4,14,1,5,1,4,19,78,11
11,4,14,1,5,1,4,19,4,11
11,4,13,1,6,1,4,19,19,11
11,4,19,1,0,0,4,19,46,11
11,4,15,1,2,0,4,19,93,11
11,4,17,1,4,0,4,19,115,11
11,4,13,1,4,0,4,19,78,11
11,4,16,1,5,1,4,19,4,9
11,4,18,1,5,1,4,19,106,11
11,4,14,1,6,1,4,19,106,11
12,1,17,1,6,1,4,19,4,11
12,1,21,0,6,1,4,19,93,11
12,1,16,1,1,0,4,19,4,11
12,1,16,1,1,0,4,19,106,11
12,1,14,1,2,0,4,19,133,11
12,1,11,1,4,0,4,19,106,11
12,1,14,1,1,0,4,19,19,11
12,1,9,1,3,0,4,19,133,11
12,1,22,0,2,0,4,19,39,11
12,1,15,1,3,0,4,19,132,11
12,1,19,1,3,0,4,19,106,11
12,1,20,1,6,1,4,19,4,11
12,1,12,1,2,0,4,19,93,11
12,1,14,1,3,0,4,19,106,11
12,1,21,0,3,0,4,19,78,11
1,1,11,1,3,0,1,19,78,11
1,1,17,1,4,0,1,19,39,11
1,1,16,1,4,0,1,19,39,11
1,1,20,1,6,1,1,19,133,11
1,1,16,1,6,1,1,19,93,11
1,1,20,1,3,0,1,19,78,11
1,1,0,0,4,0,1,19,67,9
1,1,0,0,6,1,1,19,78,11
1,1,2,0,0,0,1,19,4,11
1,1,9,1,2,0,1,19,78,9
1,1,18,1,3,0,1,19,4,11
1,1,15,1,3,0,1,19,4,11
1,1,2,0,6,1,1,19,39,11
1,1,18,1,4,0,1,19,106,11
2,1,9,1,0,0,1,19,4,11
2,1,18,1,2,0,1,19,115,11
2,1,2,0,3,0,1,19,100,11
2,1,15,1,0,0,1,19,100,11
2,1,18,1,1,0,1,19,106,11
2,1,3,0,6,1,1,19,90,11
2,1,20,1,2,0,1,19,78,11
2,1,16,1,5,1,1,19,106,11
2,1,23,0,0,0,1,19,115,11
2,1,23,0,2,0,1,19,106,11
2,1,21,0,5,1,1,19,106,11
3,2,7,1,2,0,1,19,100,11
3,2,14,1,2,0,1,19,106,11
3,2,9,1,5,1,1,19,133,11
3,2,12,1,5,1,1,19,106,11
3,2,7,1,0,0,1,19,78,9
3,2,22,0,0,0,1,19,93,11
3,2,16,1,5,1,1,19,78,9
3,2,3,0,5,1,1,19,100,11
3,2,12,1,0,0,1,19,115,11
3,2,17,1,0,0,1,19,106,11
3,2,2,0,1,0,1,19,23,11
3,2,21,0,1,0,1,19,78,11
4,2,12,1,2,0,2,19,106,11
4,2,11,1,3,0,2,19,106,11
4,2,13,1,5,1,2,19,4,11
4,2,15,1,0,0,2,19,133,11
4,2,16,1,3,0,2,19,106,9
4,2,5,0,6,1,2,19,100,11
4,2,0,0,0,0,2,19,78,11
4,2,16,1,0,0,2,19,133,8
4,2,20,1,4,0,2,19,4,11
4,2,17,1,2,0,2,19,133,11
4,2,12,1,3,0,2,19,106,11
4,2,23,0,3,0,2,19,93,11
4,2,22,0,3,0,2,19,19,9
4,2,13,1,5,1,2,19,93,11
4,2,21,0,0,0,2,19,106,11
4,2,7,1,1,0,2,19,93,11
4,2,18,1,1,0,2,19,93,11
4,2,23,0,1,0,2,19,4,11
4,2,22,0,2,0,2,19,100,11
5,2,13,1,6,1,2,19,93,9
5,2,9,1,0,0,2,19,133,11
5,2,11,1,1,0,2,19,78,9
5,2,16,1,1,0,2,19,14,9
5,2,20,1,2,0,2,19,93,8
5,2,19,1,3,0,2,19,106,11
5,2,18,1,3,0,2,19,106,11
5,2,11,1,6,1,2,19,106,11
5,2,21,0,2,0,2,19,93,11
5,2,19,1,3,0,2,19,4,11
5,2,13,1,0,0,2,19,9,9
5,2,22,0,1,0,2,19,106,11
5,2,14,1,4,0,2,19,106,11
5,2,16,1,4,0,2,19,4,11
6,3,11,1,0,0,2,19,93,9
6,3,15,1,3,0,2,19,50,8
6,3,23,0,5,1,2,19,4,11
6,3,19,1,1,0,2,19,93,11
6,3,13,1,4,0,2,19,93,11
6,3,23,0,5,1,2,19,14,11
6,3,19,1,0,0,2,19,93,11
6,3,14,1,1,0,2,19,48,11
6,3,13,1,1,0,2,19,4,11
6,3,9,1,1,0,2,19,4,9
6,3,18,1,4,0,2,19,106,11
7,3,12,1,4,0,3,19,19,11
7,3,16,1,5,1,3,19,93,8
7,3,12,1,0,0,3,19,106,11
7,3,20,1,1,0,3,19,106,11
7,3,9,1,3,0,3,19,93,11
7,3,13,1,3,0,3,19,106,11
7,3,19,1,3,0,3,19,133,11
7,3,23,0,4,0,3,19,133,11
7,3,17,1,4,0,3,19,106,11
7,3,17,1,2,0,3,19,4,11
7,3,15,1,3,0,3,19,4,8
7,3,16,1,3,0,3,19,106,11
7,3,19,1,6,1,3,19,93,11
7,3,12,1,0,0,3,19,4,11
7,3,10,1,2,0,3,19,4,9
7,3,15,1,4,0,3,19,93,9
7,3,12,1,5,1,3,19,106,11
7,3,15,1,6,1,3,19,106,9
7,3,17,1,0,0,3,19,93,9
7,3,10,1,0,0,3,19,106,11
7,3,10,1,3,0,3,19,78,11
7,3,10,1,4,0,3,19,4,11
8,3,3,0,0,0,3,19,93,11
8,3,11,1,0,0,3,19,106,11
8,3,5,0,1,0,3,19,106,11
8,3,17,1,3,0,3,19,93,11
8,3,12,1,5,1,3,19,133,11
8,3,22,0,6,1,3,19,106,11
8,3,17,1,0,0,3,19,93,11
8,3,11,1,1,0,3,19,78,11
8,3,22,0,5,1,3,19,48,9
8,3,18,1,0,0,3,19,93,11
8,3,17,1,0,0,3,19,4,11
8,3,9,1,0,0,3,19,78,9
9,4,14,1,2,0,3,19,67,11
9,4,9,1,4,0,3,19,39,11
9,4,3,0,0,0,3,19,133,11
9,4,17,1,0,0,3,19,106,11
9,4,7,1,3,0,3,19,75,11
9,4,21,0,4,0,3,19,106,11
9,4,16,1,5,1,3,19,93,11
9,4,18,1,0,0,3,19,106,11
9,4,16,1,0,0,3,19,106,11
9,4,10,1,0,0,3,19,4,11
9,4,19,1,2,0,3,19,106,11
9,4,23,0,5,1,3,19,75,11
9,4,3,0,6,1,3,19,106,11
10,4,21,0,3,0,4,19,106,11
10,4,19,1,1,0,4,19,4,11
10,4,11,1,4,0,4,19,23,11
10,4,11,1,0,0,4,19,78,9
10,4,16,1,2,0,4,19,93,11
10,4,18,1,2,0,4,19,106,11
10,4,15,1,0,0,4,19,78,9
11,4,6,0,6,1,4,19,133,11
11,4,13,1,0,0,4,19,48,11
11,4,21,0,0,0,4,19,39,11
11,4,14,1,2,0,4,19,48,11
11,4,17,1,4,0,4,19,93,11
11,4,22,0,5,1,4,19,106,11
11,4,20,1,6,1,4,19,4,11
11,4,19,1,0,0,4,19,93,9
11,4,8,1,2,0,4,19,23,11
11,4,19,1,3,0,4,19,4,11
11,4,18,1,4,0,4,19,4,11
11,4,19,1,2,0,4,19,115,11
11,4,9,1,4,0,4,19,78,11
11,4,12,1,4,0,4,19,4,11
11,4,3,0,5,1,4,19,103,11
12,1,20,1,2,0,4,19,78,11
12,1,20,1,3,0,4,19,100,11
12,1,5,0,5,1,4,19,106,11
12,1,7,1,1,0,4,19,104,9
12,1,17,1,4,0,4,19,78,11
12,1,14,1,4,0,4,19,78,11
12,1,5,0,5,1,4,19,75,9
12,1,17,1,2,0,4,19,78,11
12,1,17,1,5,1,4,19,106,11
12,1,16,1,5,1,4,19,106,11
12,1,0,0,0,0,4,19,19,11
1,1,21,0,4,0,1,44,58,11
1,1,13,1,4,0,1,44,67,11
1,1,11,1,5,1,1,44,100,11
1,1,10,1,5,1,1,44,19,11
1,1,16,1,0,0,1,44,67,11
1,1,18,1,3,0,1,44,67,11
1,1,4,0,4,0,1,44,100,11
1,1,12,1,6,1,1,44,19,11
1,1,14,1,3,0,1,44,106,11
1,1,23,0,3,0,1,44,90,11
1,1,13,1,0,0,1,44,90,11
1,1,13,1,3,0,1,44,78,11
2,1,10,1,0,0,1,44,100,11
2,1,15,1,1,0,1,44,100,11
2,1,21,0,3,0,1,44,100,11
2,1,20,1,3,0,1,44,100,11
2,1,18,1,3,0,1,44,100,11
2,1,1,0,0,0,1,44,100,11
2,1,15,1,2,0,1,44,100,11
2,1,16,1,3,0,1,44,93,11
3,2,15,1,5,1,1,44,100,11
3,2,14,1,1,0,1,44,93,9
3,2,21,0,1,0,1,44,53,11
3,2,0,0,6,1,1,44,19,11
3,2,18,1,1,0,1,44,106,11
4,2,13,1,3,0,2,44,106,11
4,2,3,0,5,1,2,44,100,11
4,2,20,1,6,1,2,44,75,11
4,2,14,1,1,0,2,44,78,11
4,2,20,1,5,1,2,44,90,11
4,2,0,0,5,1,2,44,106,11
4,2,14,1,6,1,2,44,106,11
4,2,4,0,6,1,2,44,67,11
4,2,1,0,6,1,2,44,67,9
4,2,23,0,6,1,2,44,90,11
4,2,2,0,3,0,2,44,90,11
4,2,2,0,3,0,2,44,90,11
4,2,10,1,3,0,2,44,115,11
4,2,8,1,4,0,2,44,67,11
5,2,22,0,4,0,2,44,67,11
5,2,20,1,0,0,2,44,67,11
5,2,11,1,2,0,2,44,106,11
5,2,19,1,3,0,2,44,90,11
5,2,20,1,3,0,2,44,90,11
5,2,20,1,3,0,2,44,90,11
5,2,10,1,6,1,2,44,65,11
5,2,17,1,2,0,2,44,19,11
5,2,4,0,0,0,2,44,100,11
5,2,21,0,0,0,2,44,106,11
5,2,20,1,2,0,2,44,90,11
5,2,2,0,4,0,2,44,82,11
6,3,1,0,5,1,2,44,78,11
6,3,22,0,6,1,2,44,58,11
6,3,19,1,0,0,2,44,67,11
6,3,14,1,2,0,2,44,93,11
6,3,11,1,3,0,2,44,20,11
6,3,1,0,5,1,2,44,81,11
6,3,17,1,2,0,2,44,84,11
6,3,19,1,2,0,2,44,8,11
6,3,5,0,6,1,2,44,90,11
6,3,14,1,4,0,2,44,100,11
6,3,23,0,5,1,2,44,106,11
7,3,1,0,4,0,3,44,75,8
7,3,14,1,1,0,3,44,133,11
7,3,17,1,5,1,3,44,90,9
7,3,1,0,6,1,3,44,19,11
7,3,12,1,3,0,3,44,14,11
7,3,13,1,4,0,3,44,67,11
7,3,19,1,4,0,3,44,93,11
8,3,3,0,5,1,3,44,78,11
8,3,0,0,4,0,3,44,115,11
8,3,12,1,6,1,3,44,67,11
8,3,20,1,2,0,3,44,106,11
8,3,18,1,5,1,3,44,19,11
8,3,14,1,5,1,3,44,67,11
9,4,6,0,1,0,3,44,100,11
9,4,5,0,4,0,3,44,100,11
9,4,12,1,4,0,3,44,25,9
9,4,5,0,6,1,3,44,106,11
9,4,4,0,5,1,3,44,100,11
9,4,6,0,5,1,3,44,100,11
9,4,4,0,2,0,3,44,106,11
9,4,20,1,5,1,3,44,48,11
9,4,4,0,3,0,3,44,100,11
9,4,5,0,3,0,3,44,100,11
10,4,18,1,1,0,4,44,106,11
10,4,23,0,4,0,4,44,106,11
10,4,1,0,6,1,4,44,67,11
10,4,3,0,6,1,4,44,100,11
10,4,17,1,2,0,4,44,58,11
11,4,17,1,1,0,4,44,4,11
11,4,2,0,4,0,4,44,19,11
11,4,12,1,4,0,4,44,106,11
11,4,15,1,0,0,4,44,67,11
11,4,10,1,2,0,4,44,25,11
11,4,14,1,5,1,4,44,19,9
11,4,19,1,5,1,4,44,78,11
11,4,10,1,4,0,4,44,67,11
11,4,0,0,5,1,4,44,19,11
12,1,12,1,5,1,4,44,78,11
12,1,14,1,6,1,4,44,39,11
12,1,23,0,3,0,4,44,78,11
12,1,12,1,6,1,4,44,100,11
12,1,4,0,1,0,4,44,100,11
12,1,15,1,5,1,4,44,100,11
12,1,19,1,5,1,4,44,100,11
12,1,12,1,1,0,4,44,100,11
12,1,1,0,4,0,4,44,69,11
12,1,20,1,1,0,4,44,90,11
12,1,4,0,2,0,4,44,78,11
12,1,12,1,3,0,4,44,90,11
1,1,23,0,2,0,1,44,78,11
1,1,20,1,3,0,1,44,90,11
3,2,18,1,0,0,1,44,100,11
3,2,12,1,2,0,1,44,39,11
5,2,14,1,4,0,2,44,24,9
6,3,4,0,4,0,2,44,46,11
7,3,17,1,6,1,3,44,106,11
7,3,20,1,1,0,3,44,75,11
8,3,17,1,3,0,3,44,84,11
9,4,16,1,1,0,3,44,75,9
10,4,15,1,1,0,4,44,93,11
10,4,11,1,6,1,4,44,90,11
11,4,10,1,3,0,4,44,25,11
11,4,17,1,2,0,4,44,25,11
11,4,16,1,0,0,4,44,19,11
12,1,20,1,0,0,4,44,133,11
12,1,19,1,3,0,4,44,78,9
1,1,11,1,4,0,1,44,78,11
1,1,15,1,2,0,1,44,25,11
1,1,1,0,5,1,1,44,78,11
1,1,18,1,6,1,1,44,100,11
1,1,18,1,2,0,1,44,67,11
1,1,16,1,4,0,1,44,90,11
2,1,3,0,2,0,1,44,75,11
2,1,15,1,3,0,1,44,75,11
2,1,17,1,5,1,1,44,93,11
2,1,20,1,0,0,1,44,39,11
2,1,12,1,3,0,1,44,65,9
2,1,12,1,4,0,1,44,65,9
3,2,17,1,2,0,1,44,39,9
4,2,11,1,4,0,2,44,39,11
4,2,17,1,0,0,2,44,75,11
4,2,12,1,3,0,2,44,39,11
4,2,12,1,6,1,2,44,106,11
5,2,7,1,6,1,2,44,48,11
5,2,19,1,1,0,2,44,78,11
6,3,17,1,1,0,2,44,75,11
6,3,14,1,4,0,2,44,78,11
7,3,13,1,6,1,3,44,93,11
7,3,20,1,4,0,3,44,115,11
7,3,23,0,4,0,3,44,78,11
8,3,16,1,2,0,3,44,115,11
11,4,10,1,0,0,4,44,19,9
12,1,22,0,1,0,4,44,90,11
12,1,10,1,3,0,4,44,90,11
12,1,18,1,2,0,4,44,90,11
12,1,14,1,5,1,4,44,90,11
12,1,9,1,3,0,4,44,78,11
12,1,18,1,3,0,4,44,67,11
1,1,12,1,5,1,1,44,78,11
3,2,15,1,5,1,1,44,93,11
7,3,16,1,3,0,3,44,93,11
8,3,17,1,5,1,3,44,93,9
8,3,11,1,1,0,3,44,78,11
10,4,16,1,4,0,4,44,78,11
6,3,14,1,5,1,2,44,19,11
8,3,5,0,0,0,3,44,58,9
8,3,15,1,2,0,3,44,19,11
8,3,14,1,0,0,3,44,90,11
9,4,13,1,6,1,3,44,78,9
11,4,16,1,6,1,4,44,78,11
11,4,17,1,6,1,4,44,93,11
12,1,5,0,6,1,4,44,90,9
1,1,22,0,4,0,1,44,78,11
1,1,15,1,4,0,1,44,78,11
2,1,12,1,2,0,1,44,14,11
2,1,19,1,3,0,1,44,106,11
3,2,9,1,4,0,1,44,78,11
5,2,19,1,4,0,2,44,115,11
5,2,18,1,4,0,2,44,93,9
6,3,11,1,6,1,2,44,93,11
7,3,14,1,2,0,3,44,13,8
7,3,19,1,4,0,3,44,115,11
7,3,16,1,2,0,3,44,75,9
8,3,6,0,1,0,3,44,114,11
8,3,10,1,0,0,3,44,93,11
11,4,17,1,5,1,4,44,78,11
11,4,15,1,5,1,4,44,78,11
12,1,21,0,2,0,4,44,78,9
1,1,7,1,2,0,1,49,23,11
2,1,20,1,4,0,1,49,78,11
2,1,21,0,5,1,1,49,69,11
3,2,10,1,4,0,1,49,39,11
4,2,8,1,3,0,2,49,75,11
5,2,8,1,6,1,2,49,75,11
6,3,14,1,6,1,2,49,67,11
6,3,18,1,6,1,2,49,75,11
6,3,14,1,2,0,2,49,21,11
7,3,7,1,4,0,3,49,65,11
7,3,18,1,5,1,3,49,67,11
7,3,21,0,1,0,3,49,110,11
8,3,11,1,5,1,3,49,19,11
8,3,17,1,3,0,3,49,67,11
8,3,0,0,0,0,3,49,78,11
8,3,14,1,1,0,3,49,106,11
8,3,12,1,2,0,3,49,93,11
9,4,5,0,6,1,3,49,39,11
9,4,18,1,0,0,3,49,93,11
9,4,20,1,0,0,3,49,14,11
10,4,12,1,2,0,4,49,19,11
11,4,17,1,2,0,4,49,93,11
11,4,15,1,0,0,4,49,93,11
11,4,10,1,4,0,4,49,19,11
11,4,22,0,2,0,4,49,58,11
12,1,17,1,4,0,4,49,39,11
12,1,16,1,0,0,4,49,75,11
12,1,20,1,2,0,4,49,133,11
12,1,14,1,6,1,4,49,78,9
11,4,18,1,2,0,4,49,13,11
12,1,14,1,1,0,4,49,93,11
1,1,5,0,5,1,1,49,19,11
2,1,1,0,1,0,1,49,78,11
3,2,13,1,0,0,1,49,14,11
4,2,9,1,6,1,2,49,75,11
6,3,21,0,2,0,2,49,115,11
7,3,23,0,4,0,3,49,75,11
8,3,15,1,0,0,3,49,123,11
8,3,14,1,2,0,3,49,19,11
10,4,12,1,5,1,4,49,78,11
10,4,9,1,1,0,4,49,19,11
10,4,17,1,2,0,4,49,106,11
12,1,2,0,4,0,4,49,93,11
12,1,23,0,1,0,4,49,115,11
12,1,18,1,3,0,4,49,93,11
12,1,6,0,3,0,4,49,39,11
1,1,13,1,2,0,1,49,67,9
1,1,19,1,6,1,1,49,133,9
2,1,13,1,6,1,1,49,133,11
2,1,22,0,6,1,1,49,115,11
2,1,9,1,2,0,1,49,133,11
4,2,13,1,2,0,2,49,39,11
4,2,21,0,0,0,2,49,133,11
4,2,7,1,2,0,2,49,106,11
4,2,14,1,2,0,2,49,106,11
4,2,13,1,4,0,2,49,4,11
4,2,16,1,4,0,2,49,93,11
4,2,20,1,6,1,2,49,106,11
5,2,21,0,1,0,2,49,133,11
5,2,21,0,1,0,2,49,106,11
5,2,0,0,3,0,2,49,93,11
5,2,10,1,6,1,2,49,93,11
5,2,22,0,2,0,2,49,133,11
5,2,23,0,2,0,2,49,106,11
5,2,13,1,3,0,2,49,4,11
5,2,21,0,4,0,2,49,133,11
5,2,21,0,4,0,2,49,93,9
5,2,16,1,0,0,2,49,106,11
5,2,15,1,3,0,2,49,39,11
5,2,0,0,6,1,2,49,93,11
5,2,21,0,2,0,2,49,93,11
5,2,10,1,5,1,2,49,67,11
6,3,17,1,1,0,2,49,90,11
6,3,18,1,6,1,2,49,106,11
6,3,18,1,0,0,2,49,106,11
6,3,17,1,3,0,2,49,93,11
7,3,17,1,1,0,3,49,93,11
7,3,20,1,2,0,3,49,133,11
8,3,13,1,5,1,3,49,93,11
8,3,6,0,3,0,3,49,90,11
8,3,16,1,5,1,3,49,19,11
10,4,21,0,5,1,4,49,106,11
11,4,12,1,0,0,4,49,106,11
11,4,5,0,2,0,4,49,101,11
11,4,9,1,1,0,4,49,65,9
11,4,13,1,1,0,4,49,19,9
11,4,18,1,5,1,4,49,133,11
12,1,16,1,2,0,4,49,93,11
12,1,14,1,3,0,4,49,133,11
12,1,17,1,4,0,4,49,133,11
12,1,4,0,3,0,4,49,78,9
12,1,16,1,2,0,4,49,133,11
1,1,6,0,1,0,1,49,75,11
1,1,12,1,4,0,1,49,75,11
3,2,6,0,5,1,1,49,112,9
4,2,2,0,0,0,2,49,19,11
6,3,19,1,2,0,2,49,93,11
6,3,12,1,6,1,2,49,115,11
8,3,1,0,3,0,3,49,59,9
10,4,15,1,4,0,4,49,48,11
11,4,20,1,6,1,4,49,52,11
12,1,16,1,4,0,4,49,13,11
12,1,20,1,1,0,4,49,69,11
12,1,11,1,2,0,4,49,67,11
1,1,12,1,3,0,1,49,78,9
1,1,0,0,5,1,1,49,133,11
1,1,16,1,5,1,1,49,90,11
1,1,17,1,1,0,1,49,39,11
2,1,11,1,6,1,1,49,39,11
2,1,22,0,5,1,1,49,39,11
3,2,20,1,1,0,1,49,115,11
3,2,17,1,2,0,1,49,78,11
3,2,15,1,4,0,1,49,90,11
3,2,23,0,1,0,1,49,133,11
4,2,12,1,5,1,2,49,39,11
6,3,15,1,5,1,2,49,78,11
7,3,23,0,3,0,3,49,106,11
8,3,6,0,6,1,3,49,106,11
9,4,13,1,1,0,3,49,19,11
10,4,17,1,5,1,4,49,115,11
11,4,11,1,3,0,4,49,47,9
12,1,6,0,3,0,4,49,78,9
1,1,13,1,3,0,1,26,78,11
1,1,17,1,3,0,1,26,78,11
1,1,19,1,1,0,1,26,39,11
1,1,22,0,5,1,1,26,78,9
1,1,1,0,1,0,1,26,78,11
2,1,1,0,3,0,1,26,67,11
2,1,21,0,2,0,1,26,100,11
2,1,19,1,1,0,1,26,100,11
2,1,17,1,3,0,1,26,14,11
2,1,20,1,5,1,1,26,67,11
3,2,0,0,6,1,1,26,87,11
3,2,16,1,5,1,1,26,67,11
3,2,12,1,3,0,1,26,106,11
3,2,13,1,1,0,1,26,106,11
3,2,12,1,4,0,1,26,100,11
3,2,5,0,5,1,1,26,78,11
3,2,5,0,3,0,1,26,75,11
3,2,21,0,6,1,1,26,67,11
4,2,11,1,5,1,2,26,106,11
4,2,16,1,6,1,2,26,78,11
4,2,9,1,2,0,2,26,75,11
4,2,0,0,3,0,2,26,78,9
4,2,12,1,3,0,2,26,115,11
4,2,11,1,6,1,2,26,106,11
4,2,14,1,6,1,2,26,106,11
4,2,13,1,1,0,2,26,78,11
4,2,18,1,3,0,2,26,78,11
5,2,9,1,2,0,2,26,4,11
5,2,14,1,3,0,2,26,106,11
5,2,22,0,5,1,2,26,100,11
5,2,5,0,0,0,2,26,100,11
5,2,15,1,0,0,2,26,4,11
5,2,13,1,6,1,2,26,4,11
6,3,22,0,1,0,2,26,93,11
6,3,11,1,2,0,2,26,93,11
6,3,22,0,2,0,2,26,67,11
6,3,17,1,3,0,2,26,93,11
6,3,14,1,4,0,2,26,75,8
6,3,15,1,1,0,2,26,2,11
6,3,12,1,4,0,2,26,106,11
6,3,15,1,5,1,2,26,75,11
6,3,22,0,0,0,2,26,75,11
6,3,18,1,3,0,2,26,19,11
6,3,16,1,4,0,2,26,75,8
7,3,19,1,3,0,3,26,93,11
7,3,12,1,0,0,3,26,75,11
7,3,15,1,1,0,3,26,93,11
7,3,11,1,6,1,3,26,78,11
9,4,7,1,0,0,3,26,67,11
9,4,3,0,3,0,3,26,67,11
9,4,16,1,6,1,3,26,93,11
10,4,9,1,6,1,4,26,106,11
10,4,20,1,6,1,4,26,106,11
10,4,20,1,3,0,4,26,75,11
11,4,0,0,1,0,4,26,93,11
11,4,17,1,2,0,4,26,106,11
11,4,12,1,0,0,4,26,75,11
11,4,17,1,0,0,4,26,78,11
12,1,10,1,1,0,4,26,78,11
12,1,15,1,6,1,4,26,78,11
12,1,6,0,2,0,4,26,67,11
12,1,4,0,3,0,4,26,75,11
12,1,12,1,3,0,4,26,75,11
12,1,18,1,4,0,4,26,100,11
12,1,7,1,3,0,4,26,106,11
12,1,13,1,4,0,4,26,78,11
12,1,15,1,5,1,4,26,75,11
12,1,18,1,2,0,4,26,67,11
12,1,23,0,3,0,4,26,78,11
1,1,14,1,6,1,1,26,39,11
1,1,13,1,0,0,1,26,13,11
1,1,1,0,1,0,1,26,78,11
2,1,2,0,1,0,1,26,100,11
2,1,11,1,3,0,1,26,78,11
2,1,11,1,4,0,1,26,39,11
2,1,21,0,3,0,1,26,78,8
3,2,10,1,4,0,1,26,39,11
3,2,7,1,5,1,1,26,39,11
7,3,21,0,4,0,3,26,133,11
8,3,21,0,5,1,3,26,133,11
9,4,7,1,6,1,3,26,39,11
11,4,16,1,0,0,4,26,78,8
12,1,23,0,5,1,4,26,78,11
12,1,2,0,0,0,4,26,13,9
6,3,20,1,3,0,2,26,115,11
6,3,19,1,4,0,2,26,4,11
8,3,20,1,1,0,3,26,115,11
11,4,15,1,6,1,4,26,46,9
11,4,10,1,0,0,4,26,46,11
1,1,8,1,1,0,1,26,14,11
2,1,14,1,0,0,1,26,78,11
3,2,21,0,4,0,1,26,39,11
3,2,12,1,6,1,1,26,78,11
4,2,17,1,2,0,2,26,114,11
5,2,11,1,0,0,2,26,93,11
5,2,20,1,5,1,2,26,93,11
6,3,17,1,1,0,2,26,93,11
7,3,3,0,0,0,3,26,132,11
8,3,23,0,6,1,3,26,114,11
8,3,0,0,1,0,3,26,93,11
9,4,13,1,2,0,3,26,14,11
10,4,22,0,1,0,4,26,14,11
11,4,22,0,1,0,4,26,19,11
11,4,5,0,6,1,4,26,93,11
11,4,20,1,0,0,4,26,14,9
12,1,16,1,1,0,4,26,93,11
1,1,7,1,5,1,1,38,78,11
1,1,20,1,1,0,1,38,39,11
1,1,15,1,3,0,1,38,78,11
1,1,23,0,4,0,1,38,78,11
2,1,18,1,1,0,1,38,86,11
2,1,23,0,2,0,1,38,87,8
3,2,22,0,3,0,1,38,67,11
3,2,19,1,4,0,1,38,14,11
3,2,15,1,1,0,1,38,115,11
5,2,11,1,6,1,2,38,67,11
5,2,20,1,0,0,2,38,114,11
5,2,11,1,2,0,2,38,4,11
5,2,20,1,2,0,2,38,66,11
5,2,14,1,5,1,2,38,67,11
6,3,18,1,3,0,2,38,82,11
6,3,11,1,5,1,2,38,39,11
7,3,20,1,1,0,3,38,23,9
7,3,12,1,5,1,3,38,67,11
7,3,11,1,0,0,3,38,67,11
7,3,11,1,4,0,3,38,115,11
8,3,17,1,5,1,3,38,1,11
8,3,0,0,4,0,3,38,100,11
9,4,23,0,6,1,3,38,115,11
10,4,8,1,3,0,4,38,67,11
10,4,6,0,0,0,4,38,90,11
10,4,7,1,2,0,4,38,100,11
11,4,14,1,4,0,4,38,75,11
11,4,21,0,5,1,4,38,75,11
12,1,8,1,2,0,4,38,75,9
12,1,2,0,4,0,4,38,90,11
12,1,11,1,4,0,4,38,78,11
12,1,16,1,5,1,4,38,93,11
1,1,7,1,3,0,1,38,78,9
1,1,11,1,4,0,1,38,67,11
1,1,20,1,4,0,1,38,100,11
1,1,14,1,5,1,1,38,19,11
1,1,22,0,5,1,1,38,78,11
1,1,16,1,6,1,1,38,78,9
1,1,11,1,1,0,1,38,19,11
1,1,17,1,4,0,1,38,100,11
1,1,12,1,2,0,1,38,78,11
1,1,20,1,2,0,1,38,13,8
1,1,17,1,3,0,1,38,20,11
2,1,0,0,2,0,1,38,100,11
2,1,14,1,5,1,1,38,99,8
2,1,5,0,4,0,1,38,19,11
3,2,17,1,3,0,1,38,67,11
3,2,23,0,4,0,1,38,100,11
3,2,13,1,5,1,1,38,39,11
3,2,13,1,6,1,1,38,58,11
3,2,20,1,6,1,1,38,19,11
4,2,19,1,3,0,2,38,78,8
4,2,21,0,3,0,2,38,39,11
4,2,21,0,5,1,2,38,19,11
4,2,15,1,0,0,2,38,67,11
4,2,19,1,0,0,2,38,78,11
4,2,7,1,5,1,2,38,19,11
4,2,21,0,1,0,2,38,19,11
4,2,21,0,3,0,2,38,67,11
5,2,15,1,5,1,2,38,93,11
5,2,12,1,6,1,2,38,39,11
6,3,20,1,1,0,2,38,39,11
6,3,21,0,5,1,2,38,48,11
7,3,16,1,3,0,3,38,48,11
7,3,0,0,6,1,3,38,25,11
7,3,13,1,6,1,3,38,93,11
8,3,19,1,4,0,3,38,19,11
8,3,22,0,5,1,3,38,131,11
8,3,13,1,1,0,3,38,13,11
8,3,0,0,2,0,3,38,106,11
8,3,12,1,1,0,3,38,93,11
8,3,11,1,2,0,3,38,84,11
8,3,22,0,3,0,3,38,48,11
8,3,13,1,5,1,3,38,39,11
8,3,15,1,5,1,3,38,75,8
8,3,9,1,0,0,3,38,39,8
9,4,12,1,1,0,3,38,19,11
9,4,1,0,4,0,3,38,19,11
9,4,6,0,4,0,3,38,20,11
9,4,19,1,0,0,3,38,115,11
9,4,22,0,4,0,3,38,19,11
10,4,23,0,4,0,4,38,100,11
10,4,16,1,5,1,4,38,20,11
11,4,17,1,3,0,4,38,20,11
11,4,13,1,4,0,4,38,78,11
11,4,13,1,5,1,4,38,89,8
11,4,11,1,3,0,4,38,25,11
12,1,0,0,2,0,4,38,39,11
12,1,22,0,4,0,4,38,117,11
12,1,20,1,0,0,4,38,19,11
12,1,3,0,0,0,4,38,52,11
12,1,16,1,6,1,4,38,13,11
12,1,15,1,0,0,4,38,14,11
1,1,17,1,4,0,1,38,19,11
1,1,21,0,6,1,1,38,67,11
1,1,15,1,5,1,1,38,67,11
1,1,16,1,4,0,1,38,93,9
2,1,6,0,4,0,1,38,100,11
3,2,4,0,6,1,1,38,66,11
3,2,10,1,0,0,1,38,100,11
4,2,10,1,2,0,2,38,23,8
4,2,11,1,3,0,2,38,115,11
4,2,10,1,5,1,2,38,90,9
4,2,20,1,1,0,2,38,58,11
5,2,10,1,4,0,2,38,78,11
5,2,23,0,2,0,2,38,25,9
5,2,7,1,6,1,2,38,19,9
6,3,23,0,1,0,2,38,90,11
7,3,21,0,0,0,3,38,13,11
7,3,18,1,1,0,3,38,132,11
7,3,13,1,3,0,3,38,78,11
8,3,20,1,0,0,3,38,115,11
9,4,21,0,6,1,3,38,58,11
10,4,0,0,6,1,4,38,69,11
11,4,16,1,6,1,4,38,13,9
11,4,18,1,2,0,4,38,67,11
11,4,22,0,6,1,4,38,100,11
12,1,19,1,1,0,4,38,19,11
12,1,4,0,5,1,4,38,67,11
12,1,21,0,5,1,4,38,78,11
12,1,22,0,5,1,4,38,78,8
12,1,15,1,2,0,4,38,81,8
12,1,22,0,2,0,4,38,87,11
1,1,11,1,3,0,1,16,90,11
1,1,17,1,3,0,1,16,67,11
1,1,16,1,4,0,1,16,67,11
1,1,2,0,5,1,1,16,67,11
1,1,20,1,0,0,1,16,67,11
1,1,14,1,1,0,1,16,106,11
1,1,7,1,5,1,1,16,39,9
1,1,18,1,5,1,1,16,78,11
1,1,15,1,0,0,1,16,78,11
1,1,17,1,4,0,1,16,67,11
2,1,22,0,1,0,1,16,19,11
2,1,18,1,3,0,1,16,39,11
2,1,11,1,4,0,1,16,14,11
2,1,18,1,5,1,1,16,14,8
2,1,1,0,6,1,1,16,78,11
2,1,0,0,6,1,1,16,67,11
3,2,7,1,0,0,1,16,82,11
3,2,23,0,0,0,1,16,67,11
3,2,13,1,2,0,1,16,106,11
3,2,14,1,2,0,1,16,67,11
3,2,10,1,5,1,1,16,15,11
3,2,3,0,0,0,1,16,75,11
4,2,13,1,5,1,2,16,14,11
4,2,7,1,6,1,2,16,67,11
4,2,20,1,3,0,2,16,58,11
4,2,12,1,1,0,2,16,23,9
4,2,12,1,0,0,2,16,90,11
4,2,13,1,0,0,2,16,14,11
4,2,20,1,0,0,2,16,1,11
5,2,17,1,4,0,2,16,75,9
5,2,14,1,0,0,2,16,82,8
5,2,10,1,6,1,2,16,13,11
6,3,17,1,0,0,2,16,75,11
6,3,1,0,3,0,2,16,75,11
6,3,11,1,5,1,2,16,75,11
6,3,7,1,2,0,2,16,19,11
7,3,21,0,5,1,3,16,93,11
7,3,23,0,2,0,3,16,39,11
7,3,6,0,5,1,3,16,19,11
7,3,20,1,6,1,3,16,67,11
7,3,17,1,5,1,3,16,19,11
7,3,19,1,2,0,3,16,93,11
8,3,23,0,5,1,3,16,19,11
8,3,9,1,0,0,3,16,90,11
8,3,12,1,5,1,3,16,115,11
8,3,9,1,3,0,3,16,78,9
9,4,20,1,5,1,3,16,67,11
9,4,2,0,2,0,3,16,78,11
9,4,21,0,6,1,3,16,79,11
9,4,10,1,3,0,3,16,90,11
9,4,15,1,4,0,3,16,81,11
10,4,4,0,4,0,4,16,48,11
10,4,13,1,6,1,4,16,69,11
11,4,4,0,6,1,4,16,19,11
11,4,19,1,4,0,4,16,78,9
11,4,21,0,4,0,4,16,75,11
11,4,12,1,5,1,4,16,78,11
11,4,18,1,6,1,4,16,78,11
11,4,7,1,2,0,4,16,67,11
11,4,17,1,2,0,4,16,67,11
11,4,0,0,4,0,4,16,48,11
12,1,6,0,1,0,4,16,78,11
12,1,21,0,6,1,4,16,67,11
12,1,19,1,1,0,4,16,67,11
12,1,23,0,1,0,4,16,78,11
12,1,5,0,2,0,4,16,90,11
12,1,0,0,3,0,4,16,58,11
12,1,14,1,4,0,4,16,67,11
12,1,21,0,5,1,4,16,78,11
12,1,1,0,6,1,4,16,90,11
12,1,9,1,0,0,4,16,78,11
12,1,12,1,0,0,4,16,14,11
12,1,6,0,1,0,4,16,67,11
12,1,13,1,1,0,4,16,78,9
4,2,10,1,1,0,2,16,78,9
7,3,13,1,6,1,3,16,14,11
10,4,12,1,0,0,4,16,19,9
12,1,8,1,1,0,4,16,78,11
12,1,14,1,2,0,4,16,106,11
1,1,8,1,3,0,1,16,39,11
1,1,13,1,3,0,1,16,78,8
1,1,14,1,1,0,1,16,106,11
1,1,16,1,1,0,1,16,14,8
2,1,19,1,2,0,1,16,39,11
2,1,12,1,1,0,1,16,78,11
2,1,18,1,4,0,1,16,33,11
2,1,8,1,5,1,1,16,39,8
3,2,11,1,6,1,1,16,88,11
3,2,23,0,1,0,1,16,39,11
3,2,8,1,6,1,1,16,39,9
4,2,7,1,5,1,2,16,78,11
4,2,18,1,3,0,2,16,93,9
5,2,9,1,5,1,2,16,93,11
5,2,12,1,6,1,2,16,19,11
5,2,17,1,4,0,2,16,19,11
6,3,17,1,2,0,2,16,106,11
6,3,11,1,3,0,2,16,41,11
6,3,16,1,0,0,2,16,113,11
7,3,1,0,4,0,3,16,19,11
7,3,17,1,5,1,3,16,115,11
8,3,21,0,3,0,3,16,23,8
8,3,19,1,2,0,3,16,39,9
8,3,9,1,3,0,3,16,4,11
8,3,10,1,0,0,3,16,93,11
8,3,1,0,3,0,3,16,81,11
9,4,12,1,6,1,3,16,78,11
10,4,2,0,6,1,4,16,100,11
10,4,6,0,5,1,4,16,133,11
10,4,6,0,1,0,4,16,46,11
11,4,6,0,5,1,4,16,78,11
12,1,10,1,2,0,4,16,39,11
12,1,21,0,2,0,4,16,67,11
1,1,19,1,2,0,1,16,100,11
1,1,7,1,4,0,1,16,100,11
1,1,15,1,2,0,1,16,78,11
1,1,5,0,4,0,1,16,39,11
2,1,9,1,3,0,1,16,90,11
3,2,15,1,0,0,1,16,90,11
4,2,16,1,3,0,2,16,114,11
4,2,1,0,0,0,2,16,75,11
4,2,13,1,1,0,2,16,133,11
4,2,20,1,1,0,2,16,133,9
5,2,10,1,5,1,2,16,75,11
5,2,11,1,1,0,2,16,39,9
6,3,16,1,2,0,2,16,23,9
6,3,11,1,3,0,2,16,93,11
6,3,16,1,6,1,2,16,106,11
6,3,16,1,2,0,2,16,115,11
6,3,20,1,4,0,2,16,14,11
7,3,11,1,3,0,3,16,19,9
7,3,13,1,0,0,3,16,114,11
7,3,8,1,1,0,3,16,14,11
7,3,5,0,1,0,3,16,19,11
8,3,15,1,6,1,3,16,19,11
8,3,17,1,3,0,3,16,93,11
8,3,15,1,3,0,3,16,78,11
8,3,5,0,4,0,3,16,19,11
8,3,23,0,4,0,3,16,78,11
8,3,11,1,6,1,3,16,90,11
9,4,1,0,0,0,3,16,19,11
10,4,11,1,5,1,4,16,19,11
11,4,14,1,2,0,4,16,25,11
11,4,18,1,2,0,4,16,25,11
11,4,19,1,4,0,4,16,78,11
11,4,22,0,3,0,4,16,100,11
11,4,17,1,0,0,4,16,90,11
12,1,5,0,1,0,4,16,19,9
12,1,21,0,6,1,4,16,67,11
12,1,12,1,0,0,4,16,39,11
12,1,14,1,0,0,4,16,90,11
12,1,11,1,1,0,4,16,90,11
12,1,3,0,0,0,4,16,39,8
12,1,15,1,4,0,4,16,90,11
12,1,16,1,4,0,4,16,90,11
1,1,17,1,3,0,1,39,78,11
1,1,17,1,5,1,1,39,78,11
1,1,5,0,6,1,1,39,90,11
1,1,16,1,1,0,1,39,39,9
1,1,17,1,2,0,1,39,78,9
1,1,1,0,3,0,1,39,133,11
1,1,13,1,3,0,1,39,93,11
1,1,13,1,6,1,1,39,129,9
1,1,22,0,6,1,1,39,78,11
1,1,11,1,0,0,1,39,67,11
1,1,14,1,0,0,1,39,82,11
1,1,5,0,2,0,1,39,133,11
1,1,16,1,2,0,1,39,78,11
1,1,12,1,3,0,1,39,93,11
1,1,15,1,4,0,1,39,93,11
1,1,17,1,6,1,1,39,24,8
1,1,3,0,2,0,1,39,67,8
1,1,9,1,5,1,1,39,67,11
1,1,18,1,5,1,1,39,67,11
2,1,12,1,3,0,1,39,67,11
2,1,13,1,4,0,1,39,115,11
2,1,16,1,2,0,1,39,67,11
2,1,19,1,2,0,1,39,78,11
2,1,18,1,6,1,1,39,67,11
2,1,20,1,2,0,1,39,67,11
2,1,21,0,5,1,1,39,133,11
2,1,18,1,2,0,1,39,58,9
2,1,23,0,3,0,1,39,87,11
3,2,12,1,2,0,1,39,93,11
3,2,13,1,3,0,1,39,93,11
3,2,17,1,4,0,1,39,58,11
3,2,13,1,5,1,1,39,78,11
3,2,20,1,0,0,1,39,67,11
4,2,17,1,2,0,2,39,93,11
4,2,0,0,5,1,2,39,39,11
4,2,21,0,0,0,2,39,39,11
4,2,20,1,2,0,2,39,67,11
4,2,18,1,4,0,2,39,67,11
4,2,11,1,6,1,2,39,67,11
4,2,20,1,6,1,2,39,67,9
4,2,9,1,1,0,2,39,67,11
4,2,13,1,1,0,2,39,39,11
4,2,8,1,2,0,2,39,78,11
4,2,16,1,2,0,2,39,67,11
4,2,18,1,2,0,2,39,117,11
4,2,20,1,2,0,2,39,106,11
4,2,20,1,2,0,2,39,133,11
4,2,12,1,3,0,2,39,106,11
4,2,4,0,4,0,2,39,133,11
4,2,10,1,2,0,2,39,67,11
4,2,13,1,2,0,2,39,42,9
4,2,19,1,4,0,2,39,106,11
4,2,5,0,5,1,2,39,135,11
4,2,13,1,6,1,2,39,78,11
4,2,15,1,0,0,2,39,118,9
4,2,22,0,1,0,2,39,133,11
5,2,22,0,2,0,2,39,67,11
5,2,13,1,6,1,2,39,67,11
5,2,18,1,2,0,2,39,67,11
5,2,15,1,5,1,2,39,106,11
5,2,8,1,1,0,2,39,106,11
5,2,14,1,4,0,2,39,78,11
5,2,17,1,0,0,2,39,106,11
6,3,5,0,0,0,2,39,133,11
6,3,23,0,1,0,2,39,78,11
6,3,17,1,3,0,2,39,19,11
6,3,6,0,4,0,2,39,75,11
6,3,15,1,6,1,2,39,14,9
6,3,3,0,0,0,2,39,133,11
6,3,3,0,0,0,2,39,133,11
6,3,14,1,1,0,2,39,93,11
6,3,19,1,1,0,2,39,78,11
6,3,5,0,4,0,2,39,100,11
6,3,5,0,5,1,2,39,133,11
6,3,22,0,5,1,2,39,106,11
6,3,18,1,0,0,2,39,90,11
6,3,17,1,3,0,2,39,39,11
6,3,1,0,6,1,2,39,93,11
7,3,9,1,4,0,3,39,48,11
7,3,1,0,0,0,3,39,133,11
7,3,13,1,2,0,3,39,120,11
7,3,1,0,4,0,3,39,133,11
7,3,3,0,4,0,3,39,133,11
7,3,5,0,5,1,3,39,90,11
7,3,2,0,6,1,3,39,39,11
7,3,9,1,2,0,3,39,93,11
7,3,10,1,3,0,3,39,93,11
7,3,19,1,4,0,3,39,78,9
7,3,11,1,5,1,3,39,93,11
7,3,17,1,6,1,3,39,14,8
7,3,20,1,5,1,3,39,93,11
7,3,14,1,6,1,3,39,39,11
7,3,23,0,6,1,3,39,93,11
7,3,19,1,0,0,3,39,133,11
7,3,16,1,2,0,3,39,106,11
7,3,10,1,3,0,3,39,93,11
7,3,21,0,3,0,3,39,106,11
8,3,23,0,0,0,3,39,75,11
8,3,13,1,2,0,3,39,39,11
8,3,8,1,3,0,3,39,19,11
8,3,3,0,4,0,3,39,19,11
8,3,16,1,1,0,3,39,93,11
8,3,12,1,3,0,3,39,90,11
8,3,11,1,4,0,3,39,93,11
8,3,4,0,5,1,3,39,87,11
8,3,16,1,0,0,3,39,106,11
8,3,11,1,2,0,3,39,19,11
8,3,13,1,6,1,3,39,4,11
8,3,12,1,0,0,3,39,39,11
8,3,13,1,1,0,3,39,23,11
8,3,13,1,1,0,3,39,90,11
8,3,1,0,4,0,3,39,93,11
8,3,18,1,5,1,3,39,106,11
8,3,18,1,5,1,3,39,133,11
8,3,11,1,0,0,3,39,106,11
8,3,20,1,0,0,3,39,23,11
9,4,16,1,1,0,3,39,78,11
9,4,14,1,6,1,3,39,93,11
9,4,19,1,1,0,3,39,131,11
9,4,21,0,2,0,3,39,39,9
9,4,16,1,0,0,3,39,92,11
9,4,10,1,1,0,3,39,106,11
9,4,11,1,2,0,3,39,106,11
9,4,11,1,4,0,3,39,93,11
9,4,23,0,4,0,3,39,133,11
10,4,20,1,0,0,4,39,75,8
10,4,12,1,2,0,4,39,93,11
10,4,19,1,6,1,4,39,25,11
10,4,19,1,6,1,4,39,67,11
10,4,12,1,2,0,4,39,106,11
10,4,12,1,4,0,4,39,23,9
11,4,6,0,6,1,4,39,90,11
11,4,5,0,6,1,4,39,90,11
11,4,5,0,6,1,4,39,90,11
11,4,9,1,2,0,4,39,78,11
11,4,13,1,5,1,4,39,90,11
11,4,18,1,1,0,4,39,67,11
11,4,23,0,5,1,4,39,52,11
11,4,18,1,6,1,4,39,78,11
11,4,16,1,2,0,4,39,67,11
11,4,21,0,4,0,4,39,93,11
12,1,19,1,2,0,4,39,60,11
12,1,19,1,5,1,4,39,39,11
12,1,15,1,5,1,4,39,39,11
12,1,15,1,6,1,4,39,13,9
12,1,12,1,0,0,4,39,67,11
12,1,17,1,3,0,4,39,133,11
12,1,17,1,6,1,4,39,67,11
12,1,3,0,6,1,4,39,39,8
12,1,18,1,6,1,4,39,67,11
12,1,18,1,6,1,4,39,67,11
12,1,6,0,0,0,4,39,23,11
12,1,8,1,2,0,4,39,13,11
2,1,21,0,4,0,1,39,39,11
2,1,18,1,6,1,1,39,19,11
3,2,17,1,0,0,1,39,19,11
5,2,19,1,3,0,2,39,115,11
5,2,9,1,3,0,2,39,115,11
6,3,20,1,3,0,2,39,115,11
6,3,16,1,1,0,2,39,4,9
7,3,15,1,1,0,3,39,93,11
7,3,9,1,2,0,3,39,114,9
7,3,7,1,4,0,3,39,106,11
8,3,9,1,6,1,3,39,106,11
8,3,5,0,1,0,3,39,106,11
9,4,17,1,2,0,3,39,106,11
9,4,8,1,5,1,3,39,13,11
11,4,19,1,4,0,4,39,26,11
12,1,19,1,5,1,4,39,133,11
12,1,15,1,2,0,4,39,106,11
12,1,12,1,1,0,4,39,106,11
4,2,17,1,5,1,2,39,78,11
6,3,6,0,0,0,2,39,106,11
8,3,2,0,5,1,3,39,106,11
8,3,10,1,5,1,3,39,19,11
8,3,4,0,6,1,3,39,19,11
9,4,20,1,0,0,3,39,75,11
10,4,12,1,3,0,4,39,90,11
11,4,17,1,2,0,4,39,67,11
11,4,19,1,4,0,4,39,67,11
12,1,9,1,6,1,4,39,19,11
12,1,19,1,5,1,4,39,93,9
12,1,13,1,2,0,4,39,78,11
1,1,9,1,3,0,1,27,78,9
1,1,4,0,4,0,1,27,39,11
1,1,23,0,4,0,1,27,39,9
1,1,16,1,5,1,1,27,78,11
1,1,18,1,4,0,1,27,78,11
1,1,15,1,5,1,1,27,90,9
1,1,10,1,4,0,1,27,39,9
1,1,19,1,3,0,1,27,100,11
2,1,5,0,1,0,1,27,90,11
2,1,2,0,2,0,1,27,39,8
3,2,5,0,0,0,1,27,100,11
3,2,19,1,3,0,1,27,100,11
3,2,3,0,3,0,1,27,100,11
3,2,12,1,6,1,1,27,90,11
4,2,5,0,3,0,2,27,90,11
4,2,13,1,3,0,2,27,67,11
4,2,10,1,6,1,2,27,13,8
4,2,18,1,0,0,2,27,100,11
4,2,11,1,4,0,2,27,93,11
4,2,22,0,6,1,2,27,78,11
5,2,18,1,1,0,2,27,68,11
5,2,4,0,3,0,2,27,19,11
5,2,4,0,3,0,2,27,100,11
5,2,12,1,4,0,2,27,93,11
5,2,7,1,3,0,2,27,130,11
6,3,12,1,0,0,2,27,67,11
6,3,10,1,1,0,2,27,67,11
6,3,7,1,2,0,2,27,59,11
7,3,10,1,6,1,3,27,67,11
8,3,13,1,3,0,3,27,4,8
8,3,13,1,1,0,3,27,93,11
8,3,2,0,6,1,3,27,48,11
9,4,14,1,4,0,3,27,87,11
11,4,4,0,6,1,4,27,100,11
11,4,15,1,4,0,4,27,39,11
11,4,16,1,4,0,4,27,93,11
11,4,18,1,2,0,4,27,90,11
11,4,15,1,6,1,4,27,39,8
12,1,9,1,1,0,4,27,39,11
12,1,0,0,4,0,4,27,4,11
12,1,13,1,6,1,4,27,93,11
12,1,9,1,1,0,4,27,112,8
12,1,16,1,1,0,4,27,78,11
12,1,13,1,3,0,4,27,67,11
12,1,23,0,5,1,4,27,14,11
12,1,20,1,5,1,4,27,67,11
12,1,12,1,5,1,4,27,67,11
12,1,19,1,6,1,4,27,67,11
12,1,5,0,0,0,4,27,90,11
1,1,17,1,4,0,1,27,78,11
1,1,19,1,6,1,1,27,93,11
1,1,14,1,0,0,1,27,67,11
2,1,17,1,6,1,1,27,39,8
3,2,15,1,3,0,1,27,78,11
7,3,13,1,4,0,3,27,93,11
9,4,0,0,6,1,3,27,14,8
1,1,6,0,4,0,1,27,78,11
1,1,15,1,1,0,1,27,78,11
3,2,14,1,6,1,1,27,39,11
5,2,1,0,6,1,2,27,90,11
5,2,10,1,1,0,2,27,78,9
6,3,7,1,2,0,2,27,68,11
9,4,15,1,6,1,3,27,39,11
9,4,18,1,6,1,3,27,27,11
11,4,13,1,1,0,4,27,13,8
12,1,20,1,2,0,4,27,78,11
12,1,11,1,6,1,4,27,19,11
1,1,10,1,3,0,1,27,78,11
1,1,15,1,6,1,1,27,4,8
1,1,5,0,0,0,1,27,13,11
2,1,7,1,0,0,1,27,39,11
2,1,15,1,0,0,1,27,19,11
2,1,13,1,5,1,1,27,67,11
2,1,16,1,6,1,1,27,93,8
2,1,7,1,0,0,1,27,19,11
2,1,9,1,0,0,1,27,19,11
2,1,11,1,4,0,1,27,110,11
4,2,21,0,4,0,2,27,67,11
5,2,10,1,4,0,2,27,118,11
5,2,17,1,4,0,2,27,76,11
5,2,8,1,6,1,2,27,14,11
5,2,11,1,2,0,2,27,14,11
5,2,19,1,4,0,2,27,67,11
5,2,0,0,3,0,2,27,67,11
5,2,22,0,4,0,2,27,67,11
5,2,3,0,0,0,2,27,90,11
5,2,11,1,0,0,2,27,39,11
5,2,13,1,5,1,2,27,14,8
6,3,21,0,3,0,2,27,67,11
6,3,1,0,4,0,2,27,13,8
6,3,16,1,2,0,2,27,93,11
7,3,14,1,6,1,3,27,93,11
8,3,7,1,5,1,3,27,82,11
8,3,16,1,5,1,3,27,78,11
8,3,15,1,4,0,3,27,78,11
8,3,11,1,0,0,3,27,67,11
8,3,11,1,1,0,3,27,67,11
8,3,10,1,0,0,3,27,93,11
8,3,13,1,0,0,3,27,19,11
9,4,19,1,0,0,3,27,67,11
9,4,11,1,1,0,3,27,14,11
10,4,15,1,0,0,4,27,78,11
10,4,8,1,0,0,4,27,19,11
10,4,17,1,5,1,4,27,75,11
11,4,4,0,0,0,4,27,90,11
12,1,21,0,2,0,4,27,14,11
12,1,21,0,4,0,4,27,39,11
12,1,10,1,0,0,4,27,14,11
12,1,23,0,3,0,4,27,82,11
1,1,22,0,4,0,1,47,78,11
1,1,20,1,5,1,1,47,78,11
1,1,9,1,6,1,1,47,78,11
2,1,9,1,2,0,1,47,69,11
2,1,14,1,3,0,1,47,78,11
2,1,9,1,0,0,1,47,78,11
2,1,16,1,0,0,1,47,13,11
2,1,7,1,3,0,1,47,13,11
2,1,4,0,2,0,1,47,100,11
3,2,3,0,2,0,1,47,100,11
4,2,20,1,4,0,2,47,78,11
4,2,15,1,5,1,2,47,13,11
4,2,17,1,5,1,2,47,67,11
4,2,17,1,2,0,2,47,100,11
4,2,0,0,4,0,2,47,69,11
4,2,0,0,4,0,2,47,69,11
4,2,0,0,4,0,2,47,69,11
4,2,0,0,5,1,2,47,69,11
5,2,22,0,4,0,2,47,14,11
6,3,23,0,1,0,2,47,103,11
7,3,0,0,4,0,3,47,103,11
7,3,10,1,4,0,3,47,75,11
7,3,4,0,1,0,3,47,19,11
9,4,21,0,1,0,3,47,39,11
9,4,22,0,6,1,3,47,13,8
11,4,10,1,3,0,4,47,106,11
11,4,6,0,5,1,4,47,100,11
11,4,20,1,4,0,4,47,100,11
12,1,21,0,1,0,4,47,100,11
12,1,5,0,2,0,4,47,100,11
12,1,14,1,1,0,4,47,100,11
12,1,6,0,4,0,4,47,100,11
12,1,11,1,4,0,4,47,39,11
12,1,14,1,3,0,4,47,67,11
12,1,7,1,1,0,4,47,100,11
12,1,11,1,2,0,4,47,93,11
12,1,19,1,2,0,4,47,99,11
12,1,14,1,6,1,4,47,78,11
12,1,8,1,2,0,4,47,78,11
12,1,15,1,2,0,4,47,93,11
1,1,17,1,3,0,1,23,78,11
1,1,21,0,3,0,1,23,67,11
1,1,21,0,4,0,1,23,69,11
1,1,5,0,5,1,1,23,78,11
1,1,19,1,6,1,1,23,90,11
1,1,15,1,2,0,1,23,78,11
1,1,16,1,2,0,1,23,39,11
1,1,1,0,3,0,1,23,90,11
1,1,18,1,0,0,1,23,78,11
1,1,12,1,2,0,1,23,67,11
1,1,15,1,3,0,1,23,93,11
1,1,15,1,4,0,1,23,39,11
1,1,10,1,5,1,1,23,78,11
1,1,17,1,5,1,1,23,100,11
1,1,17,1,5,1,1,23,87,11
1,1,18,1,5,1,1,23,100,11
1,1,23,0,5,1,1,23,39,11
1,1,11,1,0,0,1,23,67,11
1,1,12,1,3,0,1,23,90,11
1,1,17,1,3,0,1,23,78,11
1,1,11,1,5,1,1,23,78,11
1,1,21,0,0,0,1,23,100,11
1,1,16,1,2,0,1,23,100,11
1,1,12,1,4,0,1,23,67,11
1,1,21,0,4,0,1,23,100,11
2,1,20,1,1,0,1,23,78,11
2,1,17,1,6,1,1,23,78,11
2,1,19,1,0,0,1,23,78,11
2,1,15,1,2,0,1,23,67,11
2,1,10,1,5,1,1,23,30,11
2,1,10,1,2,0,1,23,39,11
2,1,7,1,3,0,1,23,100,11
2,1,14,1,3,0,1,23,78,11
2,1,17,1,5,1,1,23,14,11
2,1,19,1,5,1,1,23,90,11
2,1,23,0,2,0,1,23,131,11
2,1,5,0,5,1,1,23,78,11
3,2,10,1,1,0,1,23,39,11
3,2,17,1,1,0,1,23,93,11
3,2,20,1,1,0,1,23,57,11
3,2,22,0,5,1,1,23,39,11
3,2,14,1,1,0,1,23,67,11
3,2,1,0,3,0,1,23,90,11
3,2,13,1,6,1,1,23,67,11
3,2,15,1,6,1,1,23,106,11
3,2,19,1,0,0,1,23,67,11
3,2,17,1,1,0,1,23,67,11
3,2,18,1,2,0,1,23,93,11
3,2,20,1,3,0,1,23,78,11
3,2,20,1,4,0,1,23,78,11
3,2,21,0,4,0,1,23,39,11
4,2,14,1,4,0,2,23,106,11
4,2,19,1,6,1,2,23,78,11
4,2,17,1,5,1,2,23,67,11
4,2,21,0,1,0,2,23,78,11
4,2,16,1,1,0,2,23,25,11
4,2,12,1,0,0,2,23,106,11
4,2,21,0,1,0,2,23,67,11
5,2,21,0,4,0,2,23,19,11
5,2,18,1,0,0,2,23,93,11
5,2,11,1,3,0,2,23,78,11
5,2,12,1,1,0,2,23,58,11
5,2,15,1,2,0,2,23,67,11
5,2,4,0,5,1,2,23,100,11
5,2,19,1,6,1,2,23,115,11
6,3,10,1,5,1,2,23,93,11
7,3,6,0,0,0,3,23,39,11
7,3,13,1,3,0,3,23,93,11
7,3,11,1,5,1,3,23,39,11
7,3,20,1,5,1,3,23,93,11
8,3,13,1,0,0,3,23,93,11
9,4,10,1,2,0,3,23,93,11
9,4,0,0,3,0,3,23,39,11
10,4,8,1,3,0,4,23,67,11
10,4,18,1,5,1,4,23,93,11
10,4,19,1,5,1,4,23,106,11
10,4,19,1,6,1,4,23,78,11
10,4,18,1,0,0,4,23,81,11
10,4,23,0,3,0,4,23,67,11
11,4,14,1,6,1,4,23,93,11
11,4,14,1,0,0,4,23,75,11
11,4,9,1,1,0,4,23,67,11
11,4,18,1,2,0,4,23,67,11
11,4,12,1,2,0,4,23,67,11
11,4,15,1,5,1,4,23,106,11
11,4,18,1,3,0,4,23,67,11
12,1,12,1,3,0,4,23,106,11
12,1,14,1,3,0,4,23,78,11
12,1,16,1,5,1,4,23,78,11
12,1,11,1,6,1,4,23,90,11
12,1,15,1,0,0,4,23,90,11
12,1,18,1,2,0,4,23,67,11
12,1,17,1,3,0,4,23,78,11
12,1,22,0,3,0,4,23,106,11
12,1,22,0,6,1,4,23,39,11
12,1,0,0,1,0,4,23,106,11
12,1,15,1,3,0,4,23,39,11
12,1,18,1,3,0,4,23,19,11
12,1,21,0,3,0,4,23,106,11
2,1,20,1,5,1,1,23,39,11
4,2,21,0,5,1,2,23,78,11
1,1,23,0,1,0,1,23,90,11
1,1,2,0,0,0,1,23,90,11
1,1,16,1,4,0,1,23,106,11
2,1,7,1,0,0,1,23,39,11
2,1,17,1,2,0,1,23,78,11
2,1,15,1,5,1,1,23,106,11
2,1,14,1,6,1,1,23,39,11
2,1,4,0,0,0,1,23,109,11
2,1,14,1,0,0,1,23,106,11
2,1,2,0,2,0,1,23,109,11
2,1,15,1,2,0,1,23,93,11
2,1,17,1,4,0,1,23,106,11
2,1,15,1,5,1,1,23,106,11
2,1,5,0,6,1,1,23,90,11
2,1,7,1,1,0,1,23,78,11
3,2,22,0,0,0,1,23,109,11
3,2,19,1,2,0,1,23,39,11
3,2,13,1,6,1,1,23,93,11
3,2,22,0,3,0,1,23,59,11
4,2,11,1,3,0,2,23,78,11
6,3,12,1,6,1,2,23,78,11
6,3,18,1,2,0,2,23,106,11
6,3,20,1,2,0,2,23,106,11
6,3,12,1,1,0,2,23,114,11
7,3,20,1,1,0,3,23,106,11
7,3,22,0,4,0,3,23,82,11
10,4,20,1,4,0,4,23,93,11
11,4,7,1,4,0,4,23,39,11
11,4,11,1,6,1,4,23,78,11
12,1,8,1,4,0,4,23,106,11
12,1,18,1,5,1,4,23,39,11
12,1,6,0,1,0,4,23,91,11
12,1,11,1,6,1,4,23,90,11
12,1,14,1,6,1,4,23,78,11
12,1,3,0,0,0,4,23,78,11
12,1,15,1,2,0,4,23,79,11
12,1,17,1,2,0,4,23,93,11
12,1,13,1,3,0,4,23,114,11
12,1,12,1,4,0,4,23,39,11
12,1,14,1,0,0,4,23,106,11
1,1,20,1,4,0,1,8,101,11
1,1,23,0,5,1,1,8,100,11
1,1,21,0,6,1,1,8,67,11
1,1,5,0,0,0,1,8,23,11
1,1,12,1,0,0,1,8,100,11
1,1,10,1,4,0,1,8,90,11
1,1,16,1,2,0,1,8,93,11
1,1,22,0,2,0,1,8,100,11
1,1,14,1,5,1,1,8,106,11
1,1,8,1,4,0,1,8,100,11
2,1,17,1,3,0,1,8,100,11
2,1,12,1,1,0,1,8,100,11
2,1,3,0,3,0,1,8,100,11
2,1,18,1,2,0,1,8,78,11
2,1,11,1,5,1,1,8,115,11
2,1,13,1,5,1,1,8,39,9
3,2,14,1,2,0,1,8,106,11
3,2,18,1,2,0,1,8,100,11
3,2,17,1,6,1,1,8,78,11
3,2,13,1,6,1,1,8,93,11
3,2,11,1,1,0,1,8,100,11
3,2,12,1,3,0,1,8,100,11
3,2,18,1,1,0,1,8,100,11
4,2,4,0,6,1,2,8,88,9
4,2,13,1,6,1,2,8,67,11
4,2,9,1,3,0,2,8,100,11
4,2,18,1,3,0,2,8,67,11
4,2,16,1,5,1,2,8,67,11
4,2,19,1,5,1,2,8,100,11
4,2,13,1,1,0,2,8,82,11
4,2,3,0,5,1,2,8,100,11
5,2,4,0,4,0,2,8,100,11
5,2,3,0,5,1,2,8,100,11
6,3,4,0,0,0,2,8,100,11
6,3,13,1,0,0,2,8,93,11
7,3,13,1,0,0,3,8,103,11
7,3,18,1,4,0,3,8,25,11
7,3,15,1,1,0,3,8,19,11
7,3,8,1,4,0,3,8,65,11
8,3,17,1,3,0,3,8,39,11
8,3,14,1,0,0,3,8,78,11
9,4,13,1,4,0,3,8,93,11
10,4,13,1,3,0,4,8,19,11
10,4,0,0,5,1,4,8,39,11
11,4,23,0,6,1,4,8,100,11
12,1,4,0,1,0,4,8,100,11
12,1,21,0,5,1,4,8,78,8
12,1,9,1,3,0,4,8,100,11
12,1,10,1,3,0,4,8,93,11
12,1,12,1,4,0,4,8,19,11
12,1,13,1,5,1,4,8,93,11
12,1,21,0,5,1,4,8,100,11
12,1,18,1,1,0,4,8,100,11
4,2,15,1,2,0,2,8,39,8
5,2,13,1,6,1,2,8,93,8
6,3,8,1,0,0,2,8,78,11
7,3,13,1,4,0,3,8,93,11
11,4,23,0,0,0,4,8,14,11
12,1,14,1,5,1,4,8,103,11
6,3,18,1,0,0,2,8,93,11
1,1,20,1,3,0,1,20,78,11
1,1,1,0,3,0,1,20,67,11
1,1,19,1,4,0,1,20,90,11
1,1,11,1,4,0,1,20,133,11
1,1,15,1,5,1,1,20,67,11
1,1,14,1,5,1,1,20,106,11
1,1,18,1,6,1,1,20,39,11
1,1,12,1,6,1,1,20,39,11
1,1,17,1,1,0,1,20,100,11
1,1,18,1,1,0,1,20,39,11
1,1,22,0,1,0,1,20,100,11
1,1,20,1,2,0,1,20,48,11
1,1,12,1,2,0,1,20,133,11
1,1,13,1,3,0,1,20,39,11
1,1,15,1,3,0,1,20,100,11
1,1,17,1,3,0,1,20,106,11
1,1,13,1,3,0,1,20,133,11
1,1,17,1,4,0,1,20,133,11
1,1,18,1,4,0,1,20,78,11
1,1,12,1,5,1,1,20,133,11
1,1,16,1,5,1,1,20,87,11
1,1,19,1,5,1,1,20,133,11
1,1,13,1,6,1,1,20,106,11
1,1,18,1,6,1,1,20,4,11
1,1,0,0,0,0,1,20,133,11
1,1,15,1,1,0,1,20,93,11
1,1,20,1,2,0,1,20,133,11
1,1,16,1,4,0,1,20,93,11
1,1,19,1,4,0,1,20,78,11
1,1,15,1,6,1,1,20,106,11
1,1,10,1,6,1,1,20,67,11
1,1,1,0,0,0,1,20,106,11
1,1,8,1,1,0,1,20,133,11
1,1,14,1,1,0,1,20,39,8
1,1,21,0,1,0,1,20,133,11
1,1,14,1,4,0,1,20,39,11
1,1,21,0,2,0,1,20,133,11
1,1,16,1,4,0,1,20,39,11
2,1,17,1,0,0,1,20,133,11
2,1,9,1,1,0,1,20,133,11
2,1,15,1,1,0,1,20,69,11
2,1,17,1,1,0,1,20,67,11
2,1,21,0,3,0,1,20,69,11
2,1,18,1,5,1,1,20,106,11
2,1,16,1,5,1,1,20,39,11
2,1,19,1,6,1,1,20,133,11
2,1,20,1,0,0,1,20,67,11
2,1,17,1,0,0,1,20,19,11
2,1,20,1,1,0,1,20,78,11
2,1,15,1,1,0,1,20,78,8
2,1,22,0,1,0,1,20,67,9
2,1,0,0,1,0,1,20,78,11
2,1,9,1,1,0,1,20,66,8
2,1,1,0,4,0,1,20,133,11
2,1,1,0,4,0,1,20,133,11
2,1,18,1,4,0,1,20,78,11
2,1,19,1,5,1,1,20,4,11
2,1,18,1,6,1,1,20,93,11
2,1,9,1,0,0,1,20,39,11
2,1,20,1,0,0,1,20,133,11
2,1,18,1,0,0,1,20,133,11
2,1,14,1,0,0,1,20,106,11
2,1,12,1,1,0,1,20,106,11
2,1,10,1,2,0,1,20,106,11
2,1,9,1,2,0,1,20,78,11
2,1,23,0,2,0,1,20,78,11
2,1,16,1,2,0,1,20,93,11
2,1,16,1,2,0,1,20,133,11
2,1,13,1,4,0,1,20,106,11
2,1,14,1,4,0,1,20,106,11
2,1,12,1,5,1,1,20,133,11
2,1,15,1,5,1,1,20,133,11
2,1,16,1,5,1,1,20,133,11
2,1,1,0,1,0,1,20,133,11
2,1,17,1,4,0,1,20,133,11
2,1,19,1,4,0,1,20,39,11
3,2,20,1,6,1,1,20,133,11
3,2,13,1,0,0,1,20,133,11
3,2,18,1,0,0,1,20,133,11
3,2,15,1,5,1,1,20,133,11
3,2,17,1,6,1,1,20,133,11
3,2,22,0,0,0,1,20,133,11
3,2,0,0,1,0,1,20,133,11
3,2,22,0,3,0,1,20,39,11
3,2,14,1,5,1,1,20,133,11
3,2,18,1,5,1,1,20,133,11
3,2,17,1,6,1,1,20,106,11
3,2,13,1,6,1,1,20,106,11
3,2,13,1,0,0,1,20,93,11
3,2,19,1,0,0,1,20,93,11
3,2,13,1,2,0,1,20,106,11
3,2,13,1,5,1,1,20,106,11
3,2,21,0,5,1,1,20,39,11
3,2,20,1,6,1,1,20,133,11
3,2,22,0,0,0,1,20,133,11
3,2,21,0,4,0,1,20,133,11
3,2,11,1,6,1,1,20,133,11
4,2,19,1,2,0,2,20,133,11
4,2,17,1,4,0,2,20,93,11
4,2,14,1,5,1,2,20,93,11
4,2,19,1,5,1,2,20,67,11
4,2,21,0,5,1,2,20,106,11
4,2,23,0,5,1,2,20,78,11
4,2,15,1,1,0,2,20,39,11
4,2,10,1,2,0,2,20,67,11
4,2,7,1,3,0,2,20,133,11
4,2,19,1,3,0,2,20,106,11
4,2,14,1,3,0,2,20,106,11
4,2,14,1,0,0,2,20,133,11
4,2,18,1,0,0,2,20,106,11
4,2,13,1,0,0,2,20,39,11
4,2,0,0,1,0,2,20,39,9
4,2,4,0,2,0,2,20,131,11
4,2,17,1,3,0,2,20,93,11
4,2,10,1,4,0,2,20,106,11
4,2,21,0,1,0,2,20,93,11
4,2,13,1,2,0,2,20,93,11
4,2,12,1,0,0,2,20,67,11
4,2,12,1,1,0,2,20,106,11
5,2,20,1,4,0,2,20,93,11
5,2,20,1,4,0,2,20,39,11
5,2,20,1,5,1,2,20,93,11
5,2,21,0,6,1,2,20,39,11
5,2,19,1,6,1,2,20,39,11
5,2,11,1,6,1,2,20,39,11
5,2,6,0,6,1,2,20,133,11
5,2,8,1,0,0,2,20,133,11
5,2,19,1,4,0,2,20,133,11
5,2,22,0,4,0,2,20,133,11
5,2,4,0,5,1,2,20,133,11
5,2,4,0,5,1,2,20,133,11
5,2,17,1,6,1,2,20,19,9
5,2,11,1,0,0,2,20,23,11
5,2,16,1,5,1,2,20,133,11
5,2,16,1,5,1,2,20,103,11
5,2,11,1,0,0,2,20,48,11
5,2,13,1,0,0,2,20,100,11
6,3,16,1,3,0,2,20,133,11
6,3,15,1,0,0,2,20,93,11
6,3,21,0,5,1,2,20,19,11
6,3,3,0,5,1,2,20,133,11
6,3,21,0,4,0,2,20,106,11
7,3,18,1,4,0,3,20,106,11
7,3,22,0,0,0,3,20,106,11
7,3,12,1,6,1,3,20,93,11
7,3,10,1,2,0,3,20,133,11
7,3,14,1,2,0,3,20,106,11
7,3,15,1,5,1,3,20,106,11
7,3,13,1,6,1,3,20,93,11
7,3,18,1,0,0,3,20,93,11
7,3,16,1,2,0,3,20,14,11
7,3,9,1,4,0,3,20,106,11
7,3,15,1,4,0,3,20,78,9
7,3,7,1,5,1,3,20,115,11
7,3,22,0,0,0,3,20,106,11
7,3,6,0,4,0,3,20,106,9
8,3,10,1,5,1,3,20,19,11
8,3,11,1,5,1,3,20,46,11
8,3,15,1,1,0,3,20,19,9
8,3,14,1,2,0,3,20,106,11
8,3,11,1,1,0,3,20,133,11
8,3,18,1,2,0,3,20,118,11
8,3,9,1,5,1,3,20,75,11
8,3,15,1,5,1,3,20,106,11
9,4,6,0,1,0,3,20,93,11
9,4,5,0,6,1,3,20,133,11
10,4,5,0,6,1,4,20,48,11
10,4,21,0,0,0,4,20,19,9
10,4,20,1,4,0,4,20,39,11
11,4,13,1,6,1,4,20,93,11
11,4,5,0,0,0,4,20,78,11
11,4,22,0,0,0,4,20,133,11
11,4,21,0,2,0,4,20,67,11
11,4,22,0,4,0,4,20,133,11
11,4,21,0,4,0,4,20,133,11
11,4,3,0,6,1,4,20,112,11
11,4,2,0,0,0,4,20,133,11
11,4,8,1,0,0,4,20,67,11
11,4,3,0,1,0,4,20,100,11
11,4,18,1,1,0,4,20,133,11
11,4,13,1,2,0,4,20,106,11
11,4,17,1,3,0,4,20,106,11
11,4,11,1,6,1,4,20,14,9
11,4,18,1,2,0,4,20,133,11
11,4,19,1,3,0,4,20,106,11
11,4,9,1,4,0,4,20,67,11
11,4,11,1,6,1,4,20,133,11
11,4,21,0,6,1,4,20,133,11
11,4,20,1,0,0,4,20,133,11
12,1,11,1,1,0,4,20,133,11
12,1,19,1,1,0,4,20,133,11
12,1,13,1,4,0,4,20,133,11
12,1,0,0,5,1,4,20,133,11
12,1,19,1,5,1,4,20,67,11
12,1,12,1,6,1,4,20,133,11
12,1,12,1,6,1,4,20,133,11
12,1,15,1,6,1,4,20,133,11
12,1,19,1,0,0,4,20,67,11
12,1,18,1,3,0,4,20,133,11
12,1,17,1,5,1,4,20,39,11
12,1,19,1,0,0,4,20,39,11
12,1,20,1,2,0,4,20,133,11
12,1,12,1,3,0,4,20,96,11
12,1,18,1,3,0,4,20,93,11
12,1,19,1,3,0,4,20,100,11
12,1,10,1,4,0,4,20,133,11
12,1,19,1,4,0,4,20,78,8
12,1,18,1,5,1,4,20,106,11
12,1,19,1,6,1,4,20,106,11
12,1,11,1,0,0,4,20,106,11
12,1,0,0,1,0,4,20,106,9
12,1,19,1,1,0,4,20,78,11
12,1,20,1,1,0,4,20,39,11
12,1,11,1,2,0,4,20,78,11
12,1,17,1,3,0,4,20,106,11
12,1,12,1,3,0,4,20,133,11
12,1,16,1,5,1,4,20,133,11
12,1,21,0,5,1,4,20,78,11
12,1,20,1,6,1,4,20,39,11
12,1,22,0,6,1,4,20,78,11
12,1,0,0,0,0,4,20,78,11
12,1,16,1,0,0,4,20,133,11
1,1,18,1,6,1,1,20,75,9
1,1,14,1,0,0,1,20,39,11
1,1,19,1,6,1,1,20,78,11
3,2,2,0,5,1,1,20,19,11
8,3,21,0,1,0,3,20,106,11
11,4,18,1,5,1,4,20,39,11
11,4,15,1,5,1,4,20,39,11
12,1,16,1,4,0,4,20,93,11
12,1,9,1,3,0,4,20,78,11
9,4,10,1,0,0,3,20,106,11
12,1,18,1,1,0,4,20,130,11
1,1,2,0,5,1,1,20,90,11
1,1,19,1,5,1,1,20,100,11
1,1,18,1,5,1,1,20,67,11
1,1,17,1,5,1,1,20,90,11
1,1,22,0,6,1,1,20,90,11
1,1,18,1,0,0,1,20,67,11
1,1,16,1,0,0,1,20,78,11
1,1,17,1,1,0,1,20,90,11
1,1,17,1,1,0,1,20,106,11
1,1,16,1,2,0,1,20,100,11
1,1,22,0,2,0,1,20,90,11
1,1,4,0,4,0,1,20,100,11
1,1,11,1,4,0,1,20,100,11
1,1,14,1,4,0,1,20,106,11
1,1,12,1,4,0,1,20,90,11
1,1,22,0,5,1,1,20,90,11
1,1,15,1,2,0,1,20,106,11
1,1,3,0,4,0,1,20,1,11
1,1,14,1,5,1,1,20,100,11
1,1,12,1,5,1,1,20,100,11
1,1,19,1,0,0,1,20,67,11
1,1,16,1,2,0,1,20,100,11
1,1,14,1,4,0,1,20,78,11
1,1,8,1,4,0,1,20,90,11
1,1,18,1,4,0,1,20,67,11
1,1,15,1,2,0,1,20,100,11
1,1,21,0,5,1,1,20,78,11
2,1,11,1,6,1,1,20,90,11
2,1,18,1,2,0,1,20,78,11
2,1,16,1,3,0,1,20,100,11
2,1,16,1,0,0,1,20,60,8
2,1,2,0,1,0,1,20,100,11
2,1,21,0,3,0,1,20,100,11
2,1,1,0,4,0,1,20,90,11
2,1,22,0,5,1,1,20,100,11
2,1,9,1,0,0,1,20,100,11
2,1,12,1,0,0,1,20,100,11
2,1,14,1,1,0,1,20,106,11
2,1,15,1,2,0,1,20,90,11
2,1,14,1,2,0,1,20,90,11
2,1,14,1,3,0,1,20,93,11
2,1,2,0,4,0,1,20,100,11
2,1,15,1,4,0,1,20,100,11
2,1,21,0,4,0,1,20,93,11
2,1,16,1,5,1,1,20,93,11
2,1,17,1,5,1,1,20,78,11
2,1,20,1,2,0,1,20,90,11
2,1,20,1,2,0,1,20,90,11
2,1,11,1,5,1,1,20,100,11
3,2,15,1,6,1,1,20,78,11
3,2,19,1,6,1,1,20,39,11
3,2,14,1,0,0,1,20,100,11
3,2,13,1,0,0,1,20,93,11
3,2,1,0,0,0,1,20,100,11
3,2,0,0,0,0,1,20,100,11
3,2,1,0,0,0,1,20,100,11
3,2,13,1,1,0,1,20,90,11
3,2,22,0,2,0,1,20,78,9
3,2,22,0,5,1,1,20,78,11
3,2,11,1,2,0,1,20,106,11
3,2,15,1,2,0,1,20,106,11
3,2,21,0,4,0,1,20,100,11
3,2,17,1,5,1,1,20,90,11
3,2,14,1,2,0,1,20,90,11
3,2,15,1,4,0,1,20,90,11
3,2,18,1,4,0,1,20,78,11
3,2,22,0,0,0,1,20,78,11
4,2,20,1,3,0,2,20,106,11
4,2,1,0,3,0,2,20,100,11
4,2,12,1,1,0,2,20,100,11
4,2,16,1,4,0,2,20,93,11
4,2,16,1,0,0,2,20,90,11
4,2,17,1,5,1,2,20,90,11
4,2,12,1,5,1,2,20,106,11
4,2,4,0,6,1,2,20,19,9
4,2,20,1,0,0,2,20,106,11
4,2,21,0,2,0,2,20,78,11
4,2,20,1,4,0,2,20,48,9
5,2,20,1,5,1,2,20,106,11
5,2,12,1,0,0,2,20,93,11
5,2,11,1,0,0,2,20,93,11
5,2,15,1,2,0,2,20,106,11
6,3,14,1,2,0,2,20,106,11
6,3,3,0,0,0,2,20,114,11
6,3,17,1,2,0,2,20,100,11
6,3,9,1,6,1,2,20,100,11
6,3,18,1,1,0,2,20,106,11
6,3,18,1,4,0,2,20,106,11
6,3,15,1,2,0,2,20,93,11
6,3,10,1,5,1,2,20,93,11
7,3,14,1,0,0,3,20,100,11
7,3,15,1,4,0,3,20,93,11
7,3,21,0,6,1,3,20,58,11
7,3,21,0,2,0,3,20,106,11
7,3,8,1,1,0,3,20,106,11
8,3,14,1,0,0,3,20,106,11
8,3,0,0,1,0,3,20,100,11
8,3,20,1,1,0,3,20,90,11
8,3,23,0,3,0,3,20,100,11
8,3,20,1,2,0,3,20,90,11
8,3,20,1,6,1,3,20,90,11
9,4,21,0,1,0,3,20,106,11
9,4,4,0,2,0,3,20,100,11
9,4,19,1,2,0,3,20,115,11
9,4,3,0,5,1,3,20,100,11
10,4,17,1,4,0,4,20,90,11
10,4,13,1,4,0,4,20,67,11
10,4,19,1,5,1,4,20,78,11
10,4,20,1,5,1,4,20,87,11
10,4,18,1,0,0,4,20,100,11
10,4,17,1,4,0,4,20,106,11
11,4,12,1,6,1,4,20,100,11
11,4,18,1,6,1,4,20,57,11
11,4,11,1,0,0,4,20,100,11
11,4,18,1,2,0,4,20,106,11
11,4,16,1,4,0,4,20,106,11
11,4,14,1,6,1,4,20,106,11
11,4,17,1,4,0,4,20,93,11
11,4,17,1,0,0,4,20,57,11
11,4,9,1,1,0,4,20,100,11
11,4,21,0,0,0,4,20,39,11
11,4,21,0,1,0,4,20,67,11
11,4,20,1,5,1,4,20,100,11
11,4,16,1,5,1,4,20,100,11
11,4,14,1,6,1,4,20,100,11
11,4,21,0,0,0,4,20,100,11
12,1,11,1,3,0,4,20,100,11
12,1,20,1,3,0,4,20,100,11
12,1,22,0,6,1,4,20,90,11
12,1,20,1,6,1,4,20,90,11
12,1,16,1,0,0,4,20,67,11
12,1,19,1,1,0,4,20,100,11
12,1,13,1,2,0,4,20,100,11
12,1,23,0,4,0,4,20,100,11
12,1,7,1,6,1,4,20,100,11
12,1,17,1,0,0,4,20,78,11
12,1,22,0,0,0,4,20,100,11
12,1,22,0,1,0,4,20,90,11
12,1,15,1,1,0,4,20,67,11
12,1,18,1,2,0,4,20,100,11
12,1,16,1,3,0,4,20,4,9
12,1,16,1,3,0,4,20,14,11
12,1,12,1,6,1,4,20,106,11
12,1,23,0,1,0,4,20,67,11
12,1,21,0,2,0,4,20,67,11
12,1,16,1,3,0,4,20,67,11
12,1,10,1,3,0,4,20,100,11
12,1,11,1,4,0,4,20,100,11
12,1,21,0,6,1,4,20,100,11
12,1,18,1,1,0,4,20,67,11
12,1,1,0,2,0,4,20,100,11
12,1,1,0,2,0,4,20,100,11
12,1,13,1,2,0,4,20,100,11
12,1,15,1,2,0,4,20,39,11
12,1,21,0,2,0,4,20,67,11
12,1,20,1,2,0,4,20,24,11
12,1,18,1,2,0,4,20,100,11
12,1,10,1,3,0,4,20,106,11
12,1,15,1,3,0,4,20,106,11
12,1,19,1,3,0,4,20,78,9
1,1,15,1,2,0,1,20,90,11
1,1,8,1,0,0,1,20,90,11
2,1,13,1,4,0,1,20,78,11
6,3,18,1,2,0,2,20,106,11
6,3,15,1,5,1,2,20,100,11
8,3,18,1,2,0,3,20,90,11
8,3,14,1,2,0,3,20,4,11
9,4,22,0,0,0,3,20,78,11
12,1,10,1,2,0,4,20,67,8
12,1,18,1,2,0,4,20,106,11
5,2,19,1,1,0,2,20,106,11
8,3,10,1,5,1,3,20,90,11
9,4,14,1,6,1,3,20,106,11
11,4,14,1,0,0,4,20,13,11
1,1,17,1,4,0,1,20,106,11
1,1,13,1,2,0,1,20,4,11
1,1,15,1,5,1,1,20,93,11
2,1,16,1,2,0,1,20,106,11
3,2,18,1,0,0,1,20,106,11
4,2,17,1,0,0,2,20,106,11
4,2,18,1,3,0,2,20,93,11
4,2,12,1,4,0,2,20,93,11
8,3,22,0,3,0,3,20,106,11
10,4,0,0,3,0,4,20,106,11
3,2,13,1,6,1,1,20,78,11
5,2,22,0,1,0,2,20,133,11
6,3,18,1,1,0,2,20,93,11
7,3,23,0,1,0,3,20,39,11
8,3,16,1,5,1,3,20,13,11
9,4,21,0,2,0,3,20,106,11
10,4,18,1,5,1,4,20,39,8
12,1,17,1,5,1,4,20,87,11
1,1,12,1,4,0,1,18,90,11
1,1,13,1,5,1,1,18,78,9
1,1,3,0,6,1,1,18,39,11
1,1,15,1,0,0,1,18,106,11
1,1,18,1,2,0,1,18,106,11
1,1,7,1,3,0,1,18,106,11
1,1,10,1,3,0,1,18,93,11
1,1,21,0,3,0,1,18,67,11
1,1,15,1,3,0,1,18,106,11
2,1,0,0,3,0,1,18,19,11
2,1,15,1,0,0,1,18,106,11
2,1,16,1,2,0,1,18,106,11
2,1,15,1,3,0,1,18,106,11
2,1,11,1,5,1,1,18,106,11
2,1,20,1,1,0,1,18,69,11
3,2,11,1,4,0,1,18,78,11
3,2,20,1,0,0,1,18,131,11
3,2,14,1,1,0,1,18,93,11
3,2,15,1,5,1,1,18,13,11
3,2,18,1,0,0,1,18,78,11
3,2,11,1,6,1,1,18,14,11
4,2,18,1,0,0,2,18,106,11
5,2,18,1,4,0,2,18,93,11
5,2,9,1,6,1,2,18,106,11
5,2,1,0,3,0,2,18,100,11
5,2,10,1,2,0,2,18,106,11
7,3,22,0,0,0,3,18,93,11
7,3,22,0,6,1,3,18,106,11
7,3,16,1,2,0,3,18,93,11
8,3,10,1,5,1,3,18,13,11
8,3,9,1,5,1,3,18,13,9
8,3,0,0,6,1,3,18,106,11
8,3,19,1,2,0,3,18,67,11
8,3,14,1,4,0,3,18,114,8
8,3,14,1,5,1,3,18,90,11
8,3,21,0,3,0,3,18,67,11
9,4,15,1,0,0,3,18,90,9
10,4,9,1,5,1,4,18,78,11
10,4,19,1,0,0,4,18,106,11
11,4,18,1,1,0,4,18,106,11
11,4,21,0,4,0,4,18,78,11
12,1,19,1,6,1,4,18,133,11
12,1,13,1,1,0,4,18,106,11
12,1,15,1,5,1,4,18,133,11
12,1,20,1,3,0,4,18,67,11
1,1,10,1,2,0,1,18,39,11
1,1,15,1,4,0,1,18,106,11
2,1,15,1,0,0,1,18,93,11
2,1,13,1,5,1,1,18,93,11
4,2,14,1,3,0,2,18,115,11
4,2,19,1,2,0,2,18,93,11
5,2,14,1,0,0,2,18,106,11
6,3,0,0,2,0,2,18,120,11
6,3,13,1,6,1,2,18,58,9
7,3,12,1,1,0,3,18,93,11
8,3,21,0,5,1,3,18,67,11
9,4,1,0,1,0,3,18,26,11
11,4,12,1,3,0,4,18,59,11
1,1,15,1,4,0,1,18,125,11
1,1,12,1,4,0,1,18,93,11
4,2,21,0,3,0,2,18,93,11
5,2,21,0,5,1,2,18,93,11
5,2,17,1,3,0,2,18,106,11
6,3,16,1,2,0,2,18,106,11
6,3,18,1,5,1,2,18,106,11
7,3,17,1,1,0,3,18,106,11
8,3,14,1,1,0,3,18,4,11
8,3,6,0,0,0,3,18,78,11
12,1,17,1,3,0,4,18,133,11
12,1,10,1,4,0,4,18,123,11
1,1,15,1,5,1,1,4,93,11
1,1,18,1,6,1,1,4,39,11
1,1,8,1,6,1,1,4,13,8
1,1,11,1,0,0,1,4,106,11
1,1,13,1,1,0,1,4,100,11
1,1,16,1,1,0,1,4,67,11
1,1,18,1,1,0,1,4,100,11
1,1,13,1,2,0,1,4,78,11
1,1,14,1,2,0,1,4,67,11
1,1,16,1,3,0,1,4,106,11
1,1,19,1,6,1,1,4,67,11
1,1,20,1,6,1,1,4,100,11
1,1,16,1,0,0,1,4,90,11
1,1,14,1,3,0,1,4,106,11
1,1,2,0,5,1,1,4,100,11
1,1,13,1,0,0,1,4,93,11
1,1,10,1,0,0,1,4,39,11
1,1,11,1,0,0,1,4,133,11
1,1,15,1,3,0,1,4,112,11
2,1,21,0,6,1,1,4,67,11
2,1,19,1,1,0,1,4,100,11
2,1,19,1,1,0,1,4,39,11
2,1,21,0,2,0,1,4,106,11
2,1,16,1,3,0,1,4,100,11
2,1,18,1,6,1,1,4,67,11
2,1,4,0,0,0,1,4,100,11
2,1,7,1,1,0,1,4,67,11
2,1,8,1,1,0,1,4,67,11
2,1,19,1,2,0,1,4,90,11
2,1,14,1,3,0,1,4,106,11
2,1,23,0,3,0,1,4,78,11
2,1,13,1,6,1,1,4,106,11
2,1,17,1,6,1,1,4,106,11
2,1,18,1,6,1,1,4,14,11
2,1,0,0,0,0,1,4,106,11
2,1,18,1,0,0,1,4,39,11
2,1,10,1,1,0,1,4,106,11
2,1,13,1,1,0,1,4,106,11
2,1,19,1,1,0,1,4,106,11
2,1,19,1,1,0,1,4,100,11
2,1,8,1,2,0,1,4,93,11
2,1,11,1,2,0,1,4,106,11
2,1,11,1,2,0,1,4,106,11
2,1,16,1,2,0,1,4,106,11
2,1,7,1,3,0,1,4,67,11
2,1,16,1,4,0,1,4,106,11
2,1,11,1,4,0,1,4,93,11
2,1,19,1,5,1,1,4,106,11
2,1,13,1,5,1,1,4,100,11
2,1,17,1,3,0,1,4,67,11
2,1,14,1,3,0,1,4,100,11
3,2,19,1,1,0,1,4,100,11
3,2,14,1,2,0,1,4,90,11
3,2,0,0,6,1,1,4,67,11
3,2,10,1,6,1,1,4,93,11
3,2,10,1,4,0,1,4,78,11
3,2,18,1,4,0,1,4,78,11
3,2,19,1,5,1,1,4,93,11
3,2,0,0,6,1,1,4,106,11
3,2,14,1,0,0,1,4,93,11
3,2,11,1,2,0,1,4,93,11
3,2,17,1,2,0,1,4,39,11
3,2,11,1,3,0,1,4,78,11
3,2,12,1,3,0,1,4,39,11
3,2,15,1,5,1,1,4,106,11
3,2,15,1,1,0,1,4,100,11
4,2,11,1,4,0,2,4,4,11
4,2,21,0,4,0,2,4,90,11
4,2,21,0,5,1,2,4,93,11
4,2,21,0,5,1,2,4,90,11
4,2,12,1,6,1,2,4,96,11
4,2,21,0,0,0,2,4,9,11
4,2,5,0,3,0,2,4,75,11
4,2,22,0,6,1,2,4,39,11
4,2,9,1,2,0,2,4,52,11
4,2,12,1,2,0,2,4,106,11
4,2,20,1,1,0,2,4,90,11
4,2,12,1,4,0,2,4,90,11
4,2,22,0,1,0,2,4,106,11
4,2,12,1,1,0,2,4,78,11
4,2,12,1,3,0,2,4,93,11
5,2,21,0,5,1,2,4,93,11
5,2,15,1,6,1,2,4,13,11
5,2,16,1,4,0,2,4,90,11
5,2,14,1,0,0,2,4,13,9
5,2,4,0,2,0,2,4,90,11
5,2,19,1,5,1,2,4,14,11
5,2,2,0,1,0,2,4,100,11
5,2,15,1,2,0,2,4,90,11
5,2,23,0,5,1,2,4,93,11
5,2,13,1,6,1,2,4,9,11
5,2,14,1,6,1,2,4,106,11
6,3,11,1,0,0,2,4,106,11
6,3,17,1,5,1,2,4,66,11
6,3,19,1,0,0,2,4,90,11
6,3,19,1,4,0,2,4,93,11
6,3,17,1,5,1,2,4,106,11
6,3,21,0,2,0,2,4,106,11
6,3,23,0,2,0,2,4,75,11
6,3,4,0,5,1,2,4,100,11
6,3,13,1,3,0,2,4,106,11
7,3,20,1,1,0,3,4,106,11
7,3,3,0,3,0,3,4,100,11
7,3,16,1,4,0,3,4,106,11
7,3,17,1,4,0,3,4,106,11
7,3,21,0,6,1,3,4,106,11
7,3,16,1,1,0,3,4,106,11
7,3,21,0,1,0,3,4,131,11
7,3,2,0,2,0,3,4,66,11
7,3,22,0,2,0,3,4,78,11
8,3,3,0,5,1,3,4,106,11
8,3,21,0,2,0,3,4,106,11
8,3,2,0,0,0,3,4,106,11
8,3,18,1,3,0,3,4,115,11
8,3,0,0,5,1,3,4,106,11
8,3,11,1,5,1,3,4,106,11
8,3,21,0,5,1,3,4,106,11
9,4,23,0,0,0,3,4,100,11
9,4,4,0,1,0,3,4,100,11
9,4,11,1,4,0,3,4,115,11
9,4,9,1,6,1,3,4,106,11
9,4,10,1,6,1,3,4,93,11
9,4,20,1,2,0,3,4,106,11
9,4,19,1,3,0,3,4,93,11
9,4,9,1,2,0,3,4,106,11
9,4,10,1,0,0,3,4,106,11
10,4,9,1,6,1,4,4,93,11
10,4,12,1,6,1,4,4,4,9
10,4,15,1,1,0,4,4,90,11
10,4,10,1,0,0,4,4,14,9
10,4,6,0,6,1,4,4,90,11
10,4,14,1,6,1,4,4,93,11
10,4,18,1,5,1,4,4,93,11
10,4,18,1,5,1,4,4,106,11
10,4,17,1,5,1,4,4,106,11
10,4,0,0,5,1,4,4,67,11
11,4,19,1,6,1,4,4,67,11
11,4,8,1,6,1,4,4,106,11
11,4,15,1,6,1,4,4,106,11
11,4,18,1,0,0,4,4,39,11
11,4,6,0,2,0,4,4,93,11
11,4,14,1,2,0,4,4,106,11
11,4,0,0,5,1,4,4,100,11
11,4,0,0,5,1,4,4,100,11
11,4,18,1,5,1,4,4,78,11
11,4,14,1,1,0,4,4,67,11
11,4,11,1,3,0,4,4,106,11
11,4,17,1,0,0,4,4,39,11
12,1,8,1,1,0,4,4,19,11
12,1,14,1,3,0,4,4,75,11
12,1,9,1,0,0,4,4,67,11
12,1,1,0,1,0,4,4,14,9
12,1,18,1,3,0,4,4,106,11
12,1,11,1,4,0,4,4,90,11
12,1,19,1,5,1,4,4,78,11
12,1,20,1,6,1,4,4,19,11
12,1,20,1,1,0,4,4,58,11
12,1,18,1,2,0,4,4,75,11
12,1,12,1,6,1,4,4,78,11
12,1,16,1,1,0,4,4,106,11
12,1,19,1,2,0,4,4,106,11
12,1,12,1,2,0,4,4,78,11
12,1,20,1,3,0,4,4,78,11
12,1,20,1,2,0,4,4,106,11
12,1,10,1,2,0,4,4,93,11
2,1,13,1,4,0,1,4,93,11
4,2,16,1,4,0,2,4,39,11
8,3,23,0,5,1,3,4,106,11
11,4,16,1,1,0,4,4,78,11
1,1,11,1,3,0,1,40,100,11
1,1,14,1,3,0,1,40,106,11
1,1,20,1,3,0,1,40,67,11
1,1,14,1,5,1,1,40,100,11
1,1,23,0,5,1,1,40,19,11
1,1,11,1,6,1,1,40,100,11
1,1,19,1,6,1,1,40,78,11
1,1,20,1,0,0,1,40,78,11
1,1,18,1,1,0,1,40,100,11
1,1,22,0,1,0,1,40,39,11
1,1,11,1,4,0,1,40,93,11
1,1,8,1,5,1,1,40,100,11
1,1,15,1,6,1,1,40,78,11
1,1,21,0,6,1,1,40,78,11
1,1,16,1,0,0,1,40,106,11
1,1,10,1,5,1,1,40,100,11
1,1,14,1,6,1,1,40,100,11
1,1,21,0,1,0,1,40,67,11
1,1,14,1,5,1,1,40,39,11
1,1,11,1,1,0,1,40,100,11
2,1,12,1,0,0,1,40,100,11
2,1,19,1,2,0,1,40,100,11
2,1,22,0,2,0,1,40,100,11
2,1,22,0,3,0,1,40,100,11
2,1,13,1,1,0,1,40,19,11
2,1,20,1,3,0,1,40,100,11
2,1,23,0,3,0,1,40,100,11
2,1,0,0,4,0,1,40,100,11
2,1,19,1,6,1,1,40,78,8
2,1,20,1,6,1,1,40,100,11
2,1,8,1,0,0,1,40,50,11
2,1,18,1,2,0,1,40,78,11
3,2,20,1,0,0,1,40,78,11
3,2,19,1,1,0,1,40,57,11
3,2,3,0,5,1,1,40,13,11
3,2,21,0,0,0,1,40,67,11
4,2,12,1,3,0,2,40,93,11
4,2,17,1,2,0,2,40,67,11
4,2,11,1,2,0,2,40,93,11
4,2,4,0,5,1,2,40,100,11
4,2,16,1,6,1,2,40,19,11
5,2,11,1,4,0,2,40,67,11
5,2,15,1,1,0,2,40,57,11
5,2,17,1,2,0,2,40,117,11
5,2,19,1,0,0,2,40,106,11
6,3,12,1,1,0,2,40,19,11
6,3,13,1,3,0,2,40,93,11
6,3,17,1,0,0,2,40,106,11
6,3,10,1,2,0,2,40,67,11
6,3,19,1,2,0,2,40,106,11
6,3,17,1,3,0,2,40,106,11
6,3,20,1,5,1,2,40,106,11
6,3,16,1,1,0,2,40,9,11
7,3,11,1,4,0,3,40,106,11
7,3,18,1,1,0,3,40,87,11
8,3,4,0,3,0,3,40,19,11
8,3,2,0,0,0,3,40,131,11
8,3,3,0,0,0,3,40,93,11
8,3,20,1,1,0,3,40,19,11
8,3,12,1,4,0,3,40,84,11
8,3,13,1,0,0,3,40,19,9
9,4,22,0,1,0,3,40,93,11
9,4,15,1,2,0,3,40,93,11
10,4,17,1,4,0,4,40,106,11
10,4,17,1,2,0,4,40,39,11
11,4,12,1,2,0,4,40,93,11
11,4,16,1,6,1,4,40,67,11
11,4,7,1,5,1,4,40,115,11
11,4,1,0,2,0,4,40,115,11
12,1,15,1,1,0,4,40,11,11
12,1,13,1,5,1,4,40,13,11
12,1,17,1,0,0,4,40,100,11
12,1,13,1,2,0,4,40,93,11
12,1,14,1,2,0,4,40,39,11
12,1,14,1,4,0,4,40,78,9
12,1,19,1,0,0,4,40,100,11
1,1,15,1,3,0,1,40,106,11
1,1,13,1,3,0,1,40,106,11
1,1,17,1,4,0,1,40,106,11
1,1,13,1,4,0,1,40,106,11
1,1,13,1,0,0,1,40,4,11
1,1,17,1,1,0,1,40,106,11
1,1,16,1,2,0,1,40,106,11
1,1,20,1,3,0,1,40,39,11
1,1,12,1,3,0,1,40,4,11
1,1,23,0,4,0,1,40,4,11
2,1,15,1,6,1,1,40,39,11
2,1,23,0,0,0,1,40,106,11
2,1,15,1,4,0,1,40,4,11
2,1,13,1,6,1,1,40,78,11
2,1,21,0,0,0,1,40,90,11
2,1,19,1,1,0,1,40,90,11
2,1,14,1,1,0,1,40,106,11
2,1,14,1,1,0,1,40,78,11
2,1,16,1,2,0,1,40,4,11
2,1,2,0,4,0,1,40,133,11
2,1,15,1,5,1,1,40,4,11
2,1,13,1,6,1,1,40,100,11
3,2,11,1,6,1,1,40,4,11
3,2,10,1,6,1,1,40,4,11
3,2,15,1,6,1,1,40,3,11
3,2,22,0,1,0,1,40,4,11
3,2,13,1,1,0,1,40,106,11
3,2,11,1,5,1,1,40,4,11
4,2,12,1,5,1,2,40,93,11
4,2,12,1,1,0,2,40,106,11
4,2,15,1,2,0,2,40,4,11
4,2,17,1,2,0,2,40,4,11
5,2,17,1,3,0,2,40,4,11
5,2,14,1,4,0,2,40,106,11
5,2,12,1,5,1,2,40,20,11
6,3,21,0,4,0,2,40,4,11
6,3,18,1,5,1,2,40,4,11
7,3,11,1,0,0,3,40,112,11
7,3,21,0,1,0,3,40,106,11
7,3,20,1,5,1,3,40,4,11
7,3,22,0,0,0,3,40,113,11
8,3,4,0,3,0,3,40,4,11
8,3,17,1,5,1,3,40,3,11
8,3,14,1,6,1,3,40,4,11
8,3,16,1,1,0,3,40,27,11
8,3,10,1,6,1,3,40,106,11
8,3,19,1,6,1,3,40,106,11
9,4,14,1,5,1,3,40,90,11
9,4,12,1,1,0,3,40,106,11
10,4,20,1,3,0,4,40,4,11
10,4,21,0,5,1,4,40,4,9
10,4,18,1,5,1,4,40,4,11
10,4,15,1,5,1,4,40,4,11
10,4,13,1,5,1,4,40,106,11
10,4,17,1,5,1,4,40,106,11
11,4,9,1,1,0,4,40,78,11
11,4,21,0,4,0,4,40,106,11
11,4,14,1,2,0,4,40,106,11
11,4,20,1,3,0,4,40,78,11
11,4,13,1,6,1,4,40,13,9
11,4,8,1,5,1,4,40,30,11
12,1,17,1,3,0,4,40,106,11
12,1,11,1,2,0,4,40,57,11
12,1,12,1,4,0,4,40,91,11
12,1,17,1,2,0,4,40,106,11
12,1,16,1,3,0,4,40,106,11
12,1,19,1,3,0,4,40,106,11
1,1,12,1,5,1,1,40,13,8
1,1,14,1,1,0,1,40,106,11
1,1,10,1,2,0,1,40,4,11
2,1,17,1,5,1,1,40,93,11
2,1,13,1,2,0,1,40,106,11
3,2,21,0,0,0,1,40,82,11
4,2,19,1,2,0,2,40,93,11
4,2,17,1,6,1,2,40,78,11
4,2,16,1,4,0,2,40,4,11
5,2,19,1,1,0,2,40,90,11
5,2,12,1,2,0,2,40,93,11
5,2,19,1,4,0,2,40,106,11
7,3,4,0,4,0,3,40,103,11
7,3,13,1,4,0,3,40,93,11
7,3,22,0,4,0,3,40,4,11
8,3,11,1,5,1,3,40,4,11
8,3,23,0,0,0,3,40,78,11
8,3,11,1,3,0,3,40,4,11
8,3,18,1,4,0,3,40,78,11
8,3,10,1,0,0,3,40,93,11
11,4,17,1,3,0,4,40,27,11
11,4,15,1,1,0,4,40,133,11
1,1,20,1,2,0,1,40,106,11
1,1,18,1,4,0,1,40,106,11
1,1,11,1,0,0,1,40,106,11
1,1,18,1,3,0,1,40,106,11
2,1,15,1,2,0,1,40,39,11
2,1,15,1,2,0,1,40,106,11
3,2,9,1,2,0,1,40,106,11
4,2,14,1,2,0,2,40,106,11
4,2,14,1,5,1,2,40,93,11
4,2,21,0,1,0,2,40,93,11
4,2,19,1,6,1,2,40,39,11
4,2,3,0,3,0,2,40,106,11
5,2,17,1,5,1,2,40,106,11
5,2,13,1,3,0,2,40,106,11
5,2,21,0,2,0,2,40,106,11
5,2,14,1,5,1,2,40,106,11
5,2,21,0,5,1,2,40,106,11
5,2,21,0,4,0,2,40,19,11
6,3,13,1,4,0,2,40,133,11
6,3,16,1,6,1,2,40,93,11
7,3,1,0,6,1,3,40,106,11
7,3,19,1,1,0,3,40,78,9
8,3,19,1,5,1,3,40,93,11
8,3,1,0,2,0,3,40,93,11
8,3,22,0,3,0,3,40,106,11
8,3,22,0,5,1,3,40,106,11
8,3,18,1,6,1,3,40,93,11
9,4,2,0,2,0,3,40,79,11
9,4,17,1,3,0,3,40,93,11
9,4,16,1,3,0,3,40,19,11
10,4,19,1,6,1,4,40,20,11
10,4,0,0,1,0,4,40,19,11
10,4,19,1,4,0,4,40,90,11
10,4,11,1,5,1,4,40,106,11
11,4,10,1,4,0,4,40,59,11
12,1,21,0,5,1,4,40,78,11
12,1,9,1,6,1,4,40,133,11
1,1,10,1,0,0,1,31,93,11
2,1,8,1,6,1,1,31,78,11
2,1,18,1,6,1,1,31,133,11
2,1,7,1,6,1,1,31,39,8
5,2,15,1,2,0,2,31,93,11
5,2,17,1,2,0,2,31,14,11
7,3,9,1,3,0,3,31,78,11
9,4,16,1,3,0,3,31,93,11
1,1,0,0,0,0,1,31,106,11
1,1,0,0,2,0,1,31,133,11
1,1,4,0,6,1,1,31,133,11
1,1,18,1,1,0,1,31,78,11
1,1,20,1,2,0,1,31,133,11
1,1,1,0,5,1,1,31,133,11
2,1,17,1,2,0,1,31,78,11
2,1,17,1,3,0,1,31,4,11
2,1,13,1,6,1,1,31,93,11
3,2,16,1,0,0,1,31,106,11
3,2,14,1,2,0,1,31,90,11
4,2,22,0,2,0,2,31,4,11
4,2,4,0,4,0,2,31,91,11
4,2,2,0,2,0,2,31,133,11
4,2,5,0,3,0,2,31,106,11
4,2,20,1,0,0,2,31,93,11
5,2,13,1,4,0,2,31,14,11
5,2,15,1,3,0,2,31,14,9
5,2,0,0,3,0,2,31,133,11
5,2,15,1,4,0,2,31,67,11
5,2,15,1,3,0,2,31,106,11
6,3,13,1,1,0,2,31,91,9
6,3,3,0,2,0,2,31,133,11
6,3,15,1,2,0,2,31,93,11
6,3,5,0,5,1,2,31,133,11
6,3,15,1,6,1,2,31,4,11
6,3,14,1,5,1,2,31,93,11
6,3,18,1,6,1,2,31,93,11
6,3,1,0,0,0,2,31,93,11
8,3,18,1,6,1,3,31,57,11
9,4,17,1,1,0,3,31,4,9
9,4,18,1,1,0,3,31,4,11
9,4,15,1,6,1,3,31,4,9
10,4,10,1,6,1,4,31,93,8
10,4,17,1,0,0,4,31,4,11
10,4,18,1,3,0,4,31,78,11
11,4,13,1,0,0,4,31,117,11
11,4,20,1,5,1,4,31,67,11
1,1,20,1,5,1,1,31,67,11
1,1,17,1,6,1,1,31,67,11
1,1,16,1,6,1,1,31,19,9
1,1,10,1,6,1,1,31,133,11
1,1,1,0,0,0,1,31,100,11
1,1,14,1,0,0,1,31,93,11
1,1,20,1,1,0,1,31,100,11
1,1,13,1,1,0,1,31,133,11
1,1,8,1,1,0,1,31,100,11
1,1,12,1,2,0,1,31,133,11
1,1,13,1,2,0,1,31,67,11
1,1,18,1,2,0,1,31,67,11
1,1,19,1,2,0,1,31,100,11
1,1,0,0,4,0,1,31,90,11
1,1,22,0,4,0,1,31,67,11
1,1,20,1,4,0,1,31,78,11
1,1,0,0,5,1,1,31,67,11
1,1,22,0,6,1,1,31,67,11
1,1,1,0,6,1,1,31,106,11
1,1,4,0,6,1,1,31,100,11
1,1,7,1,6,1,1,31,133,11
1,1,15,1,6,1,1,31,90,11
1,1,21,0,1,0,1,31,67,11
1,1,15,1,1,0,1,31,39,9
1,1,18,1,4,0,1,31,58,11
1,1,8,1,5,1,1,31,39,11
1,1,9,1,6,1,1,31,106,11
1,1,12,1,1,0,1,31,133,11
1,1,18,1,1,0,1,31,67,11
1,1,22,0,1,0,1,31,19,11
1,1,2,0,1,0,1,31,133,11
1,1,0,0,1,0,1,31,106,11
1,1,10,1,3,0,1,31,19,11
1,1,8,1,4,0,1,31,133,11
1,1,17,1,4,0,1,31,106,11
1,1,23,0,5,1,1,31,19,11
1,1,21,0,5,1,1,31,39,11
1,1,12,1,6,1,1,31,133,11
1,1,16,1,0,0,1,31,90,11
1,1,16,1,1,0,1,31,100,11
1,1,22,0,2,0,1,31,78,11
1,1,20,1,2,0,1,31,39,11
1,1,12,1,2,0,1,31,67,9
1,1,7,1,4,0,1,31,90,11
1,1,1,0,4,0,1,31,133,11
1,1,19,1,5,1,1,31,133,11
1,1,20,1,5,1,1,31,39,11
2,1,17,1,6,1,1,31,4,11
2,1,20,1,6,1,1,31,4,11
2,1,14,1,6,1,1,31,90,11
2,1,15,1,6,1,1,31,90,11
2,1,15,1,6,1,1,31,1,11
2,1,16,1,6,1,1,31,1,11
2,1,13,1,6,1,1,31,58,11
2,1,16,1,6,1,1,31,1,11
2,1,14,1,6,1,1,31,67,11
2,1,12,1,6,1,1,31,67,11
2,1,15,1,1,0,1,31,39,11
2,1,10,1,2,0,1,31,78,11
2,1,9,1,2,0,1,31,93,11
2,1,15,1,3,0,1,31,90,11
2,1,15,1,3,0,1,31,19,11
2,1,18,1,3,0,1,31,67,11
2,1,22,0,4,0,1,31,90,11
2,1,10,1,4,0,1,31,67,11
2,1,19,1,5,1,1,31,133,11
2,1,3,0,5,1,1,31,133,11
2,1,2,0,5,1,1,31,133,11
2,1,4,0,6,1,1,31,100,11
2,1,17,1,6,1,1,31,67,11
2,1,17,1,6,1,1,31,67,11
2,1,16,1,6,1,1,31,67,11
2,1,1,0,0,0,1,31,1,11
2,1,1,0,0,0,1,31,133,11
2,1,13,1,0,0,1,31,39,11
2,1,14,1,0,0,1,31,67,11
2,1,17,1,0,0,1,31,67,11
2,1,18,1,0,0,1,31,67,11
2,1,16,1,2,0,1,31,67,11
2,1,15,1,2,0,1,31,67,11
2,1,0,0,3,0,1,31,1,11
2,1,13,1,3,0,1,31,78,11
2,1,17,1,3,0,1,31,67,11
2,1,20,1,3,0,1,31,78,11
2,1,22,0,3,0,1,31,103,11
2,1,12,1,4,0,1,31,78,11
2,1,16,1,5,1,1,31,67,11
2,1,10,1,5,1,1,31,93,11
2,1,15,1,6,1,1,31,67,11
2,1,11,1,6,1,1,31,90,11
2,1,15,1,6,1,1,31,78,11
2,1,16,1,6,1,1,31,39,11
2,1,16,1,6,1,1,31,27,11
2,1,18,1,1,0,1,31,67,11
2,1,14,1,2,0,1,31,67,11
2,1,11,1,3,0,1,31,67,11
2,1,14,1,3,0,1,31,39,11
2,1,15,1,3,0,1,31,67,11
2,1,17,1,3,0,1,31,67,11
2,1,8,1,4,0,1,31,100,11
2,1,20,1,4,0,1,31,133,11
2,1,3,0,5,1,1,31,19,9
2,1,2,0,5,1,1,31,133,11
2,1,4,0,6,1,1,31,58,11
2,1,12,1,6,1,1,31,67,11
2,1,3,0,0,0,1,31,133,11
2,1,21,0,1,0,1,31,78,11
2,1,6,0,3,0,1,31,67,11
2,1,2,0,4,0,1,31,67,11
2,1,13,1,5,1,1,31,90,11
2,1,4,0,5,1,1,31,100,11
2,1,15,1,5,1,1,31,133,11
2,1,10,1,5,1,1,31,133,11
3,2,21,0,1,0,1,31,1,11
3,2,19,1,2,0,1,31,67,11
3,2,1,0,4,0,1,31,93,11
3,2,15,1,4,0,1,31,93,11
3,2,11,1,5,1,1,31,1,11
3,2,23,0,5,1,1,31,106,11
3,2,8,1,6,1,1,31,67,11
3,2,21,0,1,0,1,31,67,11
3,2,19,1,1,0,1,31,67,11
3,2,11,1,2,0,1,31,90,11
3,2,11,1,5,1,1,31,67,11
3,2,12,1,5,1,1,31,1,11
3,2,5,0,6,1,1,31,100,11
3,2,9,1,0,0,1,31,78,11
3,2,22,0,1,0,1,31,67,11
3,2,20,1,1,0,1,31,93,11
3,2,22,0,1,0,1,31,100,11
3,2,20,1,2,0,1,31,90,11
3,2,12,1,4,0,1,31,14,11
3,2,8,1,4,0,1,31,67,11
3,2,3,0,5,1,1,31,67,9
3,2,20,1,5,1,1,31,100,11
3,2,18,1,6,1,1,31,67,11
3,2,20,1,3,0,1,31,67,11
3,2,15,1,4,0,1,31,67,11
3,2,5,0,5,1,1,31,133,11
3,2,21,0,6,1,1,31,39,11
3,2,1,0,6,1,1,31,133,11
4,2,19,1,3,0,2,31,93,11
4,2,20,1,3,0,2,31,39,11
4,2,5,0,5,1,2,31,133,11
4,2,13,1,5,1,2,31,93,9
4,2,17,1,6,1,2,31,19,11
4,2,18,1,6,1,2,31,67,11
4,2,21,0,3,0,2,31,133,11
4,2,22,0,3,0,2,31,78,11
4,2,6,0,4,0,2,31,19,11
4,2,3,0,4,0,2,31,133,11
4,2,23,0,4,0,2,31,67,11
4,2,4,0,5,1,2,31,58,11
4,2,9,1,6,1,2,31,39,11
4,2,4,0,0,0,2,31,19,11
4,2,21,0,0,0,2,31,19,11
4,2,17,1,0,0,2,31,78,9
4,2,17,1,1,0,2,31,133,11
4,2,20,1,4,0,2,31,93,11
4,2,14,1,5,1,2,31,133,11
4,2,23,0,5,1,2,31,133,11
4,2,10,1,5,1,2,31,93,11
4,2,14,1,5,1,2,31,82,11
4,2,21,0,6,1,2,31,90,11
4,2,20,1,6,1,2,31,78,11
4,2,17,1,6,1,2,31,78,11
4,2,17,1,6,1,2,31,67,11
4,2,15,1,6,1,2,31,100,11
4,2,21,0,6,1,2,31,133,11
4,2,18,1,1,0,2,31,39,11
4,2,19,1,1,0,2,31,90,9
4,2,21,0,1,0,2,31,67,11
4,2,19,1,2,0,2,31,67,11
4,2,17,1,6,1,2,31,106,11
4,2,10,1,6,1,2,31,106,11
4,2,19,1,0,0,2,31,48,11
5,2,23,0,6,1,2,31,19,9
5,2,19,1,3,0,2,31,14,9
5,2,13,1,3,0,2,31,78,9
5,2,18,1,3,0,2,31,78,11
5,2,17,1,3,0,2,31,90,11
5,2,13,1,3,0,2,31,46,8
5,2,12,1,5,1,2,31,19,9
5,2,2,0,0,0,2,31,67,11
5,2,2,0,0,0,2,31,67,9
5,2,1,0,0,0,2,31,133,11
5,2,23,0,1,0,2,31,4,11
5,2,9,1,1,0,2,31,78,11
5,2,15,1,1,0,2,31,133,11
5,2,19,1,6,1,2,31,93,11
5,2,16,1,2,0,2,31,93,11
5,2,17,1,2,0,2,31,106,11
5,2,7,1,3,0,2,31,4,11
5,2,0,0,3,0,2,31,67,9
5,2,19,1,5,1,2,31,58,11
5,2,20,1,6,1,2,31,57,11
5,2,10,1,0,0,2,31,108,11
5,2,14,1,1,0,2,31,93,11
5,2,12,1,2,0,2,31,19,11
5,2,12,1,2,0,2,31,19,8
5,2,3,0,3,0,2,31,75,11
5,2,8,1,3,0,2,31,115,11
5,2,15,1,3,0,2,31,115,11
5,2,22,0,4,0,2,31,67,11
5,2,13,1,5,1,2,31,93,11
5,2,19,1,5,1,2,31,67,11
5,2,13,1,5,1,2,31,130,11
5,2,9,1,6,1,2,31,1,11
6,3,16,1,0,0,2,31,4,11
6,3,19,1,0,0,2,31,106,11
6,3,23,0,1,0,2,31,106,11
6,3,14,1,1,0,2,31,93,11
6,3,12,1,1,0,2,31,23,9
6,3,23,0,2,0,2,31,67,11
6,3,16,1,2,0,2,31,90,11
6,3,16,1,2,0,2,31,106,11
6,3,8,1,2,0,2,31,4,11
6,3,18,1,2,0,2,31,27,11
6,3,9,1,3,0,2,31,90,11
6,3,17,1,4,0,2,31,106,11
6,3,22,0,5,1,2,31,133,11
6,3,15,1,5,1,2,31,90,11
6,3,0,0,1,0,2,31,100,11
6,3,13,1,1,0,2,31,14,11
6,3,13,1,3,0,2,31,93,11
6,3,23,0,3,0,2,31,130,11
6,3,9,1,4,0,2,31,90,11
6,3,3,0,5,1,2,31,106,11
6,3,10,1,5,1,2,31,4,11
6,3,15,1,6,1,2,31,67,11
6,3,10,1,6,1,2,31,57,8
6,3,18,1,6,1,2,31,4,11
6,3,22,0,0,0,2,31,93,11
6,3,12,1,0,0,2,31,4,8
6,3,12,1,1,0,2,31,93,11
6,3,8,1,3,0,2,31,58,11
6,3,13,1,3,0,2,31,78,11
6,3,5,0,4,0,2,31,133,11
6,3,13,1,4,0,2,31,78,11
6,3,7,1,4,0,2,31,65,11
6,3,4,0,5,1,2,31,93,11
6,3,12,1,5,1,2,31,1,11
6,3,1,0,0,0,2,31,133,11
6,3,15,1,1,0,2,31,93,11
7,3,22,0,3,0,3,31,67,11
7,3,3,0,5,1,3,31,93,11
7,3,11,1,5,1,3,31,1,11
7,3,15,1,6,1,3,31,93,11
7,3,19,1,6,1,3,31,93,11
7,3,13,1,1,0,3,31,19,11
7,3,11,1,1,0,3,31,19,11
7,3,22,0,3,0,3,31,19,11
7,3,16,1,3,0,3,31,58,11
7,3,11,1,4,0,3,31,4,11
7,3,12,1,6,1,3,31,67,11
7,3,18,1,0,0,3,31,93,11
7,3,16,1,2,0,3,31,58,11
7,3,13,1,4,0,3,31,27,9
7,3,17,1,5,1,3,31,4,11
7,3,12,1,5,1,3,31,7,11
7,3,13,1,6,1,3,31,93,11
7,3,0,0,0,0,3,31,133,11
7,3,1,0,1,0,3,31,106,11
7,3,0,0,2,0,3,31,67,11
7,3,22,0,2,0,3,31,4,11
7,3,19,1,1,0,3,31,93,11
7,3,2,0,2,0,3,31,93,11
7,3,1,0,3,0,3,31,4,11
7,3,14,1,3,0,3,31,39,11
8,3,22,0,3,0,3,31,19,11
8,3,18,1,3,0,3,31,75,9
8,3,21,0,3,0,3,31,67,11
8,3,18,1,0,0,3,31,90,11
8,3,12,1,0,0,3,31,19,11
8,3,0,0,1,0,3,31,19,11
8,3,9,1,1,0,3,31,67,11
8,3,17,1,2,0,3,31,58,11
8,3,19,1,3,0,3,31,14,11
8,3,1,0,3,0,3,31,93,11
8,3,8,1,5,1,3,31,93,11
8,3,12,1,6,1,3,31,133,11
8,3,4,0,0,0,3,31,133,11
8,3,10,1,2,0,3,31,93,11
8,3,20,1,5,1,3,31,4,11
8,3,19,1,5,1,3,31,86,11
8,3,19,1,5,1,3,31,1,11
8,3,17,1,5,1,3,31,90,11
8,3,17,1,0,0,3,31,93,11
8,3,12,1,2,0,3,31,90,11
8,3,5,0,2,0,3,31,112,11
8,3,21,0,4,0,3,31,93,11
9,4,0,0,2,0,3,31,93,11
9,4,18,1,3,0,3,31,93,11
9,4,23,0,4,0,3,31,67,11
9,4,15,1,5,1,3,31,93,11
9,4,20,1,5,1,3,31,133,11
9,4,11,1,3,0,3,31,19,11
9,4,20,1,3,0,3,31,4,11
9,4,14,1,4,0,3,31,67,11
9,4,22,0,5,1,3,31,67,11
9,4,22,0,6,1,3,31,39,11
9,4,15,1,1,0,3,31,4,11
9,4,17,1,4,0,3,31,93,11
9,4,20,1,4,0,3,31,133,11
9,4,2,0,4,0,3,31,133,11
9,4,19,1,5,1,3,31,67,11
9,4,14,1,3,0,3,31,108,11
9,4,2,0,2,0,3,31,67,11
10,4,7,1,4,0,4,31,19,11
10,4,4,0,5,1,4,31,133,11
10,4,13,1,6,1,4,31,67,11
10,4,15,1,6,1,4,31,67,11
10,4,15,1,0,0,4,31,4,11
10,4,19,1,0,0,4,31,4,11
10,4,18,1,0,0,4,31,27,11
10,4,20,1,1,0,4,31,106,11
10,4,11,1,1,0,4,31,4,11
10,4,18,1,2,0,4,31,14,11
10,4,12,1,2,0,4,31,27,11
10,4,22,0,6,1,4,31,67,11
10,4,11,1,1,0,4,31,4,11
10,4,23,0,4,0,4,31,4,11
10,4,2,0,0,0,4,31,4,11
10,4,14,1,4,0,4,31,90,11
10,4,21,0,4,0,4,31,1,11
10,4,22,0,4,0,4,31,67,11
10,4,5,0,5,1,4,31,19,11
10,4,19,1,6,1,4,31,78,11
10,4,17,1,6,1,4,31,78,11
10,4,7,1,0,0,4,31,66,11
10,4,12,1,1,0,4,31,58,11
10,4,18,1,3,0,4,31,78,11
10,4,20,1,3,0,4,31,78,11
10,4,3,0,5,1,4,31,93,11
10,4,10,1,5,1,4,31,67,9
10,4,21,0,5,1,4,31,39,11
11,4,12,1,0,0,4,31,19,11
11,4,21,0,4,0,4,31,133,11
11,4,7,1,5,1,4,31,93,11
11,4,22,0,5,1,4,31,133,11
11,4,17,1,0,0,4,31,93,11
11,4,13,1,2,0,4,31,100,11
11,4,3,0,2,0,4,31,93,11
11,4,11,1,4,0,4,31,67,11
11,4,7,1,4,0,4,31,23,11
11,4,1,0,4,0,4,31,125,11
11,4,23,0,5,1,4,31,78,11
11,4,21,0,5,1,4,31,93,11
11,4,10,1,5,1,4,31,14,11
11,4,19,1,0,0,4,31,67,11
11,4,21,0,0,0,4,31,75,11
11,4,12,1,4,0,4,31,90,11
11,4,19,1,4,0,4,31,19,11
11,4,4,0,5,1,4,31,14,11
11,4,2,0,5,1,4,31,19,11
11,4,17,1,5,1,4,31,78,11
11,4,13,1,6,1,4,31,78,11
11,4,0,0,6,1,4,31,100,11
11,4,10,1,6,1,4,31,1,9
11,4,14,1,0,0,4,31,100,11
11,4,6,0,1,0,4,31,23,11
11,4,16,1,6,1,4,31,100,11
11,4,21,0,0,0,4,31,39,11
11,4,16,1,0,0,4,31,133,11
12,1,18,1,2,0,4,31,78,11
12,1,8,1,2,0,4,31,23,8
12,1,7,1,3,0,4,31,66,11
12,1,15,1,3,0,4,31,67,11
12,1,5,0,5,1,4,31,90,11
12,1,17,1,5,1,4,31,1,11
12,1,18,1,5,1,4,31,39,11
12,1,18,1,5,1,4,31,78,11
12,1,19,1,5,1,4,31,46,11
12,1,13,1,6,1,4,31,78,11
12,1,13,1,6,1,4,31,67,11
12,1,18,1,6,1,4,31,39,11
12,1,19,1,6,1,4,31,90,11
12,1,20,1,6,1,4,31,67,11
12,1,19,1,1,0,4,31,133,11
12,1,12,1,1,0,4,31,78,11
12,1,8,1,3,0,4,31,130,11
12,1,9,1,4,0,4,31,67,11
12,1,18,1,5,1,4,31,39,11
12,1,16,1,5,1,4,31,67,11
12,1,11,1,6,1,4,31,78,11
12,1,10,1,6,1,4,31,39,11
12,1,22,0,6,1,4,31,39,11
12,1,8,1,3,0,4,31,67,11
12,1,13,1,3,0,4,31,67,11
12,1,17,1,4,0,4,31,14,8
12,1,20,1,4,0,4,31,78,11
12,1,21,0,5,1,4,31,78,11
12,1,18,1,5,1,4,31,93,11
12,1,9,1,6,1,4,31,14,9
12,1,14,1,6,1,4,31,67,11
12,1,6,0,1,0,4,31,133,11
12,1,18,1,3,0,4,31,67,11
12,1,19,1,3,0,4,31,67,11
12,1,19,1,3,0,4,31,67,11
12,1,9,1,4,0,4,31,67,11
12,1,11,1,5,1,4,31,67,11
12,1,16,1,6,1,4,31,65,11
12,1,15,1,0,0,4,31,1,11
12,1,21,0,2,0,4,31,78,11
12,1,14,1,3,0,4,31,67,11
1,1,14,1,3,0,1,31,23,11
1,1,7,1,3,0,1,31,14,11
1,1,17,1,5,1,1,31,35,11
1,1,7,1,6,1,1,31,19,11
1,1,11,1,3,0,1,31,14,9
1,1,21,0,5,1,1,31,133,11
2,1,23,0,4,0,1,31,67,11
2,1,16,1,2,0,1,31,78,9
4,2,16,1,3,0,2,31,4,11
6,3,17,1,1,0,2,31,57,11
6,3,7,1,3,0,2,31,4,11
6,3,15,1,3,0,2,31,67,9
6,3,14,1,1,0,2,31,4,11
7,3,7,1,3,0,3,31,121,8
7,3,21,0,6,1,3,31,24,11
7,3,18,1,3,0,3,31,46,11
9,4,18,1,0,0,3,31,19,11
9,4,18,1,3,0,3,31,27,11
10,4,16,1,3,0,4,31,23,11
11,4,8,1,4,0,4,31,4,11
11,4,17,1,6,1,4,31,93,11
11,4,21,0,0,0,4,31,39,11
12,1,13,1,0,0,4,31,93,11
12,1,14,1,0,0,4,31,19,11
12,1,3,0,0,0,4,31,115,11
1,1,15,1,6,1,1,31,78,11
1,1,15,1,3,0,1,31,69,11
1,1,15,1,4,0,1,31,90,11
2,1,13,1,1,0,1,31,39,11
2,1,19,1,2,0,1,31,78,9
2,1,4,0,6,1,1,31,90,11
3,2,8,1,2,0,1,31,90,11
4,2,11,1,4,0,2,31,90,11
4,2,14,1,5,1,2,31,13,9
4,2,19,1,2,0,2,31,13,11
5,2,6,0,0,0,2,31,13,11
5,2,21,0,1,0,2,31,13,11
5,2,5,0,0,0,2,31,100,11
5,2,1,0,3,0,2,31,78,11
5,2,16,1,5,1,2,31,13,11
5,2,12,1,0,0,2,31,78,11
5,2,13,1,6,1,2,31,93,11
6,3,12,1,2,0,2,31,19,11
6,3,8,1,3,0,2,31,93,9
6,3,8,1,0,0,2,31,13,9
6,3,23,0,1,0,2,31,78,11
6,3,15,1,5,1,2,31,78,11
7,3,0,0,6,1,3,31,93,11
7,3,12,1,1,0,3,31,13,9
8,3,1,0,4,0,3,31,115,11
8,3,15,1,5,1,3,31,106,11
8,3,13,1,6,1,3,31,78,11
8,3,13,1,6,1,3,31,13,9
9,4,9,1,2,0,3,31,78,11
11,4,14,1,0,0,4,31,58,11
11,4,23,0,5,1,4,31,82,11
11,4,9,1,6,1,4,31,78,9
11,4,18,1,1,0,4,31,78,11
11,4,20,1,1,0,4,31,14,11
11,4,20,1,3,0,4,31,19,11
11,4,20,1,4,0,4,31,67,11
11,4,18,1,4,0,4,31,91,11
12,1,14,1,3,0,4,31,19,11
12,1,3,0,6,1,4,31,67,11
12,1,13,1,3,0,4,31,82,11
1,1,13,1,6,1,1,35,23,11
1,1,0,0,1,0,1,35,90,11
1,1,1,0,1,0,1,35,100,11
1,1,9,1,1,0,1,35,67,11
1,1,21,0,1,0,1,35,39,11
1,1,7,1,4,0,1,35,100,11
1,1,23,0,4,0,1,35,59,9
1,1,4,0,5,1,1,35,106,11
1,1,3,0,6,1,1,35,19,11
1,1,19,1,6,1,1,35,78,11
1,1,22,0,0,0,1,35,78,9
1,1,12,1,1,0,1,35,106,11
1,1,16,1,1,0,1,35,106,11
1,1,16,1,1,0,1,35,100,11
1,1,7,1,2,0,1,35,14,11
1,1,1,0,3,0,1,35,13,11
1,1,2,0,3,0,1,35,100,11
1,1,9,1,3,0,1,35,12,11
1,1,5,0,4,0,1,35,75,11
1,1,17,1,5,1,1,35,78,11
1,1,18,1,5,1,1,35,78,11
1,1,18,1,6,1,1,35,78,11
1,1,5,0,1,0,1,35,100,11
1,1,18,1,1,0,1,35,93,11
1,1,3,0,4,0,1,35,67,11
1,1,21,0,4,0,1,35,48,11
2,1,17,1,2,0,1,35,100,11
2,1,18,1,4,0,1,35,67,11
2,1,10,1,1,0,1,35,78,11
2,1,1,0,3,0,1,35,71,11
2,1,16,1,4,0,1,35,106,11
2,1,21,0,0,0,1,35,14,11
2,1,14,1,3,0,1,35,93,11
2,1,23,0,4,0,1,35,78,11
2,1,15,1,5,1,1,35,78,11
2,1,15,1,6,1,1,35,67,11
3,2,21,0,6,1,1,35,100,11
3,2,4,0,0,0,1,35,58,9
3,2,23,0,1,0,1,35,90,11
3,2,17,1,2,0,1,35,23,11
3,2,4,0,0,0,1,35,75,11
3,2,14,1,0,0,1,35,78,11
3,2,10,1,2,0,1,35,78,11
3,2,15,1,6,1,1,35,52,11
3,2,1,0,1,0,1,35,100,11
3,2,23,0,6,1,1,35,67,11
3,2,4,0,3,0,1,35,67,11
3,2,23,0,6,1,1,35,78,11
4,2,4,0,4,0,2,35,79,11
4,2,16,1,5,1,2,35,93,9
4,2,8,1,0,0,2,35,67,11
4,2,17,1,4,0,2,35,67,11
4,2,7,1,6,1,2,35,79,11
4,2,19,1,1,0,2,35,93,11
4,2,4,0,1,0,2,35,90,11
4,2,16,1,2,0,2,35,100,11
4,2,11,1,4,0,2,35,93,11
4,2,14,1,4,0,2,35,100,11
4,2,13,1,1,0,2,35,133,11
4,2,20,1,1,0,2,35,93,11
4,2,11,1,2,0,2,35,13,8
4,2,18,1,3,0,2,35,106,11
4,2,17,1,5,1,2,35,100,11
4,2,22,0,1,0,2,35,100,11
4,2,16,1,1,0,2,35,93,11
4,2,16,1,2,0,2,35,133,11
4,2,1,0,2,0,2,35,100,11
5,2,20,1,4,0,2,35,78,11
5,2,21,0,5,1,2,35,78,11
5,2,16,1,1,0,2,35,100,11
5,2,20,1,2,0,2,35,93,11
5,2,13,1,3,0,2,35,106,11
5,2,14,1,4,0,2,35,93,11
5,2,11,1,6,1,2,35,39,11
5,2,16,1,6,1,2,35,67,11
5,2,17,1,2,0,2,35,46,11
5,2,17,1,2,0,2,35,106,11
5,2,23,0,5,1,2,35,78,11
5,2,18,1,2,0,2,35,78,11
5,2,21,0,2,0,2,35,59,11
5,2,20,1,3,0,2,35,112,11
5,2,18,1,4,0,2,35,106,11
6,3,10,1,2,0,2,35,93,11
6,3,17,1,3,0,2,35,100,11
6,3,17,1,2,0,2,35,106,11
6,3,17,1,4,0,2,35,106,11
6,3,12,1,5,1,2,35,106,11
6,3,13,1,1,0,2,35,48,11
6,3,11,1,2,0,2,35,106,11
6,3,20,1,3,0,2,35,39,9
6,3,1,0,4,0,2,35,93,9
6,3,12,1,4,0,2,35,2,11
7,3,6,0,4,0,3,35,48,11
7,3,20,1,0,0,3,35,67,11
7,3,2,0,1,0,3,35,100,11
7,3,4,0,2,0,3,35,122,11
7,3,10,1,2,0,3,35,100,11
7,3,19,1,2,0,3,35,106,11
7,3,2,0,3,0,3,35,100,11
7,3,5,0,3,0,3,35,100,11
7,3,9,1,5,1,3,35,93,11
7,3,16,1,0,0,3,35,100,11
7,3,1,0,0,0,3,35,78,11
7,3,14,1,1,0,3,35,19,11
7,3,11,1,4,0,3,35,93,11
8,3,21,0,5,1,3,35,48,11
8,3,3,0,5,1,3,35,106,11
8,3,1,0,6,1,3,35,106,11
8,3,1,0,1,0,3,35,75,11
8,3,9,1,6,1,3,35,106,11
8,3,18,1,6,1,3,35,19,11
8,3,17,1,0,0,3,35,106,11
8,3,22,0,0,0,3,35,19,11
8,3,5,0,2,0,3,35,100,11
8,3,12,1,2,0,3,35,48,11
8,3,20,1,4,0,3,35,106,11
8,3,0,0,6,1,3,35,100,11
8,3,19,1,6,1,3,35,106,11
8,3,20,1,6,1,3,35,93,11
8,3,13,1,2,0,3,35,78,11
8,3,17,1,5,1,3,35,93,11
8,3,4,0,6,1,3,35,67,11
8,3,18,1,3,0,3,35,4,11
8,3,9,1,5,1,3,35,93,11
8,3,8,1,0,0,3,35,93,11
8,3,15,1,0,0,3,35,93,11
8,3,18,1,0,0,3,35,103,11
9,4,14,1,4,0,3,35,93,11
9,4,5,0,6,1,3,35,100,11
9,4,5,0,6,1,3,35,100,11
9,4,5,0,6,1,3,35,100,11
9,4,9,1,6,1,3,35,100,11
9,4,9,1,6,1,3,35,106,11
9,4,17,1,6,1,3,35,93,11
9,4,21,0,6,1,3,35,106,11
9,4,5,0,0,0,3,35,19,8
9,4,17,1,0,0,3,35,30,11
9,4,17,1,1,0,3,35,93,11
9,4,20,1,2,0,3,35,106,11
9,4,20,1,5,1,3,35,82,11
9,4,6,0,2,0,3,35,100,11
9,4,8,1,2,0,3,35,19,11
9,4,23,0,2,0,3,35,100,11
9,4,14,1,4,0,3,35,100,11
9,4,21,0,5,1,3,35,9,11
9,4,18,1,6,1,3,35,106,11
9,4,21,0,6,1,3,35,106,11
9,4,19,1,2,0,3,35,66,11
10,4,13,1,4,0,4,35,67,11
10,4,17,1,4,0,4,35,66,11
10,4,10,1,5,1,4,35,78,11
10,4,12,1,5,1,4,35,67,11
10,4,7,1,1,0,4,35,23,11
10,4,8,1,1,0,4,35,42,11
10,4,4,0,1,0,4,35,100,11
10,4,4,0,1,0,4,35,100,11
10,4,4,0,1,0,4,35,100,11
10,4,4,0,1,0,4,35,100,11
10,4,15,1,5,1,4,35,106,11
10,4,23,0,5,1,4,35,67,11
11,4,0,0,1,0,4,35,39,11
11,4,16,1,1,0,4,35,67,11
11,4,12,1,3,0,4,35,90,11
11,4,15,1,5,1,4,35,23,11
11,4,0,0,6,1,4,35,14,9
11,4,22,0,1,0,4,35,78,11
11,4,8,1,2,0,4,35,106,11
11,4,11,1,2,0,4,35,106,11
11,4,13,1,3,0,4,35,67,11
11,4,5,0,4,0,4,35,100,11
11,4,18,1,6,1,4,35,58,11
11,4,19,1,1,0,4,35,75,11
11,4,14,1,2,0,4,35,67,11
11,4,17,1,5,1,4,35,4,11
11,4,17,1,5,1,4,35,93,11
11,4,17,1,5,1,4,35,78,11
11,4,6,0,0,0,4,35,100,11
11,4,8,1,0,0,4,35,75,11
11,4,22,0,0,0,4,35,78,11
12,1,22,0,6,1,4,35,100,11
12,1,1,0,0,0,4,35,103,11
12,1,19,1,3,0,4,35,78,11
12,1,17,1,4,0,4,35,4,11
12,1,3,0,6,1,4,35,67,11
12,1,9,1,6,1,4,35,106,11
12,1,20,1,6,1,4,35,106,11
12,1,12,1,4,0,4,35,58,11
12,1,19,1,4,0,4,35,39,11
12,1,23,0,4,0,4,35,52,11
12,1,3,0,5,1,4,35,78,11
12,1,17,1,5,1,4,35,83,11
12,1,16,1,6,1,4,35,93,11
12,1,4,0,1,0,4,35,4,11
12,1,9,1,3,0,4,35,39,11
12,1,20,1,3,0,4,35,100,11
12,1,2,0,4,0,4,35,100,11
12,1,20,1,5,1,4,35,93,11
12,1,18,1,6,1,4,35,100,11
12,1,18,1,0,0,4,35,106,11
12,1,8,1,1,0,4,35,100,11
2,1,20,1,0,0,1,35,133,11
3,2,5,0,1,0,1,35,90,11
3,2,5,0,1,0,1,35,90,11
3,2,15,1,3,0,1,35,1,11
4,2,3,0,5,1,2,35,78,8
4,2,6,0,6,1,2,35,90,11
4,2,23,0,1,0,2,35,19,11
6,3,14,1,6,1,2,35,93,11
7,3,21,0,6,1,3,35,75,11
7,3,9,1,2,0,3,35,93,11
8,3,15,1,4,0,3,35,93,11
8,3,3,0,4,0,3,35,39,9
8,3,20,1,3,0,3,35,25,9
8,3,13,1,0,0,3,35,75,11
9,4,18,1,6,1,3,35,93,11
10,4,3,0,1,0,4,35,78,11
10,4,18,1,1,0,4,35,93,11
11,4,17,1,6,1,4,35,133,11
11,4,12,1,4,0,4,35,100,11
11,4,15,1,2,0,4,35,90,11
12,1,12,1,2,0,4,35,100,11
12,1,13,1,3,0,4,35,75,11
12,1,21,0,6,1,4,35,100,11
12,1,4,0,4,0,4,35,100,11
12,1,5,0,4,0,4,35,100,11
12,1,5,0,4,0,4,35,100,11
12,1,5,0,4,0,4,35,100,11
12,1,5,0,4,0,4,35,100,11
12,1,15,1,0,0,4,35,133,11
12,1,7,1,2,0,4,35,115,11
5,2,13,1,0,0,2,35,87,11
7,3,4,0,2,0,3,35,19,11
7,3,9,1,4,0,3,35,19,11
8,3,12,1,4,0,3,35,115,11
8,3,21,0,0,0,3,35,87,11
1,1,15,1,3,0,1,35,106,11
3,2,11,1,6,1,1,35,39,11
4,2,13,1,2,0,2,35,78,8
6,3,9,1,4,0,2,35,14,9
6,3,10,1,5,1,2,35,53,9
8,3,10,1,0,0,3,35,20,11
12,1,11,1,1,0,4,35,100,11
12,1,6,0,2,0,4,35,78,11
3,2,21,0,4,0,1,35,90,11
11,4,19,1,3,0,4,35,90,11
3,2,8,1,6,1,1,35,75,11
5,2,7,1,0,0,2,35,133,11
8,3,10,1,1,0,3,35,19,11
8,3,16,1,3,0,3,35,106,11
8,3,10,1,3,0,3,35,106,11
8,3,23,0,6,1,3,35,106,11
9,4,2,0,0,0,3,35,93,11
11,4,16,1,1,0,4,35,78,11
11,4,20,1,1,0,4,35,78,9
12,1,16,1,2,0,4,35,106,11
12,1,21,0,5,1,4,35,78,11
1,1,20,1,6,1,1,35,25,11
2,1,17,1,4,0,1,35,106,11
3,2,7,1,0,0,1,35,78,11
3,2,22,0,1,0,1,35,78,11
4,2,19,1,2,0,2,35,46,11
4,2,23,0,3,0,2,35,19,11
4,2,14,1,4,0,2,35,106,11
5,2,14,1,6,1,2,35,106,11
5,2,21,0,3,0,2,35,106,11
5,2,16,1,6,1,2,35,106,11
5,2,13,1,5,1,2,35,106,11
5,2,17,1,2,0,2,35,115,11
6,3,17,1,3,0,2,35,106,11
6,3,21,0,5,1,2,35,65,9
6,3,21,0,3,0,2,35,106,11
6,3,1,0,3,0,2,35,115,11
6,3,9,1,3,0,2,35,115,11
6,3,11,1,6,1,2,35,106,11
6,3,19,1,1,0,2,35,106,11
7,3,19,1,1,0,3,35,106,11
7,3,10,1,2,0,3,35,16,11
7,3,8,1,5,1,3,35,19,11
7,3,17,1,5,1,3,35,106,11
7,3,1,0,5,1,3,35,106,11
8,3,9,1,1,0,3,35,106,11
8,3,13,1,1,0,3,35,106,11
8,3,9,1,2,0,3,35,78,11
8,3,12,1,5,1,3,35,106,11
8,3,20,1,4,0,3,35,46,11
9,4,10,1,2,0,3,35,106,11
9,4,11,1,4,0,3,35,46,11
9,4,21,0,5,1,3,35,106,11
9,4,14,1,6,1,3,35,75,11
9,4,0,0,0,0,3,35,106,11
10,4,11,1,1,0,4,35,39,11
12,1,22,0,6,1,4,35,46,9
1,1,12,1,5,1,1,45,78,11
1,1,20,1,0,0,1,45,67,11
1,1,0,0,1,0,1,45,78,11
1,1,21,0,2,0,1,45,93,11
1,1,13,1,5,1,1,45,93,11
1,1,7,1,5,1,1,45,93,11
1,1,2,0,1,0,1,45,78,11
1,1,11,1,6,1,1,45,78,9
1,1,4,0,6,1,1,45,75,9
1,1,17,1,0,0,1,45,78,11
1,1,20,1,3,0,1,45,67,11
2,1,15,1,4,0,1,45,67,11
2,1,16,1,5,1,1,45,67,11
2,1,14,1,4,0,1,45,93,11
2,1,13,1,6,1,1,45,4,11
2,1,6,0,4,0,1,45,90,11
3,2,22,0,2,0,1,45,67,11
3,2,1,0,4,0,1,45,109,11
3,2,15,1,5,1,1,45,67,11
3,2,2,0,5,1,1,45,75,11
3,2,18,1,5,1,1,45,78,9
4,2,9,1,3,0,2,45,19,11
4,2,1,0,4,0,2,45,90,11
4,2,1,0,4,0,2,45,90,11
4,2,1,0,4,0,2,45,90,11
4,2,1,0,4,0,2,45,103,11
4,2,1,0,4,0,2,45,106,11
4,2,0,0,5,1,2,45,78,8
4,2,3,0,5,1,2,45,90,11
4,2,23,0,3,0,2,45,39,11
4,2,3,0,4,0,2,45,90,11
4,2,23,0,5,1,2,45,78,11
4,2,8,1,3,0,2,45,114,11
4,2,15,1,3,0,2,45,75,11
4,2,22,0,2,0,2,45,133,11
4,2,2,0,5,1,2,45,133,11
4,2,15,1,1,0,2,45,67,11
5,2,5,0,6,1,2,45,90,11
5,2,14,1,4,0,2,45,14,11
5,2,3,0,6,1,2,45,90,11
5,2,2,0,0,0,2,45,106,11
5,2,17,1,1,0,2,45,25,11
5,2,2,0,4,0,2,45,106,11
5,2,15,1,5,1,2,45,93,11
5,2,19,1,2,0,2,45,19,11
6,3,17,1,1,0,2,45,12,8
6,3,13,1,4,0,2,45,4,11
6,3,19,1,4,0,2,45,106,11
6,3,11,1,2,0,2,45,93,9
6,3,16,1,3,0,2,45,115,11
6,3,8,1,3,0,2,45,115,11
6,3,13,1,6,1,2,45,106,11
6,3,13,1,2,0,2,45,133,11
6,3,14,1,5,1,2,45,93,11
7,3,9,1,2,0,3,45,19,11
7,3,0,0,4,0,3,45,100,11
7,3,13,1,2,0,3,45,78,11
8,3,4,0,1,0,3,45,90,11
8,3,2,0,3,0,3,45,115,11
8,3,17,1,3,0,3,45,75,9
9,4,14,1,0,0,3,45,75,11
9,4,23,0,6,1,3,45,1,11
9,4,11,1,0,0,3,45,78,11
10,4,9,1,3,0,4,45,19,11
10,4,3,0,4,0,4,45,90,11
10,4,12,1,5,1,4,45,93,11
10,4,11,1,1,0,4,45,133,11
11,4,12,1,1,0,4,45,78,11
11,4,11,1,3,0,4,45,4,11
11,4,18,1,3,0,4,45,67,11
11,4,0,0,5,1,4,45,66,11
11,4,20,1,2,0,4,45,103,11
11,4,3,0,4,0,4,45,90,11
11,4,16,1,5,1,4,45,13,8
11,4,15,1,0,0,4,45,67,11
11,4,5,0,2,0,4,45,90,11
11,4,18,1,2,0,4,45,133,11
11,4,19,1,6,1,4,45,103,11
11,4,3,0,6,1,4,45,90,11
11,4,20,1,0,0,4,45,67,11
12,1,1,0,6,1,4,45,67,11
12,1,22,0,6,1,4,45,93,11
12,1,15,1,3,0,4,45,67,11
12,1,16,1,3,0,4,45,75,9
12,1,14,1,1,0,4,45,67,11
12,1,0,0,4,0,4,45,93,11
12,1,18,1,5,1,4,45,67,11
12,1,11,1,5,1,4,45,90,11
12,1,16,1,1,0,4,45,90,11
12,1,10,1,3,0,4,45,90,11
12,1,10,1,4,0,4,45,78,11
2,1,20,1,6,1,1,45,78,11
4,2,10,1,1,0,2,45,78,11
7,3,5,0,3,0,3,45,13,9
7,3,6,0,2,0,3,45,78,11
1,1,19,1,3,0,1,45,106,11
4,2,11,1,1,0,2,45,19,11
6,3,13,1,3,0,2,45,75,11
11,4,21,0,2,0,4,45,90,11
11,4,11,1,5,1,4,45,90,11
12,1,22,0,6,1,4,45,133,11
1,1,16,1,3,0,1,45,13,9
1,1,16,1,0,0,1,45,106,11
1,1,8,1,1,0,1,45,39,11
1,1,8,1,3,0,1,45,90,11
1,1,11,1,6,1,1,45,106,11
1,1,15,1,2,0,1,45,39,11
1,1,23,0,3,0,1,45,90,11
1,1,19,1,5,1,1,45,13,11
1,1,14,1,3,0,1,45,90,11
3,2,13,1,2,0,1,45,93,11
3,2,10,1,5,1,1,45,67,11
3,2,7,1,6,1,1,45,90,11
3,2,22,0,5,1,1,45,67,11
3,2,21,0,0,0,1,45,39,11
4,2,17,1,2,0,2,45,4,11
4,2,17,1,3,0,2,45,39,11
5,2,13,1,5,1,2,45,106,11
5,2,0,0,6,1,2,45,93,11
6,3,17,1,1,0,2,45,93,11
7,3,20,1,0,0,3,45,93,11
7,3,15,1,6,1,3,45,90,11
8,3,13,1,2,0,3,45,106,11
8,3,8,1,3,0,3,45,19,11
8,3,21,0,5,1,3,45,13,9
8,3,14,1,4,0,3,45,93,11
9,4,16,1,3,0,3,45,19,11
10,4,22,0,3,0,4,45,106,11
11,4,22,0,2,0,4,45,106,11
11,4,19,1,5,1,4,45,106,11
11,4,16,1,6,1,4,45,93,11
11,4,14,1,3,0,4,45,67,11
12,1,3,0,3,0,4,45,100,11
12,1,20,1,3,0,4,45,93,11
12,1,5,0,0,0,4,45,133,11
12,1,11,1,5,1,4,45,106,11
12,1,11,1,1,0,4,45,93,11
12,1,13,1,1,0,4,45,78,9
1,1,8,1,6,1,1,22,90,11
1,1,18,1,6,1,1,22,78,11
1,1,14,1,1,0,1,22,19,11
1,1,17,1,2,0,1,22,93,11
2,1,20,1,6,1,1,22,90,11
2,1,13,1,3,0,1,22,67,11
2,1,20,1,6,1,1,22,67,11
2,1,2,0,2,0,1,22,14,11
2,1,13,1,2,0,1,22,67,11
3,2,9,1,0,0,1,22,78,11
3,2,10,1,0,0,1,22,93,11
3,2,0,0,0,0,1,22,90,11
3,2,1,0,6,1,1,22,90,11
3,2,10,1,2,0,1,22,78,11
3,2,3,0,6,1,1,22,90,11
3,2,3,0,6,1,1,22,90,11
3,2,12,1,6,1,1,22,48,11
4,2,0,0,3,0,2,22,90,11
4,2,2,0,5,1,2,22,100,11
4,2,23,0,0,0,2,22,90,11
4,2,11,1,1,0,2,22,14,11
5,2,22,0,0,0,2,22,90,11
5,2,21,0,5,1,2,22,84,11
5,2,8,1,6,1,2,22,58,11
6,3,14,1,5,1,2,22,67,11
6,3,22,0,6,1,2,22,90,11
6,3,14,1,6,1,2,22,93,11
6,3,10,1,6,1,2,22,102,11
6,3,13,1,0,0,2,22,93,11
6,3,22,0,1,0,2,22,90,11
6,3,15,1,2,0,2,22,14,9
6,3,18,1,5,1,2,22,93,11
7,3,18,1,5,1,3,22,9,11
7,3,20,1,3,0,3,22,78,11
7,3,18,1,4,0,3,22,93,9
7,3,13,1,6,1,3,22,78,11
7,3,19,1,2,0,3,22,106,11
7,3,0,0,4,0,3,22,78,11
7,3,21,0,4,0,3,22,93,11
7,3,14,1,0,0,3,22,93,11
7,3,14,1,2,0,3,22,131,11
7,3,8,1,4,0,3,22,67,11
7,3,8,1,1,0,3,22,90,11
7,3,14,1,1,0,3,22,90,11
7,3,11,1,3,0,3,22,106,11
7,3,13,1,4,0,3,22,110,11
8,3,23,0,0,0,3,22,46,11
8,3,2,0,3,0,3,22,112,8
8,3,1,0,1,0,3,22,13,9
8,3,13,1,6,1,3,22,78,11
8,3,2,0,2,0,3,22,90,11
9,4,23,0,6,1,3,22,93,11
9,4,21,0,1,0,3,22,93,11
9,4,23,0,4,0,3,22,13,11
9,4,18,1,5,1,3,22,93,11
9,4,16,1,2,0,3,22,90,11
9,4,0,0,6,1,3,22,90,11
9,4,10,1,1,0,3,22,90,11
10,4,8,1,6,1,4,22,106,11
10,4,15,1,3,0,4,22,27,11
10,4,10,1,5,1,4,22,78,11
11,4,20,1,6,1,4,22,90,11
11,4,13,1,4,0,4,22,114,9
11,4,19,1,5,1,4,22,90,11
12,1,11,1,4,0,4,22,67,11
12,1,20,1,2,0,4,22,106,11
12,1,10,1,1,0,4,22,58,11
12,1,14,1,3,0,4,22,67,11
12,1,19,1,3,0,4,22,14,11
12,1,19,1,5,1,4,22,90,11
12,1,8,1,2,0,4,22,39,8
12,1,22,0,4,0,4,22,90,11
12,1,15,1,5,1,4,22,14,11
12,1,9,1,6,1,4,22,78,11
12,1,14,1,2,0,4,22,67,11
2,1,13,1,0,0,1,22,39,11
2,1,21,0,5,1,1,22,78,11
3,2,9,1,6,1,1,22,78,11
3,2,4,0,0,0,1,22,39,8
4,2,15,1,5,1,2,22,78,11
4,2,20,1,5,1,2,22,93,11
4,2,21,0,5,1,2,22,90,11
5,2,4,0,1,0,2,22,13,9
5,2,10,1,3,0,2,22,115,11
5,2,13,1,6,1,2,22,65,11
6,3,11,1,5,1,2,22,90,11
6,3,14,1,1,0,2,22,93,11
7,3,19,1,4,0,3,22,90,11
7,3,3,0,0,0,3,22,67,11
7,3,17,1,3,0,3,22,130,11
8,3,16,1,5,1,3,22,78,11
10,4,16,1,2,0,4,22,25,11
11,4,11,1,0,0,4,22,39,11
11,4,19,1,6,1,4,22,115,11
12,1,20,1,6,1,4,22,90,11
2,1,19,1,5,1,1,22,78,11
2,1,12,1,2,0,1,22,78,11
2,1,11,1,3,0,1,22,78,11
3,2,3,0,0,0,1,22,13,8
4,2,2,0,5,1,2,22,93,11
6,3,18,1,5,1,2,22,93,11
9,4,15,1,1,0,3,22,93,11
9,4,15,1,3,0,3,22,93,11
9,4,10,1,1,0,3,22,78,11
9,4,1,0,0,0,3,22,115,11
9,4,15,1,5,1,3,22,93,11
11,4,21,0,4,0,4,22,78,11
11,4,10,1,5,1,4,22,93,11
12,1,21,0,5,1,4,22,90,11
12,1,18,1,6,1,4,22,100,11
1,1,16,1,1,0,1,22,20,11
2,1,16,1,0,0,1,22,39,11
2,1,17,1,5,1,1,22,93,11
3,2,22,0,6,1,1,22,69,11
5,2,15,1,5,1,2,22,93,11
5,2,12,1,0,0,2,22,93,11
5,2,14,1,1,0,2,22,93,11
5,2,16,1,6,1,2,22,93,11
6,3,14,1,6,1,2,22,4,11
6,3,15,1,0,0,2,22,65,11
9,4,2,0,5,1,3,22,19,11
10,4,19,1,2,0,4,22,20,11
1,1,23,0,3,0,1,6,19,11
2,1,9,1,4,0,1,6,78,9
2,1,13,1,3,0,1,6,78,11
2,1,17,1,3,0,1,6,115,11
5,2,6,0,0,0,2,6,100,11
9,4,14,1,4,0,3,6,26,9
10,4,10,1,4,0,4,6,75,11
11,4,18,1,1,0,4,6,90,11
12,1,20,1,3,0,4,6,78,11
1,1,17,1,5,1,1,6,100,11
1,1,14,1,0,0,1,6,93,11
1,1,12,1,0,0,1,6,100,11
2,1,13,1,4,0,1,6,78,11
2,1,20,1,4,0,1,6,100,11
3,2,12,1,6,1,1,6,90,11
4,2,14,1,3,0,2,6,100,11
5,2,17,1,4,0,2,6,93,11
5,2,11,1,6,1,2,6,93,11
6,3,1,0,4,0,2,6,93,11
10,4,9,1,1,0,4,6,93,11
12,1,7,1,1,0,4,6,100,11
12,1,19,1,6,1,4,6,100,11
12,1,1,0,2,0,4,6,100,11
12,1,12,1,6,1,4,6,106,11
12,1,19,1,5,1,4,6,106,11
12,1,10,1,6,1,4,6,93,11
12,1,19,1,5,1,4,6,100,11
12,1,13,1,0,0,4,6,93,11
1,1,2,0,3,0,1,6,100,11
1,1,10,1,3,0,1,6,100,11
1,1,12,1,3,0,1,6,78,11
1,1,23,0,4,0,1,6,100,11
1,1,23,0,4,0,1,6,100,11
1,1,20,1,4,0,1,6,100,11
1,1,9,1,4,0,1,6,39,11
1,1,0,0,4,0,1,6,100,11
1,1,0,0,4,0,1,6,103,11
1,1,3,0,4,0,1,6,100,11
1,1,19,1,5,1,1,6,39,11
1,1,20,1,5,1,1,6,100,11
1,1,22,0,5,1,1,6,103,11
1,1,15,1,6,1,1,6,100,11
1,1,16,1,6,1,1,6,81,11
1,1,0,0,0,0,1,6,100,11
1,1,20,1,0,0,1,6,100,11
1,1,20,1,0,0,1,6,39,11
1,1,20,1,0,0,1,6,100,11
1,1,13,1,0,0,1,6,100,11
1,1,0,0,1,0,1,6,100,11
1,1,11,1,1,0,1,6,39,11
1,1,19,1,1,0,1,6,100,11
1,1,21,0,1,0,1,6,90,11
1,1,21,0,1,0,1,6,100,11
1,1,23,0,1,0,1,6,93,11
1,1,12,1,2,0,1,6,100,11
1,1,4,0,2,0,1,6,100,11
1,1,13,1,3,0,1,6,93,11
1,1,23,0,4,0,1,6,100,11
1,1,4,0,4,0,1,6,100,11
1,1,23,0,5,1,1,6,78,11
1,1,17,1,5,1,1,6,78,11
1,1,1,0,6,1,1,6,100,11
1,1,19,1,6,1,1,6,100,11
1,1,15,1,6,1,1,6,100,11
1,1,0,0,6,1,1,6,100,11
1,1,0,0,6,1,1,6,100,11
1,1,1,0,6,1,1,6,100,11
1,1,1,0,6,1,1,6,100,11
1,1,1,0,6,1,1,6,100,11
1,1,1,0,6,1,1,6,100,11
1,1,1,0,6,1,1,6,100,11
1,1,1,0,6,1,1,6,100,11
1,1,0,0,6,1,1,6,100,11
1,1,0,0,6,1,1,6,100,11
1,1,0,0,6,1,1,6,100,11
1,1,0,0,6,1,1,6,100,11
1,1,14,1,1,0,1,6,100,11
1,1,11,1,2,0,1,6,100,11
1,1,15,1,2,0,1,6,100,11
1,1,18,1,2,0,1,6,100,11
1,1,21,0,3,0,1,6,100,11
1,1,1,0,3,0,1,6,1,11
1,1,14,1,5,1,1,6,19,11
1,1,3,0,0,0,1,6,100,11
1,1,3,0,0,0,1,6,100,11
1,1,15,1,1,0,1,6,67,11
1,1,20,1,1,0,1,6,78,11
1,1,2,0,1,0,1,6,100,11
1,1,21,0,2,0,1,6,39,11
1,1,23,0,2,0,1,6,100,11
1,1,14,1,3,0,1,6,100,11
1,1,7,1,3,0,1,6,100,11
1,1,14,1,6,1,1,6,100,11
1,1,22,0,6,1,1,6,39,11
1,1,10,1,1,0,1,6,100,11
1,1,10,1,2,0,1,6,67,11
1,1,16,1,2,0,1,6,100,11
1,1,19,1,2,0,1,6,67,11
1,1,21,0,4,0,1,6,20,11
2,1,12,1,6,1,1,6,100,11
2,1,7,1,0,0,1,6,19,11
2,1,21,0,2,0,1,6,100,11
2,1,22,0,2,0,1,6,100,11
2,1,23,0,2,0,1,6,100,11
2,1,18,1,2,0,1,6,67,11
2,1,22,0,3,0,1,6,100,11
2,1,12,1,4,0,1,6,115,11
2,1,2,0,4,0,1,6,100,11
2,1,2,0,6,1,1,6,19,11
2,1,13,1,1,0,1,6,100,11
2,1,8,1,1,0,1,6,19,11
2,1,6,0,2,0,1,6,67,11
2,1,17,1,2,0,1,6,106,11
2,1,2,0,4,0,1,6,100,11
2,1,19,1,5,1,1,6,100,11
2,1,17,1,5,1,1,6,78,11
2,1,11,1,5,1,1,6,78,11
2,1,22,0,6,1,1,6,100,11
2,1,19,1,6,1,1,6,100,11
2,1,16,1,0,0,1,6,100,11
2,1,15,1,2,0,1,6,100,11
2,1,10,1,4,0,1,6,100,11
2,1,21,0,6,1,1,6,115,11
2,1,3,0,2,0,1,6,100,11
2,1,4,0,3,0,1,6,100,11
3,2,0,0,6,1,1,6,100,11
3,2,0,0,6,1,1,6,67,9
3,2,20,1,0,0,1,6,67,11
3,2,23,0,2,0,1,6,75,11
3,2,12,1,2,0,1,6,78,11
3,2,1,0,2,0,1,6,133,11
3,2,19,1,4,0,1,6,75,11
3,2,8,1,6,1,1,6,78,11
3,2,1,0,6,1,1,6,100,11
3,2,22,0,6,1,1,6,100,11
3,2,22,0,6,1,1,6,100,11
3,2,3,0,0,0,1,6,100,11
3,2,11,1,5,1,1,6,90,11
3,2,22,0,6,1,1,6,106,11
3,2,23,0,0,0,1,6,90,11
3,2,1,0,3,0,1,6,100,11
3,2,22,0,4,0,1,6,48,11
3,2,9,1,4,0,1,6,93,11
3,2,12,1,5,1,1,6,93,11
3,2,4,0,5,1,1,6,100,11
3,2,19,1,6,1,1,6,67,11
3,2,10,1,6,1,1,6,67,11
3,2,12,1,6,1,1,6,67,11
3,2,20,1,6,1,1,6,78,11
3,2,3,0,1,0,1,6,131,11
3,2,4,0,5,1,1,6,100,11
3,2,4,0,5,1,1,6,100,11
3,2,21,0,0,0,1,6,39,11
3,2,20,1,1,0,1,6,23,11
3,2,17,1,1,0,1,6,67,11
4,2,3,0,2,0,2,6,100,11
4,2,2,0,3,0,2,6,100,11
4,2,6,0,3,0,2,6,100,11
4,2,7,1,3,0,2,6,100,11
4,2,22,0,3,0,2,6,14,11
4,2,5,0,4,0,2,6,100,11
4,2,13,1,4,0,2,6,100,11
4,2,20,1,5,1,2,6,19,11
4,2,21,0,1,0,2,6,90,11
4,2,21,0,1,0,2,6,67,11
4,2,5,0,1,0,2,6,90,11
4,2,8,1,2,0,2,6,67,8
4,2,2,0,3,0,2,6,19,11
4,2,5,0,3,0,2,6,100,11
4,2,20,1,4,0,2,6,67,11
4,2,21,0,4,0,2,6,78,11
4,2,23,0,4,0,2,6,67,11
4,2,2,0,6,1,2,6,103,11
4,2,20,1,6,1,2,6,100,11
4,2,21,0,0,0,2,6,55,11
4,2,3,0,1,0,2,6,100,11
4,2,4,0,1,0,2,6,100,11
4,2,3,0,1,0,2,6,100,11
4,2,3,0,1,0,2,6,100,11
4,2,3,0,1,0,2,6,100,11
4,2,3,0,1,0,2,6,100,11
4,2,1,0,1,0,2,6,100,11
4,2,1,0,1,0,2,6,100,11
4,2,16,1,3,0,2,6,67,11
4,2,13,1,3,0,2,6,100,11
4,2,22,0,4,0,2,6,100,11
4,2,4,0,5,1,2,6,100,11
4,2,20,1,6,1,2,6,90,11
4,2,3,0,1,0,2,6,100,11
4,2,3,0,2,0,2,6,100,11
4,2,17,1,2,0,2,6,33,11
4,2,22,0,3,0,2,6,100,11
4,2,23,0,4,0,2,6,100,11
4,2,20,1,5,1,2,6,106,11
4,2,21,0,0,0,2,6,93,11
4,2,3,0,2,0,2,6,91,11
5,2,12,1,5,1,2,6,100,11
5,2,11,1,6,1,2,6,100,11
5,2,10,1,0,0,2,6,19,11
5,2,13,1,0,0,2,6,106,11
5,2,1,0,1,0,2,6,100,11
5,2,21,0,3,0,2,6,112,11
5,2,6,0,5,1,2,6,90,11
5,2,5,0,6,1,2,6,100,11
5,2,23,0,6,1,2,6,106,11
5,2,2,0,0,0,2,6,100,11
5,2,0,0,3,0,2,6,57,11
5,2,10,1,4,0,2,6,14,11
5,2,0,0,5,1,2,6,100,11
5,2,23,0,6,1,2,6,100,11
5,2,5,0,0,0,2,6,90,11
5,2,4,0,0,0,2,6,90,11
5,2,5,0,0,0,2,6,90,11
5,2,4,0,0,0,2,6,90,11
5,2,19,1,1,0,2,6,67,11
5,2,14,1,2,0,2,6,130,11
5,2,3,0,3,0,2,6,90,11
5,2,19,1,4,0,2,6,67,11
5,2,21,0,5,1,2,6,19,11
5,2,0,0,6,1,2,6,100,11
5,2,0,0,6,1,2,6,100,11
5,2,19,1,0,0,2,6,78,11
5,2,13,1,1,0,2,6,67,11
5,2,2,0,3,0,2,6,100,11
5,2,10,1,4,0,2,6,67,11
5,2,7,1,6,1,2,6,100,11
6,3,21,0,0,0,2,6,90,11
6,3,0,0,0,0,2,6,48,11
6,3,3,0,1,0,2,6,100,11
6,3,17,1,2,0,2,6,23,11
6,3,17,1,4,0,2,6,93,11
6,3,18,1,5,1,2,6,112,11
6,3,18,1,3,0,2,6,23,11
6,3,4,0,4,0,2,6,100,11
6,3,9,1,4,0,2,6,90,11
6,3,11,1,5,1,2,6,93,11
6,3,4,0,6,1,2,6,90,11
6,3,7,1,6,1,2,6,90,11
6,3,6,0,6,1,2,6,39,8
6,3,1,0,0,0,2,6,67,11
6,3,21,0,3,0,2,6,100,11
6,3,2,0,6,1,2,6,100,11
6,3,16,1,0,0,2,6,19,11
6,3,10,1,1,0,2,6,100,11
6,3,15,1,2,0,2,6,100,11
6,3,15,1,4,0,2,6,100,11
6,3,22,0,5,1,2,6,100,11
6,3,15,1,5,1,2,6,100,11
7,3,12,1,2,0,3,6,106,11
7,3,14,1,5,1,3,6,67,11
7,3,2,0,5,1,3,6,100,11
7,3,11,1,1,0,3,6,67,11
7,3,12,1,2,0,3,6,100,11
7,3,4,0,0,0,3,6,19,11
7,3,20,1,4,0,3,6,100,11
7,3,13,1,4,0,3,6,67,11
7,3,12,1,5,1,3,6,100,11
7,3,19,1,6,1,3,6,93,11
7,3,2,0,6,1,3,6,103,11
7,3,11,1,0,0,3,6,103,11
7,3,18,1,3,0,3,6,84,11
7,3,20,1,4,0,3,6,93,11
7,3,3,0,1,0,3,6,100,11
7,3,12,1,2,0,3,6,103,11
7,3,7,1,4,0,3,6,90,11
8,3,6,0,6,1,3,6,90,11
8,3,22,0,0,0,3,6,100,11
8,3,14,1,3,0,3,6,67,11
8,3,20,1,4,0,3,6,93,11
8,3,9,1,1,0,3,6,67,11
8,3,1,0,2,0,3,6,100,11
8,3,14,1,4,0,3,6,66,11
8,3,20,1,0,0,3,6,75,11
8,3,14,1,1,0,3,6,103,11
8,3,15,1,2,0,3,6,100,11
8,3,0,0,2,0,3,6,90,11
8,3,14,1,3,0,3,6,67,11
8,3,8,1,3,0,3,6,100,11
8,3,2,0,4,0,3,6,100,11
8,3,15,1,5,1,3,6,100,11
8,3,4,0,2,0,3,6,90,11
8,3,13,1,6,1,3,6,100,11
8,3,1,0,6,1,3,6,100,11
8,3,16,1,0,0,3,6,75,11
8,3,2,0,0,0,3,6,133,11
8,3,1,0,0,0,3,6,100,11
8,3,22,0,0,0,3,6,100,11
9,4,2,0,4,0,3,6,100,11
9,4,17,1,4,0,3,6,67,11
9,4,23,0,0,0,3,6,78,11
9,4,12,1,2,0,3,6,39,11
9,4,19,1,4,0,3,6,39,11
9,4,3,0,5,1,3,6,75,11
9,4,19,1,1,0,3,6,2,11
9,4,21,0,3,0,3,6,100,11
9,4,2,0,5,1,3,6,106,11
9,4,6,0,5,1,3,6,100,11
9,4,1,0,0,0,3,6,115,11
9,4,8,1,0,0,3,6,113,11
9,4,1,0,5,1,3,6,23,11
9,4,13,1,6,1,3,6,100,11
9,4,20,1,1,0,3,6,100,11
10,4,18,1,5,1,4,6,100,11
10,4,10,1,6,1,4,6,100,11
10,4,2,0,0,0,4,6,100,11
10,4,19,1,2,0,4,6,67,11
10,4,12,1,2,0,4,6,67,11
10,4,8,1,2,0,4,6,90,11
10,4,4,0,4,0,4,6,100,11
10,4,13,1,6,1,4,6,67,11
10,4,2,0,6,1,4,6,100,11
10,4,12,1,1,0,4,6,39,11
10,4,19,1,4,0,4,6,100,11
10,4,7,1,4,0,4,6,100,11
10,4,16,1,4,0,4,6,67,11
10,4,6,0,5,1,4,6,100,11
10,4,23,0,6,1,4,6,100,11
10,4,6,0,6,1,4,6,79,11
10,4,0,0,0,0,4,6,100,11
10,4,20,1,4,0,4,6,39,11
10,4,20,1,6,1,4,6,100,11
10,4,20,1,6,1,4,6,100,11
10,4,19,1,6,1,4,6,78,11
10,4,13,1,1,0,4,6,100,11
10,4,2,0,1,0,4,6,100,11
10,4,10,1,1,0,4,6,106,11
10,4,3,0,2,0,4,6,82,11
10,4,23,0,3,0,4,6,90,11
10,4,14,1,3,0,4,6,78,11
10,4,21,0,4,0,4,6,75,11
10,4,21,0,4,0,4,6,75,11
11,4,18,1,6,1,4,6,4,11
11,4,9,1,2,0,4,6,100,11
11,4,6,0,2,0,4,6,93,11
11,4,21,0,5,1,4,6,67,11
11,4,23,0,5,1,4,6,19,11
11,4,15,1,0,0,4,6,19,11
11,4,4,0,2,0,4,6,19,11
11,4,18,1,4,0,4,6,100,11
11,4,18,1,4,0,4,6,100,11
11,4,20,1,6,1,4,6,100,11
11,4,18,1,3,0,4,6,112,11
11,4,9,1,3,0,4,6,78,11
11,4,1,0,5,1,4,6,93,11
11,4,20,1,6,1,4,6,67,11
11,4,19,1,6,1,4,6,100,11
11,4,3,0,6,1,4,6,100,11
12,1,6,0,3,0,4,6,100,11
12,1,6,0,3,0,4,6,100,11
12,1,11,1,3,0,4,6,100,11
12,1,12,1,4,0,4,6,100,11
12,1,12,1,4,0,4,6,100,11
12,1,18,1,4,0,4,6,58,11
12,1,22,0,4,0,4,6,100,11
12,1,11,1,4,0,4,6,39,11
12,1,10,1,5,1,4,6,19,11
12,1,23,0,0,0,4,6,100,11
12,1,23,0,0,0,4,6,100,11
12,1,23,0,0,0,4,6,100,11
12,1,23,0,0,0,4,6,100,11
12,1,18,1,0,0,4,6,100,11
12,1,17,1,0,0,4,6,100,11
12,1,0,0,0,0,4,6,100,11
12,1,6,0,1,0,4,6,82,11
12,1,11,1,1,0,4,6,100,11
12,1,1,0,2,0,4,6,79,11
12,1,12,1,2,0,4,6,1,11
12,1,16,1,4,0,4,6,90,11
12,1,20,1,4,0,4,6,23,11
12,1,20,1,5,1,4,6,67,11
12,1,21,0,5,1,4,6,78,11
12,1,4,0,6,1,4,6,100,11
12,1,5,0,6,1,4,6,100,11
12,1,5,0,6,1,4,6,100,11
12,1,4,0,6,1,4,6,100,11
12,1,4,0,6,1,4,6,90,11
12,1,5,0,6,1,4,6,90,11
12,1,5,0,6,1,4,6,90,11
12,1,22,0,6,1,4,6,67,11
12,1,22,0,0,0,4,6,100,11
12,1,18,1,2,0,4,6,39,11
12,1,10,1,3,0,4,6,39,11
12,1,21,0,3,0,4,6,100,11
12,1,22,0,4,0,4,6,90,11
12,1,22,0,4,0,4,6,90,11
12,1,20,1,5,1,4,6,67,11
12,1,16,1,5,1,4,6,100,11
12,1,6,0,6,1,4,6,100,11
12,1,18,1,6,1,4,6,78,11
12,1,15,1,0,0,4,6,100,11
12,1,19,1,2,0,4,6,93,9
12,1,19,1,3,0,4,6,100,11
12,1,23,0,4,0,4,6,100,11
12,1,9,1,4,0,4,6,100,11
12,1,1,0,5,1,4,6,100,11
12,1,18,1,6,1,4,6,67,11
12,1,1,0,6,1,4,6,100,11
12,1,14,1,1,0,4,6,39,11
12,1,23,0,1,0,4,6,100,11
12,1,6,0,3,0,4,6,100,11
12,1,15,1,3,0,4,6,100,11
12,1,16,1,3,0,4,6,67,11
1,1,18,1,4,0,1,6,93,11
1,1,17,1,2,0,1,6,78,11
1,1,15,1,1,0,1,6,93,11
1,1,14,1,4,0,1,6,114,11
2,1,8,1,1,0,1,6,106,11
2,1,12,1,5,1,1,6,78,11
3,2,18,1,6,1,1,6,78,11
3,2,1,0,6,1,1,6,114,8
4,2,14,1,2,0,2,6,37,11
4,2,23,0,4,0,2,6,66,11
5,2,1,0,2,0,2,6,133,11
5,2,18,1,1,0,2,6,93,11
5,2,2,0,5,1,2,6,19,11
6,3,20,1,5,1,2,6,78,11
6,3,21,0,2,0,2,6,78,11
6,3,1,0,6,1,2,6,75,11
6,3,15,1,1,0,2,6,93,11
6,3,12,1,4,0,2,6,93,11
6,3,13,1,5,1,2,6,115,11
6,3,16,1,1,0,2,6,90,11
7,3,23,0,3,0,3,6,93,11
7,3,19,1,3,0,3,6,93,8
7,3,23,0,4,0,3,6,11,11
7,3,15,1,2,0,3,6,13,8
8,3,13,1,4,0,3,6,75,11
8,3,3,0,5,1,3,6,13,11
8,3,0,0,4,0,3,6,133,11
10,4,17,1,0,0,4,6,90,11
10,4,1,0,0,0,4,6,19,11
11,4,13,1,2,0,4,6,100,11
11,4,10,1,5,1,4,6,90,11
11,4,19,1,0,0,4,6,90,11
12,1,3,0,6,1,4,6,93,11
12,1,23,0,6,1,4,6,13,11
12,1,22,0,0,0,4,6,90,11
12,1,14,1,0,0,4,6,78,11
12,1,7,1,0,0,4,6,93,9
1,1,16,1,3,0,1,6,90,11
1,1,22,0,4,0,1,6,78,11
1,1,13,1,2,0,1,6,90,11
1,1,5,0,3,0,1,6,93,11
1,1,2,0,2,0,1,6,78,11
1,1,8,1,2,0,1,6,78,11
1,1,16,1,5,1,1,6,78,11
1,1,15,1,1,0,1,6,75,11
1,1,13,1,5,1,1,6,78,11
1,1,11,1,6,1,1,6,78,11
1,1,11,1,2,0,1,6,78,11
1,1,19,1,2,0,1,6,78,8
2,1,21,0,4,0,1,6,90,11
2,1,4,0,3,0,1,6,39,11
2,1,23,0,6,1,1,6,90,11
2,1,21,0,5,1,1,6,90,11
2,1,18,1,6,1,1,6,93,11
2,1,4,0,1,0,1,6,75,11
2,1,14,1,2,0,1,6,90,11
2,1,18,1,4,0,1,6,90,11
3,2,8,1,0,0,1,6,39,11
3,2,14,1,0,0,1,6,47,11
3,2,19,1,0,0,1,6,46,11
3,2,19,1,2,0,1,6,39,11
3,2,18,1,0,0,1,6,78,11
4,2,5,0,6,1,2,6,90,11
4,2,6,0,3,0,2,6,75,11
4,2,10,1,5,1,2,6,78,11
4,2,10,1,6,1,2,6,39,11
4,2,11,1,6,1,2,6,93,11
4,2,13,1,0,0,2,6,58,11
4,2,1,0,3,0,2,6,93,11
4,2,20,1,1,0,2,6,103,11
4,2,4,0,3,0,2,6,90,11
5,2,20,1,5,1,2,6,78,11
5,2,1,0,6,1,2,6,90,11
5,2,9,1,6,1,2,6,39,11
5,2,20,1,3,0,2,6,93,11
5,2,2,0,0,0,2,6,90,11
5,2,19,1,1,0,2,6,46,8
5,2,10,1,0,0,2,6,78,11
5,2,19,1,1,0,2,6,114,11
6,3,10,1,1,0,2,6,78,11
6,3,2,0,2,0,2,6,90,11
6,3,0,0,3,0,2,6,93,11
6,3,1,0,0,0,2,6,67,11
6,3,16,1,2,0,2,6,75,11
6,3,19,1,5,1,2,6,39,11
6,3,2,0,3,0,2,6,75,11
7,3,21,0,6,1,3,6,106,11
7,3,22,0,6,1,3,6,106,11
8,3,2,0,4,0,3,6,84,11
8,3,17,1,5,1,3,6,93,11
8,3,10,1,1,0,3,6,93,11
8,3,21,0,6,1,3,6,14,9
8,3,21,0,1,0,3,6,90,11
9,4,18,1,6,1,3,6,90,11
9,4,2,0,0,0,3,6,90,11
9,4,2,0,4,0,3,6,90,11
10,4,14,1,0,0,4,6,78,11
10,4,1,0,2,0,4,6,90,11
10,4,1,0,0,0,4,6,90,11
10,4,18,1,0,0,4,6,90,11
10,4,2,0,1,0,4,6,90,11
10,4,8,1,3,0,4,6,39,11
10,4,11,1,6,1,4,6,78,11
10,4,1,0,1,0,4,6,90,11
10,4,2,0,4,0,4,6,90,11
11,4,16,1,6,1,4,6,90,11
11,4,19,1,6,1,4,6,78,11
11,4,0,0,4,0,4,6,90,11
11,4,23,0,0,0,4,6,39,11
11,4,4,0,2,0,4,6,112,11
12,1,2,0,1,0,4,6,90,11
12,1,16,1,1,0,4,6,90,11
12,1,22,0,2,0,4,6,90,11
12,1,10,1,3,0,4,6,67,11
12,1,20,1,3,0,4,6,78,11
12,1,19,1,0,0,4,6,78,11
12,1,5,0,1,0,4,6,90,11
12,1,21,0,2,0,4,6,90,11
12,1,1,0,1,0,4,6,90,11
12,1,2,0,3,0,4,6,90,11
12,1,9,1,3,0,4,6,90,11
12,1,12,1,5,1,4,6,90,11
12,1,22,0,5,1,4,6,19,11
12,1,18,1,2,0,4,6,4,11
12,1,19,1,2,0,4,6,67,11
1,1,1,0,4,0,1,6,78,11
1,1,16,1,1,0,1,6,78,11
2,1,12,1,0,0,1,6,93,11
3,2,4,0,1,0,1,6,75,11
4,2,12,1,6,1,2,6,90,11
8,3,21,0,0,0,3,6,90,11
9,4,20,1,2,0,3,6,90,11
9,4,9,1,1,0,3,6,90,11
11,4,18,1,6,1,4,6,90,11
12,1,10,1,5,1,4,6,67,11
1,1,19,1,6,1,1,6,106,11
1,1,22,0,3,0,1,6,39,11
2,1,20,1,0,0,1,6,67,11
2,1,16,1,2,0,1,6,39,9
2,1,11,1,5,1,1,6,87,11
2,1,15,1,4,0,1,6,78,11
3,2,10,1,5,1,1,6,90,11
4,2,10,1,6,1,2,6,133,11
4,2,19,1,0,0,2,6,106,11
5,2,22,0,6,1,2,6,13,11
5,2,14,1,1,0,2,6,133,11
7,3,19,1,4,0,3,6,14,9
8,3,16,1,6,1,3,6,67,11
9,4,10,1,6,1,3,6,130,11
10,4,19,1,5,1,4,6,78,11
12,1,10,1,6,1,4,6,78,9
12,1,17,1,2,0,4,6,90,11
12,1,14,1,6,1,4,6,78,9
1,1,3,0,6,1,1,1,86,11
1,1,14,1,0,0,1,1,133,11
1,1,13,1,2,0,1,1,93,11
1,1,11,1,2,0,1,1,13,11
1,1,16,1,5,1,1,1,133,11
1,1,4,0,4,0,1,1,133,11
2,1,0,0,2,0,1,1,39,11
2,1,20,1,2,0,1,1,39,11
2,1,9,1,3,0,1,1,106,11
2,1,18,1,6,1,1,1,133,11
2,1,21,0,1,0,1,1,54,11
3,2,11,1,5,1,1,1,39,11
3,2,22,0,3,0,1,1,67,11
3,2,13,1,0,0,1,1,19,11
3,2,12,1,6,1,1,1,39,11
3,2,20,1,2,0,1,1,39,11
4,2,17,1,3,0,2,1,133,11
4,2,16,1,5,1,2,1,133,11
4,2,9,1,0,0,2,1,39,8
5,2,15,1,1,0,2,1,93,11
5,2,14,1,2,0,2,1,93,11
5,2,11,1,3,0,2,1,93,11
5,2,1,0,0,0,2,1,133,11
5,2,10,1,0,0,2,1,93,11
5,2,14,1,1,0,2,1,39,11
5,2,17,1,6,1,2,1,93,11
6,3,14,1,0,0,2,1,93,11
6,3,20,1,2,0,2,1,106,11
6,3,18,1,3,0,2,1,93,11
7,3,7,1,2,0,3,1,11,9
7,3,20,1,3,0,3,1,106,11
7,3,23,0,4,0,3,1,133,11
7,3,14,1,6,1,3,1,131,11
7,3,1,0,0,0,3,1,133,11
7,3,12,1,1,0,3,1,93,11
7,3,16,1,1,0,3,1,93,11
7,3,6,0,5,1,3,1,133,11
7,3,23,0,0,0,3,1,133,11
7,3,22,0,2,0,3,1,67,11
7,3,18,1,3,0,3,1,13,11
7,3,14,1,5,1,3,1,78,9
7,3,6,0,0,0,3,1,133,11
7,3,6,0,3,0,3,1,115,11
8,3,12,1,5,1,3,1,115,11
8,3,10,1,3,0,3,1,115,11
8,3,19,1,6,1,3,1,19,11
9,4,18,1,4,0,3,1,67,11
9,4,2,0,6,1,3,1,19,11
9,4,14,1,6,1,3,1,78,11
9,4,20,1,0,0,3,1,106,11
9,4,10,1,3,0,3,1,93,11
9,4,16,1,3,0,3,1,19,11
9,4,20,1,3,0,3,1,93,11
9,4,14,1,4,0,3,1,93,11
9,4,10,1,6,1,3,1,93,11
9,4,10,1,6,1,3,1,106,11
10,4,17,1,4,0,4,1,93,11
10,4,13,1,0,0,4,1,57,11
10,4,0,0,5,1,4,1,19,11
10,4,9,1,1,0,4,1,15,11
10,4,1,0,3,0,4,1,133,11
11,4,15,1,3,0,4,1,93,11
11,4,18,1,3,0,4,1,93,11
11,4,13,1,5,1,4,1,106,11
11,4,13,1,5,1,4,1,19,11
11,4,18,1,1,0,4,1,67,11
11,4,7,1,3,0,4,1,13,9
11,4,12,1,3,0,4,1,106,11
12,1,11,1,3,0,4,1,39,11
12,1,19,1,5,1,4,1,106,11
12,1,20,1,1,0,4,1,39,11
12,1,18,1,6,1,4,1,39,11
12,1,11,1,0,0,4,1,78,11
12,1,18,1,0,0,4,1,39,11
12,1,4,0,1,0,4,1,90,11
12,1,11,1,2,0,4,1,66,11
12,1,19,1,5,1,4,1,78,11
12,1,22,0,3,0,4,1,133,11
12,1,21,0,1,0,4,1,133,11
12,1,2,0,3,0,4,1,133,11
12,1,12,1,3,0,4,1,133,11
1,1,11,1,3,0,1,1,90,11
1,1,18,1,4,0,1,1,39,11
1,1,19,1,4,0,1,1,106,11
1,1,1,0,5,1,1,1,78,11
1,1,15,1,5,1,1,1,90,11
1,1,19,1,5,1,1,1,67,11
1,1,16,1,6,1,1,1,90,11
1,1,16,1,6,1,1,1,67,11
1,1,11,1,1,0,1,1,67,11
1,1,13,1,1,0,1,1,90,11
1,1,21,0,2,0,1,1,90,11
1,1,21,0,2,0,1,1,90,11
1,1,0,0,4,0,1,1,90,11
1,1,20,1,5,1,1,1,78,11
1,1,14,1,6,1,1,1,106,11
1,1,17,1,6,1,1,1,106,11
1,1,20,1,3,0,1,1,67,11
1,1,13,1,5,1,1,1,90,11
1,1,17,1,5,1,1,1,106,11
1,1,19,1,5,1,1,1,90,11
1,1,18,1,6,1,1,1,78,11
1,1,23,0,0,0,1,1,90,11
1,1,23,0,0,0,1,1,90,11
1,1,12,1,2,0,1,1,90,11
1,1,17,1,6,1,1,1,67,11
1,1,17,1,4,0,1,1,90,11
1,1,13,1,5,1,1,1,90,11
2,1,18,1,0,0,1,1,19,11
2,1,4,0,1,0,1,1,90,11
2,1,12,1,3,0,1,1,90,11
2,1,13,1,3,0,1,1,14,9
2,1,17,1,3,0,1,1,106,11
2,1,22,0,1,0,1,1,90,11
2,1,13,1,2,0,1,1,93,11
2,1,18,1,2,0,1,1,39,11
2,1,2,0,4,0,1,1,78,11
2,1,15,1,4,0,1,1,90,11
2,1,19,1,4,0,1,1,90,11
2,1,22,0,4,0,1,1,67,11
2,1,1,0,5,1,1,1,90,11
2,1,20,1,0,0,1,1,67,11
2,1,16,1,1,0,1,1,90,11
2,1,16,1,2,0,1,1,75,11
2,1,12,1,4,0,1,1,90,11
2,1,2,0,6,1,1,1,90,11
2,1,3,0,6,1,1,1,90,11
2,1,13,1,0,0,1,1,90,11
2,1,21,0,0,0,1,1,67,11
2,1,23,0,2,0,1,1,67,11
2,1,2,0,3,0,1,1,90,11
3,2,15,1,0,0,1,1,78,11
3,2,20,1,0,0,1,1,90,11
3,2,20,1,0,0,1,1,90,11
3,2,21,0,0,0,1,1,90,11
3,2,21,0,1,0,1,1,90,11
3,2,4,0,6,1,1,1,90,11
3,2,11,1,6,1,1,1,90,11
3,2,7,1,0,0,1,1,78,11
3,2,11,1,1,0,1,1,67,11
3,2,1,0,2,0,1,1,90,11
3,2,12,1,1,0,1,1,14,11
3,2,16,1,4,0,1,1,67,11
3,2,14,1,5,1,1,1,123,11
3,2,21,0,5,1,1,1,106,11
3,2,18,1,0,0,1,1,39,11
3,2,21,0,1,0,1,1,106,11
3,2,23,0,1,0,1,1,90,11
3,2,18,1,2,0,1,1,78,11
3,2,20,1,2,0,1,1,106,11
3,2,21,0,2,0,1,1,90,11
3,2,5,0,3,0,1,1,103,11
3,2,9,1,0,0,1,1,78,11
3,2,22,0,1,0,1,1,90,11
3,2,22,0,1,0,1,1,90,11
3,2,23,0,1,0,1,1,90,11
4,2,1,0,3,0,2,1,86,11
4,2,21,0,4,0,2,1,67,11
4,2,0,0,5,1,2,1,90,11
4,2,0,0,5,1,2,1,67,11
4,2,11,1,5,1,2,1,106,11
4,2,22,0,5,1,2,1,90,11
4,2,23,0,5,1,2,1,90,11
4,2,20,1,6,1,2,1,90,11
4,2,22,0,6,1,2,1,90,11
4,2,1,0,3,0,2,1,90,11
4,2,2,0,3,0,2,1,90,11
4,2,18,1,4,0,2,1,82,11
4,2,20,1,4,0,2,1,39,11
4,2,20,1,5,1,2,1,15,11
4,2,0,0,6,1,2,1,90,11
4,2,1,0,4,0,2,1,19,11
4,2,1,0,4,0,2,1,90,11
4,2,3,0,4,0,2,1,90,11
4,2,21,0,0,0,2,1,106,11
4,2,20,1,0,0,2,1,106,11
4,2,18,1,4,0,2,1,90,11
4,2,2,0,5,1,2,1,90,11
4,2,3,0,5,1,2,1,90,11
4,2,12,1,6,1,2,1,106,11
4,2,15,1,6,1,2,1,106,11
4,2,20,1,6,1,2,1,106,11
4,2,18,1,0,0,2,1,14,11
4,2,11,1,1,0,2,1,115,11
5,2,20,1,4,0,2,1,106,11
5,2,13,1,0,0,2,1,106,11
5,2,0,0,2,0,2,1,90,11
5,2,19,1,2,0,2,1,67,11
5,2,15,1,3,0,2,1,19,11
5,2,2,0,4,0,2,1,90,11
5,2,13,1,6,1,2,1,93,11
5,2,17,1,6,1,2,1,93,11
5,2,5,0,6,1,2,1,90,11
5,2,11,1,0,0,2,1,66,11
5,2,22,0,0,0,2,1,106,11
5,2,0,0,2,0,2,1,90,11
5,2,18,1,5,1,2,1,13,11
5,2,6,0,6,1,2,1,78,11
5,2,3,0,6,1,2,1,90,11
5,2,20,1,0,0,2,1,106,11
5,2,10,1,1,0,2,1,106,11
5,2,4,0,1,0,2,1,90,11
5,2,3,0,3,0,2,1,90,11
5,2,4,0,3,0,2,1,90,11
5,2,17,1,0,0,2,1,106,11
5,2,23,0,1,0,2,1,90,11
5,2,3,0,1,0,2,1,90,11
5,2,1,0,3,0,2,1,90,11
5,2,3,0,3,0,2,1,90,11
6,3,22,0,0,0,2,1,90,11
6,3,16,1,0,0,2,1,93,11
6,3,13,1,2,0,2,1,106,11
6,3,13,1,4,0,2,1,133,11
6,3,0,0,5,1,2,1,90,11
6,3,4,0,5,1,2,1,90,11
6,3,12,1,6,1,2,1,106,11
6,3,18,1,0,0,2,1,93,11
6,3,19,1,2,0,2,1,106,11
6,3,3,0,5,1,2,1,90,11
6,3,21,0,6,1,2,1,106,11
6,3,23,0,3,0,2,1,90,11
6,3,0,0,4,0,2,1,90,11
6,3,19,1,6,1,2,1,106,11
6,3,20,1,1,0,2,1,93,11
6,3,16,1,3,0,2,1,106,11
6,3,20,1,3,0,2,1,106,11
6,3,15,1,4,0,2,1,106,11
6,3,22,0,1,0,2,1,106,11
7,3,21,0,3,0,3,1,84,11
7,3,23,0,3,0,3,1,90,11
7,3,12,1,4,0,3,1,90,11
7,3,18,1,4,0,3,1,106,11
7,3,19,1,0,0,3,1,106,11
7,3,20,1,0,0,3,1,106,11
7,3,20,1,1,0,3,1,106,11
7,3,11,1,3,0,3,1,106,11
7,3,22,0,3,0,3,1,106,11
7,3,13,1,4,0,3,1,90,11
7,3,1,0,6,1,3,1,78,11
7,3,19,1,6,1,3,1,90,11
7,3,14,1,0,0,3,1,90,11
7,3,18,1,0,0,3,1,13,11
7,3,23,0,0,0,3,1,22,11
7,3,8,1,2,0,3,1,90,11
7,3,15,1,2,0,3,1,90,11
7,3,20,1,2,0,3,1,90,11
7,3,13,1,3,0,3,1,78,11
7,3,12,1,4,0,3,1,106,11
7,3,16,1,4,0,3,1,106,11
7,3,19,1,5,1,3,1,90,11
7,3,3,0,1,0,3,1,93,11
7,3,11,1,1,0,3,1,106,11
7,3,14,1,2,0,3,1,106,11
7,3,10,1,4,0,3,1,106,11
7,3,13,1,0,0,3,1,93,11
7,3,6,0,1,0,3,1,93,11
7,3,13,1,1,0,3,1,106,11
7,3,17,1,1,0,3,1,106,11
7,3,11,1,2,0,3,1,106,11
7,3,4,0,4,0,3,1,90,11
7,3,15,1,4,0,3,1,67,11
8,3,17,1,0,0,3,1,106,11
8,3,12,1,4,0,3,1,93,11
8,3,11,1,5,1,3,1,103,11
8,3,14,1,5,1,3,1,93,11
8,3,20,1,5,1,3,1,106,11
8,3,21,0,5,1,3,1,106,11
8,3,19,1,1,0,3,1,106,11
8,3,15,1,2,0,3,1,106,11
8,3,18,1,2,0,3,1,106,11
8,3,22,0,5,1,3,1,67,11
8,3,19,1,0,0,3,1,78,11
8,3,9,1,2,0,3,1,106,11
8,3,15,1,2,0,3,1,90,11
8,3,15,1,3,0,3,1,93,11
8,3,22,0,4,0,3,1,90,11
8,3,17,1,5,1,3,1,93,11
8,3,7,1,5,1,3,1,133,11
8,3,18,1,5,1,3,1,106,11
8,3,18,1,6,1,3,1,93,11
8,3,9,1,0,0,3,1,106,11
8,3,11,1,0,0,3,1,106,11
8,3,17,1,0,0,3,1,106,11
8,3,17,1,0,0,3,1,106,11
8,3,23,0,1,0,3,1,90,11
8,3,1,0,1,0,3,1,106,11
8,3,9,1,2,0,3,1,106,11
8,3,19,1,2,0,3,1,106,11
8,3,20,1,3,0,3,1,106,11
8,3,22,0,3,0,3,1,106,11
8,3,21,0,4,0,3,1,115,11
8,3,21,0,5,1,3,1,106,11
8,3,23,0,5,1,3,1,5,11
8,3,3,0,0,0,3,1,93,11
9,4,17,1,1,0,3,1,93,11
9,4,9,1,4,0,3,1,106,11
9,4,22,0,4,0,3,1,93,11
9,4,22,0,5,1,3,1,5,11
9,4,23,0,5,1,3,1,5,11
9,4,3,0,6,1,3,1,90,11
9,4,7,1,1,0,3,1,106,11
9,4,12,1,1,0,3,1,106,11
9,4,9,1,1,0,3,1,67,11
9,4,3,0,4,0,3,1,91,11
9,4,4,0,0,0,3,1,91,11
9,4,14,1,0,0,3,1,106,11
9,4,21,0,0,0,3,1,106,11
9,4,7,1,5,1,3,1,93,11
9,4,17,1,1,0,3,1,93,11
9,4,1,0,5,1,3,1,90,11
9,4,1,0,6,1,3,1,101,11
9,4,23,0,0,0,3,1,90,11
9,4,18,1,1,0,3,1,106,11
10,4,12,1,4,0,4,1,106,11
10,4,16,1,4,0,4,1,106,11
10,4,17,1,0,0,4,1,26,11
10,4,18,1,1,0,4,1,106,11
10,4,19,1,0,0,4,1,131,11
10,4,5,0,2,0,4,1,106,11
10,4,11,1,4,0,4,1,78,11
10,4,3,0,5,1,4,1,90,11
10,4,17,1,5,1,4,1,106,11
10,4,4,0,6,1,4,1,90,11
10,4,3,0,2,0,4,1,90,11
10,4,20,1,2,0,4,1,78,11
10,4,10,1,5,1,4,1,106,11
11,4,4,0,6,1,4,1,90,11
11,4,4,0,6,1,4,1,90,11
11,4,7,1,6,1,4,1,13,11
11,4,14,1,6,1,4,1,81,11
11,4,3,0,6,1,4,1,103,11
11,4,3,0,6,1,4,1,90,11
11,4,19,1,0,0,4,1,67,11
11,4,15,1,5,1,4,1,106,11
11,4,20,1,5,1,4,1,106,11
11,4,1,0,6,1,4,1,106,11
11,4,10,1,6,1,4,1,106,11
11,4,20,1,0,0,4,1,58,11
11,4,12,1,4,0,4,1,13,9
11,4,13,1,4,0,4,1,78,11
11,4,0,0,6,1,4,1,90,11
11,4,3,0,6,1,4,1,106,11
11,4,16,1,6,1,4,1,93,11
11,4,19,1,1,0,4,1,90,11
11,4,21,0,3,0,4,1,90,11
11,4,16,1,6,1,4,1,100,11
11,4,3,0,5,1,4,1,90,11
11,4,3,0,5,1,4,1,90,11
11,4,22,0,5,1,4,1,90,11
11,4,3,0,0,0,4,1,90,11
11,4,18,1,0,0,4,1,115,11
11,4,17,1,0,0,4,1,78,9
12,1,17,1,2,0,4,1,90,11
12,1,1,0,6,1,4,1,19,11
12,1,20,1,6,1,4,1,67,11
12,1,10,1,2,0,4,1,90,11
12,1,20,1,4,0,4,1,67,11
12,1,2,0,6,1,4,1,90,11
12,1,6,0,6,1,4,1,90,11
12,1,1,0,0,0,4,1,90,11
12,1,22,0,1,0,4,1,90,11
12,1,17,1,3,0,4,1,39,11
12,1,22,0,3,0,4,1,19,11
12,1,13,1,5,1,4,1,90,11
12,1,17,1,5,1,4,1,14,11
12,1,3,0,1,0,4,1,112,11
12,1,15,1,1,0,4,1,90,11
12,1,20,1,1,0,4,1,100,11
12,1,18,1,2,0,4,1,106,11
12,1,21,0,3,0,4,1,90,11
12,1,0,0,3,0,4,1,90,11
2,1,12,1,4,0,1,1,90,11
2,1,10,1,1,0,1,1,66,11
5,2,10,1,3,0,2,1,39,11
5,2,23,0,0,0,2,1,14,11
7,3,12,1,4,0,3,1,93,11
12,1,12,1,0,0,4,1,14,11
1,1,15,1,6,1,1,1,39,11
1,1,12,1,4,0,1,1,39,11
1,1,19,1,1,0,1,1,133,11
2,1,15,1,6,1,1,1,67,11
3,2,9,1,0,0,1,1,67,11
3,2,19,1,4,0,1,1,39,11
3,2,11,1,1,0,1,1,13,11
4,2,8,1,4,0,2,1,39,11
5,2,19,1,5,1,2,1,133,11
5,2,17,1,2,0,2,1,67,9
5,2,11,1,2,0,2,1,100,11
5,2,5,0,5,1,2,1,79,11
7,3,0,0,5,1,3,1,93,11
7,3,14,1,1,0,3,1,19,11
8,3,5,0,1,0,3,1,13,9
9,4,16,1,3,0,3,1,93,11
10,4,14,1,6,1,4,1,93,11
10,4,12,1,2,0,4,1,14,11
12,1,16,1,5,1,4,1,93,11
12,1,17,1,1,0,4,1,78,11
12,1,8,1,3,0,4,1,93,11
12,1,2,0,5,1,4,1,133,11
12,1,6,0,4,0,4,1,133,11
12,1,21,0,2,0,4,1,133,11
12,1,20,1,3,0,4,1,133,11
1,1,13,1,2,0,1,1,90,11
1,1,12,1,4,0,1,1,19,11
1,1,3,0,4,0,1,1,19,9
1,1,21,0,0,0,1,1,78,8
2,1,14,1,0,0,1,1,90,11
2,1,10,1,2,0,1,1,58,8
2,1,22,0,4,0,1,1,90,11
2,1,12,1,2,0,1,1,75,11
2,1,9,1,6,1,1,1,67,11
2,1,19,1,3,0,1,1,39,11
2,1,9,1,4,0,1,1,78,11
3,2,0,0,1,0,1,1,133,11
3,2,17,1,0,0,1,1,39,11
4,2,16,1,2,0,2,1,19,9
4,2,20,1,0,0,2,1,67,11
5,2,8,1,2,0,2,1,58,11
5,2,18,1,6,1,2,1,93,11
5,2,19,1,3,0,2,1,75,11
6,3,22,0,0,0,2,1,19,11
9,4,23,0,6,1,3,1,106,11
9,4,0,0,0,0,3,1,106,11
9,4,16,1,0,0,3,1,90,11
10,4,15,1,4,0,4,1,90,11
10,4,8,1,3,0,4,1,47,11
10,4,10,1,1,0,4,1,14,11
10,4,5,0,2,0,4,1,19,9
10,4,12,1,4,0,4,1,75,11
12,1,11,1,3,0,4,1,90,11
12,1,22,0,3,0,4,1,78,11
1,1,15,1,1,0,1,15,39,11
1,1,18,1,1,0,1,15,106,11
1,1,20,1,1,0,1,15,106,11
1,1,17,1,2,0,1,15,106,11
1,1,19,1,2,0,1,15,106,11
1,1,21,0,3,0,1,15,67,11
1,1,8,1,3,0,1,15,106,11
1,1,7,1,4,0,1,15,106,11
1,1,2,0,5,1,1,15,106,11
1,1,23,0,0,0,1,15,106,11
1,1,23,0,0,0,1,15,106,11
1,1,22,0,0,0,1,15,106,11
1,1,16,1,0,0,1,15,93,11
1,1,15,1,1,0,1,15,106,11
1,1,2,0,1,0,1,15,106,11
1,1,10,1,2,0,1,15,106,11
1,1,4,0,2,0,1,15,106,11
1,1,20,1,3,0,1,15,67,11
1,1,15,1,3,0,1,15,78,11
1,1,18,1,4,0,1,15,106,11
1,1,6,0,4,0,1,15,93,11
1,1,21,0,6,1,1,15,93,11
1,1,21,0,0,0,1,15,106,11
1,1,16,1,1,0,1,15,106,11
1,1,19,1,2,0,1,15,106,11
1,1,16,1,3,0,1,15,106,11
1,1,14,1,1,0,1,15,67,11
2,1,16,1,6,1,1,15,106,11
2,1,16,1,1,0,1,15,90,11
2,1,20,1,2,0,1,15,19,11
2,1,17,1,3,0,1,15,13,11
2,1,21,0,3,0,1,15,106,11
2,1,16,1,4,0,1,15,67,11
2,1,22,0,5,1,1,15,106,11
2,1,3,0,6,1,1,15,106,11
2,1,21,0,3,0,1,15,121,11
3,2,3,0,6,1,1,15,39,11
3,2,19,1,6,1,1,15,106,11
3,2,23,0,6,1,1,15,106,11
3,2,22,0,1,0,1,15,46,11
3,2,14,1,2,0,1,15,106,11
3,2,5,0,3,0,1,15,106,11
3,2,1,0,5,1,1,15,106,11
3,2,1,0,6,1,1,15,106,11
3,2,13,1,6,1,1,15,106,11
3,2,20,1,6,1,1,15,106,11
3,2,7,1,0,0,1,15,106,11
3,2,18,1,0,0,1,15,39,11
3,2,0,0,1,0,1,15,106,11
3,2,6,0,1,0,1,15,106,11
3,2,16,1,3,0,1,15,39,11
3,2,0,0,0,0,1,15,106,11
3,2,11,1,0,0,1,15,19,11
4,2,4,0,2,0,2,15,106,11
4,2,7,1,2,0,2,15,93,11
4,2,23,0,4,0,2,15,106,11
4,2,3,0,5,1,2,15,106,11
4,2,3,0,6,1,2,15,106,11
4,2,16,1,0,0,2,15,106,11
4,2,22,0,0,0,2,15,14,11
4,2,20,1,1,0,2,15,106,11
4,2,3,0,2,0,2,15,106,11
4,2,17,1,3,0,2,15,106,11
4,2,17,1,3,0,2,15,106,11
4,2,20,1,3,0,2,15,106,11
4,2,22,0,3,0,2,15,106,11
4,2,20,1,4,0,2,15,106,11
4,2,22,0,4,0,2,15,106,11
4,2,3,0,5,1,2,15,106,11
4,2,17,1,5,1,2,15,106,11
4,2,4,0,6,1,2,15,106,11
4,2,15,1,0,0,2,15,106,11
4,2,23,0,0,0,2,15,106,11
4,2,2,0,1,0,2,15,106,11
4,2,5,0,1,0,2,15,106,11
4,2,20,1,2,0,2,15,106,11
4,2,0,0,3,0,2,15,106,11
4,2,0,0,3,0,2,15,106,11
4,2,0,0,3,0,2,15,106,11
4,2,1,0,3,0,2,15,106,11
4,2,2,0,3,0,2,15,106,11
4,2,2,0,3,0,2,15,106,11
4,2,3,0,3,0,2,15,106,11
4,2,21,0,3,0,2,15,106,11
4,2,22,0,3,0,2,15,106,11
4,2,0,0,4,0,2,15,106,11
4,2,0,0,4,0,2,15,106,11
4,2,1,0,4,0,2,15,106,11
4,2,1,0,4,0,2,15,106,11
4,2,2,0,4,0,2,15,106,11
4,2,3,0,4,0,2,15,106,11
4,2,3,0,4,0,2,15,106,11
4,2,3,0,4,0,2,15,106,11
4,2,4,0,4,0,2,15,106,11
4,2,4,0,4,0,2,15,106,11
4,2,4,0,4,0,2,15,106,11
4,2,7,1,4,0,2,15,106,11
4,2,21,0,4,0,2,15,106,11
4,2,22,0,4,0,2,15,106,11
4,2,23,0,4,0,2,15,106,11
4,2,0,0,5,1,2,15,106,11
4,2,0,0,5,1,2,15,106,11
4,2,3,0,5,1,2,15,106,11
4,2,4,0,5,1,2,15,106,11
4,2,4,0,5,1,2,15,106,11
4,2,17,1,5,1,2,15,106,11
4,2,11,1,6,1,2,15,106,11
4,2,22,0,6,1,2,15,106,11
4,2,23,0,6,1,2,15,106,11
4,2,23,0,6,1,2,15,106,11
4,2,0,0,0,0,2,15,106,11
4,2,1,0,0,0,2,15,106,11
4,2,3,0,0,0,2,15,106,11
4,2,4,0,0,0,2,15,106,11
4,2,21,0,0,0,2,15,106,11
4,2,1,0,1,0,2,15,106,11
4,2,9,1,1,0,2,15,106,11
4,2,10,1,1,0,2,15,106,11
4,2,22,0,1,0,2,15,106,11
4,2,1,0,2,0,2,15,100,11
4,2,16,1,2,0,2,15,106,11
4,2,19,1,2,0,2,15,106,11
4,2,0,0,3,0,2,15,106,11
4,2,10,1,3,0,2,15,106,11
4,2,16,1,3,0,2,15,106,11
4,2,23,0,4,0,2,15,106,11
4,2,10,1,5,1,2,15,106,11
4,2,11,1,5,1,2,15,106,11
4,2,22,0,5,1,2,15,106,11
4,2,10,1,6,1,2,15,106,11
4,2,10,1,6,1,2,15,106,11
4,2,12,1,6,1,2,15,106,11
4,2,16,1,6,1,2,15,93,11
4,2,17,1,6,1,2,15,93,11
4,2,4,0,0,0,2,15,106,11
4,2,2,0,0,0,2,15,106,11
4,2,23,0,2,0,2,15,106,11
4,2,0,0,3,0,2,15,106,11
5,2,13,1,4,0,2,15,106,11
5,2,20,1,4,0,2,15,106,11
5,2,21,0,4,0,2,15,106,11
5,2,9,1,5,1,2,15,123,11
5,2,0,0,5,1,2,15,106,11
5,2,0,0,5,1,2,15,106,11
5,2,2,0,5,1,2,15,106,11
5,2,22,0,6,1,2,15,19,11
5,2,7,1,6,1,2,15,106,11
5,2,4,0,0,0,2,15,19,11
5,2,23,0,0,0,2,15,106,11
5,2,0,0,1,0,2,15,106,11
5,2,1,0,1,0,2,15,106,11
5,2,23,0,1,0,2,15,106,11
5,2,9,1,3,0,2,15,19,11
5,2,17,1,3,0,2,15,106,11
5,2,22,0,3,0,2,15,106,11
5,2,23,0,3,0,2,15,106,11
5,2,21,0,5,1,2,15,106,11
5,2,11,1,6,1,2,15,106,11
5,2,12,1,6,1,2,15,106,11
5,2,19,1,1,0,2,15,93,11
5,2,20,1,2,0,2,15,106,11
5,2,12,1,3,0,2,15,106,11
5,2,22,0,0,0,2,15,106,11
5,2,0,0,3,0,2,15,106,11
5,2,10,1,4,0,2,15,106,11
5,2,16,1,4,0,2,15,106,11
5,2,0,0,5,1,2,15,106,11
5,2,2,0,5,1,2,15,106,11
5,2,0,0,6,1,2,15,106,11
5,2,1,0,6,1,2,15,106,11
5,2,17,1,6,1,2,15,106,11
5,2,21,0,0,0,2,15,106,11
5,2,21,0,3,0,2,15,106,11
5,2,13,1,4,0,2,15,106,11
5,2,5,0,5,1,2,15,106,11
5,2,10,1,5,1,2,15,106,11
5,2,18,1,6,1,2,15,106,11
5,2,21,0,6,1,2,15,106,11
6,3,3,0,0,0,2,15,106,11
6,3,3,0,0,0,2,15,106,11
6,3,5,0,0,0,2,15,106,11
6,3,2,0,3,0,2,15,106,11
6,3,21,0,5,1,2,15,106,11
6,3,14,1,6,1,2,15,106,11
6,3,18,1,0,0,2,15,106,11
6,3,4,0,1,0,2,15,106,11
6,3,6,0,1,0,2,15,106,11
6,3,18,1,1,0,2,15,78,11
6,3,12,1,0,0,2,15,106,11
6,3,20,1,0,0,2,15,106,11
6,3,16,1,3,0,2,15,93,11
6,3,11,1,4,0,2,15,106,11
6,3,15,1,4,0,2,15,106,11
6,3,16,1,6,1,2,15,106,11
6,3,18,1,6,1,2,15,106,11
6,3,20,1,0,0,2,15,106,11
6,3,18,1,2,0,2,15,106,11
6,3,20,1,2,0,2,15,106,11
6,3,21,0,2,0,2,15,106,11
6,3,18,1,3,0,2,15,118,11
6,3,10,1,5,1,2,15,106,11
6,3,22,0,5,1,2,15,106,11
6,3,18,1,1,0,2,15,90,11
6,3,23,0,1,0,2,15,90,11
7,3,3,0,2,0,3,15,106,11
7,3,5,0,2,0,3,15,106,11
7,3,22,0,4,0,3,15,106,11
7,3,23,0,4,0,3,15,106,11
7,3,21,0,5,1,3,15,106,11
7,3,14,1,6,1,3,15,93,11
7,3,0,0,0,0,3,15,93,11
7,3,23,0,0,0,3,15,106,11
7,3,10,1,3,0,3,15,106,11
7,3,12,1,3,0,3,15,106,11
7,3,22,0,3,0,3,15,106,11
7,3,0,0,6,1,3,15,93,11
7,3,7,1,6,1,3,15,106,11
7,3,19,1,6,1,3,15,106,11
7,3,20,1,0,0,3,15,100,11
7,3,19,1,0,0,3,15,106,11
7,3,21,0,2,0,3,15,106,11
7,3,21,0,5,1,3,15,19,11
7,3,23,0,5,1,3,15,100,11
7,3,10,1,0,0,3,15,58,11
7,3,13,1,1,0,3,15,19,11
7,3,1,0,3,0,3,15,100,11
7,3,4,0,2,0,3,15,106,11
7,3,21,0,4,0,3,15,106,11
8,3,12,1,6,1,3,15,93,11
8,3,19,1,2,0,3,15,115,11
8,3,18,1,2,0,3,15,115,11
8,3,14,1,3,0,3,15,100,11
8,3,15,1,5,1,3,15,100,11
8,3,10,1,5,1,3,15,19,11
8,3,17,1,0,0,3,15,100,11
8,3,16,1,3,0,3,15,59,11
8,3,15,1,6,1,3,15,93,11
8,3,2,0,0,0,3,15,90,11
8,3,3,0,3,0,3,15,100,11
8,3,18,1,3,0,3,15,100,11
8,3,0,0,4,0,3,15,100,11
8,3,23,0,2,0,3,15,93,11
8,3,0,0,4,0,3,15,100,11
9,4,18,1,0,0,3,15,67,11
9,4,0,0,5,1,3,15,93,11
9,4,4,0,5,1,3,15,93,11
9,4,19,1,5,1,3,15,106,11
9,4,22,0,6,1,3,15,106,11
9,4,1,0,0,0,3,15,106,11
9,4,6,0,1,0,3,15,100,11
9,4,18,1,1,0,3,15,100,11
9,4,9,1,2,0,3,15,100,11
9,4,14,1,4,0,3,15,46,11
9,4,10,1,5,1,3,15,106,11
9,4,13,1,5,1,3,15,93,11
9,4,1,0,0,0,3,15,115,11
9,4,12,1,0,0,3,15,100,11
9,4,1,0,3,0,3,15,100,11
9,4,18,1,2,0,3,15,93,11
10,4,14,1,1,0,4,15,106,11
10,4,8,1,3,0,4,15,90,11
10,4,8,1,0,0,4,15,14,11
10,4,18,1,2,0,4,15,106,11
10,4,19,1,4,0,4,15,78,11
10,4,11,1,5,1,4,15,106,11
11,4,15,1,6,1,4,15,100,11
11,4,12,1,6,1,4,15,100,11
11,4,18,1,0,0,4,15,106,11
11,4,20,1,3,0,4,15,106,11
11,4,21,0,3,0,4,15,100,11
11,4,20,1,6,1,4,15,100,11
11,4,19,1,0,0,4,15,100,11
11,4,18,1,2,0,4,15,100,11
11,4,22,0,2,0,4,15,100,11
12,1,11,1,2,0,4,15,100,11
12,1,19,1,2,0,4,15,109,11
12,1,18,1,4,0,4,15,106,11
12,1,12,1,5,1,4,15,100,11
12,1,10,1,6,1,4,15,106,11
12,1,0,0,0,0,4,15,106,11
12,1,11,1,2,0,4,15,67,11
12,1,18,1,1,0,4,15,100,11
12,1,0,0,1,0,4,15,93,11
12,1,18,1,3,0,4,15,19,9
1,1,23,0,1,0,1,15,106,11
1,1,9,1,1,0,1,15,106,11
2,1,20,1,0,0,1,15,78,11
4,2,16,1,6,1,2,15,106,11
4,2,12,1,5,1,2,15,106,11
4,2,4,0,6,1,2,15,106,11
4,2,16,1,3,0,2,15,93,11
4,2,10,1,5,1,2,15,39,8
5,2,20,1,1,0,2,15,106,11
5,2,0,0,4,0,2,15,93,11
5,2,1,0,6,1,2,15,106,11
5,2,12,1,1,0,2,15,78,11
6,3,8,1,1,0,2,15,106,11
7,3,0,0,2,0,3,15,106,11
9,4,18,1,3,0,3,15,19,11
9,4,9,1,0,0,3,15,14,11
10,4,23,0,3,0,4,15,4,11
11,4,18,1,2,0,4,15,100,11
12,1,2,0,6,1,4,15,90,11
12,1,14,1,1,0,4,15,100,11
12,1,15,1,2,0,4,15,100,11
1,1,11,1,4,0,1,15,106,11
2,1,0,0,3,0,1,15,106,11
2,1,7,1,2,0,1,15,78,11
3,2,9,1,0,0,1,15,78,11
5,2,4,0,2,0,2,15,14,11
5,2,22,0,6,1,2,15,106,11
5,2,20,1,6,1,2,15,106,11
5,2,22,0,1,0,2,15,123,11
5,2,13,1,3,0,2,15,14,11
6,3,17,1,4,0,2,15,106,11
6,3,11,1,6,1,2,15,93,11
7,3,21,0,6,1,3,15,106,11
7,3,12,1,3,0,3,15,39,11
8,3,14,1,0,0,3,15,19,9
12,1,22,0,2,0,4,15,78,9
1,1,16,1,4,0,1,15,93,11
1,1,17,1,2,0,1,15,90,11
1,1,19,1,2,0,1,15,78,11
1,1,19,1,5,1,1,15,13,8
1,1,13,1,1,0,1,15,4,11
1,1,11,1,5,1,1,15,4,11
2,1,10,1,4,0,1,15,78,11
2,1,7,1,5,1,1,15,90,11
3,2,14,1,2,0,1,15,78,11
3,2,23,0,6,1,1,15,13,11
3,2,20,1,4,0,1,15,4,11
3,2,8,1,6,1,1,15,39,11
3,2,21,0,3,0,1,15,90,11
3,2,3,0,2,0,1,15,78,11
4,2,11,1,5,1,2,15,90,11
4,2,19,1,3,0,2,15,13,9
4,2,0,0,5,1,2,15,91,11
5,2,17,1,6,1,2,15,93,11
5,2,10,1,6,1,2,15,67,11
6,3,1,0,0,0,2,15,90,11
6,3,9,1,2,0,2,15,106,9
6,3,14,1,3,0,2,15,93,11
6,3,18,1,5,1,2,15,57,11
6,3,14,1,0,0,2,15,39,11
6,3,6,0,2,0,2,15,106,11
6,3,17,1,0,0,2,15,93,11
6,3,15,1,0,0,2,15,93,11
6,3,16,1,2,0,2,15,93,11
6,3,14,1,4,0,2,15,93,11
7,3,6,0,1,0,3,15,82,11
7,3,3,0,2,0,3,15,90,11
7,3,12,1,6,1,3,15,90,11
8,3,9,1,5,1,3,15,39,9
8,3,22,0,2,0,3,15,13,8
8,3,0,0,6,1,3,15,93,11
8,3,14,1,1,0,3,15,93,11
8,3,20,1,4,0,3,15,39,11
8,3,13,1,4,0,3,15,13,11
9,4,17,1,1,0,3,15,93,9
9,4,20,1,1,0,3,15,108,8
9,4,14,1,6,1,3,15,93,11
10,4,12,1,5,1,4,15,110,11
10,4,8,1,5,1,4,15,89,11
10,4,1,0,4,0,4,15,103,11
10,4,19,1,6,1,4,15,90,11
10,4,18,1,4,0,4,15,90,11
11,4,21,0,0,0,4,15,90,11
11,4,1,0,1,0,4,15,90,11
11,4,4,0,0,0,4,15,90,11
12,1,8,1,4,0,4,15,39,9
12,1,18,1,0,0,4,15,39,11
12,1,1,0,6,1,4,15,39,9
12,1,18,1,0,0,4,15,9,11
12,1,18,1,2,0,4,15,39,11
12,1,10,1,3,0,4,15,39,11
1,1,0,0,3,0,1,15,78,11
1,1,22,0,4,0,1,15,78,11
1,1,23,0,0,0,1,15,78,11
1,1,20,1,4,0,1,15,90,11
2,1,19,1,2,0,1,15,39,11
2,1,18,1,1,0,1,15,19,11
2,1,22,0,6,1,1,15,90,11
2,1,10,1,1,0,1,15,4,11
2,1,16,1,3,0,1,15,90,11
3,2,21,0,5,1,1,15,19,11
3,2,20,1,3,0,1,15,13,11
3,2,20,1,5,1,1,15,78,11
3,2,22,0,1,0,1,15,19,11
4,2,8,1,2,0,2,15,115,11
5,2,17,1,0,0,2,15,78,11
5,2,9,1,2,0,2,15,98,11
6,3,21,0,5,1,2,15,78,11
6,3,18,1,3,0,2,15,19,11
6,3,3,0,3,0,2,15,19,11
6,3,13,1,5,1,2,15,13,11
7,3,6,0,2,0,3,15,90,11
8,3,21,0,3,0,3,15,90,11
9,4,21,0,4,0,3,15,39,11
9,4,20,1,3,0,3,15,39,11
10,4,9,1,2,0,4,15,57,11
10,4,10,1,5,1,4,15,19,11
10,4,21,0,2,0,4,15,90,11
10,4,7,1,3,0,4,15,78,11
10,4,7,1,3,0,4,15,126,11
10,4,8,1,3,0,4,15,59,11
10,4,12,1,3,0,4,15,59,11
10,4,12,1,3,0,4,15,58,11
10,4,12,1,3,0,4,15,58,11
10,4,13,1,3,0,4,15,58,11
10,4,13,1,3,0,4,15,58,11
10,4,13,1,3,0,4,15,58,11
10,4,13,1,3,0,4,15,58,11
10,4,13,1,3,0,4,15,78,11
10,4,13,1,3,0,4,15,78,11
10,4,13,1,3,0,4,15,58,11
10,4,13,1,3,0,4,15,58,11
10,4,13,1,3,0,4,15,58,11
10,4,13,1,3,0,4,15,58,11
10,4,13,1,3,0,4,15,58,11
10,4,14,1,3,0,4,15,58,11
10,4,14,1,3,0,4,15,58,11
10,4,16,1,3,0,4,15,58,11
10,4,16,1,3,0,4,15,58,11
10,4,16,1,3,0,4,15,58,11
10,4,16,1,3,0,4,15,58,11
10,4,16,1,3,0,4,15,78,11
10,4,16,1,3,0,4,15,58,11
10,4,17,1,3,0,4,15,58,11
10,4,17,1,3,0,4,15,58,11
10,4,17,1,3,0,4,15,58,11
10,4,17,1,3,0,4,15,78,11
10,4,17,1,3,0,4,15,78,11
10,4,17,1,3,0,4,15,78,11
10,4,17,1,3,0,4,15,58,11
10,4,17,1,3,0,4,15,58,11
10,4,18,1,3,0,4,15,58,11
10,4,18,1,3,0,4,15,78,11
10,4,18,1,3,0,4,15,58,11
10,4,18,1,3,0,4,15,14,11
10,4,19,1,3,0,4,15,58,11
10,4,19,1,3,0,4,15,78,11
10,4,9,1,3,0,4,15,58,11
11,4,18,1,0,0,4,15,19,11
12,1,10,1,1,0,4,15,123,11
12,1,8,1,6,1,4,15,19,11
12,1,17,1,0,0,4,15,78,11
12,1,19,1,0,0,4,15,78,11
1,1,21,0,0,0,1,3,67,11
1,1,22,0,2,0,1,3,106,11
1,1,17,1,6,1,1,3,100,11
1,1,23,0,5,1,1,3,78,8
1,1,12,1,0,0,1,3,100,11
1,1,2,0,3,0,1,3,100,11
1,1,11,1,0,0,1,3,67,11
1,1,1,0,4,0,1,3,100,11
1,1,1,0,4,0,1,3,100,11
1,1,1,0,4,0,1,3,100,11
1,1,2,0,5,1,1,3,106,11
2,1,3,0,4,0,1,3,67,11
2,1,18,1,5,1,1,3,106,11
2,1,1,0,3,0,1,3,100,11
2,1,2,0,3,0,1,3,100,11
2,1,14,1,0,0,1,3,106,11
2,1,13,1,5,1,1,3,106,11
2,1,2,0,6,1,1,3,106,11
3,2,3,0,6,1,1,3,106,11
3,2,9,1,6,1,1,3,106,11
3,2,21,0,6,1,1,3,106,11
3,2,23,0,6,1,1,3,106,11
3,2,9,1,1,0,1,3,106,11
3,2,21,0,1,0,1,3,106,11
3,2,3,0,0,0,1,3,39,8
3,2,20,1,6,1,1,3,39,11
3,2,23,0,0,0,1,3,67,11
3,2,0,0,1,0,1,3,106,11
3,2,20,1,2,0,1,3,78,11
3,2,13,1,5,1,1,3,93,11
3,2,21,0,1,0,1,3,106,11
3,2,5,0,2,0,1,3,100,11
3,2,12,1,0,0,1,3,106,11
4,2,20,1,5,1,2,3,106,11
4,2,3,0,6,1,2,3,100,11
4,2,4,0,6,1,2,3,100,11
4,2,16,1,2,0,2,3,78,8
5,2,16,1,5,1,2,3,78,8
5,2,19,1,2,0,2,3,61,11
5,2,0,0,5,1,2,3,106,11
5,2,12,1,6,1,2,3,14,11
5,2,1,0,2,0,2,3,78,11
6,3,22,0,0,0,2,3,100,11
6,3,23,0,0,0,2,3,100,11
7,3,10,1,2,0,3,3,13,11
7,3,14,1,3,0,3,3,4,11
7,3,17,1,2,0,3,3,13,8
7,3,22,0,5,1,3,3,93,11
7,3,2,0,6,1,3,3,93,11
7,3,14,1,1,0,3,3,93,11
8,3,19,1,5,1,3,3,19,11
8,3,19,1,5,1,3,3,78,11
8,3,5,0,1,0,3,3,100,11
8,3,5,0,1,0,3,3,100,11
8,3,21,0,2,0,3,3,66,11
8,3,12,1,1,0,3,3,67,11
8,3,12,1,5,1,3,3,93,11
9,4,21,0,2,0,3,3,106,11
9,4,14,1,6,1,3,3,93,11
9,4,15,1,6,1,3,3,93,11
9,4,1,0,0,0,3,3,100,11
9,4,4,0,0,0,3,3,106,11
9,4,4,0,1,0,3,3,106,11
9,4,23,0,5,1,3,3,106,11
9,4,5,0,6,1,3,3,100,11
9,4,6,0,6,1,3,3,101,11
10,4,0,0,5,1,4,3,106,11
10,4,6,0,6,1,4,3,100,11
10,4,19,1,5,1,4,3,67,11
10,4,20,1,6,1,4,3,67,11
10,4,12,1,1,0,4,3,19,11
10,4,23,0,3,0,4,3,106,11
11,4,0,0,6,1,4,3,106,11
11,4,17,1,1,0,4,3,93,11
11,4,15,1,1,0,4,3,93,11
11,4,23,0,4,0,4,3,131,11
11,4,14,1,3,0,4,3,93,11
11,4,13,1,4,0,4,3,67,11
11,4,2,0,5,1,4,3,106,11
11,4,4,0,5,1,4,3,106,11
11,4,2,0,6,1,4,3,106,11
11,4,3,0,6,1,4,3,106,11
11,4,2,0,0,0,4,3,106,11
12,1,16,1,1,0,4,3,106,11
12,1,3,0,4,0,4,3,106,11
12,1,3,0,4,0,4,3,106,11
12,1,13,1,5,1,4,3,100,11
12,1,0,0,0,0,4,3,100,11
12,1,16,1,0,0,4,3,100,11
12,1,2,0,1,0,4,3,100,11
12,1,1,0,3,0,4,3,100,11
12,1,17,1,5,1,4,3,100,11
12,1,14,1,0,0,4,3,75,8
12,1,17,1,6,1,4,3,67,11
12,1,17,1,6,1,4,3,67,11
12,1,21,0,2,0,4,3,39,9
12,1,21,0,5,1,4,3,19,11
7,3,8,1,2,0,3,3,93,11
7,3,9,1,3,0,3,3,93,11
7,3,9,1,1,0,3,3,93,11
8,3,13,1,5,1,3,3,93,11
8,3,14,1,0,0,3,3,19,11
8,3,7,1,1,0,3,3,19,11
11,4,13,1,6,1,4,3,82,11
12,1,12,1,3,0,4,3,93,11
5,2,12,1,5,1,2,3,78,11
1,1,18,1,1,0,1,3,90,11
2,1,16,1,6,1,1,3,29,11
2,1,14,1,2,0,1,3,130,11
2,1,19,1,3,0,1,3,133,11
4,2,2,0,6,1,2,3,78,11
4,2,9,1,0,0,2,3,78,11
4,2,15,1,4,0,2,3,106,11
4,2,11,1,3,0,2,3,13,11
5,2,11,1,6,1,2,3,78,11
5,2,23,0,6,1,2,3,133,11
5,2,10,1,4,0,2,3,90,11
5,2,11,1,2,0,2,3,19,11
6,3,15,1,5,1,2,3,90,11
6,3,15,1,6,1,2,3,133,11
6,3,17,1,3,0,2,3,4,11
7,3,15,1,2,0,3,3,27,11
7,3,15,1,2,0,3,3,27,11
8,3,22,0,3,0,3,3,19,8
11,4,21,0,0,0,4,3,9,11
12,1,17,1,4,0,4,3,130,11
12,1,23,0,0,0,4,3,67,11
6,3,14,1,3,0,2,3,13,11
7,3,10,1,6,1,3,3,93,11
8,3,18,1,2,0,3,3,27,11
1,1,18,1,3,0,1,36,106,11
1,1,13,1,4,0,1,36,100,11
1,1,3,0,5,1,1,36,9,11
1,1,12,1,6,1,1,36,100,11
1,1,22,0,1,0,1,36,78,11
1,1,18,1,4,0,1,36,78,11
1,1,20,1,5,1,1,36,67,11
1,1,3,0,5,1,1,36,67,11
1,1,14,1,1,0,1,36,67,11
1,1,14,1,1,0,1,36,100,11
1,1,12,1,5,1,1,36,93,11
1,1,18,1,0,0,1,36,15,11
1,1,6,0,2,0,1,36,58,11
1,1,4,0,2,0,1,36,100,11
1,1,4,0,2,0,1,36,90,11
1,1,2,0,2,0,1,36,90,11
1,1,18,1,2,0,1,36,109,11
1,1,3,0,3,0,1,36,106,11
1,1,0,0,4,0,1,36,100,11
1,1,21,0,5,1,1,36,78,11
1,1,1,0,3,0,1,36,100,11
2,1,17,1,2,0,1,36,122,11
2,1,9,1,3,0,1,36,100,11
2,1,10,1,5,1,1,36,67,11
2,1,14,1,4,0,1,36,90,11
2,1,16,1,2,0,1,36,103,11
2,1,12,1,0,0,1,36,14,11
2,1,19,1,3,0,1,36,69,11
3,2,1,0,5,1,1,36,19,11
3,2,1,0,0,0,1,36,67,11
3,2,5,0,1,0,1,36,100,11
3,2,16,1,1,0,1,36,100,11
3,2,21,0,1,0,1,36,100,11
3,2,17,1,0,0,1,36,78,11
3,2,17,1,0,0,1,36,67,11
3,2,21,0,0,0,1,36,78,11
3,2,16,1,5,1,1,36,39,11
3,2,8,1,0,0,1,36,67,11
4,2,22,0,3,0,2,36,78,11
4,2,22,0,5,1,2,36,106,11
4,2,11,1,3,0,2,36,67,11
4,2,21,0,4,0,2,36,90,11
4,2,22,0,4,0,2,36,90,11
4,2,22,0,4,0,2,36,90,11
4,2,22,0,4,0,2,36,90,11
4,2,16,1,6,1,2,36,90,11
4,2,20,1,1,0,2,36,100,11
4,2,15,1,2,0,2,36,67,11
4,2,16,1,2,0,2,36,79,11
4,2,23,0,6,1,2,36,100,11
4,2,23,0,6,1,2,36,100,11
4,2,0,0,0,0,2,36,100,11
4,2,2,0,4,0,2,36,100,11
4,2,1,0,5,1,2,36,39,9
4,2,1,0,6,1,2,36,67,11
4,2,11,1,2,0,2,36,93,11
5,2,17,1,4,0,2,36,78,11
5,2,17,1,6,1,2,36,43,11
5,2,15,1,0,0,2,36,100,11
5,2,1,0,5,1,2,36,66,11
6,3,16,1,0,0,2,36,67,11
6,3,9,1,4,0,2,36,67,11
6,3,20,1,0,0,2,36,67,11
6,3,22,0,1,0,2,36,133,11
6,3,2,0,5,1,2,36,67,11
6,3,21,0,1,0,2,36,39,11
7,3,2,0,3,0,3,36,75,8
7,3,6,0,3,0,3,36,79,11
7,3,13,1,1,0,3,36,67,11
7,3,20,1,5,1,3,36,67,11
7,3,0,0,6,1,3,36,19,9
7,3,14,1,2,0,3,36,19,11
7,3,13,1,3,0,3,36,81,11
7,3,6,0,0,0,3,36,106,11
8,3,22,0,2,0,3,36,58,11
8,3,13,1,5,1,3,36,100,11
8,3,13,1,5,1,3,36,79,11
8,3,16,1,2,0,3,36,93,11
8,3,15,1,1,0,3,36,14,11
8,3,10,1,2,0,3,36,74,11
8,3,21,0,5,1,3,36,19,11
8,3,19,1,0,0,3,36,19,11
9,4,12,1,2,0,3,36,75,11
9,4,12,1,0,0,3,36,90,11
9,4,2,0,2,0,3,36,90,11
9,4,19,1,2,0,3,36,49,11
9,4,15,1,3,0,3,36,122,11
9,4,21,0,5,1,3,36,66,11
9,4,17,1,0,0,3,36,46,11
9,4,5,0,5,1,3,36,103,11
9,4,4,0,0,0,3,36,100,11
9,4,12,1,0,0,3,36,100,11
10,4,0,0,3,0,4,36,66,11
10,4,14,1,1,0,4,36,126,11
10,4,21,0,1,0,4,36,133,11
10,4,23,0,1,0,4,36,133,11
10,4,16,1,4,0,4,36,39,11
10,4,3,0,5,1,4,36,133,11
10,4,2,0,6,1,4,36,15,11
10,4,13,1,1,0,4,36,79,11
10,4,20,1,2,0,4,36,19,11
10,4,20,1,3,0,4,36,79,11
10,4,18,1,5,1,4,36,100,11
11,4,14,1,2,0,4,36,78,11
11,4,13,1,2,0,4,36,106,11
11,4,11,1,6,1,4,36,25,11
11,4,13,1,6,1,4,36,100,11
11,4,17,1,0,0,4,36,78,11
11,4,15,1,1,0,4,36,67,11
11,4,8,1,3,0,4,36,78,11
11,4,2,0,4,0,4,36,100,11
11,4,4,0,4,0,4,36,100,11
11,4,1,0,5,1,4,36,100,11
11,4,1,0,5,1,4,36,100,11
11,4,1,0,5,1,4,36,100,11
11,4,2,0,1,0,4,36,100,11
11,4,14,1,3,0,4,36,19,11
12,1,22,0,1,0,4,36,67,11
12,1,9,1,4,0,4,36,19,11
12,1,9,1,5,1,4,36,93,11
12,1,15,1,5,1,4,36,84,11
12,1,3,0,1,0,4,36,78,11
12,1,21,0,4,0,4,36,39,8
12,1,7,1,6,1,4,36,58,11
12,1,1,0,0,0,4,36,86,11
12,1,22,0,3,0,4,36,78,11
12,1,22,0,3,0,4,36,100,11
12,1,5,0,4,0,4,36,9,11
12,1,19,1,0,0,4,36,39,11
12,1,10,1,1,0,4,36,39,11
12,1,14,1,2,0,4,36,90,11
12,1,17,1,4,0,4,36,78,11
12,1,4,0,5,1,4,36,90,11
12,1,4,0,5,1,4,36,90,11
12,1,0,0,6,1,4,36,100,11
12,1,19,1,3,0,4,36,78,11
1,1,18,1,3,0,1,36,78,8
1,1,6,0,3,0,1,36,100,11
2,1,9,1,1,0,1,36,78,11
2,1,18,1,6,1,1,36,78,11
2,1,18,1,1,0,1,36,13,11
3,2,19,1,3,0,1,36,39,11
4,2,19,1,5,1,2,36,81,11
4,2,15,1,0,0,2,36,78,11
4,2,20,1,1,0,2,36,39,11
4,2,20,1,6,1,2,36,100,11
5,2,16,1,6,1,2,36,109,9
6,3,11,1,3,0,2,36,48,9
6,3,17,1,5,1,2,36,93,11
6,3,12,1,6,1,2,36,15,11
7,3,0,0,5,1,3,36,39,8
9,4,22,0,4,0,3,36,75,11
9,4,17,1,5,1,3,36,13,8
9,4,10,1,5,1,3,36,75,11
10,4,4,0,2,0,4,36,46,8
12,1,11,1,1,0,4,36,23,11
12,1,17,1,4,0,4,36,39,11
12,1,18,1,2,0,4,36,39,11
2,1,14,1,4,0,1,36,133,11
2,1,13,1,4,0,1,36,57,11
2,1,20,1,5,1,1,36,27,11
3,2,2,0,0,0,1,36,19,11
4,2,1,0,4,0,2,36,90,11
6,3,17,1,3,0,2,36,133,11
6,3,21,0,0,0,2,36,115,11
7,3,21,0,5,1,3,36,93,11
8,3,15,1,6,1,3,36,78,11
8,3,15,1,1,0,3,36,93,11
8,3,7,1,6,1,3,36,90,11
8,3,8,1,1,0,3,36,13,11
9,4,23,0,5,1,3,36,78,9
9,4,20,1,2,0,3,36,115,11
9,4,19,1,6,1,3,36,19,11
10,4,18,1,2,0,4,36,93,11
10,4,12,1,1,0,4,36,78,11
10,4,12,1,6,1,4,36,93,11
11,4,0,0,3,0,4,36,67,9
11,4,13,1,5,1,4,36,93,11
11,4,16,1,5,1,4,36,4,11
11,4,14,1,0,0,4,36,4,11
11,4,13,1,3,0,4,36,90,11
11,4,9,1,4,0,4,36,115,11
12,1,5,0,2,0,4,36,133,11
12,1,19,1,4,0,4,36,90,11
1,1,19,1,3,0,1,36,133,11
2,1,18,1,1,0,1,36,133,11
2,1,12,1,2,0,1,36,27,11
2,1,12,1,6,1,1,36,133,11
3,2,18,1,6,1,1,36,57,11
3,2,11,1,1,0,1,36,78,11
8,3,20,1,5,1,3,36,78,11
9,4,0,0,3,0,3,36,35,8
9,4,11,1,2,0,3,36,19,11
9,4,11,1,3,0,3,36,90,11
10,4,18,1,2,0,4,36,4,11
11,4,16,1,5,1,4,36,50,11
12,1,20,1,5,1,4,36,133,11
12,1,11,1,6,1,4,36,133,11
12,1,15,1,5,1,4,36,39,11
1,1,12,1,4,0,1,36,75,9
2,1,14,1,5,1,1,36,78,11
2,1,19,1,2,0,1,36,39,11
3,2,11,1,2,0,1,36,133,11
5,2,19,1,5,1,2,36,131,11
8,3,6,0,5,1,3,36,19,11
8,3,8,1,6,1,3,36,19,11
9,4,14,1,2,0,3,36,133,11
10,4,21,0,6,1,4,36,133,11
11,4,18,1,6,1,4,36,39,11
11,4,13,1,1,0,4,36,27,11
11,4,18,1,0,0,4,36,78,11
1,1,10,1,3,0,1,30,90,11
1,1,21,0,0,0,1,30,39,11
1,1,11,1,3,0,1,30,67,11
1,1,0,0,6,1,1,30,90,11
1,1,11,1,1,0,1,30,90,11
1,1,23,0,6,1,1,30,39,11
1,1,22,0,6,1,1,30,90,11
1,1,23,0,6,1,1,30,90,11
1,1,23,0,0,0,1,30,46,8
2,1,3,0,1,0,1,30,39,8
2,1,0,0,5,1,1,30,100,11
2,1,12,1,6,1,1,30,90,11
2,1,19,1,6,1,1,30,90,11
2,1,8,1,1,0,1,30,90,11
3,2,22,0,0,0,1,30,13,8
3,2,15,1,3,0,1,30,100,11
3,2,1,0,3,0,1,30,78,8
3,2,21,0,3,0,1,30,90,11
4,2,13,1,3,0,2,30,78,11
4,2,11,1,4,0,2,30,67,11
4,2,23,0,3,0,2,30,90,11
5,2,11,1,1,0,2,30,19,11
5,2,15,1,2,0,2,30,106,11
6,3,1,0,6,1,2,30,79,11
6,3,15,1,6,1,2,30,93,11
6,3,17,1,5,1,2,30,14,11
7,3,23,0,3,0,3,30,86,11
7,3,11,1,3,0,3,30,67,11
8,3,15,1,2,0,3,30,39,11
8,3,1,0,6,1,3,30,75,11
9,4,21,0,1,0,3,30,93,11
10,4,12,1,0,0,4,30,67,11
10,4,8,1,1,0,4,30,39,11
10,4,23,0,5,1,4,30,90,11
11,4,15,1,0,0,4,30,78,11
11,4,18,1,1,0,4,30,90,11
11,4,16,1,2,0,4,30,78,11
11,4,17,1,5,1,4,30,39,11
1,1,13,1,3,0,1,30,19,11
3,2,14,1,0,0,1,30,27,11
4,2,21,0,2,0,2,30,19,11
4,2,22,0,5,1,2,30,27,11
6,3,9,1,5,1,2,30,19,8
7,3,11,1,2,0,3,30,19,11
7,3,9,1,4,0,3,30,93,11
8,3,15,1,6,1,3,30,93,11
8,3,14,1,1,0,3,30,93,11
8,3,13,1,3,0,3,30,115,11
8,3,12,1,6,1,3,30,93,11
9,4,16,1,2,0,3,30,14,11
9,4,12,1,5,1,3,30,93,11
9,4,16,1,6,1,3,30,27,11
11,4,11,1,6,1,4,30,90,11
11,4,20,1,2,0,4,30,115,11
2,1,0,0,3,0,1,5,78,11
6,3,22,0,6,1,2,5,50,8
7,3,11,1,0,0,3,5,93,11
8,3,0,0,4,0,3,5,93,11
9,4,12,1,5,1,3,5,14,11
12,1,0,0,4,0,4,30,78,11
12,1,16,1,6,1,4,30,90,11
1,1,23,0,5,1,1,30,87,11
2,1,14,1,2,0,1,30,13,11
4,2,22,0,3,0,2,30,78,11
7,3,3,0,5,1,3,30,78,11
7,3,11,1,4,0,3,30,93,11
7,3,17,1,0,0,3,30,93,9
9,4,9,1,2,0,3,30,19,9
10,4,23,0,4,0,4,30,14,11
10,4,20,1,2,0,4,30,106,11
10,4,7,1,4,0,4,30,93,11
11,4,7,1,1,0,4,30,78,9
11,4,8,1,4,0,4,30,115,11
11,4,8,1,0,0,4,30,115,11
12,1,10,1,6,1,4,30,93,9
4,2,4,0,5,1,2,30,60,9
4,2,2,0,1,0,2,30,14,9
3,2,12,1,4,0,1,30,78,11
4,2,18,1,5,1,2,30,78,11
4,2,20,1,2,0,2,30,133,11
6,3,1,0,3,0,2,30,19,9
9,4,5,0,4,0,3,30,42,11
10,4,21,0,5,1,4,30,115,11
11,4,15,1,5,1,4,30,133,11
1,1,17,1,1,0,1,2,133,11
1,1,12,1,1,0,1,2,93,11
1,1,10,1,4,0,1,2,115,11
2,1,13,1,5,1,1,2,90,11
2,1,13,1,2,0,1,2,78,9
2,1,16,1,3,0,1,2,19,11
3,2,4,0,6,1,1,2,78,11
3,2,13,1,5,1,1,2,78,11
4,2,16,1,5,1,2,2,106,11
4,2,18,1,6,1,2,2,133,11
4,2,16,1,0,0,2,2,27,11
4,2,3,0,1,0,2,2,133,11
5,2,7,1,5,1,2,2,48,11
5,2,12,1,4,0,2,2,133,11
6,3,19,1,1,0,2,2,13,11
7,3,11,1,5,1,3,2,46,11
7,3,14,1,0,0,3,2,93,9
8,3,23,0,2,0,3,2,67,11
8,3,11,1,0,0,3,2,19,9
9,4,19,1,3,0,3,2,67,11
9,4,10,1,3,0,3,2,39,11
10,4,21,0,3,0,4,2,78,11
10,4,20,1,1,0,4,2,13,8
10,4,12,1,3,0,4,2,67,11
10,4,8,1,4,0,4,2,19,11
11,4,18,1,5,1,4,2,57,11
11,4,9,1,5,1,4,2,115,11
12,1,10,1,2,0,4,2,19,11
12,1,15,1,4,0,4,2,14,8
12,1,20,1,1,0,4,2,106,11
1,1,21,0,3,0,1,2,87,8
2,1,18,1,0,0,1,2,78,11
4,2,11,1,1,0,2,2,14,11
7,3,1,0,5,1,3,2,46,9
7,3,8,1,4,0,3,2,19,11
8,3,22,0,5,1,3,2,78,11
8,3,14,1,5,1,3,2,13,11
8,3,19,1,6,1,3,2,25,11
9,4,6,0,3,0,3,2,19,11
9,4,20,1,1,0,3,2,115,11
10,4,18,1,2,0,4,2,13,11
11,4,14,1,4,0,4,2,19,11
12,1,19,1,0,0,4,2,93,11
2,1,7,1,4,0,1,5,39,9
4,2,17,1,6,1,2,5,90,11
5,2,13,1,1,0,2,5,78,11
7,3,8,1,3,0,3,5,93,11
7,3,13,1,6,1,3,5,19,9
7,3,9,1,0,0,3,5,19,11
8,3,17,1,0,0,3,5,23,11
12,1,10,1,6,1,4,5,93,11
1,1,1,0,2,0,1,2,78,8
1,1,14,1,0,0,1,2,78,11
1,1,0,0,5,1,1,2,98,11
1,1,20,1,5,1,1,2,39,11
2,1,15,1,2,0,1,2,67,11
2,1,10,1,5,1,1,2,39,11
3,2,19,1,2,0,1,2,67,11
4,2,1,0,5,1,2,2,39,11
4,2,13,1,5,1,2,2,19,11
4,2,20,1,5,1,2,2,93,11
5,2,21,0,6,1,2,2,93,11
5,2,10,1,2,0,2,2,115,11
5,2,14,1,2,0,2,2,115,11
6,3,11,1,0,0,2,2,78,8
6,3,14,1,3,0,2,2,78,11
6,3,4,0,5,1,2,2,67,11
7,3,17,1,6,1,3,2,93,11
7,3,16,1,1,0,3,2,93,11
7,3,8,1,1,0,3,2,93,11
8,3,15,1,2,0,3,2,75,11
9,4,13,1,3,0,3,2,45,11
9,4,0,0,6,1,3,2,93,11
9,4,2,0,1,0,3,2,75,11
10,4,13,1,3,0,4,2,14,11
10,4,10,1,6,1,4,2,75,11
11,4,16,1,1,0,4,2,93,11
11,4,12,1,4,0,4,2,91,11
11,4,21,0,0,0,4,2,133,11
11,4,12,1,5,1,4,2,58,9
12,1,13,1,3,0,4,2,93,11
12,1,10,1,3,0,4,2,133,11
1,1,19,1,6,1,1,28,106,11
1,1,14,1,1,0,1,28,14,11
1,1,16,1,0,0,1,28,30,11
1,1,0,0,3,0,1,28,106,11
2,1,8,1,6,1,1,28,39,11
2,1,10,1,3,0,1,28,19,11
2,1,6,0,4,0,1,28,106,11
2,1,21,0,5,1,1,28,100,11
2,1,14,1,2,0,1,28,46,8
3,2,1,0,1,0,1,28,90,11
3,2,1,0,2,0,1,28,19,11
3,2,12,1,0,0,1,28,78,11
3,2,17,1,2,0,1,28,90,11
4,2,19,1,2,0,2,28,90,11
4,2,11,1,2,0,2,28,93,11
4,2,2,0,6,1,2,28,19,11
4,2,16,1,1,0,2,28,93,9
4,2,21,0,3,0,2,28,19,11
4,2,12,1,2,0,2,28,93,11
4,2,6,0,3,0,2,28,19,11
5,2,22,0,2,0,2,28,100,11
5,2,0,0,4,0,2,28,81,11
5,2,1,0,0,0,2,28,19,9
5,2,2,0,2,0,2,28,78,11
5,2,7,1,4,0,2,28,106,11
5,2,18,1,1,0,2,28,67,11
5,2,13,1,6,1,2,28,93,11
5,2,17,1,6,1,2,28,75,11
6,3,2,0,0,0,2,28,100,11
6,3,17,1,2,0,2,28,19,8
6,3,4,0,5,1,2,28,100,11
6,3,15,1,2,0,2,28,75,11
6,3,17,1,0,0,2,28,133,11
7,3,0,0,3,0,3,28,106,11
7,3,23,0,5,1,3,28,133,11
7,3,18,1,4,0,3,28,46,9
7,3,18,1,6,1,3,28,133,11
7,3,15,1,1,0,3,28,93,11
7,3,15,1,2,0,3,28,14,9
7,3,22,0,2,0,3,28,106,11
7,3,12,1,5,1,3,28,93,11
7,3,16,1,5,1,3,28,93,11
7,3,12,1,1,0,3,28,93,11
7,3,19,1,2,0,3,28,106,11
7,3,17,1,4,0,3,28,25,11
8,3,13,1,0,0,3,28,4,9
8,3,19,1,1,0,3,28,93,11
8,3,2,0,1,0,3,28,133,11
8,3,6,0,4,0,3,28,48,11
8,3,4,0,0,0,3,28,93,11
8,3,6,0,0,0,3,28,39,9
8,3,19,1,3,0,3,28,106,11
8,3,15,1,3,0,3,28,93,11
8,3,9,1,0,0,3,28,58,11
8,3,16,1,2,0,3,28,93,11
8,3,2,0,3,0,3,28,93,11
9,4,12,1,1,0,3,28,93,11
9,4,3,0,4,0,3,28,133,11
9,4,16,1,2,0,3,28,100,11
9,4,6,0,4,0,3,28,100,11
9,4,10,1,4,0,3,28,93,11
9,4,13,1,4,0,3,28,93,11
9,4,3,0,5,1,3,28,90,11
9,4,1,0,5,1,3,28,100,11
9,4,0,0,0,0,3,28,100,11
9,4,1,0,0,0,3,28,100,11
9,4,1,0,0,0,3,28,133,11
10,4,19,1,3,0,4,28,75,11
10,4,2,0,3,0,4,28,133,11
10,4,14,1,4,0,4,28,67,11
10,4,16,1,4,0,4,28,39,11
10,4,13,1,6,1,4,28,57,11
10,4,5,0,0,0,4,28,133,11
10,4,1,0,1,0,4,28,133,11
10,4,21,0,6,1,4,28,106,11
10,4,10,1,6,1,4,28,35,11
10,4,17,1,6,1,4,28,78,11
10,4,19,1,6,1,4,28,93,11
10,4,10,1,2,0,4,28,93,11
10,4,12,1,3,0,4,28,19,11
10,4,18,1,4,0,4,28,78,11
11,4,10,1,6,1,4,28,78,9
11,4,21,0,5,1,4,28,133,11
11,4,10,1,0,0,4,28,75,11
11,4,13,1,4,0,4,28,93,11
11,4,6,0,5,1,4,28,75,9
11,4,18,1,5,1,4,28,75,9
11,4,22,0,1,0,4,28,93,11
11,4,21,0,1,0,4,28,14,11
11,4,0,0,1,0,4,28,46,9
12,1,0,0,0,0,4,28,78,11
12,1,4,0,6,1,4,28,100,11
12,1,9,1,3,0,4,28,100,11
12,1,13,1,3,0,4,28,19,11
12,1,13,1,4,0,4,28,93,9
12,1,14,1,6,1,4,28,106,11
12,1,18,1,6,1,4,28,78,11
12,1,21,0,0,0,4,28,19,11
12,1,20,1,2,0,4,28,23,8
12,1,13,1,3,0,4,28,48,11
12,1,21,0,3,0,4,28,19,11
1,1,7,1,3,0,1,28,39,9
1,1,16,1,3,0,1,28,106,11
1,1,20,1,5,1,1,28,74,11
1,1,17,1,6,1,1,28,93,11
1,1,17,1,0,0,1,28,93,11
1,1,18,1,1,0,1,28,78,11
2,1,19,1,1,0,1,28,78,11
2,1,23,0,6,1,1,28,78,11
4,2,16,1,3,0,2,28,39,11
7,3,19,1,2,0,3,28,131,11
8,3,21,0,0,0,3,28,106,11
8,3,5,0,1,0,3,28,106,11
8,3,13,1,6,1,3,28,106,11
9,4,18,1,6,1,3,28,93,11
10,4,23,0,1,0,4,28,106,11
10,4,12,1,4,0,4,28,75,11
11,4,11,1,1,0,4,28,93,11
12,1,10,1,3,0,4,28,93,11
12,1,5,0,0,0,4,28,100,11
12,1,14,1,2,0,4,28,34,11
12,1,17,1,1,0,4,28,93,11
1,1,3,0,3,0,1,28,78,11
1,1,18,1,6,1,1,28,78,11
1,1,17,1,1,0,1,28,19,11
1,1,13,1,4,0,1,28,14,11
1,1,17,1,0,0,1,28,100,11
1,1,23,0,0,0,1,28,67,11
2,1,8,1,1,0,1,28,88,8
2,1,22,0,1,0,1,28,19,11
2,1,3,0,6,1,1,28,14,11
2,1,15,1,1,0,1,28,93,11
4,2,12,1,5,1,2,28,90,11
4,2,5,0,1,0,2,28,90,11
5,2,13,1,5,1,2,28,14,11
5,2,23,0,1,0,2,28,46,11
5,2,2,0,0,0,2,28,100,11
6,3,12,1,2,0,2,28,93,11
6,3,22,0,4,0,2,28,93,11
6,3,23,0,1,0,2,28,19,11
7,3,8,1,4,0,3,28,93,11
7,3,21,0,1,0,3,28,93,11
7,3,15,1,6,1,3,28,78,11
8,3,9,1,1,0,3,28,46,8
9,4,13,1,0,0,3,28,19,11
9,4,16,1,4,0,3,28,19,11
10,4,22,0,2,0,4,28,14,8
11,4,17,1,3,0,4,28,93,11
11,4,8,1,3,0,4,28,93,11
12,1,18,1,3,0,4,28,19,11
12,1,0,0,1,0,4,28,106,11
3,2,17,1,6,1,1,28,19,11
4,2,11,1,3,0,2,28,93,11
4,2,12,1,1,0,2,28,93,11
5,2,21,0,5,1,2,28,106,11
5,2,20,1,2,0,2,28,115,11
6,3,17,1,3,0,2,28,75,11
6,3,22,0,4,0,2,28,48,9
7,3,7,1,6,1,3,28,19,11
11,4,3,0,0,0,4,28,115,11
12,1,19,1,5,1,4,28,78,11
1,1,20,1,4,0,1,46,67,11
1,1,7,1,5,1,1,46,15,11
1,1,7,1,6,1,1,46,93,11
1,1,14,1,2,0,1,46,100,11
1,1,18,1,3,0,1,46,78,11
1,1,11,1,4,0,1,46,112,11
1,1,8,1,5,1,1,46,133,11
1,1,11,1,5,1,1,46,75,11
1,1,13,1,4,0,1,46,78,11
2,1,12,1,6,1,1,46,39,8
2,1,15,1,6,1,1,46,67,11
2,1,22,0,6,1,1,46,133,11
2,1,10,1,6,1,1,46,75,11
2,1,19,1,0,0,1,46,133,11
3,2,14,1,6,1,1,46,78,11
3,2,16,1,6,1,1,46,67,11
3,2,11,1,3,0,1,46,47,11
4,2,11,1,4,0,2,46,39,11
4,2,6,0,4,0,2,46,14,11
5,2,1,0,5,1,2,46,79,11
5,2,9,1,5,1,2,46,75,11
5,2,15,1,0,0,2,46,106,11
5,2,15,1,0,0,2,46,93,11
6,3,16,1,4,0,2,46,93,11
6,3,23,0,2,0,2,46,106,11
7,3,14,1,5,1,3,46,78,8
7,3,22,0,0,0,3,46,90,11
7,3,13,1,2,0,3,46,82,11
7,3,22,0,4,0,3,46,75,11
7,3,13,1,6,1,3,46,67,8
7,3,15,1,1,0,3,46,67,9
8,3,0,0,4,0,3,46,67,8
8,3,1,0,1,0,3,46,90,11
8,3,19,1,5,1,3,46,130,11
8,3,12,1,6,1,3,46,93,11
8,3,19,1,6,1,3,46,75,9
8,3,12,1,6,1,3,46,75,11
9,4,10,1,6,1,3,46,75,8
9,4,20,1,1,0,3,46,66,11
10,4,23,0,5,1,4,46,4,11
10,4,18,1,1,0,4,46,78,11
10,4,8,1,1,0,4,46,93,11
10,4,19,1,4,0,4,46,67,11
10,4,21,0,0,0,4,46,100,11
10,4,11,1,3,0,4,46,93,11
10,4,17,1,3,0,4,46,90,11
10,4,22,0,3,0,4,46,90,11
11,4,21,0,2,0,4,46,90,11
11,4,11,1,6,1,4,46,90,11
11,4,13,1,1,0,4,46,93,11
11,4,14,1,1,0,4,46,130,11
11,4,22,0,4,0,4,46,67,11
11,4,1,0,5,1,4,46,67,11
11,4,20,1,5,1,4,46,90,11
11,4,10,1,6,1,4,46,67,11
11,4,15,1,6,1,4,46,135,11
12,1,16,1,4,0,4,46,13,8
12,1,6,0,2,0,4,46,106,11
12,1,22,0,6,1,4,46,90,11
12,1,13,1,2,0,4,46,90,11
12,1,12,1,5,1,4,46,90,11
12,1,17,1,5,1,4,46,39,11
12,1,21,0,5,1,4,46,90,11
12,1,20,1,6,1,4,46,110,11
12,1,17,1,6,1,4,46,78,9
12,1,0,0,4,0,4,46,90,11
12,1,22,0,5,1,4,46,90,11
12,1,14,1,3,0,4,46,78,8
2,1,14,1,1,0,1,46,78,11
2,1,19,1,6,1,1,46,81,9
2,1,2,0,4,0,1,46,53,11
5,2,13,1,1,0,2,46,93,11
5,2,6,0,3,0,2,46,75,11
5,2,22,0,2,0,2,46,115,11
8,3,8,1,4,0,3,46,82,11
8,3,21,0,5,1,3,46,19,11
8,3,13,1,5,1,3,46,93,9
9,4,14,1,4,0,3,46,93,11
10,4,17,1,1,0,4,46,114,9
10,4,13,1,5,1,4,46,75,9
11,4,17,1,0,0,4,46,93,11
2,1,16,1,3,0,1,46,39,11
3,2,22,0,3,0,1,46,39,11
4,2,9,1,1,0,2,46,14,9
4,2,13,1,1,0,2,46,14,9
6,3,12,1,1,0,2,46,106,11
7,3,19,1,3,0,3,46,106,11
9,4,16,1,2,0,3,46,93,11
10,4,14,1,5,1,4,46,93,11
10,4,0,0,2,0,4,46,14,11
12,1,14,1,2,0,4,46,75,11
1,1,16,1,3,0,1,46,78,11
1,1,4,0,5,1,1,46,123,11
5,2,10,1,5,1,2,46,14,11
9,4,19,1,4,0,3,46,26,11
11,4,22,0,1,0,4,46,90,11
1,1,22,0,0,0,1,46,100,11
1,1,10,1,2,0,1,46,75,11
2,1,17,1,6,1,1,46,78,11
2,1,18,1,6,1,1,46,78,8
2,1,21,0,3,0,1,46,132,11
2,1,18,1,3,0,1,46,75,11
3,2,12,1,6,1,1,46,133,11
3,2,21,0,4,0,1,46,75,11
4,2,12,1,5,1,2,46,93,11
4,2,4,0,1,0,2,46,75,11
7,3,17,1,5,1,3,46,46,11
7,3,12,1,4,0,3,46,75,11
8,3,10,1,6,1,3,46,13,11
8,3,15,1,5,1,3,46,75,11
11,4,7,1,0,0,4,46,14,11
1,1,20,1,0,0,1,46,114,11
1,1,8,1,3,0,1,46,81,9
1,1,8,1,2,0,1,46,67,9
1,1,10,1,3,0,1,46,78,11
1,1,19,1,5,1,1,46,82,11
6,3,21,0,4,0,2,46,78,8
7,3,23,0,1,0,3,46,106,11
10,4,15,1,2,0,4,46,39,11
11,4,14,1,2,0,4,46,75,9
1,1,4,0,2,0,1,46,15,11
8,3,23,0,0,0,3,46,93,11
8,3,17,1,1,0,3,46,46,11
8,3,9,1,0,0,3,46,14,11
12,1,1,0,3,0,4,46,99,11
1,1,9,1,3,0,1,46,48,11
1,1,12,1,4,0,1,46,78,11
2,1,21,0,6,1,1,46,78,11
3,2,19,1,3,0,1,46,114,9
3,2,19,1,2,0,1,46,78,11
3,2,7,1,0,0,1,46,78,11
4,2,12,1,3,0,2,46,19,11
5,2,18,1,6,1,2,46,114,11
7,3,19,1,5,1,3,46,106,11
7,3,12,1,3,0,3,46,93,11
7,3,16,1,4,0,3,46,90,11
7,3,16,1,4,0,3,46,106,11
9,4,17,1,1,0,3,46,106,11
9,4,14,1,6,1,3,46,106,11
11,4,20,1,2,0,4,46,133,11
12,1,18,1,1,0,4,46,78,11
12,1,18,1,4,0,4,46,39,8
1,1,6,0,3,0,1,13,81,8
1,1,23,0,0,0,1,13,78,11
1,1,23,0,2,0,1,13,133,11
2,1,16,1,3,0,1,13,133,11
2,1,18,1,6,1,1,13,90,11
6,3,9,1,1,0,2,13,78,11
7,3,20,1,2,0,3,13,93,11
7,3,10,1,5,1,3,13,93,11
7,3,8,1,4,0,3,13,13,11
10,4,19,1,2,0,4,13,133,11
10,4,19,1,2,0,4,13,133,11
11,4,13,1,4,0,4,13,90,11
11,4,11,1,5,1,4,13,106,11
12,1,17,1,4,0,4,13,39,11
12,1,10,1,1,0,4,13,90,11
12,1,9,1,3,0,4,13,78,11
12,1,17,1,4,0,4,13,78,11
12,1,11,1,2,0,4,13,133,11
8,3,14,1,5,1,3,13,78,11
11,4,19,1,4,0,4,13,78,11
1,1,1,0,5,1,1,48,14,11
1,1,3,0,6,1,1,48,78,11
1,1,0,0,1,0,1,48,133,11
1,1,15,1,4,0,1,48,90,11
1,1,14,1,4,0,1,48,81,11
1,1,21,0,2,0,1,48,90,11
2,1,10,1,2,0,1,48,93,11
2,1,16,1,4,0,1,48,106,11
3,2,7,1,0,0,1,48,91,11
3,2,0,0,6,1,1,48,90,11
7,3,15,1,6,1,3,48,1,11
7,3,1,0,3,0,3,48,106,11
8,3,17,1,3,0,3,48,114,9
8,3,6,0,2,0,3,48,90,11
10,4,18,1,0,0,4,48,93,11
10,4,18,1,0,0,4,48,67,11
11,4,21,0,1,0,4,48,78,11
11,4,16,1,3,0,4,48,90,11
11,4,19,1,2,0,4,48,39,11
12,1,16,1,6,1,4,48,67,11
12,1,16,1,3,0,4,48,100,11
12,1,18,1,4,0,4,48,90,11
12,1,19,1,2,0,4,48,78,11
1,1,12,1,5,1,1,48,129,11
3,2,11,1,6,1,1,48,78,8
7,3,5,0,1,0,3,48,133,11
10,4,7,1,4,0,4,48,100,11
12,1,23,0,4,0,4,48,106,11
12,1,20,1,3,0,4,48,19,11
1,1,23,0,3,0,1,48,90,11
1,1,9,1,1,0,1,48,90,11
1,1,16,1,1,0,1,48,106,11
2,1,3,0,6,1,1,48,90,11
2,1,15,1,6,1,1,48,39,11
2,1,4,0,0,0,1,48,14,11
3,2,13,1,5,1,1,48,106,11
3,2,17,1,5,1,1,48,106,11
4,2,1,0,3,0,2,48,78,11
4,2,13,1,4,0,2,48,93,11
4,2,15,1,5,1,2,48,4,11
5,2,8,1,1,0,2,48,106,11
6,3,16,1,5,1,2,48,90,11
6,3,20,1,4,0,2,48,93,11
7,3,17,1,1,0,3,48,93,11
8,3,19,1,1,0,3,48,93,11
8,3,22,0,6,1,3,48,93,11
9,4,8,1,5,1,3,48,103,11
11,4,21,0,3,0,4,48,39,11
11,4,10,1,4,0,4,48,114,11
11,4,10,1,6,1,4,48,70,11
12,1,13,1,1,0,4,48,39,11
12,1,1,0,4,0,4,48,100,11
12,1,14,1,4,0,4,48,106,11
12,1,1,0,1,0,4,48,13,9
1,1,0,0,1,0,1,7,133,11
1,1,15,1,3,0,1,7,13,11
1,1,14,1,0,0,1,7,78,11
1,1,20,1,1,0,1,7,78,11
2,1,14,1,6,1,1,7,96,11
2,1,19,1,1,0,1,7,93,11
2,1,9,1,4,0,1,7,106,11
3,2,17,1,5,1,1,7,133,11
4,2,11,1,0,0,2,7,67,9
4,2,11,1,2,0,2,7,106,11
4,2,11,1,3,0,2,7,39,11
6,3,21,0,0,0,2,7,39,11
6,3,19,1,1,0,2,7,115,11
7,3,1,0,6,1,3,7,133,11
7,3,18,1,6,1,3,7,93,11
7,3,23,0,4,0,3,7,115,11
7,3,6,0,6,1,3,7,75,11
7,3,10,1,2,0,3,7,93,11
7,3,4,0,2,0,3,7,133,11
8,3,20,1,5,1,3,7,106,11
8,3,14,1,5,1,3,7,133,11
8,3,14,1,3,0,3,7,19,11
8,3,15,1,3,0,3,7,19,11
9,4,0,0,1,0,3,7,106,11
9,4,18,1,3,0,3,7,93,11
9,4,13,1,5,1,3,7,93,11
9,4,12,1,4,0,3,7,93,11
9,4,19,1,1,0,3,7,106,11
10,4,13,1,6,1,4,7,93,11
10,4,13,1,2,0,4,7,75,9
10,4,3,0,3,0,4,7,75,11
10,4,20,1,4,0,4,7,75,11
11,4,9,1,0,0,4,7,67,11
11,4,23,0,6,1,4,7,58,11
11,4,14,1,6,1,4,7,67,11
12,1,11,1,1,0,4,7,67,11
12,1,0,0,2,0,4,7,133,11
12,1,21,0,2,0,4,7,78,11
1,1,1,0,4,0,1,7,93,11
2,1,15,1,6,1,1,7,39,11
2,1,20,1,5,1,1,7,78,9
2,1,15,1,1,0,1,7,19,11
2,1,17,1,4,0,1,7,58,8
3,2,1,0,0,0,1,7,90,11
4,2,12,1,2,0,2,7,19,11
4,2,15,1,0,0,2,7,39,11
4,2,22,0,2,0,2,7,78,11
4,2,10,1,5,1,2,7,78,11
4,2,3,0,2,0,2,7,14,11
5,2,22,0,1,0,2,7,90,9
5,2,17,1,5,1,2,7,13,9
5,2,12,1,0,0,2,7,93,9
5,2,14,1,0,0,2,7,27,11
5,2,12,1,0,0,2,7,106,11
6,3,17,1,0,0,2,7,93,11
6,3,9,1,6,1,2,7,106,11
6,3,15,1,5,1,2,7,93,11
6,3,19,1,5,1,2,7,67,11
7,3,21,0,3,0,3,7,93,11
7,3,12,1,6,1,3,7,93,11
7,3,17,1,4,0,3,7,19,11
7,3,16,1,0,0,3,7,11,11
7,3,19,1,1,0,3,7,114,11
8,3,14,1,4,0,3,7,93,11
8,3,19,1,0,0,3,7,78,11
8,3,22,0,6,1,3,7,93,11
8,3,18,1,1,0,3,7,93,11
8,3,23,0,0,0,3,7,19,11
8,3,9,1,3,0,3,7,93,11
10,4,16,1,4,0,4,7,81,11
10,4,2,0,6,1,4,7,133,11
11,4,18,1,4,0,4,7,93,11
11,4,21,0,5,1,4,7,19,11
12,1,11,1,0,0,4,7,46,9
2,1,11,1,4,0,1,7,57,11
2,1,1,0,3,0,1,7,14,8
4,2,20,1,3,0,2,7,4,11
5,2,12,1,2,0,2,7,19,11
5,2,12,1,3,0,2,7,93,8
5,2,3,0,5,1,2,7,93,11
5,2,11,1,4,0,2,7,19,11
7,3,16,1,6,1,3,7,75,9
7,3,9,1,6,1,3,7,46,11
7,3,14,1,1,0,3,7,106,11
7,3,21,0,2,0,3,7,27,11
7,3,19,1,2,0,3,7,23,9
7,3,18,1,5,1,3,7,106,11
7,3,16,1,3,0,3,7,130,11
7,3,18,1,3,0,3,7,130,9
7,3,22,0,4,0,3,7,93,11
8,3,8,1,5,1,3,7,75,11
8,3,15,1,0,0,3,7,75,9
8,3,18,1,4,0,3,7,106,11
8,3,7,1,4,0,3,7,58,9
8,3,17,1,5,1,3,7,75,9
8,3,17,1,6,1,3,7,75,9
8,3,19,1,3,0,3,7,46,11
9,4,7,1,1,0,3,7,46,11
9,4,19,1,6,1,3,7,93,11
9,4,15,1,0,0,3,7,19,11
10,4,12,1,4,0,4,7,93,11
10,4,3,0,4,0,4,7,75,8
11,4,11,1,0,0,4,7,46,8
11,4,10,1,2,0,4,7,78,8
12,1,21,0,0,0,4,7,78,11
12,1,20,1,6,1,4,7,78,8
12,1,4,0,6,1,4,7,78,8
12,1,12,1,6,1,4,7,78,11
12,1,0,0,6,1,4,7,19,11
6,3,13,1,5,1,2,7,115,11
11,4,19,1,4,0,4,7,115,11
1,1,23,0,3,0,1,12,1,11
1,1,2,0,6,1,1,12,78,11
1,1,20,1,0,0,1,12,78,11
1,1,20,1,1,0,1,12,78,11
1,1,18,1,6,1,1,12,100,11
1,1,19,1,1,0,1,12,78,11
2,1,10,1,1,0,1,12,39,11
2,1,15,1,1,0,1,12,78,11
2,1,19,1,1,0,1,12,67,11
2,1,10,1,0,0,1,12,14,11
2,1,22,0,2,0,1,12,78,11
2,1,16,1,4,0,1,12,78,11
2,1,1,0,5,1,1,12,58,11
3,2,18,1,6,1,1,12,91,11
3,2,12,1,0,0,1,12,14,11
3,2,13,1,4,0,1,12,67,11
3,2,22,0,4,0,1,12,66,11
3,2,11,1,5,1,1,12,1,11
3,2,12,1,5,1,1,12,39,11
3,2,13,1,6,1,1,12,78,11
3,2,3,0,5,1,1,12,106,11
3,2,23,0,1,0,1,12,78,11
3,2,12,1,5,1,1,12,67,11
3,2,15,1,0,0,1,12,67,11
4,2,9,1,3,0,2,12,14,11
4,2,16,1,3,0,2,12,78,11
4,2,3,0,6,1,2,12,106,11
4,2,12,1,4,0,2,12,106,11
4,2,15,1,0,0,2,12,78,11
4,2,2,0,1,0,2,12,90,11
4,2,23,0,6,1,2,12,78,11
4,2,23,0,1,0,2,12,123,11
4,2,14,1,3,0,2,12,1,11
5,2,21,0,4,0,2,12,1,11
5,2,12,1,5,1,2,12,48,11
5,2,22,0,5,1,2,12,78,11
5,2,9,1,6,1,2,12,19,11
5,2,22,0,1,0,2,12,19,11
5,2,1,0,3,0,2,12,123,11
5,2,6,0,1,0,2,12,19,11
5,2,22,0,2,0,2,12,19,11
6,3,6,0,1,0,2,12,15,11
6,3,12,1,5,1,2,12,1,11
6,3,11,1,2,0,2,12,79,11
6,3,5,0,5,1,2,12,39,11
6,3,11,1,6,1,2,12,19,11
6,3,15,1,1,0,2,12,96,11
7,3,3,0,3,0,3,12,19,11
8,3,14,1,2,0,3,12,120,11
8,3,14,1,5,1,3,12,78,11
8,3,22,0,5,1,3,12,78,11
8,3,2,0,4,0,3,12,19,11
8,3,7,1,4,0,3,12,67,11
9,4,9,1,5,1,3,12,14,11
9,4,12,1,5,1,3,12,78,11
9,4,16,1,5,1,3,12,133,11
9,4,6,0,6,1,3,12,100,11
9,4,11,1,2,0,3,12,78,11
9,4,20,1,3,0,3,12,93,11
9,4,17,1,5,1,3,12,78,11
9,4,3,0,2,0,3,12,70,11
9,4,15,1,5,1,3,12,67,11
10,4,22,0,3,0,4,12,100,11
10,4,16,1,2,0,4,12,78,11
10,4,0,0,3,0,4,12,90,11
10,4,17,1,4,0,4,12,23,8
10,4,17,1,2,0,4,12,39,11
11,4,22,0,2,0,4,12,79,11
11,4,20,1,4,0,4,12,67,11
11,4,12,1,0,0,4,12,39,11
11,4,8,1,4,0,4,12,19,11
11,4,12,1,0,0,4,12,79,11
12,1,12,1,1,0,4,12,19,11
12,1,3,0,2,0,4,12,89,11
12,1,21,0,6,1,4,12,78,11
12,1,14,1,4,0,4,12,67,11
12,1,16,1,5,1,4,12,112,11
12,1,21,0,2,0,4,12,58,11
12,1,16,1,3,0,4,12,78,11
2,1,9,1,1,0,1,12,90,11
4,2,18,1,5,1,2,12,13,11
9,4,13,1,5,1,3,12,78,11
9,4,21,0,2,0,3,12,19,11
12,1,23,0,3,0,4,12,114,11
12,1,8,1,0,0,4,12,106,11
4,2,16,1,1,0,2,12,93,11
7,3,16,1,4,0,3,12,19,11
8,3,20,1,4,0,3,12,100,11
8,3,18,1,0,0,3,12,78,11
9,4,16,1,2,0,3,12,19,11
9,4,3,0,3,0,3,12,19,11
12,1,3,0,6,1,4,12,23,11
1,1,13,1,3,0,1,12,67,11
1,1,16,1,5,1,1,12,100,11
1,1,16,1,5,1,1,12,100,11
1,1,0,0,3,0,1,12,13,9
1,1,20,1,2,0,1,12,100,11
2,1,1,0,2,0,1,12,78,11
3,2,21,0,1,0,1,12,78,9
3,2,0,0,5,1,1,12,19,9
5,2,17,1,5,1,2,12,93,11
5,2,16,1,6,1,2,12,78,11
5,2,11,1,5,1,2,12,93,9
6,3,13,1,0,0,2,12,1,11
7,3,19,1,3,0,3,12,93,11
8,3,10,1,3,0,3,12,78,11
8,3,1,0,6,1,3,12,39,11
9,4,1,0,2,0,3,12,39,8
10,4,19,1,4,0,4,12,19,11
10,4,1,0,5,1,4,12,14,8
11,4,16,1,0,0,4,12,93,9
12,1,23,0,2,0,4,12,100,11
1,1,14,1,4,0,1,12,123,9
2,1,21,0,3,0,1,12,78,11
9,4,7,1,2,0,3,12,90,9
4,2,13,1,2,0,2,12,78,11
4,2,11,1,4,0,2,12,19,11
10,4,16,1,0,0,4,12,78,11
1,1,18,1,4,0,1,29,93,11
1,1,9,1,1,0,1,29,115,11
1,1,19,1,5,1,1,29,106,11
2,1,20,1,6,1,1,29,106,11
3,2,20,1,2,0,1,29,90,11
3,2,23,0,1,0,1,29,90,11
4,2,10,1,2,0,2,29,60,11
4,2,4,0,6,1,2,29,93,11
4,2,20,1,2,0,2,29,93,11
5,2,8,1,2,0,2,29,78,11
5,2,3,0,1,0,2,29,90,11
5,2,3,0,5,1,2,29,75,11
6,3,19,1,2,0,2,29,90,11
6,3,13,1,1,0,2,29,75,11
7,3,1,0,3,0,3,29,93,9
7,3,18,1,1,0,3,29,106,11
7,3,13,1,4,0,3,29,93,11
7,3,13,1,4,0,3,29,93,11
7,3,11,1,1,0,3,29,14,11
7,3,10,1,2,0,3,29,93,11
7,3,14,1,2,0,3,29,78,11
7,3,2,0,3,0,3,29,93,11
7,3,14,1,4,0,3,29,93,11
7,3,20,1,1,0,3,29,67,11
8,3,14,1,4,0,3,29,48,11
8,3,23,0,0,0,3,29,78,11
8,3,19,1,6,1,3,29,93,11
8,3,15,1,3,0,3,29,75,11
8,3,18,1,5,1,3,29,93,11
8,3,11,1,6,1,3,29,78,11
8,3,23,0,0,0,3,29,93,11
9,4,4,0,6,1,3,29,106,11
9,4,20,1,3,0,3,29,78,11
9,4,13,1,1,0,3,29,78,11
9,4,16,1,1,0,3,29,78,11
10,4,20,1,4,0,4,29,90,11
11,4,16,1,1,0,4,29,93,11
12,1,9,1,3,0,4,29,4,11
12,1,9,1,5,1,4,29,106,11
12,1,5,0,4,0,4,29,93,11
12,1,20,1,4,0,4,29,90,11
12,1,12,1,5,1,4,29,135,11
1,1,10,1,1,0,1,29,113,11
3,2,1,0,6,1,1,29,90,11
5,2,5,0,1,0,2,29,90,11
5,2,14,1,6,1,2,29,133,11
7,3,18,1,3,0,3,29,78,11
8,3,23,0,6,1,3,29,112,11
10,4,15,1,0,0,4,29,90,11
11,4,9,1,6,1,4,29,133,11
12,1,8,1,4,0,4,29,133,11
12,1,8,1,1,0,4,29,106,11
12,1,3,0,4,0,4,29,114,11
12,1,15,1,1,0,4,29,39,11
12,1,11,1,4,0,4,29,93,11
1,1,10,1,4,0,1,29,115,11
2,1,20,1,6,1,1,29,106,11
4,2,17,1,3,0,2,29,90,11
4,2,19,1,4,0,2,29,93,11
4,2,12,1,3,0,2,29,90,11
5,2,5,0,6,1,2,29,93,11
6,3,11,1,5,1,2,29,106,11
7,3,12,1,4,0,3,29,90,11
8,3,0,0,4,0,3,29,75,11
8,3,12,1,6,1,3,29,78,11
9,4,23,0,2,0,3,29,75,11
11,4,11,1,0,0,4,29,93,11
12,1,13,1,1,0,4,29,93,11
12,1,13,1,1,0,4,29,93,11
12,1,13,1,2,0,4,29,93,11
12,1,9,1,1,0,4,29,78,11
12,1,16,1,1,0,4,29,93,11
12,1,10,1,2,0,4,29,93,11
2,1,9,1,1,0,1,29,110,11
2,1,17,1,6,1,1,29,90,11
5,2,11,1,0,0,2,29,14,11
8,3,10,1,3,0,3,29,58,11
8,3,23,0,3,0,3,29,14,11
12,1,16,1,1,0,4,29,93,11
1,1,19,1,4,0,1,29,106,11
2,1,7,1,6,1,1,29,90,11
4,2,8,1,4,0,2,29,19,11
4,2,16,1,5,1,2,29,19,11
4,2,11,1,6,1,2,29,93,11
5,2,13,1,4,0,2,29,90,11
5,2,16,1,6,1,2,29,78,11
6,3,23,0,1,0,2,29,1,11
6,3,4,0,4,0,2,29,106,11
6,3,0,0,0,0,2,29,93,11
7,3,9,1,6,1,3,29,48,11
8,3,14,1,6,1,3,29,106,11
8,3,1,0,1,0,3,29,93,11
10,4,22,0,4,0,4,29,93,11
10,4,4,0,2,0,4,29,133,11
10,4,2,0,2,0,4,29,133,11
10,4,19,1,4,0,4,29,93,11
1,1,9,1,5,1,1,29,106,11
1,1,19,1,4,0,1,29,115,11
3,2,16,1,0,0,1,29,1,11
4,2,10,1,3,0,2,29,133,11
4,2,17,1,6,1,2,29,93,11
4,2,18,1,5,1,2,29,135,8
8,3,9,1,6,1,3,29,93,11
9,4,4,0,2,0,3,29,93,11
9,4,11,1,4,0,3,29,93,11
11,4,13,1,3,0,4,29,78,11
1,1,1,0,3,0,1,10,78,11
1,1,11,1,3,0,1,10,93,11
1,1,11,1,4,0,1,10,93,11
1,1,16,1,0,0,1,10,93,11
1,1,13,1,2,0,1,10,48,11
1,1,13,1,6,1,1,10,86,11
1,1,15,1,6,1,1,10,93,11
1,1,1,0,3,0,1,10,75,11
1,1,14,1,1,0,1,10,93,11
1,1,10,1,1,0,1,10,100,11
1,1,20,1,2,0,1,10,93,11
1,1,14,1,5,1,1,10,131,11
1,1,15,1,5,1,1,10,67,11
2,1,12,1,6,1,1,10,4,11
2,1,18,1,6,1,1,10,67,11
2,1,12,1,2,0,1,10,67,11
2,1,17,1,2,0,1,10,93,11
2,1,14,1,2,0,1,10,93,11
2,1,17,1,3,0,1,10,93,11
2,1,14,1,4,0,1,10,93,11
2,1,16,1,5,1,1,10,104,11
2,1,19,1,6,1,1,10,93,11
2,1,16,1,1,0,1,10,39,11
2,1,4,0,3,0,1,10,75,11
2,1,8,1,5,1,1,10,106,11
3,2,11,1,1,0,1,10,93,11
3,2,12,1,2,0,1,10,93,11
3,2,21,0,6,1,1,10,93,11
3,2,18,1,1,0,1,10,78,11
3,2,14,1,1,0,1,10,93,11
3,2,19,1,1,0,1,10,100,11
3,2,9,1,5,1,1,10,39,11
3,2,9,1,6,1,1,10,106,11
3,2,21,0,6,1,1,10,93,11
3,2,3,0,6,1,1,10,106,11
3,2,18,1,2,0,1,10,93,11
3,2,4,0,5,1,1,10,90,11
3,2,18,1,6,1,1,10,106,11
4,2,11,1,5,1,2,10,87,8
4,2,16,1,5,1,2,10,93,11
4,2,0,0,5,1,2,10,90,11
4,2,3,0,6,1,2,10,39,11
4,2,20,1,2,0,2,10,93,11
4,2,5,0,4,0,2,10,100,11
4,2,18,1,4,0,2,10,113,11
4,2,11,1,4,0,2,10,93,11
4,2,13,1,4,0,2,10,93,11
4,2,15,1,5,1,2,10,93,11
4,2,13,1,5,1,2,10,93,11
4,2,13,1,6,1,2,10,93,11
4,2,14,1,6,1,2,10,93,11
4,2,17,1,0,0,2,10,93,11
4,2,18,1,1,0,2,10,93,11
4,2,18,1,2,0,2,10,93,11
4,2,15,1,2,0,2,10,67,11
4,2,5,0,0,0,2,10,106,11
4,2,12,1,1,0,2,10,4,11
4,2,12,1,3,0,2,10,27,11
5,2,20,1,5,1,2,10,93,11
5,2,12,1,0,0,2,10,93,11
5,2,10,1,1,0,2,10,19,11
5,2,9,1,3,0,2,10,133,11
5,2,9,1,5,1,2,10,93,11
5,2,10,1,6,1,2,10,93,11
5,2,22,0,0,0,2,10,78,11
5,2,13,1,4,0,2,10,39,11
5,2,9,1,5,1,2,10,58,11
5,2,20,1,0,0,2,10,93,11
5,2,21,0,1,0,2,10,106,11
5,2,0,0,5,1,2,10,75,11
5,2,8,1,5,1,2,10,106,11
5,2,21,0,5,1,2,10,93,11
5,2,22,0,6,1,2,10,93,11
5,2,20,1,3,0,2,10,93,11
6,3,18,1,3,0,2,10,93,11
6,3,10,1,1,0,2,10,93,11
6,3,23,0,4,0,2,10,93,11
6,3,14,1,1,0,2,10,93,11
6,3,8,1,4,0,2,10,91,11
6,3,4,0,5,1,2,10,123,11
6,3,22,0,0,0,2,10,58,11
6,3,11,1,2,0,2,10,93,11
6,3,16,1,3,0,2,10,93,11
6,3,21,0,0,0,2,10,93,11
6,3,7,1,1,0,2,10,19,11
7,3,17,1,2,0,3,10,78,8
7,3,7,1,2,0,3,10,19,11
7,3,8,1,6,1,3,10,90,11
7,3,3,0,1,0,3,10,87,11
7,3,22,0,1,0,3,10,14,11
7,3,12,1,2,0,3,10,93,11
7,3,2,0,3,0,3,10,93,11
7,3,21,0,6,1,3,10,93,11
7,3,2,0,2,0,3,10,115,11
7,3,13,1,4,0,3,10,58,11
7,3,7,1,4,0,3,10,93,9
7,3,18,1,0,0,3,10,23,11
7,3,16,1,2,0,3,10,19,11
7,3,19,1,3,0,3,10,93,9
7,3,6,0,3,0,3,10,78,9
7,3,12,1,4,0,3,10,88,11
7,3,21,0,4,0,3,10,19,11
7,3,3,0,5,1,3,10,93,11
7,3,21,0,5,1,3,10,93,11
7,3,13,1,6,1,3,10,93,11
7,3,21,0,0,0,3,10,93,9
7,3,11,1,2,0,3,10,78,11
8,3,20,1,5,1,3,10,93,11
8,3,16,1,0,0,3,10,93,11
8,3,9,1,5,1,3,10,106,11
8,3,21,0,5,1,3,10,112,11
8,3,10,1,1,0,3,10,106,11
8,3,19,1,1,0,3,10,57,8
8,3,5,0,2,0,3,10,93,11
8,3,10,1,2,0,3,10,93,11
8,3,23,0,2,0,3,10,93,8
8,3,20,1,2,0,3,10,93,11
8,3,19,1,3,0,3,10,93,11
8,3,15,1,3,0,3,10,93,11
8,3,13,1,3,0,3,10,90,11
9,4,14,1,2,0,3,10,106,11
9,4,22,0,4,0,3,10,103,11
9,4,19,1,4,0,3,10,93,11
9,4,17,1,5,1,3,10,93,8
9,4,19,1,5,1,3,10,131,11
9,4,9,1,6,1,3,10,67,9
9,4,18,1,0,0,3,10,4,9
9,4,17,1,3,0,3,10,93,9
9,4,0,0,4,0,3,10,93,11
9,4,1,0,4,0,3,10,93,11
9,4,3,0,4,0,3,10,93,11
9,4,15,1,5,1,3,10,58,11
9,4,19,1,0,0,3,10,93,11
9,4,13,1,2,0,3,10,93,11
9,4,19,1,2,0,3,10,93,11
9,4,23,0,2,0,3,10,93,11
9,4,15,1,4,0,3,10,133,11
9,4,7,1,6,1,3,10,78,11
9,4,11,1,6,1,3,10,66,11
9,4,11,1,0,0,3,10,133,11
9,4,11,1,2,0,3,10,4,11
9,4,18,1,2,0,3,10,58,11
9,4,18,1,4,0,3,10,90,11
9,4,6,0,6,1,3,10,82,11
9,4,14,1,0,0,3,10,90,11
9,4,20,1,0,0,3,10,87,11
10,4,9,1,3,0,4,10,93,11
10,4,23,0,3,0,4,10,93,11
10,4,12,1,4,0,4,10,93,11
10,4,15,1,2,0,4,10,93,11
10,4,18,1,2,0,4,10,115,11
10,4,18,1,2,0,4,10,93,11
10,4,10,1,2,0,4,10,93,11
10,4,14,1,2,0,4,10,93,11
10,4,8,1,3,0,4,10,93,11
10,4,19,1,5,1,4,10,93,11
10,4,13,1,5,1,4,10,78,11
10,4,6,0,5,1,4,10,93,11
10,4,14,1,6,1,4,10,93,11
10,4,18,1,1,0,4,10,93,11
10,4,15,1,1,0,4,10,93,11
10,4,14,1,5,1,4,10,93,11
10,4,14,1,5,1,4,10,93,11
10,4,14,1,6,1,4,10,93,11
10,4,13,1,0,0,4,10,93,11
10,4,15,1,0,0,4,10,93,11
10,4,21,0,3,0,4,10,93,9
10,4,13,1,3,0,4,10,93,11
10,4,15,1,0,0,4,10,93,11
10,4,12,1,3,0,4,10,93,11
11,4,18,1,0,0,4,10,19,11
11,4,23,0,0,0,4,10,93,11
11,4,18,1,1,0,4,10,67,11
11,4,18,1,4,0,4,10,93,11
11,4,12,1,5,1,4,10,93,11
11,4,9,1,3,0,4,10,93,11
11,4,17,1,4,0,4,10,93,11
11,4,0,0,6,1,4,10,78,11
11,4,14,1,3,0,4,10,75,11
11,4,10,1,5,1,4,10,75,11
11,4,17,1,5,1,4,10,93,11
11,4,10,1,6,1,4,10,93,11
12,1,10,1,1,0,4,10,93,11
12,1,20,1,2,0,4,10,93,11
12,1,14,1,2,0,4,10,93,11
12,1,12,1,3,0,4,10,93,11
12,1,21,0,3,0,4,10,67,11
12,1,14,1,0,0,4,10,93,11
12,1,11,1,1,0,4,10,67,11
12,1,15,1,4,0,4,10,93,11
12,1,12,1,4,0,4,10,93,11
12,1,14,1,6,1,4,10,93,11
12,1,20,1,6,1,4,10,93,11
12,1,3,0,2,0,4,10,78,8
12,1,17,1,2,0,4,10,90,11
12,1,17,1,6,1,4,10,93,11
12,1,20,1,6,1,4,10,67,11
12,1,8,1,0,0,4,10,93,11
12,1,23,0,2,0,4,10,93,11
12,1,14,1,3,0,4,10,81,11
12,1,17,1,5,1,4,10,67,11
12,1,19,1,6,1,4,10,75,11
12,1,10,1,6,1,4,10,93,11
12,1,20,1,3,0,4,10,67,11
1,1,15,1,5,1,1,10,106,11
1,1,2,0,6,1,1,10,106,11
1,1,15,1,2,0,1,10,106,11
1,1,18,1,2,0,1,10,100,11
1,1,13,1,2,0,1,10,93,11
2,1,16,1,0,0,1,10,78,9
2,1,15,1,1,0,1,10,93,11
2,1,12,1,3,0,1,10,93,11
3,2,13,1,4,0,1,10,133,11
3,2,17,1,4,0,1,10,106,11
3,2,18,1,5,1,1,10,106,11
3,2,8,1,5,1,1,10,93,11
4,2,14,1,3,0,2,10,93,11
4,2,19,1,1,0,2,10,106,11
4,2,13,1,3,0,2,10,106,11
4,2,0,0,4,0,2,10,90,11
4,2,2,0,5,1,2,10,106,11
4,2,17,1,4,0,2,10,133,11
4,2,10,1,3,0,2,10,106,11
5,2,6,0,3,0,2,10,93,11
5,2,10,1,1,0,2,10,58,8
6,3,16,1,6,1,2,10,93,11
7,3,19,1,3,0,3,10,93,11
7,3,8,1,4,0,3,10,93,11
7,3,13,1,1,0,3,10,74,11
7,3,3,0,3,0,3,10,106,11
8,3,18,1,6,1,3,10,106,11
8,3,11,1,1,0,3,10,78,11
9,4,15,1,0,0,3,10,93,11
9,4,10,1,3,0,3,10,57,11
10,4,11,1,6,1,4,10,27,11
11,4,10,1,5,1,4,10,93,11
11,4,9,1,1,0,4,10,93,11
11,4,13,1,1,0,4,10,93,11
11,4,20,1,0,0,4,10,93,11
11,4,9,1,3,0,4,10,93,11
12,1,13,1,4,0,4,10,20,11
12,1,13,1,2,0,4,10,93,11
6,3,14,1,1,0,2,10,106,11
7,3,11,1,4,0,3,10,106,11
7,3,20,1,5,1,3,10,93,11
8,3,12,1,0,0,3,10,120,11
8,3,2,0,1,0,3,10,115,11
8,3,3,0,6,1,3,10,115,11
8,3,20,1,5,1,3,10,115,11
9,4,0,0,1,0,3,10,115,11
10,4,19,1,2,0,4,10,93,11
10,4,3,0,3,0,4,10,80,11
10,4,15,1,3,0,4,10,93,11
2,1,18,1,5,1,1,10,93,11
3,2,12,1,4,0,1,10,15,9
3,2,13,1,1,0,1,10,106,11
4,2,12,1,6,1,2,10,93,11
7,3,7,1,5,1,3,10,93,11
9,4,18,1,0,0,3,10,93,11
9,4,12,1,2,0,3,10,93,11
10,4,17,1,3,0,4,10,93,11
10,4,8,1,0,0,4,10,93,11
10,4,9,1,2,0,4,10,93,11
11,4,8,1,5,1,4,10,93,11
12,1,23,0,2,0,4,10,93,11
2,1,7,1,0,0,1,10,6,11
6,3,4,0,2,0,2,10,5,11
9,4,4,0,6,1,3,10,5,11
2,1,7,1,0,0,1,10,75,11
3,2,1,0,4,0,1,10,93,11
3,2,1,0,3,0,1,10,90,11
3,2,7,1,2,0,1,10,78,11
3,2,19,1,3,0,1,10,67,11
3,2,2,0,5,1,1,10,19,11
3,2,20,1,2,0,1,10,67,11
3,2,15,1,5,1,1,10,78,9
3,2,16,1,0,0,1,10,81,11
4,2,19,1,4,0,2,10,67,11
4,2,20,1,5,1,2,10,78,11
5,2,17,1,0,0,2,10,67,11
5,2,15,1,5,1,2,10,67,11
5,2,16,1,5,1,2,10,48,11
5,2,12,1,0,0,2,10,87,9
5,2,4,0,2,0,2,10,75,11
5,2,18,1,6,1,2,10,78,11
6,3,18,1,3,0,2,10,131,11
6,3,13,1,4,0,2,10,93,11
6,3,19,1,1,0,2,10,75,11
7,3,2,0,0,0,3,10,19,11
7,3,13,1,2,0,3,10,69,11
7,3,14,1,5,1,3,10,93,11
7,3,13,1,1,0,3,10,93,11
7,3,14,1,1,0,3,10,78,11
8,3,11,1,5,1,3,10,115,11
8,3,12,1,6,1,3,10,87,11
8,3,16,1,6,1,3,10,93,11
8,3,4,0,6,1,3,10,48,11
8,3,16,1,2,0,3,10,93,11
8,3,17,1,0,0,3,10,87,11
8,3,15,1,2,0,3,10,79,11
9,4,1,0,2,0,3,10,93,11
9,4,9,1,3,0,3,10,106,11
9,4,11,1,5,1,3,10,48,11
10,4,15,1,2,0,4,10,48,11
10,4,19,1,3,0,4,10,93,11
10,4,1,0,5,1,4,10,93,11
11,4,10,1,3,0,4,10,75,11
11,4,17,1,2,0,4,10,106,11
12,1,13,1,3,0,4,10,106,11
12,1,19,1,6,1,4,10,106,11
12,1,15,1,4,0,4,10,93,11
12,1,18,1,5,1,4,10,67,11
1,1,15,1,4,0,1,33,39,11
1,1,13,1,4,0,1,33,90,11
1,1,16,1,0,0,1,33,78,11
1,1,12,1,0,0,1,33,78,11
1,1,9,1,1,0,1,33,15,11
1,1,21,0,2,0,1,33,90,11
1,1,17,1,3,0,1,33,78,11
1,1,23,0,3,0,1,33,106,11
1,1,23,0,3,0,1,33,106,11
1,1,18,1,5,1,1,33,13,9
1,1,2,0,6,1,1,33,78,11
1,1,15,1,6,1,1,33,78,11
1,1,18,1,6,1,1,33,78,11
1,1,12,1,2,0,1,33,106,11
1,1,22,0,2,0,1,33,67,11
1,1,22,0,4,0,1,33,90,11
1,1,17,1,1,0,1,33,90,11
1,1,23,0,1,0,1,33,78,11
2,1,17,1,5,1,1,33,78,11
2,1,8,1,4,0,1,33,48,11
2,1,14,1,5,1,1,33,78,11
2,1,21,0,6,1,1,33,133,11
2,1,20,1,6,1,1,33,133,11
2,1,18,1,2,0,1,33,78,11
2,1,12,1,3,0,1,33,106,11
2,1,18,1,4,0,1,33,78,11
3,2,1,0,2,0,1,33,90,11
3,2,22,0,2,0,1,33,106,11
3,2,20,1,5,1,1,33,90,11
3,2,19,1,0,0,1,33,133,11
4,2,1,0,2,0,2,33,90,11
4,2,5,0,3,0,2,33,90,11
5,2,21,0,5,1,2,33,79,11
5,2,10,1,3,0,2,33,48,11
5,2,21,0,4,0,2,33,78,11
5,2,21,0,6,1,2,33,64,11
6,3,10,1,1,0,2,33,82,11
6,3,17,1,3,0,2,33,9,11
6,3,21,0,3,0,2,33,67,11
6,3,20,1,6,1,2,33,75,11
6,3,12,1,3,0,2,33,48,11
6,3,16,1,6,1,2,33,133,11
6,3,4,0,6,1,2,33,106,11
6,3,22,0,1,0,2,33,13,9
7,3,21,0,2,0,3,33,13,9
7,3,0,0,0,0,3,33,78,11
8,3,16,1,1,0,3,33,47,9
8,3,12,1,6,1,3,33,19,11
8,3,22,0,6,1,3,33,133,11
8,3,1,0,2,0,3,33,90,11
9,4,9,1,0,0,3,33,93,9
9,4,10,1,0,0,3,33,106,11
9,4,17,1,3,0,3,33,93,11
9,4,3,0,0,0,3,33,103,11
9,4,8,1,1,0,3,33,78,11
9,4,3,0,1,0,3,33,90,11
9,4,11,1,1,0,3,33,78,11
10,4,22,0,3,0,4,33,93,11
10,4,13,1,3,0,4,33,19,11
10,4,0,0,0,0,4,33,78,11
10,4,19,1,5,1,4,33,90,11
10,4,13,1,2,0,4,33,14,9
10,4,12,1,3,0,4,33,133,11
10,4,15,1,4,0,4,33,19,11
10,4,13,1,2,0,4,33,133,11
10,4,0,0,3,0,4,33,133,11
10,4,13,1,4,0,4,33,19,11
11,4,18,1,4,0,4,33,17,8
11,4,14,1,0,0,4,33,67,11
11,4,21,0,0,0,4,33,133,11
11,4,14,1,4,0,4,33,133,11
11,4,11,1,1,0,4,33,19,11
12,1,4,0,3,0,4,33,103,11
12,1,4,0,4,0,4,33,78,11
12,1,20,1,0,0,4,33,78,11
12,1,12,1,1,0,4,33,133,11
12,1,18,1,1,0,4,33,70,11
12,1,13,1,5,1,4,33,133,11
12,1,17,1,5,1,4,33,78,11
12,1,22,0,2,0,4,33,90,11
12,1,0,0,4,0,4,33,69,11
12,1,12,1,2,0,4,33,109,11
1,1,17,1,5,1,1,33,78,11
1,1,2,0,3,0,1,33,78,8
2,1,2,0,2,0,1,33,90,11
4,2,18,1,5,1,2,33,133,11
4,2,16,1,1,0,2,33,78,11
4,2,5,0,5,1,2,33,48,9
4,2,10,1,5,1,2,33,93,11
4,2,12,1,6,1,2,33,15,11
5,2,6,0,3,0,2,33,106,11
6,3,16,1,4,0,2,33,78,11
7,3,16,1,6,1,3,33,93,11
7,3,7,1,2,0,3,33,81,11
7,3,19,1,5,1,3,33,93,11
7,3,0,0,3,0,3,33,25,11
8,3,2,0,6,1,3,33,106,11
8,3,23,0,4,0,3,33,87,11
9,4,1,0,1,0,3,33,19,11
9,4,1,0,3,0,3,33,78,11
9,4,19,1,2,0,3,33,93,11
10,4,9,1,0,0,4,33,106,11
11,4,19,1,2,0,4,33,78,9
11,4,15,1,3,0,4,33,19,11
11,4,17,1,3,0,4,33,93,8
11,4,20,1,6,1,4,33,78,11
11,4,18,1,6,1,4,33,115,11
1,1,12,1,2,0,1,33,78,11
1,1,17,1,4,0,1,33,13,11
2,1,21,0,0,0,1,33,78,9
7,3,14,1,3,0,3,33,78,8
1,1,1,0,3,0,1,33,19,9
1,1,14,1,0,0,1,33,81,9
1,1,19,1,6,1,1,33,78,11
2,1,23,0,1,0,1,33,78,8
3,2,10,1,2,0,1,33,39,11
4,2,14,1,5,1,2,33,75,11
7,3,16,1,6,1,3,33,103,11
7,3,16,1,1,0,3,33,37,11
7,3,13,1,2,0,3,33,103,11
7,3,14,1,1,0,3,33,106,11
7,3,9,1,1,0,3,33,37,11
8,3,9,1,3,0,3,33,93,11
8,3,21,0,0,0,3,33,93,11
9,4,8,1,1,0,3,33,93,11
10,4,10,1,5,1,4,33,93,11
10,4,14,1,2,0,4,33,93,11
11,4,21,0,4,0,4,33,78,11
11,4,10,1,6,1,4,33,133,11
11,4,13,1,0,0,4,33,93,11
11,4,22,0,4,0,4,33,19,11
12,1,16,1,1,0,4,33,19,11
12,1,10,1,2,0,4,33,106,11
12,1,21,0,4,0,4,33,93,11
12,1,3,0,0,0,4,33,78,9
12,1,17,1,3,0,4,33,78,11
1,1,23,0,3,0,1,33,133,11
1,1,13,1,5,1,1,33,133,11
1,1,15,1,3,0,1,33,24,9
2,1,9,1,1,0,1,33,90,11
2,1,9,1,2,0,1,33,90,11
2,1,20,1,4,0,1,33,78,8
3,2,18,1,3,0,1,33,39,11
5,2,23,0,4,0,2,33,90,11
5,2,7,1,4,0,2,33,90,11
8,3,7,1,1,0,3,33,81,9
8,3,16,1,1,0,3,33,9,11
8,3,1,0,5,1,3,33,58,11
8,3,2,0,5,1,3,33,133,11
9,4,14,1,0,0,3,33,115,11
10,4,15,1,6,1,4,33,133,9
10,4,23,0,5,1,4,33,106,11
11,4,2,0,6,1,4,33,90,11
11,4,2,0,6,1,4,33,90,11
11,4,21,0,4,0,4,33,9,11
11,4,14,1,5,1,4,33,39,11
12,1,16,1,5,1,4,33,103,11
12,1,6,0,2,0,4,33,78,11
1,1,10,1,5,1,1,51,133,11
1,1,19,1,2,0,1,51,39,11
1,1,11,1,3,0,1,51,78,11
1,1,9,1,6,1,1,51,133,11
1,1,11,1,6,1,1,51,133,11
1,1,1,0,3,0,1,51,133,11
1,1,19,1,5,1,1,51,133,11
1,1,18,1,6,1,1,51,111,11
1,1,19,1,2,0,1,51,133,11
1,1,22,0,3,0,1,51,58,11
1,1,2,0,5,1,1,51,39,8
2,1,14,1,6,1,1,51,133,11
2,1,17,1,4,0,1,51,93,11
2,1,17,1,5,1,1,51,39,11
2,1,17,1,0,0,1,51,78,11
2,1,15,1,1,0,1,51,78,11
2,1,3,0,3,0,1,51,29,11
2,1,22,0,6,1,1,51,106,11
2,1,0,0,0,0,1,51,133,11
2,1,16,1,1,0,1,51,133,11
2,1,19,1,5,1,1,51,133,11
2,1,5,0,5,1,1,51,106,11
3,2,14,1,6,1,1,51,133,11
3,2,15,1,6,1,1,51,35,11
4,2,20,1,2,0,2,51,133,11
4,2,0,0,3,0,2,51,93,11
4,2,20,1,6,1,2,51,14,11
4,2,11,1,1,0,2,51,93,11
4,2,16,1,2,0,2,51,93,11
5,2,0,0,6,1,2,51,133,11
6,3,12,1,6,1,2,51,133,11
7,3,14,1,0,0,3,51,117,11
7,3,11,1,3,0,3,51,78,11
8,3,7,1,4,0,3,51,75,11
8,3,4,0,0,0,3,51,23,11
8,3,17,1,5,1,3,51,93,11
8,3,18,1,6,1,3,51,106,11
8,3,20,1,5,1,3,51,78,9
9,4,5,0,2,0,3,51,133,11
9,4,0,0,3,0,3,51,75,11
9,4,22,0,2,0,3,51,93,11
10,4,16,1,3,0,4,51,93,11
10,4,15,1,5,1,4,51,75,11
10,4,23,0,4,0,4,51,4,11
11,4,13,1,0,0,4,51,13,11
11,4,5,0,2,0,4,51,93,11
11,4,17,1,5,1,4,51,133,11
11,4,1,0,6,1,4,51,93,11
11,4,9,1,0,0,4,51,78,11
11,4,18,1,0,0,4,51,133,11
11,4,10,1,3,0,4,51,133,11
11,4,9,1,0,0,4,51,75,11
12,1,19,1,4,0,4,51,133,11
12,1,17,1,4,0,4,51,39,11
12,1,17,1,6,1,4,51,133,11
12,1,12,1,6,1,4,51,93,11
12,1,0,0,2,0,4,51,133,11
12,1,11,1,4,0,4,51,39,11
12,1,12,1,5,1,4,51,133,11
12,1,10,1,0,0,4,51,93,11
3,2,13,1,6,1,1,51,48,11
4,2,22,0,4,0,2,51,115,11
8,3,14,1,4,0,3,51,78,11
9,4,22,0,1,0,3,51,91,11
12,1,10,1,6,1,4,51,35,11
2,1,23,0,3,0,1,51,75,11
3,2,14,1,1,0,1,51,75,11
3,2,11,1,3,0,1,51,133,11
7,3,20,1,2,0,3,51,82,11
10,4,12,1,6,1,4,51,78,11
10,4,23,0,3,0,4,51,133,11
11,4,14,1,3,0,4,51,93,11
12,1,11,1,6,1,4,51,93,11
12,1,13,1,5,1,4,51,93,11
12,1,14,1,2,0,4,51,93,11
12,1,20,1,6,1,4,51,93,11
1,1,8,1,5,1,1,43,78,11
1,1,18,1,3,0,1,43,78,8
2,1,16,1,4,0,1,43,64,11
2,1,12,1,0,0,1,43,93,11
2,1,4,0,5,1,1,43,133,11
3,2,18,1,0,0,1,43,90,11
3,2,13,1,2,0,1,43,78,11
4,2,15,1,4,0,2,43,78,11
4,2,9,1,0,0,2,43,78,11
6,3,15,1,0,0,2,43,93,11
7,3,10,1,2,0,3,43,93,11
9,4,17,1,4,0,3,43,14,11
10,4,1,0,3,0,4,43,93,11
11,4,17,1,3,0,4,43,106,11
12,1,0,0,4,0,4,43,133,11
1,1,2,0,5,1,1,43,115,11
4,2,22,0,1,0,2,43,93,11
4,2,12,1,6,1,2,43,19,11
7,3,8,1,1,0,3,43,78,11
11,4,19,1,2,0,4,43,93,11
12,1,14,1,4,0,4,43,93,11
12,1,12,1,6,1,4,43,93,11
12,1,16,1,3,0,4,43,93,11
1,1,19,1,5,1,1,43,133,11
2,1,21,0,2,0,1,43,78,11
2,1,10,1,0,0,1,43,78,9
3,2,21,0,5,1,1,43,133,11
3,2,2,0,5,1,1,43,19,11
3,2,23,0,1,0,1,43,78,9
4,2,5,0,3,0,2,43,14,11
4,2,15,1,5,1,2,43,13,11
6,3,10,1,2,0,2,43,93,11
7,3,12,1,3,0,3,43,79,9
7,3,21,0,2,0,3,43,19,11
7,3,22,0,2,0,3,43,115,11
8,3,13,1,0,0,3,43,133,11
8,3,22,0,2,0,3,43,93,11
10,4,21,0,3,0,4,43,67,11
10,4,15,1,3,0,4,43,48,9
9,4,23,0,1,0,3,43,115,11
12,1,11,1,6,1,4,43,93,11
12,1,23,0,3,0,4,43,115,11
2,1,18,1,5,1,1,17,78,11
2,1,16,1,0,0,1,17,19,11
3,2,5,0,3,0,1,17,106,11
4,2,12,1,2,0,2,17,133,11
4,2,15,1,6,1,2,17,19,11
4,2,23,0,6,1,2,17,90,11
4,2,5,0,2,0,2,17,90,11
5,2,15,1,5,1,2,17,106,11
5,2,1,0,5,1,2,17,39,11
6,3,15,1,3,0,2,17,106,11
7,3,13,1,0,0,3,17,133,11
7,3,3,0,1,0,3,17,106,11
7,3,9,1,3,0,3,17,25,11
7,3,12,1,4,0,3,17,93,11
8,3,13,1,3,0,3,17,75,11
8,3,2,0,2,0,3,17,19,11
8,3,1,0,2,0,3,17,106,11
9,4,19,1,0,0,3,17,78,11
9,4,5,0,3,0,3,17,106,11
9,4,18,1,1,0,3,17,93,11
10,4,17,1,1,0,4,17,106,11
10,4,15,1,6,1,4,17,106,11
10,4,13,1,2,0,4,17,93,11
11,4,22,0,1,0,4,17,14,11
11,4,17,1,1,0,4,17,39,11
11,4,13,1,1,0,4,17,46,11
11,4,18,1,2,0,4,17,106,11
11,4,6,0,0,0,4,17,19,11
12,1,9,1,0,0,4,17,75,11
12,1,18,1,3,0,4,17,133,11
12,1,11,1,1,0,4,17,133,11
12,1,17,1,2,0,4,17,78,11
1,1,18,1,6,1,1,17,78,11
1,1,8,1,2,0,1,17,14,11
2,1,18,1,6,1,1,17,106,11
2,1,1,0,5,1,1,17,133,11
3,2,14,1,6,1,1,17,93,11
3,2,18,1,2,0,1,17,93,11
3,2,12,1,4,0,1,17,130,11
3,2,15,1,4,0,1,17,78,11
3,2,19,1,4,0,1,17,93,11
4,2,1,0,3,0,2,17,93,11
4,2,17,1,6,1,2,17,93,11
4,2,21,0,4,0,2,17,90,11
4,2,13,1,5,1,2,17,115,11
4,2,11,1,3,0,2,17,93,11
4,2,10,1,1,0,2,17,93,11
4,2,18,1,1,0,2,17,93,11
5,2,4,0,1,0,2,17,58,11
5,2,1,0,5,1,2,17,87,11
5,2,7,1,5,1,2,17,90,11
7,3,15,1,0,0,3,17,15,11
7,3,22,0,0,0,3,17,19,11
7,3,5,0,4,0,3,17,93,11
7,3,20,1,4,0,3,17,93,11
8,3,13,1,0,0,3,17,93,11
8,3,10,1,1,0,3,17,93,11
8,3,13,1,1,0,3,17,93,11
8,3,11,1,1,0,3,17,90,11
8,3,12,1,2,0,3,17,106,11
8,3,11,1,2,0,3,17,93,11
9,4,5,0,1,0,3,17,19,11
9,4,17,1,5,1,3,17,87,11
9,4,21,0,6,1,3,17,115,11
9,4,11,1,6,1,3,17,133,11
10,4,16,1,4,0,4,17,78,11
10,4,15,1,6,1,4,17,13,11
10,4,15,1,1,0,4,17,75,11
10,4,10,1,3,0,4,17,106,11
10,4,17,1,2,0,4,17,93,11
10,4,20,1,5,1,4,17,106,11
11,4,17,1,2,0,4,17,93,11
11,4,8,1,3,0,4,17,19,11
1,1,15,1,6,1,1,17,78,11
3,2,15,1,6,1,1,17,78,11
3,2,16,1,0,0,1,17,78,11
3,2,8,1,2,0,1,17,39,11
5,2,21,0,5,1,2,17,4,11
6,3,14,1,0,0,2,17,90,11
7,3,19,1,0,0,3,17,106,11
7,3,5,0,6,1,3,17,100,11
8,3,18,1,5,1,3,17,90,11
8,3,10,1,0,0,3,17,19,11
8,3,11,1,3,0,3,17,79,11
9,4,9,1,1,0,3,17,19,11
10,4,19,1,3,0,4,17,78,11
10,4,21,0,1,0,4,17,108,11
10,4,13,1,2,0,4,17,93,11
10,4,21,0,2,0,4,17,1,11
11,4,21,0,4,0,4,17,78,9
12,1,15,1,0,0,4,17,78,11
12,1,7,1,6,1,4,17,133,11
12,1,17,1,2,0,4,17,78,11
3,2,21,0,6,1,1,17,106,11
4,2,12,1,5,1,2,17,78,8
4,2,10,1,0,0,2,17,106,11
4,2,19,1,0,0,2,17,106,11
4,2,20,1,5,1,2,17,106,11
4,2,21,0,6,1,2,17,106,11
4,2,11,1,0,0,2,17,106,11
7,3,4,0,4,0,3,17,106,11
7,3,11,1,3,0,3,17,115,11
8,3,16,1,6,1,3,17,27,11
8,3,10,1,4,0,3,17,90,11
9,4,11,1,0,0,3,17,25,11
9,4,18,1,1,0,3,17,78,11
11,4,17,1,1,0,4,17,106,11
11,4,12,1,1,0,4,17,106,11
11,4,12,1,4,0,4,17,106,11
1,1,18,1,5,1,1,17,39,11
1,1,21,0,1,0,1,17,78,11
1,1,20,1,1,0,1,17,39,11
1,1,19,1,6,1,1,17,67,11
1,1,17,1,6,1,1,17,19,11
1,1,21,0,0,0,1,17,13,11
1,1,4,0,3,0,1,17,133,11
1,1,11,1,4,0,1,17,48,11
1,1,21,0,5,1,1,17,133,11
1,1,18,1,3,0,1,17,50,11
1,1,22,0,3,0,1,17,133,11
1,1,23,0,3,0,1,17,19,11
1,1,4,0,4,0,1,17,14,8
1,1,18,1,6,1,1,17,67,11
1,1,17,1,0,0,1,17,106,11
1,1,20,1,2,0,1,17,19,11
1,1,14,1,2,0,1,17,39,11
1,1,18,1,3,0,1,17,78,11
1,1,13,1,4,0,1,17,133,11
1,1,4,0,4,0,1,17,67,11
1,1,3,0,5,1,1,17,19,11
2,1,14,1,0,0,1,17,39,11
2,1,17,1,1,0,1,17,78,11
2,1,4,0,2,0,1,17,19,11
2,1,20,1,2,0,1,17,90,11
2,1,12,1,3,0,1,17,30,11
2,1,3,0,3,0,1,17,19,11
2,1,3,0,6,1,1,17,39,11
2,1,0,0,3,0,1,17,133,11
2,1,12,1,4,0,1,17,133,11
2,1,23,0,4,0,1,17,67,11
2,1,15,1,5,1,1,17,36,11
2,1,4,0,0,0,1,17,19,11
2,1,20,1,2,0,1,17,19,11
2,1,4,0,3,0,1,17,15,11
2,1,13,1,3,0,1,17,67,11
3,2,23,0,6,1,1,17,133,11
3,2,15,1,0,0,1,17,67,11
3,2,17,1,0,0,1,17,67,11
3,2,0,0,0,0,1,17,19,11
3,2,17,1,0,0,1,17,106,11
3,2,10,1,2,0,1,17,57,11
3,2,22,0,2,0,1,17,90,11
3,2,15,1,6,1,1,17,67,11
3,2,19,1,0,0,1,17,67,11
3,2,18,1,1,0,1,17,106,11
3,2,21,0,6,1,1,17,90,11
3,2,10,1,3,0,1,17,90,11
3,2,12,1,0,0,1,17,48,11
3,2,9,1,0,0,1,17,48,11
3,2,6,0,1,0,1,17,90,11
4,2,15,1,2,0,2,17,27,11
4,2,17,1,4,0,2,17,78,11
4,2,21,0,4,0,2,17,19,11
4,2,21,0,5,1,2,17,93,11
4,2,14,1,5,1,2,17,93,11
4,2,3,0,6,1,2,17,90,11
4,2,12,1,0,0,2,17,90,11
4,2,0,0,0,0,2,17,57,11
4,2,3,0,0,0,2,17,122,11
4,2,3,0,3,0,2,17,19,11
4,2,5,0,3,0,2,17,15,11
4,2,1,0,5,1,2,17,81,11
4,2,21,0,6,1,2,17,67,11
4,2,2,0,0,0,2,17,133,11
4,2,0,0,2,0,2,17,133,11
4,2,16,1,2,0,2,17,93,11
4,2,3,0,4,0,2,17,19,11
4,2,0,0,6,1,2,17,4,11
4,2,3,0,6,1,2,17,90,11
4,2,15,1,0,0,2,17,39,11
4,2,13,1,0,0,2,17,4,11
4,2,0,0,1,0,2,17,90,11
4,2,22,0,4,0,2,17,67,11
4,2,3,0,6,1,2,17,133,11
4,2,11,1,0,0,2,17,19,11
4,2,1,0,0,0,2,17,58,11
5,2,7,1,5,1,2,17,9,11
5,2,7,1,5,1,2,17,9,11
5,2,13,1,0,0,2,17,39,11
5,2,20,1,2,0,2,17,133,11
5,2,11,1,5,1,2,17,58,11
5,2,19,1,5,1,2,17,133,11
5,2,5,0,6,1,2,17,90,11
5,2,6,0,6,1,2,17,90,11
5,2,6,0,6,1,2,17,90,11
5,2,21,0,5,1,2,17,78,11
5,2,7,1,5,1,2,17,87,9
5,2,18,1,5,1,2,17,78,11
5,2,14,1,0,0,2,17,79,11
5,2,2,0,1,0,2,17,78,11
5,2,13,1,1,0,2,17,39,11
5,2,22,0,2,0,2,17,67,11
5,2,13,1,2,0,2,17,78,11
5,2,16,1,3,0,2,17,45,8
5,2,22,0,3,0,2,17,133,11
5,2,22,0,1,0,2,17,4,11
5,2,22,0,4,0,2,17,133,11
6,3,15,1,2,0,2,17,93,11
6,3,12,1,3,0,2,17,106,11
6,3,11,1,3,0,2,17,67,11
6,3,12,1,4,0,2,17,39,8
6,3,15,1,1,0,2,17,93,11
6,3,10,1,1,0,2,17,133,11
6,3,13,1,3,0,2,17,78,11
6,3,12,1,5,1,2,17,133,11
6,3,11,1,1,0,2,17,39,11
6,3,14,1,2,0,2,17,133,11
6,3,15,1,4,0,2,17,133,11
7,3,15,1,2,0,3,17,66,11
7,3,19,1,3,0,3,17,9,11
7,3,11,1,6,1,3,17,67,11
7,3,2,0,0,0,3,17,19,11
7,3,5,0,0,0,3,17,90,11
7,3,12,1,2,0,3,17,106,11
7,3,14,1,3,0,3,17,67,11
7,3,3,0,4,0,3,17,67,11
7,3,6,0,6,1,3,17,19,11
7,3,22,0,0,0,3,17,133,11
7,3,10,1,1,0,3,17,106,11
7,3,17,1,2,0,3,17,100,11
7,3,23,0,6,1,3,17,67,11
7,3,1,0,4,0,3,17,106,11
7,3,22,0,4,0,3,17,93,11
7,3,21,0,2,0,3,17,90,11
7,3,9,1,3,0,3,17,67,9
8,3,12,1,5,1,3,17,133,11
8,3,16,1,6,1,3,17,106,11
8,3,1,0,6,1,3,17,78,11
8,3,22,0,1,0,3,17,78,11
8,3,19,1,2,0,3,17,87,11
8,3,17,1,2,0,3,17,19,11
8,3,14,1,3,0,3,17,39,11
8,3,17,1,5,1,3,17,106,11
8,3,5,0,6,1,3,17,114,11
8,3,13,1,0,0,3,17,67,11
8,3,9,1,4,0,3,17,39,11
8,3,13,1,5,1,3,17,4,11
8,3,4,0,5,1,3,17,4,9
8,3,18,1,5,1,3,17,115,11
8,3,16,1,6,1,3,17,39,11
8,3,13,1,0,0,3,17,106,11
8,3,1,0,1,0,3,17,133,11
8,3,10,1,2,0,3,17,4,11
8,3,12,1,6,1,3,17,90,11
8,3,19,1,1,0,3,17,100,11
8,3,16,1,1,0,3,17,106,11
8,3,12,1,1,0,3,17,19,11
8,3,12,1,2,0,3,17,78,11
8,3,18,1,3,0,3,17,103,11
8,3,20,1,4,0,3,17,67,11
8,3,3,0,5,1,3,17,19,11
8,3,23,0,6,1,3,17,67,11
8,3,0,0,6,1,3,17,67,11
9,4,14,1,1,0,3,17,23,11
9,4,21,0,3,0,3,17,93,11
9,4,3,0,4,0,3,17,133,11
9,4,17,1,4,0,3,17,106,11
9,4,7,1,6,1,3,17,133,11
9,4,11,1,3,0,3,17,59,11
9,4,10,1,2,0,3,17,67,11
9,4,15,1,2,0,3,17,112,11
9,4,5,0,5,1,3,17,93,11
9,4,5,0,0,0,3,17,132,11
9,4,1,0,4,0,3,17,133,11
9,4,20,1,4,0,3,17,81,11
9,4,0,0,6,1,3,17,90,11
9,4,14,1,1,0,3,17,67,11
10,4,23,0,4,0,4,17,133,11
10,4,19,1,5,1,4,17,133,11
10,4,17,1,5,1,4,17,93,11
10,4,4,0,6,1,4,17,133,11
10,4,23,0,1,0,4,17,67,11
10,4,8,1,4,0,4,17,67,11
10,4,13,1,4,0,4,17,78,11
10,4,4,0,5,1,4,17,14,11
10,4,3,0,3,0,4,17,133,11
10,4,9,1,4,0,4,17,133,11
10,4,19,1,4,0,4,17,133,11
10,4,18,1,5,1,4,17,93,11
10,4,8,1,0,0,4,17,93,11
10,4,5,0,1,0,4,17,19,11
10,4,21,0,2,0,4,17,14,11
10,4,0,0,1,0,4,17,39,11
10,4,9,1,1,0,4,17,39,11
10,4,20,1,3,0,4,17,67,11
10,4,4,0,4,0,4,17,106,11
10,4,10,1,5,1,4,17,1,11
10,4,8,1,5,1,4,17,133,11
10,4,18,1,5,1,4,17,75,11
11,4,13,1,6,1,4,17,93,11
11,4,16,1,6,1,4,17,93,11
11,4,7,1,6,1,4,17,90,11
11,4,6,0,6,1,4,17,90,11
11,4,21,0,1,0,4,17,130,11
11,4,17,1,1,0,4,17,93,11
11,4,10,1,1,0,4,17,93,11
11,4,3,0,3,0,4,17,19,11
11,4,18,1,3,0,4,17,19,11
11,4,17,1,4,0,4,17,67,11
11,4,14,1,5,1,4,17,67,11
11,4,1,0,6,1,4,17,19,11
11,4,15,1,6,1,4,17,67,11
11,4,3,0,0,0,4,17,133,11
11,4,15,1,4,0,4,17,19,11
11,4,16,1,5,1,4,17,133,11
11,4,11,1,5,1,4,17,67,11
11,4,16,1,5,1,4,17,14,11
11,4,13,1,6,1,4,17,67,11
11,4,14,1,6,1,4,17,59,11
11,4,7,1,6,1,4,17,90,11
11,4,19,1,0,0,4,17,133,11
11,4,12,1,1,0,4,17,93,11
11,4,14,1,3,0,4,17,118,11
11,4,13,1,3,0,4,17,67,11
11,4,18,1,1,0,4,17,9,11
11,4,13,1,0,0,4,17,106,11
12,1,22,0,1,0,4,17,100,11
12,1,16,1,5,1,4,17,19,11
12,1,15,1,5,1,4,17,133,11
12,1,22,0,6,1,4,17,93,11
12,1,1,0,6,1,4,17,90,11
12,1,20,1,6,1,4,17,133,11
12,1,10,1,0,0,4,17,133,11
12,1,0,0,0,0,4,17,133,11
12,1,17,1,1,0,4,17,39,11
12,1,19,1,1,0,4,17,78,11
12,1,20,1,1,0,4,17,67,11
12,1,17,1,2,0,4,17,67,11
12,1,13,1,6,1,4,17,67,11
12,1,2,0,1,0,4,17,93,11
12,1,17,1,2,0,4,17,133,11
12,1,10,1,3,0,4,17,93,11
12,1,4,0,4,0,4,17,122,11
12,1,21,0,6,1,4,17,123,8
12,1,16,1,1,0,4,17,93,11
12,1,23,0,2,0,4,17,67,11
12,1,1,0,2,0,4,17,101,11
12,1,14,1,3,0,4,17,31,11
12,1,13,1,6,1,4,17,133,11
12,1,21,0,0,0,4,17,67,11
1,1,10,1,6,1,1,17,115,11
1,1,20,1,2,0,1,17,78,9
1,1,16,1,1,0,1,17,78,11
2,1,2,0,6,1,1,17,91,11
2,1,16,1,5,1,1,17,90,11
3,2,16,1,1,0,1,17,90,11
3,2,14,1,3,0,1,17,133,11
4,2,0,0,6,1,2,17,90,11
4,2,15,1,6,1,2,17,66,11
4,2,14,1,5,1,2,17,133,11
5,2,9,1,6,1,2,17,19,11
5,2,16,1,2,0,2,17,93,11
5,2,17,1,3,0,2,17,133,11
5,2,13,1,4,0,2,17,106,11
5,2,18,1,1,0,2,17,133,11
5,2,21,0,1,0,2,17,106,11
5,2,19,1,0,0,2,17,93,11
6,3,17,1,1,0,2,17,93,11
6,3,18,1,2,0,2,17,133,11
6,3,10,1,5,1,2,17,78,9
6,3,2,0,0,0,2,17,93,11
6,3,18,1,0,0,2,17,133,11
6,3,20,1,2,0,2,17,106,11
6,3,10,1,3,0,2,17,106,11
6,3,15,1,5,1,2,17,93,11
6,3,21,0,6,1,2,17,93,11
6,3,13,1,6,1,2,17,93,11
7,3,8,1,2,0,3,17,106,11
7,3,19,1,3,0,3,17,19,11
7,3,0,0,1,0,3,17,133,11
7,3,11,1,6,1,3,17,46,9
7,3,8,1,1,0,3,17,106,11
7,3,22,0,1,0,3,17,90,11
8,3,6,0,5,1,3,17,23,11
8,3,18,1,6,1,3,17,90,9
8,3,17,1,0,0,3,17,93,11
8,3,12,1,2,0,3,17,67,9
8,3,13,1,3,0,3,17,93,11
9,4,15,1,1,0,3,17,115,11
10,4,19,1,5,1,4,17,93,11
10,4,16,1,6,1,4,17,93,11
10,4,21,0,3,0,4,17,7,11
11,4,16,1,5,1,4,17,14,11
11,4,17,1,5,1,4,17,106,11
11,4,6,0,3,0,4,17,14,9
11,4,6,0,3,0,4,17,23,11
11,4,22,0,4,0,4,17,13,11
11,4,22,0,5,1,4,17,93,11
11,4,2,0,1,0,4,17,19,11
11,4,9,1,5,1,4,17,115,11
12,1,10,1,1,0,4,17,106,11
12,1,12,1,1,0,4,17,93,11
12,1,14,1,1,0,4,17,133,9
12,1,17,1,6,1,4,17,106,11
6,3,16,1,0,0,2,17,12,11
3,2,17,1,2,0,1,50,78,11
4,2,6,0,4,0,2,50,11,11
4,2,22,0,4,0,2,50,112,11
4,2,8,1,0,0,2,50,19,8
5,2,12,1,4,0,2,50,13,8
6,3,13,1,6,1,2,50,1,11
6,3,10,1,2,0,2,50,78,11
7,3,6,0,3,0,3,50,78,11
7,3,20,1,2,0,3,50,93,11
7,3,13,1,2,0,3,50,93,11
9,4,15,1,3,0,3,50,106,11
9,4,17,1,0,0,3,50,90,11
10,4,13,1,3,0,4,50,4,11
11,4,8,1,6,1,4,50,19,11
12,1,9,1,5,1,4,50,106,11
12,1,11,1,1,0,4,50,133,11
12,1,19,1,2,0,4,50,48,11
1,1,13,1,4,0,1,50,39,11
1,1,22,0,4,0,1,50,19,11
1,1,1,0,5,1,1,50,106,11
1,1,21,0,6,1,1,50,39,11
1,1,18,1,1,0,1,50,133,11
1,1,10,1,2,0,1,50,39,11
1,1,20,1,2,0,1,50,133,11
1,1,20,1,2,0,1,50,78,11
1,1,21,0,4,0,1,50,39,11
1,1,12,1,6,1,1,50,58,11
1,1,2,0,1,0,1,50,106,11
1,1,15,1,3,0,1,50,19,11
1,1,7,1,4,0,1,50,91,11
1,1,23,0,6,1,1,50,100,11
1,1,12,1,2,0,1,50,67,11
1,1,1,0,4,0,1,50,106,11
1,1,13,1,4,0,1,50,78,11
1,1,19,1,6,1,1,50,133,11
2,1,14,1,6,1,1,50,115,11
2,1,12,1,0,0,1,50,78,11
2,1,17,1,3,0,1,50,106,11
2,1,9,1,4,0,1,50,4,11
2,1,13,1,4,0,1,50,93,11
2,1,22,0,4,0,1,50,90,11
2,1,0,0,6,1,1,50,78,9
2,1,11,1,1,0,1,50,93,11
2,1,21,0,0,0,1,50,106,11
2,1,22,0,3,0,1,50,93,11
2,1,11,1,4,0,1,50,90,11
2,1,3,0,6,1,1,50,87,11
2,1,18,1,6,1,1,50,123,11
2,1,19,1,0,0,1,50,90,9
2,1,1,0,3,0,1,50,19,11
2,1,22,0,3,0,1,50,66,11
2,1,15,1,5,1,1,50,84,11
3,2,21,0,0,0,1,50,100,11
3,2,17,1,5,1,1,50,93,11
3,2,9,1,4,0,1,50,78,9
3,2,3,0,6,1,1,50,78,9
3,2,0,0,2,0,1,50,100,11
3,2,2,0,2,0,1,50,90,11
3,2,13,1,2,0,1,50,67,11
3,2,16,1,3,0,1,50,93,11
3,2,15,1,5,1,1,50,106,11
3,2,17,1,6,1,1,50,13,11
3,2,20,1,1,0,1,50,14,11
3,2,19,1,6,1,1,50,122,11
3,2,1,0,0,0,1,50,19,11
4,2,2,0,4,0,2,50,106,11
4,2,3,0,4,0,2,50,106,11
4,2,12,1,6,1,2,50,39,11
4,2,2,0,5,1,2,50,106,11
4,2,1,0,6,1,2,50,106,11
4,2,3,0,6,1,2,50,106,11
4,2,5,0,1,0,2,50,100,11
4,2,14,1,2,0,2,50,39,11
4,2,4,0,3,0,2,50,93,11
4,2,20,1,3,0,2,50,19,11
4,2,1,0,4,0,2,50,106,11
4,2,2,0,5,1,2,50,90,11
4,2,5,0,6,1,2,50,90,11
4,2,6,0,6,1,2,50,100,11
4,2,6,0,6,1,2,50,100,11
4,2,12,1,5,1,2,50,93,11
4,2,5,0,6,1,2,50,90,11
4,2,14,1,6,1,2,50,93,11
5,2,16,1,0,0,2,50,90,11
5,2,11,1,2,0,2,50,93,11
5,2,21,0,2,0,2,50,66,11
5,2,22,0,5,1,2,50,39,11
5,2,14,1,0,0,2,50,67,11
5,2,9,1,1,0,2,50,67,11
5,2,20,1,4,0,2,50,106,11
5,2,19,1,5,1,2,50,100,11
5,2,22,0,5,1,2,50,106,11
5,2,21,0,0,0,2,50,100,11
5,2,15,1,1,0,2,50,93,11
5,2,10,1,1,0,2,50,106,11
5,2,13,1,2,0,2,50,93,11
5,2,8,1,4,0,2,50,93,11
5,2,10,1,5,1,2,50,67,11
5,2,21,0,5,1,2,50,93,11
5,2,4,0,6,1,2,50,100,11
6,3,14,1,3,0,2,50,93,11
6,3,18,1,4,0,2,50,84,11
6,3,9,1,5,1,2,50,67,11
6,3,14,1,6,1,2,50,90,11
6,3,3,0,1,0,2,50,39,11
6,3,20,1,2,0,2,50,90,11
6,3,21,0,2,0,2,50,68,9
6,3,11,1,3,0,2,50,4,11
6,3,14,1,4,0,2,50,67,11
6,3,14,1,4,0,2,50,14,11
6,3,15,1,4,0,2,50,9,11
6,3,16,1,4,0,2,50,67,11
6,3,8,1,6,1,2,50,93,11
6,3,19,1,6,1,2,50,106,11
6,3,12,1,1,0,2,50,78,11
6,3,8,1,2,0,2,50,89,9
6,3,22,0,3,0,2,50,90,11
6,3,13,1,6,1,2,50,111,11
6,3,15,1,6,1,2,50,39,11
6,3,4,0,1,0,2,50,106,11
6,3,15,1,5,1,2,50,106,11
6,3,3,0,6,1,2,50,100,11
6,3,12,1,6,1,2,50,93,11
6,3,19,1,6,1,2,50,93,11
6,3,22,0,6,1,2,50,66,11
7,3,21,0,3,0,3,50,91,11
7,3,21,0,6,1,3,50,106,11
7,3,7,1,2,0,3,50,106,11
7,3,2,0,4,0,3,50,93,11
7,3,12,1,6,1,3,50,39,11
7,3,15,1,6,1,3,50,93,9
7,3,12,1,1,0,3,50,78,11
7,3,16,1,2,0,3,50,93,11
7,3,17,1,2,0,3,50,106,11
7,3,13,1,6,1,3,50,78,11
7,3,15,1,0,0,3,50,100,11
7,3,12,1,2,0,3,50,93,11
7,3,14,1,4,0,3,50,62,11
8,3,13,1,5,1,3,50,67,11
8,3,0,0,1,0,3,50,67,11
8,3,2,0,1,0,3,50,67,11
8,3,2,0,2,0,3,50,100,11
8,3,5,0,2,0,3,50,93,11
9,4,22,0,4,0,3,50,93,11
9,4,9,1,0,0,3,50,49,11
9,4,18,1,2,0,3,50,67,11
9,4,19,1,3,0,3,50,106,11
9,4,10,1,4,0,3,50,67,11
9,4,20,1,4,0,3,50,93,11
9,4,7,1,5,1,3,50,90,9
9,4,15,1,1,0,3,50,39,11
9,4,0,0,4,0,3,50,90,11
9,4,12,1,5,1,3,50,13,9
10,4,17,1,4,0,4,50,93,11
10,4,6,0,0,0,4,50,87,11
10,4,4,0,1,0,4,50,48,11
10,4,5,0,1,0,4,50,90,11
10,4,11,1,2,0,4,50,106,11
10,4,22,0,2,0,4,50,131,11
10,4,3,0,4,0,4,50,111,11
10,4,13,1,6,1,4,50,14,9
10,4,4,0,0,0,4,50,106,11
10,4,11,1,4,0,4,50,93,11
10,4,18,1,4,0,4,50,39,11
10,4,14,1,0,0,4,50,106,9
10,4,20,1,1,0,4,50,67,11
10,4,17,1,3,0,4,50,106,11
10,4,19,1,3,0,4,50,67,11
10,4,23,0,3,0,4,50,27,11
10,4,2,0,2,0,4,50,78,11
11,4,5,0,6,1,4,50,19,11
11,4,8,1,0,0,4,50,115,11
11,4,3,0,3,0,4,50,19,11
11,4,12,1,4,0,4,50,93,11
11,4,17,1,4,0,4,50,106,11
11,4,9,1,1,0,4,50,93,11
11,4,7,1,2,0,4,50,78,11
11,4,14,1,2,0,4,50,93,11
11,4,17,1,4,0,4,50,93,11
11,4,12,1,5,1,4,50,4,11
11,4,20,1,6,1,4,50,66,11
11,4,18,1,0,0,4,50,93,11
11,4,20,1,0,0,4,50,78,11
11,4,1,0,1,0,4,50,106,11
11,4,8,1,1,0,4,50,78,9
11,4,21,0,3,0,4,50,19,11
11,4,12,1,4,0,4,50,93,11
11,4,20,1,1,0,4,50,93,9
11,4,22,0,5,1,4,50,66,11
11,4,23,0,5,1,4,50,106,11
11,4,17,1,6,1,4,50,91,9
11,4,0,0,6,1,4,50,106,11
12,1,13,1,2,0,4,50,106,11
12,1,21,0,2,0,4,50,100,11
12,1,18,1,3,0,4,50,66,11
12,1,20,1,6,1,4,50,100,11
12,1,17,1,0,0,4,50,100,11
12,1,18,1,0,0,4,50,100,11
12,1,18,1,0,0,4,50,100,11
12,1,0,0,2,0,4,50,103,11
12,1,1,0,3,0,4,50,90,11
12,1,15,1,3,0,4,50,67,11
12,1,20,1,3,0,4,50,90,11
12,1,19,1,5,1,4,50,90,11
12,1,23,0,5,1,4,50,90,11
12,1,22,0,6,1,4,50,100,11
12,1,3,0,3,0,4,50,90,11
12,1,10,1,4,0,4,50,67,11
12,1,4,0,6,1,4,50,100,11
12,1,20,1,6,1,4,50,100,11
12,1,21,0,6,1,4,50,39,11
12,1,22,0,0,0,4,50,67,11
12,1,18,1,2,0,4,50,103,11
1,1,10,1,5,1,1,50,19,11
1,1,13,1,3,0,1,50,99,9
1,1,18,1,5,1,1,50,57,11
2,1,15,1,6,1,1,50,90,11
2,1,19,1,6,1,1,50,57,11
2,1,16,1,3,0,1,50,106,11
4,2,1,0,5,1,2,50,93,11
4,2,20,1,3,0,2,50,39,11
4,2,12,1,1,0,2,50,93,11
5,2,6,0,1,0,2,50,115,11
6,3,11,1,4,0,2,50,93,11
6,3,15,1,5,1,2,50,25,9
6,3,22,0,1,0,2,50,93,11
8,3,2,0,3,0,3,50,115,11
8,3,16,1,1,0,3,50,19,9
9,4,9,1,2,0,3,50,93,11
9,4,8,1,5,1,3,50,93,11
9,4,8,1,1,0,3,50,39,11
9,4,13,1,1,0,3,50,19,11
9,4,19,1,5,1,3,50,106,11
9,4,5,0,0,0,3,50,93,11
10,4,12,1,3,0,4,50,39,11
10,4,18,1,1,0,4,50,106,11
11,4,17,1,4,0,4,50,106,11
11,4,7,1,1,0,4,50,93,11
11,4,20,1,3,0,4,50,23,11
4,2,12,1,2,0,2,50,78,11
7,3,14,1,3,0,3,50,19,11
8,3,7,1,0,0,3,50,106,11
9,4,17,1,6,1,3,50,27,11
9,4,20,1,0,0,3,50,106,11
12,1,14,1,3,0,4,50,39,9
1,1,22,0,4,0,1,41,39,11
1,1,10,1,4,0,1,41,78,11
2,1,21,0,1,0,1,41,67,8
2,1,11,1,5,1,1,41,89,9
2,1,20,1,2,0,1,41,90,11
3,2,22,0,6,1,1,41,67,11
3,2,15,1,1,0,1,41,106,11
3,2,7,1,2,0,1,41,93,11
3,2,13,1,6,1,1,41,14,11
5,2,22,0,1,0,2,41,58,11
5,2,20,1,2,0,2,41,67,11
5,2,20,1,3,0,2,41,67,11
6,3,10,1,3,0,2,41,93,11
6,3,15,1,6,1,2,41,78,8
6,3,6,0,3,0,2,41,93,11
7,3,6,0,2,0,3,41,78,11
7,3,20,1,2,0,3,41,75,11
8,3,10,1,4,0,3,41,58,11
8,3,19,1,4,0,3,41,58,11
8,3,4,0,6,1,3,41,58,11
8,3,17,1,1,0,3,41,30,11
9,4,18,1,0,0,3,41,75,11
9,4,0,0,5,1,3,41,31,11
9,4,19,1,2,0,3,41,108,9
9,4,14,1,0,0,3,41,58,9
10,4,11,1,3,0,4,41,67,9
10,4,8,1,5,1,4,41,87,11
10,4,21,0,1,0,4,41,67,11
10,4,11,1,3,0,4,41,67,11
10,4,11,1,3,0,4,41,67,11
10,4,17,1,0,0,4,41,14,11
11,4,11,1,4,0,4,41,93,11
11,4,16,1,5,1,4,41,48,11
11,4,19,1,6,1,4,41,93,11
11,4,14,1,0,0,4,41,78,11
11,4,1,0,1,0,4,41,75,11
11,4,13,1,4,0,4,41,100,11
12,1,3,0,6,1,4,41,71,11
12,1,20,1,6,1,4,41,67,11
12,1,11,1,6,1,4,41,67,9
12,1,7,1,6,1,4,41,78,11
12,1,11,1,1,0,4,41,67,11
12,1,21,0,6,1,4,41,90,11
4,2,6,0,3,0,2,41,29,8
5,2,4,0,6,1,2,41,58,8
6,3,21,0,5,1,2,41,78,9
7,3,17,1,3,0,3,41,78,11
1,1,12,1,6,1,1,41,78,11
4,2,13,1,4,0,2,41,4,11
7,3,18,1,4,0,3,41,14,9
4,2,10,1,2,0,2,41,78,11
6,3,16,1,0,0,2,41,19,11
6,3,16,1,0,0,2,41,19,8
8,3,19,1,1,0,3,41,133,9
11,4,6,0,1,0,4,41,123,9
12,1,8,1,6,1,4,41,90,11
5,2,22,0,2,0,2,41,90,11
2,1,17,1,0,0,1,32,133,11
2,1,19,1,1,0,1,32,78,11
2,1,12,1,4,0,1,32,27,11
2,1,11,1,5,1,1,32,67,11
2,1,17,1,2,0,1,32,67,11
3,2,20,1,2,0,1,32,78,11
4,2,22,0,5,1,2,32,90,11
4,2,19,1,6,1,2,32,93,11
4,2,2,0,1,0,2,32,90,11
5,2,18,1,2,0,2,32,67,11
5,2,15,1,6,1,2,32,93,11
6,3,9,1,0,0,2,32,78,11
6,3,17,1,4,0,2,32,74,11
6,3,8,1,4,0,2,32,93,11
7,3,12,1,0,0,3,32,106,11
8,3,12,1,6,1,3,32,67,11
8,3,5,0,5,1,3,32,93,11
10,4,9,1,5,1,4,32,75,11
12,1,18,1,0,0,4,32,90,11
12,1,14,1,4,0,4,32,19,11
12,1,22,0,5,1,4,32,13,11
1,1,12,1,1,0,1,32,58,11
7,3,11,1,3,0,3,32,93,11
8,3,8,1,4,0,3,32,115,11
1,1,2,0,2,0,1,32,78,11
1,1,11,1,2,0,1,32,90,11
1,1,4,0,1,0,1,32,19,11
4,2,15,1,5,1,2,32,106,11
5,2,8,1,5,1,2,32,78,9
9,4,15,1,3,0,3,32,93,11
11,4,11,1,3,0,4,32,26,11
11,4,1,0,3,0,4,32,29,11
12,1,12,1,3,0,4,32,78,11
12,1,20,1,2,0,4,32,90,11
5,2,8,1,3,0,2,32,39,11
5,2,11,1,2,0,2,32,93,11
7,3,1,0,6,1,3,32,67,11
7,3,11,1,3,0,3,32,106,11
8,3,21,0,0,0,3,32,93,11
8,3,5,0,5,1,3,32,106,11
11,4,7,1,6,1,4,32,74,11
11,4,10,1,0,0,4,32,75,11
11,4,10,1,0,0,4,32,78,11
1,1,14,1,0,0,1,24,130,11
1,1,12,1,0,0,1,24,27,11
1,1,5,0,0,0,1,24,27,9
1,1,14,1,3,0,1,24,57,11
1,1,18,1,5,1,1,24,35,11
2,1,19,1,3,0,1,24,27,11
2,1,12,1,2,0,1,24,39,11
2,1,12,1,2,0,1,24,130,11
2,1,13,1,5,1,1,24,27,11
4,2,19,1,3,0,2,24,27,11
4,2,21,0,1,0,2,24,27,11
4,2,18,1,4,0,2,24,93,11
4,2,3,0,5,1,2,24,14,11
4,2,3,0,3,0,2,24,133,11
4,2,16,1,0,0,2,24,130,11
4,2,16,1,2,0,2,24,57,11
4,2,13,1,2,0,2,24,57,11
4,2,12,1,3,0,2,24,133,11
5,2,20,1,5,1,2,24,133,11
5,2,16,1,6,1,2,24,27,11
5,2,15,1,3,0,2,24,27,11
5,2,19,1,3,0,2,24,27,11
5,2,21,0,5,1,2,24,133,11
6,3,11,1,2,0,2,24,115,11
6,3,11,1,2,0,2,24,115,11
6,3,9,1,4,0,2,24,87,11
6,3,21,0,1,0,2,24,48,11
8,3,0,0,4,0,3,24,19,11
10,4,20,1,0,0,4,24,14,9
1,1,1,0,5,1,1,24,78,11
1,1,17,1,5,1,1,24,78,11
2,1,13,1,5,1,1,24,39,11
5,2,17,1,0,0,2,24,133,11
5,2,13,1,1,0,2,24,27,11
5,2,18,1,5,1,2,24,133,11
5,2,19,1,0,0,2,24,27,11
6,3,15,1,0,0,2,24,106,11
6,3,18,1,1,0,2,24,26,11
6,3,10,1,0,0,2,24,57,11
6,3,17,1,1,0,2,24,93,11
8,3,15,1,3,0,3,24,78,8
9,4,23,0,4,0,3,24,78,11
1,1,17,1,4,0,1,24,4,11
5,2,11,1,2,0,2,24,106,11
5,2,11,1,2,0,2,24,133,11
5,2,21,0,1,0,2,24,133,11
7,3,1,0,2,0,3,24,133,11
11,4,13,1,2,0,4,24,78,11
11,4,14,1,0,0,4,24,4,11
12,1,0,0,0,0,4,24,67,8
1,1,15,1,2,0,1,24,78,11
1,1,13,1,4,0,1,24,57,11
1,1,14,1,1,0,1,24,133,11
1,1,17,1,3,0,1,24,27,11
1,1,19,1,3,0,1,24,133,11
2,1,1,0,4,0,1,24,78,11
2,1,11,1,6,1,1,24,27,11
2,1,13,1,0,0,1,24,130,11
2,1,20,1,3,0,1,24,27,11
2,1,10,1,4,0,1,24,78,9
2,1,13,1,1,0,1,24,39,11
2,1,17,1,1,0,1,24,106,11
2,1,6,0,4,0,1,24,67,11
3,2,11,1,4,0,1,24,78,11
3,2,11,1,4,0,1,24,95,11
3,2,8,1,1,0,1,24,90,11
3,2,16,1,4,0,1,24,78,11
3,2,15,1,4,0,1,24,106,11
3,2,23,0,5,1,1,24,19,11
3,2,12,1,6,1,1,24,67,11
3,2,21,0,6,1,1,24,78,11
4,2,12,1,2,0,2,24,19,11
4,2,11,1,4,0,2,24,130,11
4,2,5,0,0,0,2,24,112,9
4,2,20,1,3,0,2,24,133,11
4,2,13,1,4,0,2,24,27,9
4,2,13,1,6,1,2,24,90,11
4,2,12,1,0,0,2,24,130,11
4,2,13,1,1,0,2,24,27,11
4,2,21,0,5,1,2,24,47,11
4,2,22,0,6,1,2,24,130,11
4,2,17,1,0,0,2,24,78,11
4,2,16,1,0,0,2,24,27,11
5,2,0,0,5,1,2,24,130,11
5,2,22,0,5,1,2,24,68,11
5,2,20,1,0,0,2,24,106,11
5,2,13,1,2,0,2,24,27,11
5,2,20,1,1,0,2,24,106,11
5,2,21,0,6,1,2,24,27,11
5,2,21,0,5,1,2,24,106,11
5,2,10,1,1,0,2,24,106,11
5,2,8,1,2,0,2,24,27,11
6,3,20,1,1,0,2,24,93,11
6,3,15,1,0,0,2,24,87,11
6,3,12,1,2,0,2,24,133,11
6,3,1,0,6,1,2,24,133,11
6,3,20,1,3,0,2,24,19,11
6,3,1,0,1,0,2,24,48,11
7,3,15,1,0,0,3,24,133,11
7,3,10,1,5,1,3,24,67,11
7,3,20,1,1,0,3,24,39,11
7,3,14,1,1,0,3,24,67,11
7,3,21,0,2,0,3,24,106,11
7,3,2,0,3,0,3,24,106,11
7,3,20,1,0,0,3,24,23,11
7,3,9,1,6,1,3,24,78,9
7,3,21,0,2,0,3,24,67,11
8,3,16,1,1,0,3,24,87,11
8,3,2,0,4,0,3,24,79,11
8,3,21,0,3,0,3,24,4,11
8,3,7,1,6,1,3,24,110,11
8,3,13,1,0,0,3,24,19,11
8,3,12,1,0,0,3,24,133,11
9,4,22,0,5,1,3,24,78,11
9,4,14,1,3,0,3,24,67,11
9,4,5,0,4,0,3,24,19,11
9,4,17,1,2,0,3,24,133,11
10,4,11,1,0,0,4,24,19,11
10,4,16,1,4,0,4,24,15,11
11,4,9,1,2,0,4,24,58,11
12,1,20,1,6,1,4,24,133,11
12,1,21,0,0,0,4,24,78,11
12,1,10,1,1,0,4,24,133,11
12,1,21,0,4,0,4,24,78,11
12,1,15,1,5,1,4,24,133,11
12,1,14,1,1,0,4,24,39,11
12,1,18,1,6,1,4,24,78,11
12,1,22,0,6,1,4,24,78,11
1,1,12,1,3,0,1,34,39,11
1,1,3,0,4,0,1,34,106,11
1,1,13,1,4,0,1,34,93,11
1,1,16,1,1,0,1,34,38,11
1,1,18,1,1,0,1,34,39,11
1,1,0,0,3,0,1,34,90,11
1,1,17,1,4,0,1,34,103,11
1,1,16,1,6,1,1,34,39,11
1,1,13,1,4,0,1,34,90,11
1,1,8,1,6,1,1,34,100,11
1,1,14,1,6,1,1,34,100,11
1,1,14,1,0,0,1,34,106,11
1,1,18,1,4,0,1,34,19,11
2,1,22,0,3,0,1,34,39,11
2,1,2,0,6,1,1,34,100,11
2,1,19,1,5,1,1,34,78,11
3,2,19,1,0,0,1,34,39,11
3,2,13,1,3,0,1,34,106,11
3,2,14,1,3,0,1,34,106,11
3,2,13,1,5,1,1,34,78,11
3,2,10,1,2,0,1,34,106,11
3,2,21,0,2,0,1,34,67,11
3,2,20,1,3,0,1,34,39,11
3,2,15,1,5,1,1,34,39,11
3,2,21,0,5,1,1,34,13,11
3,2,14,1,6,1,1,34,39,11
3,2,1,0,5,1,1,34,88,8
4,2,0,0,2,0,2,34,100,11
4,2,0,0,4,0,2,34,67,8
4,2,11,1,6,1,2,34,39,11
4,2,20,1,0,0,2,34,67,11
4,2,3,0,1,0,2,34,70,9
4,2,11,1,6,1,2,34,78,11
4,2,20,1,6,1,2,34,106,11
4,2,19,1,3,0,2,34,4,11
5,2,23,0,5,1,2,34,115,11
5,2,3,0,4,0,2,34,106,11
5,2,15,1,6,1,2,34,15,11
6,3,18,1,1,0,2,34,93,11
6,3,22,0,6,1,2,34,106,11
6,3,7,1,4,0,2,34,115,11
6,3,18,1,3,0,2,34,90,11
7,3,21,0,2,0,3,34,90,11
7,3,11,1,0,0,3,34,78,11
8,3,16,1,0,0,3,34,106,11
8,3,5,0,1,0,3,34,106,11
8,3,12,1,0,0,3,34,100,11
8,3,11,1,5,1,3,34,106,11
8,3,15,1,4,0,3,34,78,9
9,4,21,0,6,1,3,34,13,11
9,4,19,1,3,0,3,34,93,11
10,4,14,1,1,0,4,34,74,11
11,4,11,1,6,1,4,34,93,11
11,4,17,1,6,1,4,34,93,11
11,4,17,1,6,1,4,34,106,11
11,4,15,1,6,1,4,34,90,11
11,4,19,1,2,0,4,34,93,11
11,4,19,1,5,1,4,34,93,11
11,4,11,1,4,0,4,34,93,11
11,4,15,1,5,1,4,34,93,11
11,4,12,1,6,1,4,34,133,11
11,4,20,1,6,1,4,34,78,11
12,1,13,1,1,0,4,34,93,11
12,1,14,1,3,0,4,34,4,11
12,1,17,1,3,0,4,34,100,11
12,1,20,1,3,0,4,34,82,11
12,1,0,0,5,1,4,34,67,11
12,1,21,0,6,1,4,34,100,11
12,1,15,1,0,0,4,34,106,11
12,1,16,1,2,0,4,34,100,11
12,1,16,1,2,0,4,34,106,11
1,1,20,1,0,0,1,34,14,11
7,3,2,0,3,0,3,34,100,11
9,4,19,1,0,0,3,34,90,11
10,4,19,1,0,0,4,34,14,11
11,4,18,1,0,0,4,34,93,11
12,1,20,1,0,0,4,34,67,11
1,1,19,1,6,1,1,25,90,11
1,1,23,0,6,1,1,25,115,11
1,1,8,1,4,0,1,25,90,11
1,1,15,1,4,0,1,25,78,11
2,1,17,1,2,0,1,25,90,11
2,1,16,1,0,0,1,25,90,11
3,2,19,1,2,0,1,25,93,11
3,2,16,1,6,1,1,25,90,11
3,2,21,0,4,0,1,25,103,11
3,2,18,1,5,1,1,25,90,11
4,2,14,1,5,1,2,25,90,11
4,2,11,1,4,0,2,25,39,11
4,2,15,1,6,1,2,25,106,11
4,2,18,1,2,0,2,25,106,11
4,2,22,0,2,0,2,25,133,11
4,2,16,1,5,1,2,25,19,11
4,2,21,0,5,1,2,25,86,11
4,2,17,1,6,1,2,25,106,11
4,2,2,0,5,1,2,25,90,11
4,2,10,1,5,1,2,25,93,11
4,2,12,1,5,1,2,25,93,11
4,2,0,0,1,0,2,25,14,11
4,2,21,0,3,0,2,25,93,11
5,2,21,0,5,1,2,25,19,11
5,2,20,1,6,1,2,25,106,11
5,2,0,0,2,0,2,25,106,11
6,3,1,0,5,1,2,25,19,9
6,3,13,1,0,0,2,25,13,11
6,3,8,1,5,1,2,25,69,11
6,3,14,1,0,0,2,25,93,11
6,3,19,1,0,0,2,25,133,11
6,3,15,1,4,0,2,25,90,11
7,3,21,0,0,0,3,25,90,11
7,3,22,0,2,0,3,25,123,11
9,4,0,0,3,0,3,25,93,11
11,4,19,1,3,0,4,25,1,11
11,4,16,1,3,0,4,25,13,11
12,1,12,1,3,0,4,25,90,11
12,1,18,1,1,0,4,25,93,11
12,1,12,1,4,0,4,25,78,11
12,1,15,1,1,0,4,25,90,11
12,1,18,1,6,1,4,25,90,11
1,1,19,1,6,1,1,25,90,11
1,1,15,1,6,1,1,25,78,11
2,1,19,1,2,0,1,25,106,11
7,3,8,1,1,0,3,25,78,11
7,3,12,1,4,0,3,25,90,11
9,4,18,1,1,0,3,25,14,11
9,4,20,1,0,0,3,25,14,11
12,1,9,1,3,0,4,25,78,8
4,2,12,1,1,0,2,25,93,11
4,2,19,1,0,0,2,25,93,11
9,4,22,0,2,0,3,25,93,11
1,1,9,1,0,0,1,25,90,11
1,1,20,1,1,0,1,25,19,11
4,2,15,1,6,1,2,25,106,11
11,4,20,1,4,0,4,25,108,11
1,1,8,1,3,0,1,14,39,11
1,1,3,0,5,1,1,14,106,11
1,1,22,0,1,0,1,14,133,11
1,1,13,1,1,0,1,14,90,11
1,1,22,0,2,0,1,14,133,11
1,1,22,0,3,0,1,14,106,11
1,1,16,1,4,0,1,14,133,11
1,1,4,0,5,1,1,14,78,11
1,1,18,1,1,0,1,14,39,11
1,1,22,0,4,0,1,14,90,11
1,1,8,1,3,0,1,14,78,9
1,1,0,0,1,0,1,14,78,11
1,1,18,1,4,0,1,14,81,11
1,1,0,0,5,1,1,14,90,11
2,1,13,1,0,0,1,14,78,11
2,1,9,1,4,0,1,14,90,11
2,1,18,1,4,0,1,14,133,11
3,2,14,1,6,1,1,14,100,11
3,2,9,1,0,0,1,14,78,11
3,2,23,0,2,0,1,14,90,11
3,2,18,1,4,0,1,14,39,11
3,2,14,1,2,0,1,14,89,11
3,2,22,0,5,1,1,14,39,11
3,2,21,0,6,1,1,14,70,11
4,2,19,1,6,1,2,14,90,11
4,2,22,0,3,0,2,14,39,11
4,2,21,0,6,1,2,14,19,11
5,2,15,1,2,0,2,14,87,9
5,2,12,1,6,1,2,14,93,11
5,2,1,0,0,0,2,14,78,11
5,2,22,0,2,0,2,14,19,11
5,2,21,0,4,0,2,14,115,11
5,2,20,1,4,0,2,14,78,11
6,3,20,1,1,0,2,14,19,11
6,3,21,0,3,0,2,14,27,11
6,3,10,1,6,1,2,14,39,11
7,3,21,0,2,0,3,14,90,11
7,3,21,0,5,1,3,14,87,11
7,3,16,1,0,0,3,14,57,11
7,3,19,1,4,0,3,14,78,11
7,3,17,1,2,0,3,14,133,11
7,3,19,1,1,0,3,14,90,11
7,3,13,1,2,0,3,14,78,11
8,3,0,0,3,0,3,14,115,11
8,3,13,1,4,0,3,14,93,11
8,3,14,1,3,0,3,14,48,11
8,3,10,1,4,0,3,14,78,8
8,3,12,1,4,0,3,14,39,11
8,3,13,1,5,1,3,14,87,11
9,4,20,1,0,0,3,14,75,11
10,4,15,1,5,1,4,14,93,11
10,4,20,1,2,0,4,14,106,11
11,4,14,1,5,1,4,14,93,11
11,4,13,1,2,0,4,14,93,11
11,4,22,0,6,1,4,14,90,11
12,1,18,1,2,0,4,14,78,11
12,1,2,0,6,1,4,14,39,11
12,1,19,1,2,0,4,14,78,11
12,1,4,0,4,0,4,14,118,11
1,1,8,1,4,0,1,14,115,11
1,1,18,1,2,0,1,14,115,11
2,1,2,0,5,1,1,14,78,11
2,1,20,1,2,0,1,14,78,11
2,1,8,1,6,1,1,14,115,11
3,2,8,1,4,0,1,14,115,11
4,2,18,1,5,1,2,14,106,11
6,3,10,1,4,0,2,14,78,11
6,3,10,1,4,0,2,14,112,11
6,3,22,0,0,0,2,14,133,11
10,4,12,1,5,1,4,14,78,11
