@Relation urban_new_2020_fold6_train

@ATTRIBUTE f1_minas          NUMERIC  % Μήνας (1-12)
@ATTRIBUTE f2_epochi         NUMERIC  % Εποχή (1=Χειμ 2=Άνοιξ 3=Καλοκ 4=Φθιν)
@ATTRIBUTE f3_ora            NUMERIC  % Ώρα ημέρας (0-23)
@ATTRIBUTE f4_mera_nyxta     NUMERIC  % Μέρα=1 Νύχτα=0
@ATTRIBUTE f5_imera_evdom    NUMERIC  % Ημέρα εβδομάδας (0=Δευτ 6=Κυρ)
@ATTRIBUTE f6_savvatokyriako NUMERIC  % Σαββ/κο=1 Καθημ=0
@ATTRIBUTE f7_trimino        NUMERIC  % Τρίμηνο (1-4)
@ATTRIBUTE f8_nomos          NUMERIC  % Κωδικός Νομού
@ATTRIBUTE f9_typos_xorou    NUMERIC  % Κωδικός τύπου χώρου
@ATTRIBUTE class             {8,9,11} % 8=Μεγάλη 9=Μεσαία 11=Μικρή

@DATA
1,1,11,1,3,0,1,5,98,11
1,1,12,1,3,0,1,5,89,11
2,1,13,1,5,1,1,5,89,11
2,1,19,1,0,0,1,5,89,11
2,1,18,1,6,1,1,5,89,11
2,1,13,1,3,0,1,5,89,11
2,1,17,1,4,0,1,5,89,11
2,1,21,0,4,0,1,5,98,11
2,1,11,1,5,1,1,5,89,11
3,2,21,0,6,1,1,5,98,11
3,2,12,1,1,0,1,5,89,11
3,2,16,1,3,0,1,5,89,11
3,2,2,0,5,1,1,5,89,11
3,2,11,1,5,1,1,5,3,11
3,2,11,1,5,1,1,5,98,11
3,2,18,1,5,1,1,5,98,11
3,2,16,1,6,1,1,5,98,11
3,2,10,1,3,0,1,5,89,11
4,2,15,1,3,0,2,5,86,11
4,2,15,1,5,1,2,5,3,11
5,2,8,1,4,0,2,5,89,11
5,2,14,1,6,1,2,5,89,11
7,3,20,1,6,1,3,5,65,11
7,3,22,0,0,0,3,5,47,11
8,3,0,0,6,1,3,5,89,11
8,3,19,1,5,1,3,5,75,11
9,4,22,0,6,1,3,5,98,11
10,4,17,1,5,1,4,5,89,11
11,4,17,1,0,0,4,5,98,11
11,4,15,1,2,0,4,5,98,9
11,4,11,1,3,0,4,5,89,11
11,4,22,0,4,0,4,5,98,11
11,4,12,1,5,1,4,5,89,11
11,4,12,1,0,0,4,5,89,11
11,4,12,1,1,0,4,5,89,11
11,4,12,1,5,1,4,5,89,11
11,4,10,1,5,1,4,5,89,11
11,4,13,1,0,0,4,5,89,11
11,4,18,1,1,0,4,5,89,11
12,1,19,1,4,0,4,5,89,11
12,1,16,1,4,0,4,5,89,11
12,1,22,0,3,0,4,5,98,11
12,1,10,1,5,1,4,5,19,8
12,1,12,1,1,0,4,5,89,11
12,1,17,1,3,0,4,5,10,11
12,1,12,1,6,1,4,5,89,11
2,1,20,1,0,0,1,5,82,11
2,1,12,1,2,0,1,5,4,11
3,2,20,1,2,0,1,5,4,11
6,3,14,1,0,0,2,5,4,11
7,3,22,0,5,1,3,5,31,11
7,3,20,1,5,1,3,5,56,11
8,3,16,1,6,1,3,5,86,11
9,4,15,1,2,0,3,5,4,11
10,4,15,1,3,0,4,5,4,11
1,1,4,0,2,0,1,5,86,11
1,1,12,1,2,0,1,5,86,11
1,1,21,0,2,0,1,5,65,11
1,1,14,1,3,0,1,5,65,11
1,1,16,1,3,0,1,5,75,11
1,1,3,0,3,0,1,5,86,11
1,1,23,0,4,0,1,5,65,11
1,1,20,1,4,0,1,5,65,11
1,1,23,0,5,1,1,5,65,11
1,1,14,1,6,1,1,5,65,11
1,1,10,1,6,1,1,5,65,11
1,1,22,0,0,0,1,5,29,11
1,1,18,1,0,0,1,5,65,11
1,1,3,0,1,0,1,5,86,11
1,1,0,0,4,0,1,5,86,11
1,1,19,1,4,0,1,5,65,11
1,1,9,1,5,1,1,5,65,11
1,1,3,0,2,0,1,5,86,11
1,1,1,0,2,0,1,5,8,11
1,1,19,1,2,0,1,5,94,11
1,1,10,1,2,0,1,5,89,11
1,1,23,0,2,0,1,5,125,11
1,1,23,0,2,0,1,5,86,11
1,1,19,1,5,1,1,5,94,11
1,1,20,1,5,1,1,5,19,11
1,1,9,1,5,1,1,5,65,11
1,1,0,0,5,1,1,5,76,11
1,1,9,1,6,1,1,5,94,11
1,1,21,0,6,1,1,5,65,11
1,1,2,0,0,0,1,5,86,11
1,1,21,0,1,0,1,5,94,11
1,1,12,1,1,0,1,5,125,11
1,1,3,0,2,0,1,5,56,11
1,1,2,0,2,0,1,5,19,11
1,1,1,0,2,0,1,5,125,11
1,1,3,0,2,0,1,5,86,11
1,1,15,1,2,0,1,5,125,8
1,1,3,0,3,0,1,5,75,8
1,1,4,0,3,0,1,5,125,11
1,1,21,0,3,0,1,5,86,11
1,1,0,0,5,1,1,5,125,11
1,1,23,0,5,1,1,5,86,11
1,1,19,1,5,1,1,5,65,8
1,1,5,0,1,0,1,5,65,11
1,1,8,1,2,0,1,5,56,11
1,1,23,0,3,0,1,5,19,8
1,1,23,0,3,0,1,5,65,11
1,1,0,0,4,0,1,5,125,11
2,1,3,0,5,1,1,5,72,11
2,1,7,1,5,1,1,5,94,11
2,1,20,1,5,1,1,5,65,11
2,1,15,1,5,1,1,5,94,11
2,1,23,0,6,1,1,5,94,8
2,1,1,0,6,1,1,5,94,11
2,1,0,0,1,0,1,5,86,11
2,1,21,0,2,0,1,5,86,11
2,1,22,0,2,0,1,5,94,11
2,1,10,1,3,0,1,5,9,11
2,1,16,1,3,0,1,5,86,11
2,1,3,0,4,0,1,5,65,11
2,1,21,0,4,0,1,5,94,11
2,1,21,0,4,0,1,5,94,11
2,1,21,0,4,0,1,5,94,11
2,1,19,1,4,0,1,5,86,11
2,1,5,0,5,1,1,5,86,11
2,1,3,0,5,1,1,5,86,11
2,1,20,1,5,1,1,5,86,11
2,1,15,1,5,1,1,5,65,11
2,1,15,1,5,1,1,5,65,11
2,1,4,0,6,1,1,5,9,11
2,1,8,1,6,1,1,5,94,11
2,1,18,1,6,1,1,5,65,11
2,1,19,1,6,1,1,5,9,11
2,1,11,1,0,0,1,5,94,11
2,1,14,1,0,0,1,5,94,11
2,1,21,0,2,0,1,5,94,11
2,1,17,1,2,0,1,5,86,11
2,1,21,0,2,0,1,5,94,11
2,1,11,1,2,0,1,5,86,11
2,1,19,1,3,0,1,5,94,11
2,1,2,0,5,1,1,5,94,11
2,1,21,0,5,1,1,5,86,11
2,1,22,0,5,1,1,5,96,11
2,1,11,1,6,1,1,5,65,11
2,1,20,1,6,1,1,5,96,11
2,1,22,0,6,1,1,5,96,11
2,1,11,1,0,0,1,5,39,11
2,1,7,1,0,0,1,5,65,11
2,1,16,1,0,0,1,5,65,11
2,1,20,1,0,0,1,5,94,11
2,1,21,0,2,0,1,5,96,11
2,1,10,1,3,0,1,5,86,11
2,1,22,0,4,0,1,5,86,9
2,1,13,1,4,0,1,5,86,11
2,1,19,1,5,1,1,5,65,11
2,1,15,1,6,1,1,5,65,11
2,1,23,0,6,1,1,5,19,11
2,1,0,0,0,0,1,5,65,11
2,1,4,0,0,0,1,5,65,11
2,1,21,0,0,0,1,5,86,11
2,1,6,0,2,0,1,5,65,11
2,1,22,0,2,0,1,5,94,11
2,1,18,1,3,0,1,5,65,11
2,1,23,0,3,0,1,5,94,11
2,1,4,0,4,0,1,5,86,11
2,1,3,0,4,0,1,5,94,11
2,1,12,1,4,0,1,5,86,11
2,1,5,0,4,0,1,5,96,11
2,1,21,0,5,1,1,5,65,11
2,1,10,1,5,1,1,5,44,11
3,2,23,0,6,1,1,5,65,11
3,2,3,0,6,1,1,5,9,11
3,2,9,1,0,0,1,5,65,11
3,2,18,1,1,0,1,5,94,11
3,2,20,1,1,0,1,5,94,11
3,2,13,1,3,0,1,5,65,11
3,2,17,1,3,0,1,5,9,11
3,2,3,0,0,0,1,5,94,11
3,2,16,1,3,0,1,5,47,11
3,2,11,1,3,0,1,5,65,11
3,2,6,0,6,1,1,5,9,11
3,2,19,1,6,1,1,5,86,11
3,2,2,0,0,0,1,5,86,11
3,2,22,0,1,0,1,5,42,11
3,2,13,1,4,0,1,5,65,11
3,2,17,1,4,0,1,5,9,11
3,2,17,1,4,0,1,5,86,11
3,2,9,1,4,0,1,5,65,11
3,2,15,1,5,1,1,5,86,11
3,2,0,0,5,1,1,5,86,11
3,2,21,0,1,0,1,5,86,11
3,2,0,0,1,0,1,5,86,11
4,2,8,1,4,0,2,5,86,11
4,2,9,1,0,0,2,5,65,11
4,2,16,1,1,0,2,5,65,11
4,2,22,0,2,0,2,5,65,11
4,2,4,0,2,0,2,5,86,11
4,2,2,0,4,0,2,5,86,11
4,2,21,0,4,0,2,5,65,11
4,2,3,0,6,1,2,5,65,11
4,2,22,0,6,1,2,5,86,11
4,2,2,0,0,0,2,5,86,11
4,2,19,1,1,0,2,5,58,11
4,2,19,1,1,0,2,5,86,11
4,2,16,1,1,0,2,5,65,11
4,2,13,1,3,0,2,5,86,11
4,2,15,1,3,0,2,5,86,11
4,2,0,0,4,0,2,5,86,11
4,2,22,0,4,0,2,5,86,11
4,2,22,0,4,0,2,5,86,11
4,2,5,0,4,0,2,5,65,11
4,2,22,0,5,1,2,5,65,8
4,2,14,1,6,1,2,5,86,11
4,2,14,1,2,0,2,5,65,11
4,2,22,0,2,0,2,5,65,11
4,2,21,0,3,0,2,5,86,11
4,2,16,1,3,0,2,5,86,11
4,2,16,1,3,0,2,5,86,11
5,2,9,1,6,1,2,5,86,11
5,2,11,1,0,0,2,5,65,11
5,2,1,0,2,0,2,5,86,11
5,2,1,0,2,0,2,5,86,11
5,2,6,0,2,0,2,5,86,11
5,2,3,0,2,0,2,5,72,11
5,2,1,0,3,0,2,5,86,11
5,2,12,1,6,1,2,5,18,11
5,2,5,0,6,1,2,5,86,11
5,2,10,1,6,1,2,5,65,11
5,2,12,1,0,0,2,5,72,11
5,2,19,1,1,0,2,5,86,11
5,2,1,0,2,0,2,5,86,11
5,2,16,1,2,0,2,5,65,11
5,2,3,0,2,0,2,5,86,11
5,2,3,0,2,0,2,5,86,11
5,2,0,0,2,0,2,5,86,11
5,2,0,0,3,0,2,5,86,11
5,2,13,1,4,0,2,5,94,11
5,2,19,1,4,0,2,5,94,11
5,2,2,0,6,1,2,5,94,11
5,2,3,0,6,1,2,5,86,11
5,2,5,0,6,1,2,5,65,11
5,2,2,0,0,0,2,5,86,11
5,2,2,0,0,0,2,5,72,11
5,2,6,0,1,0,2,5,86,11
5,2,15,1,1,0,2,5,19,11
5,2,9,1,3,0,2,5,86,11
5,2,18,1,3,0,2,5,65,11
5,2,21,0,4,0,2,5,65,11
5,2,1,0,5,1,2,5,29,11
5,2,23,0,6,1,2,5,65,11
5,2,16,1,6,1,2,5,86,11
5,2,12,1,6,1,2,5,86,11
5,2,14,1,1,0,2,5,65,11
5,2,2,0,3,0,2,5,94,11
5,2,2,0,3,0,2,5,94,11
5,2,2,0,5,1,2,5,86,11
5,2,0,0,6,1,2,5,86,11
5,2,2,0,6,1,2,5,65,11
5,2,5,0,6,1,2,5,86,11
5,2,15,1,6,1,2,5,86,11
6,3,16,1,0,0,2,5,94,11
6,3,13,1,1,0,2,5,65,11
6,3,21,0,2,0,2,5,86,11
6,3,21,0,2,0,2,5,86,11
6,3,21,0,2,0,2,5,86,11
6,3,0,0,4,0,2,5,65,11
6,3,15,1,4,0,2,5,65,11
6,3,19,1,5,1,2,5,86,11
6,3,15,1,6,1,2,5,94,11
6,3,4,0,6,1,2,5,86,11
6,3,0,0,0,0,2,5,65,11
6,3,17,1,1,0,2,5,65,11
6,3,18,1,1,0,2,5,56,11
6,3,19,1,1,0,2,5,65,11
6,3,20,1,3,0,2,5,75,11
6,3,5,0,5,1,2,5,86,11
6,3,5,0,2,0,2,5,86,11
6,3,17,1,2,0,2,5,78,11
6,3,17,1,2,0,2,5,9,11
6,3,15,1,3,0,2,5,65,11
6,3,12,1,4,0,2,5,86,11
6,3,0,0,4,0,2,5,89,8
6,3,9,1,5,1,2,5,86,11
6,3,5,0,5,1,2,5,86,11
6,3,2,0,5,1,2,5,86,11
6,3,17,1,6,1,2,5,94,11
6,3,11,1,6,1,2,5,86,11
6,3,2,0,0,0,2,5,8,11
6,3,20,1,0,0,2,5,18,11
7,3,17,1,3,0,3,5,65,11
7,3,14,1,4,0,3,5,9,11
7,3,9,1,4,0,3,5,86,11
7,3,0,0,6,1,3,5,86,11
7,3,0,0,6,1,3,5,39,11
7,3,16,1,0,0,3,5,65,11
7,3,0,0,0,0,3,5,86,11
7,3,2,0,0,0,3,5,86,11
7,3,0,0,1,0,3,5,86,11
7,3,2,0,2,0,3,5,65,11
7,3,12,1,2,0,3,5,94,11
7,3,22,0,2,0,3,5,86,11
7,3,1,0,2,0,3,5,86,11
7,3,9,1,3,0,3,5,86,11
7,3,21,0,3,0,3,5,86,11
7,3,19,1,4,0,3,5,86,11
7,3,23,0,4,0,3,5,86,11
7,3,4,0,5,1,3,5,86,11
7,3,1,0,6,1,3,5,86,11
7,3,21,0,0,0,3,5,8,9
7,3,4,0,1,0,3,5,86,11
7,3,15,1,1,0,3,5,89,11
7,3,16,1,2,0,3,5,86,11
7,3,13,1,2,0,3,5,86,11
7,3,22,0,3,0,3,5,65,11
7,3,22,0,4,0,3,5,86,11
7,3,20,1,4,0,3,5,86,11
7,3,3,0,4,0,3,5,86,11
7,3,1,0,5,1,3,5,65,11
7,3,15,1,6,1,3,5,86,11
7,3,10,1,0,0,3,5,75,11
7,3,15,1,1,0,3,5,86,11
7,3,18,1,3,0,3,5,86,11
7,3,18,1,4,0,3,5,86,11
7,3,21,0,4,0,3,5,86,11
7,3,22,0,5,1,3,5,86,11
7,3,16,1,5,1,3,5,65,11
7,3,16,1,5,1,3,5,65,11
7,3,23,0,5,1,3,5,65,11
7,3,18,1,5,1,3,5,56,11
7,3,5,0,5,1,3,5,86,11
7,3,4,0,6,1,3,5,86,11
7,3,2,0,6,1,3,5,65,11
7,3,17,1,6,1,3,5,65,11
7,3,18,1,6,1,3,5,86,11
7,3,14,1,0,0,3,5,86,11
7,3,7,1,0,0,3,5,65,11
7,3,2,0,0,0,3,5,86,11
7,3,18,1,3,0,3,5,65,11
7,3,0,0,3,0,3,5,56,8
7,3,4,0,4,0,3,5,123,11
7,3,16,1,4,0,3,5,86,11
7,3,21,0,4,0,3,5,86,11
7,3,13,1,4,0,3,5,30,11
8,3,15,1,0,0,3,5,9,11
8,3,13,1,1,0,3,5,65,11
8,3,20,1,1,0,3,5,86,11
8,3,11,1,2,0,3,5,65,11
8,3,20,1,2,0,3,5,86,11
8,3,12,1,4,0,3,5,65,11
8,3,12,1,5,1,3,5,65,11
8,3,1,0,5,1,3,5,86,11
8,3,1,0,6,1,3,5,86,11
8,3,2,0,6,1,3,5,86,11
8,3,3,0,6,1,3,5,86,11
8,3,0,0,2,0,3,5,65,11
8,3,2,0,2,0,3,5,86,11
8,3,5,0,4,0,3,5,86,11
8,3,15,1,4,0,3,5,65,11
8,3,0,0,5,1,3,5,86,11
8,3,8,1,0,0,3,5,86,11
8,3,12,1,0,0,3,5,65,9
8,3,20,1,1,0,3,5,86,11
8,3,13,1,3,0,3,5,65,11
8,3,2,0,3,0,3,5,86,11
8,3,11,1,4,0,3,5,75,11
8,3,2,0,4,0,3,5,86,11
8,3,2,0,4,0,3,5,86,11
8,3,0,0,5,1,3,5,86,11
8,3,15,1,5,1,3,5,65,11
8,3,2,0,5,1,3,5,86,11
8,3,15,1,6,1,3,5,86,11
8,3,0,0,0,0,3,5,86,11
8,3,3,0,0,0,3,5,86,11
8,3,3,0,0,0,3,5,86,11
8,3,2,0,0,0,3,5,86,11
8,3,2,0,0,0,3,5,86,11
8,3,3,0,0,0,3,5,86,11
8,3,19,1,1,0,3,5,86,11
8,3,23,0,1,0,3,5,86,11
8,3,4,0,2,0,3,5,75,8
8,3,7,1,2,0,3,5,19,11
8,3,6,0,3,0,3,5,86,11
8,3,0,0,3,0,3,5,65,11
8,3,15,1,4,0,3,5,86,11
9,4,19,1,1,0,3,5,65,11
9,4,11,1,1,0,3,5,82,11
9,4,10,1,1,0,3,5,56,11
9,4,4,0,2,0,3,5,86,11
9,4,1,0,5,1,3,5,86,11
9,4,2,0,6,1,3,5,96,11
9,4,2,0,6,1,3,5,86,11
9,4,20,1,0,0,3,5,65,11
9,4,7,1,1,0,3,5,72,11
9,4,22,0,1,0,3,5,65,11
9,4,17,1,2,0,3,5,30,11
9,4,5,0,2,0,3,5,86,11
9,4,2,0,2,0,3,5,65,11
9,4,11,1,3,0,3,5,65,11
9,4,0,0,3,0,3,5,86,11
9,4,12,1,3,0,3,5,65,11
9,4,5,0,4,0,3,5,65,11
9,4,3,0,5,1,3,5,86,11
9,4,22,0,5,1,3,5,124,11
9,4,16,1,6,1,3,5,23,11
9,4,1,0,6,1,3,5,72,8
9,4,13,1,6,1,3,5,86,11
9,4,2,0,6,1,3,5,65,11
9,4,6,0,0,0,3,5,72,11
9,4,11,1,2,0,3,5,65,11
9,4,7,1,2,0,3,5,56,11
9,4,21,0,3,0,3,5,65,11
9,4,3,0,4,0,3,5,86,11
9,4,14,1,5,1,3,5,75,11
9,4,1,0,6,1,3,5,86,11
9,4,18,1,6,1,3,5,86,11
9,4,10,1,6,1,3,5,65,11
9,4,20,1,0,0,3,5,86,11
9,4,3,0,0,0,3,5,86,11
9,4,7,1,0,0,3,5,86,11
9,4,13,1,1,0,3,5,78,11
9,4,11,1,2,0,3,5,65,11
9,4,15,1,2,0,3,5,72,11
9,4,8,1,3,0,3,5,31,11
9,4,21,0,3,0,3,5,31,11
9,4,4,0,4,0,3,5,64,11
9,4,17,1,4,0,3,5,86,11
9,4,22,0,4,0,3,5,86,11
9,4,11,1,0,0,3,5,86,11
9,4,0,0,1,0,3,5,64,11
9,4,17,1,1,0,3,5,47,11
10,4,16,1,3,0,4,5,86,11
10,4,19,1,3,0,4,5,86,11
10,4,12,1,3,0,4,5,65,11
10,4,5,0,4,0,4,5,86,11
10,4,13,1,4,0,4,5,65,11
10,4,2,0,5,1,4,5,96,11
10,4,4,0,5,1,4,5,86,11
10,4,5,0,6,1,4,5,86,11
10,4,20,1,2,0,4,5,86,11
10,4,20,1,3,0,4,5,65,11
10,4,4,0,4,0,4,5,20,11
10,4,2,0,5,1,4,5,86,11
10,4,3,0,6,1,4,5,86,11
10,4,4,0,6,1,4,5,86,11
10,4,3,0,6,1,4,5,86,11
10,4,5,0,2,0,4,5,94,11
10,4,9,1,2,0,4,5,19,11
10,4,11,1,3,0,4,5,31,11
10,4,12,1,3,0,4,5,94,11
10,4,2,0,6,1,4,5,86,11
10,4,4,0,0,0,4,5,86,11
10,4,7,1,1,0,4,5,86,11
10,4,21,0,1,0,4,5,114,11
10,4,5,0,1,0,4,5,65,11
10,4,22,0,2,0,4,5,44,11
10,4,11,1,2,0,4,5,98,8
10,4,5,0,2,0,4,5,86,11
10,4,10,1,2,0,4,5,64,11
10,4,2,0,4,0,4,5,86,11
10,4,16,1,4,0,4,5,86,11
10,4,14,1,5,1,4,5,19,11
10,4,14,1,6,1,4,5,65,11
10,4,19,1,1,0,4,5,122,11
10,4,9,1,1,0,4,5,65,11
10,4,9,1,1,0,4,5,86,11
10,4,1,0,1,0,4,5,86,11
10,4,22,0,2,0,4,5,86,11
10,4,0,0,2,0,4,5,86,11
10,4,0,0,2,0,4,5,86,11
10,4,0,0,2,0,4,5,86,11
10,4,11,1,2,0,4,5,86,11
10,4,14,1,2,0,4,5,65,11
10,4,3,0,3,0,4,5,57,11
10,4,5,0,4,0,4,5,86,11
10,4,11,1,5,1,4,5,94,11
10,4,19,1,5,1,4,5,64,11
10,4,18,1,5,1,4,5,86,11
10,4,1,0,5,1,4,5,86,11
10,4,13,1,5,1,4,5,65,11
10,4,2,0,5,1,4,5,94,11
10,4,21,0,5,1,4,5,123,11
11,4,21,0,6,1,4,5,94,11
11,4,0,0,1,0,4,5,94,11
11,4,10,1,2,0,4,5,65,11
11,4,17,1,3,0,4,5,65,11
11,4,8,1,4,0,4,5,65,11
11,4,20,1,5,1,4,5,86,11
11,4,14,1,0,0,4,5,18,11
11,4,20,1,0,0,4,5,19,11
11,4,19,1,1,0,4,5,86,11
11,4,19,1,2,0,4,5,86,11
11,4,20,1,2,0,4,5,65,11
11,4,8,1,2,0,4,5,75,11
11,4,21,0,3,0,4,5,86,11
11,4,13,1,1,0,4,5,65,11
11,4,11,1,4,0,4,5,9,11
11,4,17,1,5,1,4,5,19,11
11,4,19,1,5,1,4,5,65,11
11,4,14,1,5,1,4,5,47,11
11,4,12,1,6,1,4,5,65,11
11,4,4,0,6,1,4,5,94,11
11,4,1,0,6,1,4,5,94,11
11,4,1,0,6,1,4,5,94,11
11,4,1,0,6,1,4,5,94,11
11,4,3,0,1,0,4,5,94,11
11,4,0,0,1,0,4,5,86,11
11,4,22,0,0,0,4,5,86,11
12,1,18,1,1,0,4,5,94,11
12,1,19,1,1,0,4,5,65,11
12,1,12,1,3,0,4,5,65,11
12,1,5,0,5,1,4,5,19,11
12,1,6,0,5,1,4,5,94,11
12,1,2,0,6,1,4,5,65,11
12,1,9,1,6,1,4,5,31,11
12,1,16,1,6,1,4,5,75,8
12,1,21,0,6,1,4,5,86,11
12,1,22,0,6,1,4,5,94,11
12,1,1,0,0,0,4,5,65,11
12,1,21,0,1,0,4,5,65,11
12,1,9,1,2,0,4,5,65,11
12,1,21,0,2,0,4,5,126,11
12,1,22,0,2,0,4,5,86,11
12,1,16,1,3,0,4,5,65,11
12,1,4,0,0,0,4,5,94,11
12,1,17,1,1,0,4,5,9,11
12,1,0,0,2,0,4,5,65,11
12,1,16,1,3,0,4,5,86,11
12,1,21,0,4,0,4,5,19,11
12,1,23,0,5,1,4,5,30,11
12,1,11,1,5,1,4,5,86,11
12,1,2,0,0,0,4,5,86,11
12,1,17,1,2,0,4,5,86,11
12,1,22,0,3,0,4,5,47,11
1,1,21,0,2,0,1,5,86,11
1,1,22,0,2,0,1,5,76,11
1,1,6,0,3,0,1,5,94,11
1,1,16,1,3,0,1,5,8,11
1,1,15,1,3,0,1,5,8,11
1,1,19,1,3,0,1,5,8,11
1,1,15,1,3,0,1,5,8,11
1,1,20,1,4,0,1,5,86,11
1,1,16,1,4,0,1,5,94,11
1,1,9,1,4,0,1,5,98,11
1,1,9,1,4,0,1,5,96,11
1,1,10,1,5,1,1,5,94,11
1,1,22,0,6,1,1,5,65,11
1,1,4,0,6,1,1,5,125,11
1,1,2,0,6,1,1,5,125,11
1,1,12,1,6,1,1,5,94,11
1,1,7,1,6,1,1,5,75,11
1,1,5,0,0,0,1,5,65,11
1,1,6,0,1,0,1,5,86,11
1,1,17,1,1,0,1,5,39,11
1,1,20,1,1,0,1,5,8,11
1,1,21,0,2,0,1,5,1,11
1,1,20,1,2,0,1,5,123,11
1,1,10,1,2,0,1,5,23,11
1,1,9,1,2,0,1,5,14,11
1,1,0,0,3,0,1,5,19,11
1,1,4,0,3,0,1,5,65,11
1,1,21,0,5,1,1,5,65,11
1,1,23,0,5,1,1,5,1,11
1,1,21,0,5,1,1,5,65,11
1,1,14,1,6,1,1,5,125,11
1,1,0,0,6,1,1,5,65,11
1,1,3,0,6,1,1,5,86,11
1,1,2,0,6,1,1,5,125,11
1,1,0,0,0,0,1,5,65,11
1,1,9,1,0,0,1,5,56,11
1,1,20,1,1,0,1,5,94,11
1,1,11,1,1,0,1,5,65,11
1,1,18,1,1,0,1,5,86,11
1,1,7,1,1,0,1,5,96,11
1,1,5,0,2,0,1,5,72,11
1,1,5,0,2,0,1,5,65,11
1,1,23,0,2,0,1,5,125,11
1,1,19,1,2,0,1,5,98,11
1,1,15,1,2,0,1,5,39,11
1,1,4,0,3,0,1,5,65,11
1,1,20,1,3,0,1,5,65,11
1,1,16,1,3,0,1,5,65,8
1,1,22,0,3,0,1,5,65,11
1,1,22,0,3,0,1,5,94,11
1,1,22,0,3,0,1,5,125,11
1,1,17,1,4,0,1,5,75,11
1,1,21,0,5,1,1,5,86,11
1,1,21,0,6,1,1,5,86,11
1,1,15,1,6,1,1,5,86,11
1,1,19,1,6,1,1,5,65,11
1,1,12,1,0,0,1,5,75,11
1,1,0,0,1,0,1,5,19,11
1,1,20,1,1,0,1,5,56,11
1,1,17,1,1,0,1,5,125,11
1,1,16,1,1,0,1,5,8,11
1,1,6,0,2,0,1,5,98,11
1,1,12,1,2,0,1,5,89,11
1,1,18,1,2,0,1,5,94,11
1,1,21,0,2,0,1,5,86,11
1,1,3,0,3,0,1,5,98,11
1,1,2,0,3,0,1,5,98,11
1,1,5,0,3,0,1,5,86,11
1,1,5,0,3,0,1,5,86,11
1,1,3,0,3,0,1,5,23,11
1,1,2,0,4,0,1,5,65,11
1,1,1,0,4,0,1,5,98,11
1,1,19,1,5,1,1,5,86,11
1,1,22,0,6,1,1,5,19,11
1,1,0,0,6,1,1,5,86,11
1,1,14,1,6,1,1,5,98,11
1,1,21,0,6,1,1,5,86,11
1,1,10,1,0,0,1,5,98,11
1,1,3,0,1,0,1,5,72,11
1,1,22,0,1,0,1,5,86,11
1,1,0,0,3,0,1,5,94,11
1,1,20,1,3,0,1,5,125,11
1,1,20,1,3,0,1,5,98,11
1,1,0,0,4,0,1,5,89,11
1,1,16,1,4,0,1,5,65,11
2,1,20,1,5,1,1,5,65,11
2,1,13,1,5,1,1,5,86,11
2,1,3,0,5,1,1,5,65,11
2,1,14,1,6,1,1,5,65,11
2,1,13,1,6,1,1,5,86,11
2,1,0,0,0,0,1,5,86,11
2,1,15,1,0,0,1,5,65,11
2,1,19,1,0,0,1,5,94,11
2,1,2,0,1,0,1,5,72,11
2,1,13,1,1,0,1,5,65,11
2,1,21,0,1,0,1,5,72,11
2,1,22,0,2,0,1,5,98,11
2,1,21,0,2,0,1,5,98,11
2,1,21,0,2,0,1,5,65,9
2,1,15,1,2,0,1,5,65,11
2,1,23,0,2,0,1,5,86,11
2,1,8,1,3,0,1,5,14,11
2,1,1,0,4,0,1,5,82,11
2,1,23,0,4,0,1,5,86,11
2,1,14,1,4,0,1,5,65,11
2,1,21,0,4,0,1,5,65,11
2,1,19,1,5,1,1,5,86,11
2,1,16,1,5,1,1,5,86,11
2,1,4,0,5,1,1,5,86,11
2,1,3,0,5,1,1,5,86,11
2,1,3,0,5,1,1,5,86,11
2,1,4,0,5,1,1,5,1,11
2,1,1,0,5,1,1,5,86,11
2,1,12,1,6,1,1,5,65,11
2,1,20,1,6,1,1,5,39,11
2,1,21,0,6,1,1,5,65,11
2,1,7,1,0,0,1,5,94,11
2,1,10,1,0,0,1,5,86,11
2,1,20,1,0,0,1,5,98,11
2,1,0,0,1,0,1,5,65,11
2,1,3,0,1,0,1,5,75,11
2,1,13,1,2,0,1,5,19,11
2,1,1,0,2,0,1,5,98,11
2,1,21,0,3,0,1,5,94,11
2,1,21,0,3,0,1,5,125,11
2,1,20,1,3,0,1,5,123,11
2,1,1,0,4,0,1,5,65,11
2,1,22,0,4,0,1,5,86,11
2,1,18,1,5,1,1,5,39,11
2,1,12,1,5,1,1,5,94,11
2,1,12,1,6,1,1,5,14,11
2,1,18,1,6,1,1,5,9,11
2,1,20,1,6,1,1,5,89,11
2,1,23,0,6,1,1,5,86,11
2,1,23,0,6,1,1,5,19,11
2,1,21,0,1,0,1,5,86,11
2,1,23,0,1,0,1,5,65,11
2,1,18,1,1,0,1,5,65,11
2,1,19,1,1,0,1,5,8,11
2,1,17,1,1,0,1,5,86,11
2,1,7,1,1,0,1,5,86,11
2,1,10,1,1,0,1,5,86,11
2,1,20,1,2,0,1,5,89,11
2,1,5,0,3,0,1,5,86,11
2,1,2,0,3,0,1,5,86,11
2,1,0,0,3,0,1,5,8,11
2,1,15,1,3,0,1,5,86,11
2,1,19,1,4,0,1,5,89,11
2,1,18,1,4,0,1,5,89,11
2,1,12,1,4,0,1,5,94,11
2,1,19,1,5,1,1,5,86,11
2,1,19,1,6,1,1,5,125,11
2,1,7,1,6,1,1,5,19,11
2,1,0,0,0,0,1,5,125,11
2,1,11,1,0,0,1,5,65,11
2,1,20,1,1,0,1,5,31,11
2,1,6,0,2,0,1,5,94,11
2,1,1,0,4,0,1,5,98,11
2,1,7,1,4,0,1,5,72,11
2,1,6,0,4,0,1,5,72,11
2,1,16,1,5,1,1,5,65,11
2,1,7,1,5,1,1,5,65,11
2,1,3,0,5,1,1,5,65,11
2,1,8,1,5,1,1,5,65,11
2,1,9,1,5,1,1,5,89,11
2,1,20,1,5,1,1,5,89,11
2,1,20,1,5,1,1,5,72,11
3,2,0,0,6,1,1,5,72,11
3,2,0,0,6,1,1,5,72,11
3,2,4,0,6,1,1,5,65,11
3,2,14,1,6,1,1,5,98,11
3,2,11,1,6,1,1,5,65,11
3,2,0,0,0,0,1,5,65,11
3,2,4,0,0,0,1,5,86,11
3,2,9,1,0,0,1,5,89,11
3,2,20,1,0,0,1,5,18,11
3,2,2,0,1,0,1,5,86,11
3,2,4,0,1,0,1,5,86,11
3,2,18,1,1,0,1,5,65,11
3,2,20,1,1,0,1,5,86,11
3,2,19,1,1,0,1,5,65,11
3,2,21,0,2,0,1,5,72,11
3,2,15,1,2,0,1,5,65,11
3,2,12,1,2,0,1,5,39,11
3,2,7,1,2,0,1,5,65,9
3,2,0,0,3,0,1,5,86,9
3,2,12,1,3,0,1,5,86,11
3,2,14,1,3,0,1,5,89,11
3,2,8,1,3,0,1,5,125,11
3,2,0,0,4,0,1,5,65,11
3,2,18,1,4,0,1,5,65,11
3,2,10,1,4,0,1,5,65,11
3,2,0,0,5,1,1,5,86,11
3,2,23,0,5,1,1,5,86,11
3,2,22,0,5,1,1,5,86,11
3,2,13,1,5,1,1,5,86,11
3,2,9,1,5,1,1,5,89,11
3,2,18,1,6,1,1,5,86,11
3,2,1,0,6,1,1,5,65,11
3,2,0,0,0,0,1,5,86,11
3,2,21,0,1,0,1,5,64,11
3,2,0,0,2,0,1,5,86,11
3,2,6,0,2,0,1,5,65,11
3,2,23,0,3,0,1,5,94,11
3,2,0,0,4,0,1,5,86,11
3,2,18,1,4,0,1,5,98,11
3,2,12,1,4,0,1,5,98,11
3,2,19,1,5,1,1,5,86,11
3,2,22,0,5,1,1,5,86,11
3,2,20,1,5,1,1,5,65,9
3,2,18,1,5,1,1,5,1,11
3,2,13,1,5,1,1,5,65,11
3,2,8,1,5,1,1,5,65,9
3,2,19,1,6,1,1,5,86,11
3,2,4,0,6,1,1,5,1,11
3,2,21,0,0,0,1,5,86,11
3,2,20,1,0,0,1,5,86,11
3,2,19,1,0,0,1,5,72,11
3,2,11,1,1,0,1,5,61,11
3,2,20,1,1,0,1,5,98,11
3,2,23,0,1,0,1,5,72,11
3,2,0,0,1,0,1,5,86,11
3,2,4,0,1,0,1,5,72,11
3,2,19,1,2,0,1,5,124,11
3,2,20,1,2,0,1,5,65,11
3,2,21,0,2,0,1,5,65,11
3,2,6,0,2,0,1,5,72,11
3,2,5,0,2,0,1,5,86,11
3,2,18,1,3,0,1,5,86,11
3,2,12,1,4,0,1,5,19,11
3,2,20,1,4,0,1,5,125,11
3,2,5,0,6,1,1,5,98,11
3,2,3,0,6,1,1,5,19,11
3,2,0,0,6,1,1,5,19,11
3,2,4,0,0,0,1,5,98,11
3,2,0,0,0,0,1,5,86,11
3,2,15,1,4,0,1,5,65,11
3,2,22,0,5,1,1,5,75,11
3,2,11,1,6,1,1,5,19,11
3,2,16,1,6,1,1,5,125,11
3,2,6,0,6,1,1,5,14,11
3,2,5,0,6,1,1,5,86,11
3,2,4,0,0,0,1,5,125,11
3,2,18,1,0,0,1,5,8,11
3,2,9,1,1,0,1,5,65,11
3,2,23,0,1,0,1,5,86,11
3,2,22,0,1,0,1,5,86,11
4,2,23,0,2,0,2,5,98,11
4,2,17,1,2,0,2,5,8,11
4,2,9,1,2,0,2,5,65,11
4,2,0,0,2,0,2,5,86,11
4,2,5,0,3,0,2,5,125,11
4,2,2,0,3,0,2,5,125,11
4,2,1,0,3,0,2,5,125,11
4,2,19,1,4,0,2,5,65,11
4,2,1,0,4,0,2,5,125,11
4,2,18,1,5,1,2,5,65,11
4,2,23,0,6,1,2,5,98,11
4,2,23,0,0,0,2,5,86,11
4,2,22,0,0,0,2,5,86,11
4,2,13,1,0,0,2,5,87,11
4,2,9,1,2,0,2,5,94,11
4,2,0,0,3,0,2,5,125,11
4,2,9,1,3,0,2,5,86,11
4,2,3,0,4,0,2,5,65,11
4,2,23,0,4,0,2,5,86,11
4,2,9,1,4,0,2,5,94,11
4,2,8,1,4,0,2,5,8,11
4,2,20,1,5,1,2,5,88,11
4,2,1,0,6,1,2,5,125,11
4,2,1,0,6,1,2,5,125,11
4,2,1,0,0,0,2,5,19,11
4,2,1,0,0,0,2,5,86,11
4,2,23,0,0,0,2,5,8,11
4,2,19,1,1,0,2,5,89,11
4,2,2,0,1,0,2,5,86,11
4,2,5,0,1,0,2,5,125,11
4,2,5,0,1,0,2,5,125,11
4,2,12,1,3,0,2,5,125,11
4,2,1,0,3,0,2,5,86,11
4,2,0,0,3,0,2,5,86,11
4,2,2,0,4,0,2,5,86,11
4,2,2,0,4,0,2,5,125,11
4,2,0,0,4,0,2,5,125,11
4,2,0,0,5,1,2,5,86,11
4,2,0,0,5,1,2,5,98,11
4,2,13,1,6,1,2,5,125,11
4,2,22,0,6,1,2,5,65,11
4,2,3,0,6,1,2,5,86,11
4,2,1,0,6,1,2,5,86,11
4,2,15,1,1,0,2,5,1,11
4,2,21,0,1,0,2,5,8,11
4,2,1,0,2,0,2,5,98,11
4,2,2,0,3,0,2,5,125,11
4,2,16,1,3,0,2,5,8,11
4,2,4,0,4,0,2,5,8,11
4,2,14,1,5,1,2,5,65,11
4,2,1,0,5,1,2,5,94,11
4,2,2,0,0,0,2,5,8,11
4,2,23,0,1,0,2,5,65,11
4,2,15,1,1,0,2,5,94,11
4,2,2,0,1,0,2,5,14,11
4,2,2,0,2,0,2,5,86,9
4,2,23,0,2,0,2,5,86,11
4,2,1,0,3,0,2,5,86,11
4,2,6,0,3,0,2,5,86,11
5,2,9,1,4,0,2,5,56,8
5,2,23,0,5,1,2,5,86,11
5,2,2,0,5,1,2,5,86,11
5,2,9,1,5,1,2,5,86,11
5,2,2,0,6,1,2,5,86,11
5,2,4,0,0,0,2,5,86,11
5,2,22,0,0,0,2,5,75,9
5,2,1,0,0,0,2,5,86,11
5,2,14,1,0,0,2,5,75,9
5,2,7,1,0,0,2,5,65,11
5,2,23,0,0,0,2,5,75,11
5,2,8,1,1,0,2,5,75,9
5,2,12,1,1,0,2,5,8,11
5,2,0,0,1,0,2,5,86,11
5,2,4,0,1,0,2,5,75,11
5,2,4,0,2,0,2,5,19,11
5,2,6,0,3,0,2,5,19,11
5,2,1,0,3,0,2,5,86,11
5,2,21,0,4,0,2,5,86,11
5,2,15,1,4,0,2,5,98,11
5,2,16,1,5,1,2,5,94,11
5,2,10,1,5,1,2,5,39,11
5,2,2,0,6,1,2,5,23,9
5,2,6,0,6,1,2,5,9,11
5,2,12,1,6,1,2,5,65,11
5,2,10,1,1,0,2,5,9,9
5,2,5,0,2,0,2,5,19,11
5,2,3,0,2,0,2,5,125,11
5,2,21,0,2,0,2,5,64,11
5,2,7,1,2,0,2,5,14,11
5,2,23,0,3,0,2,5,65,11
5,2,20,1,4,0,2,5,94,11
5,2,23,0,4,0,2,5,39,11
5,2,11,1,4,0,2,5,98,11
5,2,1,0,5,1,2,5,19,11
5,2,4,0,6,1,2,5,86,11
5,2,12,1,0,0,2,5,65,11
5,2,16,1,1,0,2,5,65,9
5,2,7,1,2,0,2,5,39,11
5,2,15,1,3,0,2,5,75,11
5,2,14,1,3,0,2,5,1,11
5,2,18,1,3,0,2,5,86,11
5,2,18,1,3,0,2,5,89,9
5,2,6,0,5,1,2,5,8,11
5,2,23,0,6,1,2,5,14,11
5,2,11,1,6,1,2,5,75,11
5,2,3,0,6,1,2,5,125,11
5,2,12,1,0,0,2,5,65,11
5,2,20,1,1,0,2,5,98,11
5,2,13,1,2,0,2,5,86,11
5,2,11,1,2,0,2,5,19,11
5,2,5,0,3,0,2,5,94,11
5,2,21,0,3,0,2,5,65,11
5,2,19,1,3,0,2,5,65,11
5,2,18,1,4,0,2,5,89,11
5,2,4,0,5,1,2,5,65,11
5,2,4,0,6,1,2,5,86,11
6,3,2,0,0,0,2,5,65,9
6,3,14,1,1,0,2,5,89,11
6,3,18,1,2,0,2,5,19,11
6,3,15,1,3,0,2,5,65,11
6,3,8,1,5,1,2,5,89,11
6,3,11,1,0,0,2,5,98,11
6,3,12,1,0,0,2,5,56,11
6,3,21,0,1,0,2,5,8,11
6,3,12,1,2,0,2,5,86,11
6,3,2,0,2,0,2,5,86,11
6,3,16,1,2,0,2,5,65,11
6,3,19,1,2,0,2,5,86,11
6,3,23,0,2,0,2,5,86,11
6,3,18,1,3,0,2,5,94,11
6,3,15,1,3,0,2,5,65,11
6,3,22,0,3,0,2,5,94,11
6,3,22,0,4,0,2,5,14,11
6,3,17,1,4,0,2,5,75,11
6,3,14,1,4,0,2,5,65,11
6,3,16,1,5,1,2,5,89,11
6,3,2,0,5,1,2,5,86,11
6,3,0,0,6,1,2,5,89,11
6,3,17,1,6,1,2,5,89,11
6,3,7,1,0,0,2,5,98,11
6,3,4,0,0,0,2,5,86,11
6,3,1,0,2,0,2,5,125,11
6,3,22,0,2,0,2,5,86,11
6,3,3,0,3,0,2,5,65,11
6,3,13,1,5,1,2,5,65,11
6,3,8,1,6,1,2,5,94,11
6,3,5,0,0,0,2,5,98,11
6,3,3,0,0,0,2,5,56,11
6,3,0,0,0,0,2,5,89,11
6,3,20,1,5,1,2,5,75,9
6,3,0,0,6,1,2,5,94,11
6,3,14,1,6,1,2,5,89,11
6,3,11,1,6,1,2,5,65,11
6,3,9,1,6,1,2,5,65,11
6,3,3,0,6,1,2,5,8,11
6,3,16,1,0,0,2,5,89,11
6,3,13,1,0,0,2,5,65,11
6,3,18,1,1,0,2,5,65,11
7,3,5,0,2,0,3,5,65,9
7,3,11,1,2,0,3,5,8,11
7,3,13,1,2,0,3,5,65,11
7,3,16,1,2,0,3,5,86,11
7,3,15,1,2,0,3,5,86,11
7,3,17,1,2,0,3,5,61,11
7,3,23,0,3,0,3,5,86,11
7,3,14,1,3,0,3,5,89,11
7,3,9,1,3,0,3,5,65,11
7,3,21,0,3,0,3,5,86,11
7,3,14,1,3,0,3,5,65,11
7,3,13,1,4,0,3,5,57,11
7,3,19,1,4,0,3,5,56,11
7,3,6,0,5,1,3,5,65,11
7,3,20,1,5,1,3,5,86,11
7,3,21,0,0,0,3,5,65,11
7,3,13,1,1,0,3,5,65,11
7,3,13,1,1,0,3,5,8,11
7,3,12,1,2,0,3,5,39,11
7,3,0,0,3,0,3,5,86,11
7,3,2,0,3,0,3,5,65,11
7,3,16,1,3,0,3,5,19,11
7,3,13,1,4,0,3,5,86,11
7,3,2,0,5,1,3,5,86,11
7,3,11,1,0,0,3,5,31,11
7,3,12,1,0,0,3,5,89,11
7,3,20,1,1,0,3,5,86,11
7,3,14,1,2,0,3,5,65,11
7,3,0,0,3,0,3,5,56,11
7,3,11,1,3,0,3,5,72,11
7,3,17,1,4,0,3,5,89,11
7,3,9,1,4,0,3,5,65,11
7,3,23,0,5,1,3,5,86,11
7,3,18,1,5,1,3,5,86,11
7,3,10,1,5,1,3,5,86,11
7,3,7,1,6,1,3,5,86,11
7,3,13,1,6,1,3,5,65,8
7,3,0,0,6,1,3,5,65,11
7,3,7,1,6,1,3,5,86,11
7,3,23,0,1,0,3,5,65,11
7,3,20,1,1,0,3,5,65,11
7,3,3,0,1,0,3,5,86,11
7,3,6,0,1,0,3,5,65,11
7,3,19,1,2,0,3,5,65,11
7,3,17,1,2,0,3,5,89,11
7,3,14,1,3,0,3,5,98,11
7,3,18,1,5,1,3,5,65,11
7,3,21,0,5,1,3,5,65,11
7,3,5,0,6,1,3,5,56,11
7,3,14,1,0,0,3,5,89,9
7,3,8,1,1,0,3,5,56,11
7,3,20,1,1,0,3,5,65,11
7,3,0,0,3,0,3,5,8,9
7,3,12,1,3,0,3,5,86,11
7,3,23,0,3,0,3,5,65,11
7,3,22,0,3,0,3,5,65,11
7,3,7,1,3,0,3,5,75,11
7,3,18,1,3,0,3,5,86,11
7,3,23,0,4,0,3,5,8,11
8,3,8,1,5,1,3,5,72,11
8,3,13,1,6,1,3,5,57,11
8,3,0,0,0,0,3,5,96,11
8,3,7,1,0,0,3,5,65,11
8,3,12,1,1,0,3,5,86,11
8,3,20,1,1,0,3,5,89,11
8,3,9,1,1,0,3,5,89,11
8,3,19,1,3,0,3,5,8,11
8,3,14,1,4,0,3,5,8,11
8,3,15,1,5,1,3,5,65,11
8,3,6,0,6,1,3,5,86,11
8,3,14,1,0,0,3,5,89,11
8,3,2,0,2,0,3,5,72,11
8,3,8,1,3,0,3,5,8,11
8,3,18,1,3,0,3,5,65,11
8,3,4,0,4,0,3,5,65,8
8,3,16,1,6,1,3,5,8,11
8,3,3,0,0,0,3,5,89,9
8,3,9,1,0,0,3,5,86,8
8,3,3,0,1,0,3,5,65,8
8,3,22,0,1,0,3,5,86,11
8,3,12,1,1,0,3,5,72,9
8,3,7,1,1,0,3,5,75,9
8,3,12,1,2,0,3,5,89,11
8,3,1,0,4,0,3,5,89,11
8,3,1,0,4,0,3,5,8,9
8,3,8,1,4,0,3,5,125,11
8,3,11,1,4,0,3,5,8,11
8,3,20,1,4,0,3,5,125,11
8,3,23,0,4,0,3,5,75,9
8,3,11,1,5,1,3,5,87,11
8,3,12,1,5,1,3,5,89,11
8,3,1,0,0,0,3,5,94,11
8,3,11,1,0,0,3,5,125,11
8,3,20,1,0,0,3,5,8,9
8,3,13,1,2,0,3,5,86,11
8,3,16,1,3,0,3,5,72,9
8,3,10,1,4,0,3,5,8,11
8,3,17,1,4,0,3,5,94,11
8,3,21,0,4,0,3,5,65,9
8,3,22,0,4,0,3,5,8,11
8,3,14,1,4,0,3,5,86,11
8,3,13,1,4,0,3,5,19,11
8,3,23,0,5,1,3,5,19,11
8,3,6,0,5,1,3,5,98,11
8,3,14,1,5,1,3,5,19,11
8,3,21,0,0,0,3,5,106,11
9,4,22,0,1,0,3,5,65,11
9,4,14,1,1,0,3,5,86,11
9,4,23,0,3,0,3,5,19,11
9,4,22,0,4,0,3,5,65,11
9,4,12,1,5,1,3,5,14,11
9,4,14,1,6,1,3,5,9,11
9,4,15,1,0,0,3,5,65,11
9,4,4,0,1,0,3,5,19,11
9,4,1,0,1,0,3,5,82,11
9,4,14,1,1,0,3,5,65,11
9,4,17,1,1,0,3,5,65,11
9,4,1,0,2,0,3,5,8,11
9,4,0,0,3,0,3,5,65,11
9,4,0,0,3,0,3,5,19,11
9,4,1,0,3,0,3,5,86,11
9,4,3,0,4,0,3,5,72,11
9,4,22,0,4,0,3,5,65,11
9,4,6,0,4,0,3,5,14,9
9,4,1,0,5,1,3,5,72,11
9,4,18,1,5,1,3,5,89,11
9,4,17,1,5,1,3,5,65,11
9,4,2,0,0,0,3,5,72,11
9,4,14,1,0,0,3,5,65,11
9,4,21,0,0,0,3,5,65,11
9,4,22,0,1,0,3,5,65,11
9,4,0,0,1,0,3,5,23,8
9,4,20,1,1,0,3,5,125,11
9,4,22,0,2,0,3,5,65,11
9,4,7,1,3,0,3,5,89,11
9,4,18,1,3,0,3,5,72,11
9,4,13,1,4,0,3,5,65,11
9,4,12,1,4,0,3,5,89,11
9,4,8,1,5,1,3,5,19,11
9,4,1,0,5,1,3,5,86,11
9,4,1,0,5,1,3,5,125,11
9,4,6,0,5,1,3,5,86,11
9,4,6,0,5,1,3,5,86,11
9,4,22,0,6,1,3,5,125,11
9,4,17,1,6,1,3,5,125,11
9,4,7,1,6,1,3,5,125,11
9,4,14,1,1,0,3,5,86,11
9,4,15,1,1,0,3,5,56,11
9,4,12,1,1,0,3,5,65,11
9,4,17,1,1,0,3,5,65,9
9,4,9,1,2,0,3,5,65,11
9,4,13,1,2,0,3,5,86,11
9,4,10,1,2,0,3,5,5,11
9,4,2,0,4,0,3,5,86,11
9,4,10,1,6,1,3,5,98,11
9,4,5,0,0,0,3,5,98,11
9,4,9,1,0,0,3,5,65,9
9,4,12,1,1,0,3,5,8,11
9,4,17,1,1,0,3,5,65,11
9,4,21,0,2,0,3,5,96,11
10,4,22,0,3,0,4,5,125,11
10,4,3,0,4,0,4,5,86,11
10,4,0,0,5,1,4,5,86,11
10,4,0,0,5,1,4,5,86,11
10,4,1,0,6,1,4,5,8,11
10,4,3,0,6,1,4,5,19,11
10,4,15,1,6,1,4,5,65,11
10,4,3,0,0,0,4,5,86,11
10,4,3,0,0,0,4,5,47,9
10,4,21,0,0,0,4,5,65,11
10,4,18,1,0,0,4,5,86,11
10,4,13,1,1,0,4,5,86,11
10,4,11,1,1,0,4,5,98,11
10,4,17,1,2,0,4,5,65,11
10,4,13,1,2,0,4,5,86,11
10,4,6,0,2,0,4,5,19,11
10,4,17,1,2,0,4,5,86,11
10,4,11,1,3,0,4,5,64,11
10,4,12,1,3,0,4,5,72,11
10,4,16,1,3,0,4,5,86,11
10,4,17,1,4,0,4,5,65,11
10,4,19,1,5,1,4,5,64,11
10,4,21,0,5,1,4,5,86,11
10,4,12,1,5,1,4,5,65,11
10,4,23,0,6,1,4,5,86,11
10,4,14,1,6,1,4,5,86,11
10,4,16,1,0,0,4,5,62,11
10,4,13,1,1,0,4,5,65,11
10,4,11,1,2,0,4,5,65,11
10,4,7,1,4,0,4,5,86,11
10,4,17,1,4,0,4,5,86,11
10,4,8,1,5,1,4,5,89,11
10,4,13,1,6,1,4,5,65,11
10,4,13,1,6,1,4,5,86,11
10,4,14,1,6,1,4,5,86,11
10,4,1,0,1,0,4,5,89,11
10,4,1,0,2,0,4,5,125,11
10,4,2,0,2,0,4,5,19,11
10,4,20,1,2,0,4,5,75,11
10,4,20,1,3,0,4,5,125,11
10,4,3,0,5,1,4,5,65,8
10,4,17,1,5,1,4,5,86,11
10,4,19,1,5,1,4,5,65,11
10,4,11,1,6,1,4,5,65,9
10,4,4,0,6,1,4,5,86,11
10,4,21,0,6,1,4,5,72,11
10,4,19,1,1,0,4,5,86,11
10,4,20,1,2,0,4,5,39,11
10,4,5,0,2,0,4,5,65,11
10,4,18,1,3,0,4,5,31,11
10,4,11,1,3,0,4,5,72,11
10,4,17,1,4,0,4,5,75,11
10,4,7,1,5,1,4,5,65,11
11,4,10,1,6,1,4,5,65,11
11,4,23,0,0,0,4,5,39,9
11,4,2,0,0,0,4,5,72,9
11,4,17,1,0,0,4,5,86,11
11,4,12,1,0,0,4,5,72,11
11,4,14,1,1,0,4,5,102,11
11,4,16,1,1,0,4,5,72,11
11,4,8,1,1,0,4,5,8,11
11,4,7,1,2,0,4,5,65,9
11,4,19,1,2,0,4,5,86,11
11,4,0,0,3,0,4,5,8,11
11,4,20,1,3,0,4,5,86,11
11,4,12,1,3,0,4,5,72,11
11,4,15,1,3,0,4,5,65,11
11,4,18,1,3,0,4,5,65,11
11,4,18,1,4,0,4,5,86,11
11,4,16,1,4,0,4,5,86,9
11,4,22,0,6,1,4,5,86,11
11,4,11,1,0,0,4,5,65,11
11,4,16,1,0,0,4,5,98,11
11,4,0,0,1,0,4,5,75,9
11,4,22,0,1,0,4,5,125,11
11,4,19,1,2,0,4,5,8,9
11,4,11,1,2,0,4,5,86,9
11,4,20,1,4,0,4,5,86,11
11,4,23,0,6,1,4,5,86,11
11,4,5,0,6,1,4,5,86,11
11,4,3,0,6,1,4,5,96,11
11,4,3,0,0,0,4,5,86,11
11,4,1,0,1,0,4,5,8,11
11,4,17,1,1,0,4,5,65,11
11,4,20,1,1,0,4,5,65,11
11,4,0,0,2,0,4,5,8,9
11,4,19,1,2,0,4,5,86,11
11,4,1,0,2,0,4,5,86,11
11,4,1,0,4,0,4,5,98,11
11,4,16,1,4,0,4,5,65,11
11,4,0,0,5,1,4,5,72,11
11,4,19,1,6,1,4,5,86,11
11,4,0,0,0,0,4,5,86,11
11,4,17,1,0,0,4,5,65,11
11,4,11,1,0,0,4,5,89,11
11,4,22,0,0,0,4,5,72,11
11,4,23,0,0,0,4,5,86,11
11,4,1,0,1,0,4,5,65,9
11,4,18,1,1,0,4,5,65,11
11,4,9,1,1,0,4,5,39,11
11,4,5,0,3,0,4,5,86,11
11,4,1,0,3,0,4,5,86,11
11,4,4,0,3,0,4,5,86,11
11,4,12,1,3,0,4,5,72,11
11,4,15,1,3,0,4,5,65,11
11,4,11,1,4,0,4,5,75,11
11,4,10,1,4,0,4,5,65,11
11,4,21,0,5,1,4,5,86,11
11,4,14,1,5,1,4,5,89,11
11,4,9,1,6,1,4,5,59,11
11,4,15,1,6,1,4,5,65,11
11,4,21,0,0,0,4,5,65,11
12,1,4,0,1,0,4,5,65,11
12,1,1,0,1,0,4,5,65,11
12,1,22,0,1,0,4,5,72,11
12,1,15,1,2,0,4,5,86,11
12,1,19,1,2,0,4,5,98,11
12,1,12,1,3,0,4,5,96,11
12,1,6,0,5,1,4,5,89,11
12,1,10,1,6,1,4,5,8,11
12,1,5,0,6,1,4,5,86,11
12,1,1,0,0,0,4,5,75,11
12,1,18,1,1,0,4,5,64,11
12,1,21,0,1,0,4,5,14,8
12,1,18,1,2,0,4,5,45,11
12,1,21,0,2,0,4,5,86,11
12,1,11,1,3,0,4,5,14,11
12,1,15,1,5,1,4,5,72,9
12,1,13,1,5,1,4,5,65,11
12,1,18,1,6,1,4,5,86,11
12,1,7,1,6,1,4,5,86,11
12,1,6,0,0,0,4,5,72,11
12,1,22,0,0,0,4,5,86,11
12,1,18,1,0,0,4,5,13,8
12,1,0,0,1,0,4,5,86,11
12,1,19,1,1,0,4,5,86,11
12,1,5,0,4,0,4,5,86,11
12,1,14,1,6,1,4,5,65,11
12,1,15,1,6,1,4,5,65,11
12,1,18,1,6,1,4,5,89,11
12,1,21,0,6,1,4,5,72,11
12,1,22,0,0,0,4,5,72,11
12,1,21,0,0,0,4,5,65,11
12,1,11,1,0,0,4,5,72,11
12,1,9,1,1,0,4,5,65,11
12,1,18,1,1,0,4,5,14,11
12,1,4,0,2,0,4,5,86,11
12,1,9,1,2,0,4,5,86,11
12,1,15,1,3,0,4,5,9,11
12,1,15,1,6,1,4,5,86,11
12,1,14,1,0,0,4,5,65,11
12,1,9,1,1,0,4,5,89,11
12,1,17,1,3,0,4,5,89,11
12,1,14,1,3,0,4,5,65,11
12,1,21,0,3,0,4,5,72,11
12,1,16,1,3,0,4,5,39,11
1,1,22,0,6,1,1,5,65,9
1,1,21,0,0,0,1,5,65,11
1,1,2,0,1,0,1,5,86,11
1,1,20,1,1,0,1,5,86,11
1,1,19,1,1,0,1,5,86,11
1,1,19,1,3,0,1,5,65,8
1,1,13,1,3,0,1,5,86,11
1,1,10,1,4,0,1,5,65,11
1,1,18,1,4,0,1,5,19,11
1,1,11,1,5,1,1,5,65,8
1,1,13,1,0,0,1,5,31,11
1,1,0,0,5,1,1,5,64,8
1,1,13,1,5,1,1,5,65,11
1,1,14,1,6,1,1,5,65,11
1,1,14,1,6,1,1,5,1,11
1,1,2,0,0,0,1,5,86,9
1,1,3,0,1,0,1,5,86,11
1,1,22,0,3,0,1,5,65,11
1,1,15,1,4,0,1,5,86,11
1,1,17,1,5,1,1,5,125,11
1,1,4,0,5,1,1,5,72,11
1,1,20,1,6,1,1,5,94,11
1,1,12,1,6,1,1,5,87,11
1,1,0,0,2,0,1,5,86,11
1,1,18,1,3,0,1,5,65,11
1,1,1,0,4,0,1,5,86,11
2,1,20,1,3,0,1,5,65,11
2,1,21,0,3,0,1,5,65,11
2,1,3,0,3,0,1,5,19,11
2,1,13,1,5,1,1,5,86,11
2,1,22,0,5,1,1,5,86,11
2,1,19,1,6,1,1,5,65,11
2,1,14,1,6,1,1,5,86,11
2,1,8,1,6,1,1,5,86,11
2,1,6,0,6,1,1,5,65,11
2,1,23,0,3,0,1,5,65,11
2,1,12,1,6,1,1,5,125,11
2,1,1,0,6,1,1,5,65,9
2,1,16,1,0,0,1,5,65,11
2,1,13,1,4,0,1,5,86,11
2,1,10,1,4,0,1,5,94,11
2,1,1,0,5,1,1,5,56,11
2,1,23,0,0,0,1,5,86,11
2,1,20,1,4,0,1,5,65,11
2,1,16,1,5,1,1,5,39,9
2,1,10,1,5,1,1,5,39,9
3,2,18,1,6,1,1,5,65,11
3,2,10,1,2,0,1,5,89,11
3,2,13,1,6,1,1,5,86,11
3,2,9,1,0,0,1,5,7,11
3,2,1,0,0,0,1,5,19,9
3,2,14,1,1,0,1,5,65,11
3,2,0,0,2,0,1,5,65,11
3,2,2,0,3,0,1,5,96,11
3,2,13,1,4,0,1,5,65,11
3,2,6,0,0,0,1,5,98,11
3,2,22,0,3,0,1,5,81,11
3,2,3,0,5,1,1,5,86,11
3,2,19,1,0,0,1,5,65,11
3,2,23,0,0,0,1,5,89,11
3,2,12,1,2,0,1,5,86,11
3,2,10,1,2,0,1,5,65,11
3,2,13,1,4,0,1,5,65,11
3,2,12,1,1,0,1,5,65,11
4,2,0,0,3,0,2,5,56,11
4,2,12,1,3,0,2,5,65,11
4,2,14,1,5,1,2,5,65,11
4,2,19,1,4,0,2,5,86,11
4,2,22,0,6,1,2,5,65,11
4,2,2,0,6,1,2,5,86,11
4,2,10,1,0,0,2,5,39,11
4,2,20,1,1,0,2,5,86,11
4,2,5,0,6,1,2,5,65,11
4,2,16,1,2,0,2,5,65,11
4,2,14,1,2,0,2,5,125,11
4,2,14,1,2,0,2,5,65,9
4,2,11,1,4,0,2,5,65,11
4,2,22,0,0,0,2,5,125,11
5,2,10,1,4,0,2,5,65,11
5,2,20,1,6,1,2,5,65,11
5,2,10,1,0,0,2,5,72,11
5,2,15,1,1,0,2,5,65,11
5,2,22,0,2,0,2,5,65,11
5,2,16,1,2,0,2,5,94,11
5,2,2,0,5,1,2,5,89,11
5,2,4,0,0,0,2,5,86,11
5,2,20,1,2,0,2,5,56,11
5,2,20,1,2,0,2,5,39,11
5,2,23,0,3,0,2,5,75,11
5,2,16,1,5,1,2,5,98,11
5,2,17,1,6,1,2,5,75,11
5,2,17,1,6,1,2,5,106,11
5,2,18,1,1,0,2,5,3,11
5,2,0,0,1,0,2,5,6,11
5,2,6,0,1,0,2,5,65,11
5,2,15,1,3,0,2,5,65,11
5,2,12,1,0,0,2,5,65,11
5,2,11,1,2,0,2,5,65,11
6,3,2,0,0,0,2,5,125,11
6,3,11,1,0,0,2,5,79,11
6,3,17,1,1,0,2,5,125,11
6,3,4,0,3,0,2,5,1,11
6,3,15,1,3,0,2,5,20,11
6,3,4,0,5,1,2,5,86,11
6,3,6,0,6,1,2,5,9,11
6,3,1,0,1,0,2,5,65,11
6,3,20,1,6,1,2,5,9,9
6,3,20,1,6,1,2,5,9,11
6,3,19,1,2,0,2,5,65,11
6,3,23,0,2,0,2,5,65,11
6,3,2,0,4,0,2,5,65,11
6,3,18,1,5,1,2,5,65,11
6,3,15,1,1,0,2,5,65,11
6,3,20,1,1,0,2,5,123,11
6,3,13,1,2,0,2,5,65,11
6,3,5,0,2,0,2,5,65,11
6,3,12,1,5,1,2,5,19,11
7,3,19,1,3,0,3,5,89,11
7,3,15,1,3,0,3,5,75,9
7,3,10,1,4,0,3,5,65,11
7,3,13,1,4,0,3,5,72,11
7,3,20,1,0,0,3,5,29,11
7,3,17,1,3,0,3,5,94,11
7,3,15,1,4,0,3,5,98,11
7,3,16,1,6,1,3,5,89,11
7,3,3,0,0,0,3,5,58,11
7,3,12,1,1,0,3,5,39,11
7,3,7,1,5,1,3,5,89,11
7,3,5,0,0,0,3,5,66,9
7,3,21,0,1,0,3,5,96,11
7,3,21,0,3,0,3,5,31,11
7,3,17,1,4,0,3,5,19,11
8,3,14,1,5,1,3,5,65,11
8,3,20,1,6,1,3,5,9,11
8,3,11,1,0,0,3,5,19,11
8,3,20,1,2,0,3,5,9,11
8,3,13,1,2,0,3,5,19,11
8,3,7,1,3,0,3,5,86,11
8,3,16,1,3,0,3,5,86,11
8,3,16,1,4,0,3,5,65,11
8,3,15,1,4,0,3,5,89,11
8,3,12,1,5,1,3,5,65,11
8,3,13,1,5,1,3,5,86,11
8,3,19,1,6,1,3,5,65,11
8,3,9,1,0,0,3,5,81,11
8,3,11,1,1,0,3,5,86,11
8,3,12,1,4,0,3,5,19,11
8,3,22,0,0,0,3,5,19,11
9,4,1,0,3,0,3,5,9,11
9,4,0,0,5,1,3,5,65,11
9,4,5,0,3,0,3,5,86,11
9,4,23,0,0,0,3,5,6,11
9,4,2,0,1,0,3,5,98,11
9,4,4,0,1,0,3,5,9,11
9,4,18,1,4,0,3,5,65,11
9,4,12,1,0,0,3,5,66,11
9,4,1,0,1,0,3,5,66,11
9,4,8,1,3,0,3,5,65,11
9,4,21,0,3,0,3,5,65,11
9,4,0,0,5,1,3,5,9,11
9,4,1,0,5,1,3,5,86,11
9,4,16,1,6,1,3,5,65,11
9,4,13,1,1,0,3,5,65,11
10,4,8,1,4,0,4,5,19,11
10,4,18,1,6,1,4,5,86,11
10,4,17,1,3,0,4,5,65,11
10,4,16,1,4,0,4,5,65,11
10,4,19,1,5,1,4,5,65,11
10,4,2,0,1,0,4,5,19,11
10,4,0,0,2,0,4,5,89,11
10,4,18,1,2,0,4,5,65,11
10,4,11,1,2,0,4,5,39,11
10,4,7,1,5,1,4,5,86,11
10,4,6,0,5,1,4,5,86,11
10,4,2,0,5,1,4,5,86,11
10,4,12,1,6,1,4,5,86,11
10,4,10,1,0,0,4,5,86,11
10,4,10,1,1,0,4,5,65,11
10,4,19,1,1,0,4,5,86,11
10,4,13,1,2,0,4,5,86,11
11,4,17,1,6,1,4,5,65,11
11,4,23,0,3,0,4,5,86,11
11,4,18,1,4,0,4,5,9,8
11,4,0,0,4,0,4,5,86,11
11,4,1,0,0,0,4,5,86,11
11,4,10,1,3,0,4,5,65,11
11,4,22,0,3,0,4,5,65,11
11,4,22,0,5,1,4,5,65,11
11,4,5,0,6,1,4,5,65,9
11,4,0,0,1,0,4,5,86,11
11,4,20,1,4,0,4,5,65,11
11,4,4,0,6,1,4,5,95,11
11,4,19,1,6,1,4,5,75,11
11,4,14,1,0,0,4,5,65,11
11,4,10,1,0,0,4,5,64,11
11,4,19,1,4,0,4,5,72,11
11,4,21,0,5,1,4,5,65,11
11,4,14,1,5,1,4,5,39,11
12,1,12,1,2,0,4,5,86,11
12,1,12,1,1,0,4,5,103,11
12,1,18,1,1,0,4,5,86,11
12,1,10,1,2,0,4,5,65,11
12,1,1,0,6,1,4,5,47,11
12,1,20,1,0,0,4,5,65,11
12,1,19,1,2,0,4,5,65,11
12,1,21,0,2,0,4,5,9,11
12,1,19,1,2,0,4,5,65,11
12,1,20,1,3,0,4,5,65,11
12,1,9,1,4,0,4,5,86,11
12,1,19,1,5,1,4,5,86,11
12,1,19,1,6,1,4,5,65,11
12,1,18,1,0,0,4,5,86,11
12,1,4,0,0,0,4,5,86,11
12,1,10,1,2,0,4,5,65,11
12,1,9,1,4,0,4,5,86,11
12,1,14,1,4,0,4,5,65,11
12,1,18,1,4,0,4,5,86,11
12,1,10,1,5,1,4,5,65,11
12,1,22,0,0,0,4,5,86,11
12,1,20,1,0,0,4,5,86,11
12,1,20,1,0,0,4,5,86,11
12,1,13,1,2,0,4,5,86,11
1,1,1,0,2,0,1,5,89,11
1,1,14,1,2,0,1,5,89,11
1,1,14,1,5,1,1,5,73,11
1,1,23,0,1,0,1,5,86,11
1,1,14,1,3,0,1,5,94,11
2,1,14,1,2,0,1,5,89,11
3,2,17,1,6,1,1,5,89,11
4,2,13,1,4,0,2,5,89,11
5,2,20,1,0,0,2,5,65,11
7,3,12,1,5,1,3,5,86,11
7,3,6,0,0,0,3,5,98,11
8,3,17,1,3,0,3,5,89,11
10,4,11,1,1,0,4,5,86,11
10,4,13,1,5,1,4,5,98,11
11,4,19,1,0,0,4,5,19,11
11,4,14,1,0,0,4,5,75,11
11,4,10,1,5,1,4,5,89,11
11,4,11,1,0,0,4,5,125,11
11,4,21,0,3,0,4,5,75,11
1,1,13,1,2,0,1,5,94,11
1,1,19,1,3,0,1,5,65,11
1,1,22,0,4,0,1,5,65,11
1,1,15,1,4,0,1,5,65,11
1,1,20,1,6,1,1,5,94,11
1,1,13,1,6,1,1,5,65,11
1,1,21,0,1,0,1,5,65,11
1,1,3,0,1,0,1,5,19,11
1,1,19,1,2,0,1,5,65,11
1,1,1,0,3,0,1,5,86,11
1,1,7,1,0,0,1,5,65,11
1,1,7,1,1,0,1,5,72,11
1,1,13,1,3,0,1,5,65,11
1,1,17,1,5,1,1,5,65,11
1,1,0,0,5,1,1,5,94,11
1,1,2,0,6,1,1,5,94,11
1,1,20,1,0,0,1,5,65,11
1,1,14,1,2,0,1,5,94,11
1,1,14,1,6,1,1,5,86,11
1,1,14,1,6,1,1,5,72,11
1,1,11,1,1,0,1,5,94,11
2,1,23,0,5,1,1,5,19,11
2,1,23,0,0,0,1,5,94,11
2,1,0,0,1,0,1,5,94,11
2,1,20,1,2,0,1,5,65,11
2,1,7,1,3,0,1,5,65,8
2,1,22,0,3,0,1,5,65,11
2,1,12,1,3,0,1,5,65,11
2,1,14,1,0,0,1,5,31,11
2,1,5,0,2,0,1,5,65,11
2,1,21,0,3,0,1,5,86,11
2,1,5,0,4,0,1,5,96,11
2,1,4,0,2,0,1,5,94,11
2,1,2,0,3,0,1,5,19,11
2,1,13,1,3,0,1,5,42,11
2,1,1,0,6,1,1,5,86,11
2,1,2,0,0,0,1,5,49,11
3,2,16,1,6,1,1,5,19,11
3,2,10,1,3,0,1,5,42,11
3,2,22,0,3,0,1,5,86,11
3,2,1,0,5,1,1,5,86,11
3,2,1,0,5,1,1,5,86,11
3,2,1,0,5,1,1,5,86,11
3,2,2,0,5,1,1,5,86,11
3,2,2,0,2,0,1,5,94,11
3,2,3,0,4,0,1,5,94,11
3,2,22,0,4,0,1,5,94,11
3,2,12,1,6,1,1,5,65,11
3,2,15,1,0,0,1,5,94,11
3,2,17,1,0,0,1,5,89,11
3,2,21,0,0,0,1,5,94,11
3,2,22,0,1,0,1,5,94,11
3,2,16,1,2,0,1,5,65,11
3,2,21,0,2,0,1,5,94,11
3,2,19,1,3,0,1,5,77,11
3,2,2,0,5,1,1,5,86,11
3,2,6,0,6,1,1,5,94,11
4,2,21,0,3,0,2,5,94,11
4,2,1,0,1,0,2,5,94,11
4,2,21,0,2,0,2,5,94,11
4,2,4,0,2,0,2,5,94,11
4,2,18,1,5,1,2,5,94,11
4,2,23,0,0,0,2,5,94,11
4,2,19,1,4,0,2,5,94,11
4,2,12,1,2,0,2,5,98,11
4,2,17,1,3,0,2,5,94,11
5,2,16,1,6,1,2,5,98,11
5,2,0,0,1,0,2,5,86,11
5,2,1,0,1,0,2,5,86,11
5,2,0,0,2,0,2,5,94,11
5,2,16,1,1,0,2,5,19,11
5,2,22,0,5,1,2,5,65,11
5,2,16,1,5,1,2,5,65,11
5,2,23,0,0,0,2,5,75,9
5,2,12,1,1,0,2,5,86,11
5,2,4,0,1,0,2,5,94,11
5,2,3,0,3,0,2,5,94,11
5,2,23,0,4,0,2,5,65,11
5,2,20,1,6,1,2,5,65,8
5,2,17,1,2,0,2,5,14,11
5,2,11,1,2,0,2,5,19,11
5,2,2,0,5,1,2,5,125,11
5,2,23,0,6,1,2,5,19,11
6,3,9,1,0,0,2,5,65,11
6,3,2,0,0,0,2,5,94,11
6,3,4,0,1,0,2,5,94,11
6,3,10,1,3,0,2,5,65,11
6,3,2,0,5,1,2,5,19,11
6,3,3,0,0,0,2,5,125,11
6,3,5,0,0,0,2,5,94,11
6,3,1,0,2,0,2,5,94,11
6,3,18,1,4,0,2,5,94,11
6,3,15,1,4,0,2,5,89,11
6,3,3,0,5,1,2,5,94,11
6,3,5,0,5,1,2,5,94,11
6,3,5,0,5,1,2,5,94,11
6,3,7,1,5,1,2,5,95,11
6,3,3,0,0,0,2,5,94,11
6,3,18,1,3,0,2,5,19,11
6,3,3,0,3,0,2,5,94,11
6,3,1,0,3,0,2,5,94,11
6,3,22,0,4,0,2,5,94,11
6,3,3,0,5,1,2,5,94,11
6,3,17,1,5,1,2,5,65,11
6,3,4,0,6,1,2,5,94,11
6,3,7,1,0,0,2,5,123,11
6,3,18,1,0,0,2,5,104,11
6,3,2,0,2,0,2,5,94,11
6,3,9,1,3,0,2,5,72,11
6,3,5,0,4,0,2,5,113,11
6,3,20,1,5,1,2,5,94,11
6,3,2,0,5,1,2,5,94,11
6,3,20,1,5,1,2,5,125,11
7,3,2,0,3,0,3,5,94,11
7,3,12,1,4,0,3,5,94,11
7,3,4,0,6,1,3,5,94,11
7,3,3,0,0,0,3,5,94,11
7,3,0,0,3,0,3,5,47,11
7,3,1,0,3,0,3,5,86,11
7,3,19,1,5,1,3,5,89,11
7,3,19,1,5,1,3,5,65,11
7,3,9,1,1,0,3,5,94,11
7,3,13,1,2,0,3,5,23,11
7,3,14,1,3,0,3,5,56,11
7,3,4,0,3,0,3,5,31,8
7,3,5,0,3,0,3,5,65,11
7,3,10,1,4,0,3,5,47,11
7,3,19,1,6,1,3,5,65,11
7,3,7,1,0,0,3,5,54,11
7,3,8,1,0,0,3,5,65,11
7,3,11,1,0,0,3,5,47,11
7,3,21,0,1,0,3,5,94,11
7,3,18,1,4,0,3,5,65,11
7,3,18,1,4,0,3,5,65,11
8,3,2,0,1,0,3,5,89,11
8,3,21,0,6,1,3,5,65,11
8,3,9,1,0,0,3,5,65,11
8,3,21,0,3,0,3,5,77,11
8,3,17,1,0,0,3,5,19,11
8,3,6,0,5,1,3,5,94,9
9,4,5,0,1,0,3,5,94,11
9,4,6,0,5,1,3,5,65,8
9,4,19,1,6,1,3,5,94,11
9,4,14,1,0,0,3,5,86,11
9,4,0,0,1,0,3,5,65,11
9,4,0,0,3,0,3,5,72,11
9,4,23,0,5,1,3,5,94,11
9,4,12,1,6,1,3,5,94,11
9,4,10,1,6,1,3,5,94,11
9,4,13,1,1,0,3,5,65,11
10,4,15,1,3,0,4,5,65,11
10,4,13,1,4,0,4,5,65,11
10,4,1,0,0,0,4,5,94,11
10,4,4,0,0,0,4,5,94,11
10,4,4,0,0,0,4,5,94,11
10,4,22,0,2,0,4,5,94,11
10,4,23,0,6,1,4,5,65,11
10,4,3,0,1,0,4,5,19,11
10,4,5,0,3,0,4,5,94,11
10,4,14,1,5,1,4,5,47,11
10,4,16,1,5,1,4,5,65,11
10,4,1,0,0,0,4,5,65,11
10,4,20,1,1,0,4,5,94,11
10,4,3,0,2,0,4,5,72,11
10,4,17,1,3,0,4,5,94,11
11,4,2,0,1,0,4,5,94,11
11,4,5,0,3,0,4,5,72,11
11,4,11,1,3,0,4,5,65,11
11,4,22,0,3,0,4,5,125,11
11,4,22,0,3,0,4,5,125,11
11,4,23,0,3,0,4,5,125,11
11,4,23,0,3,0,4,5,125,11
11,4,5,0,6,1,4,5,86,11
11,4,16,1,0,0,4,5,65,11
11,4,22,0,1,0,4,5,39,9
11,4,13,1,4,0,4,5,72,11
11,4,10,1,6,1,4,5,75,9
12,1,22,0,6,1,4,5,125,11
12,1,10,1,6,1,4,5,47,11
12,1,14,1,2,0,4,5,65,9
12,1,22,0,0,0,4,5,65,11
12,1,0,0,2,0,4,5,94,11
12,1,0,0,4,0,4,5,39,11
12,1,11,1,6,1,4,5,94,11
12,1,12,1,0,0,4,5,65,11
1,1,4,0,2,0,1,5,98,11
1,1,17,1,3,0,1,5,39,11
1,1,17,1,5,1,1,5,98,11
1,1,3,0,6,1,1,5,98,11
1,1,1,0,6,1,1,5,72,11
1,1,4,0,4,0,1,5,98,11
1,1,16,1,4,0,1,5,39,11
1,1,11,1,5,1,1,5,98,11
1,1,3,0,5,1,1,5,98,11
1,1,10,1,6,1,1,5,89,11
1,1,5,0,6,1,1,5,98,11
1,1,2,0,6,1,1,5,98,11
1,1,18,1,0,0,1,5,98,11
1,1,16,1,0,0,1,5,98,11
1,1,0,0,1,0,1,5,98,11
1,1,12,1,1,0,1,5,98,11
1,1,12,1,1,0,1,5,98,11
1,1,22,0,1,0,1,5,98,11
1,1,11,1,3,0,1,5,89,11
1,1,23,0,3,0,1,5,98,11
1,1,11,1,3,0,1,5,98,11
1,1,1,0,4,0,1,5,98,11
1,1,16,1,6,1,1,5,98,11
1,1,15,1,6,1,1,5,89,11
1,1,0,0,0,0,1,5,98,11
1,1,2,0,1,0,1,5,98,11
1,1,12,1,1,0,1,5,98,11
1,1,10,1,1,0,1,5,75,11
1,1,22,0,1,0,1,5,98,11
1,1,1,0,3,0,1,5,98,11
1,1,1,0,3,0,1,5,98,11
1,1,21,0,3,0,1,5,98,11
1,1,13,1,3,0,1,5,89,11
1,1,10,1,3,0,1,5,89,11
1,1,10,1,5,1,1,5,98,11
1,1,0,0,5,1,1,5,98,11
1,1,19,1,6,1,1,5,89,11
1,1,22,0,1,0,1,5,65,11
1,1,9,1,3,0,1,5,39,11
1,1,20,1,3,0,1,5,98,11
1,1,13,1,3,0,1,5,89,11
1,1,0,0,4,0,1,5,98,11
1,1,17,1,4,0,1,5,89,11
2,1,16,1,6,1,1,5,124,11
2,1,19,1,6,1,1,5,98,11
2,1,19,1,0,0,1,5,98,11
2,1,0,0,3,0,1,5,72,11
2,1,12,1,3,0,1,5,65,11
2,1,9,1,3,0,1,5,89,11
2,1,14,1,4,0,1,5,89,11
2,1,22,0,5,1,1,5,39,11
2,1,14,1,6,1,1,5,89,11
2,1,20,1,6,1,1,5,98,11
2,1,3,0,0,0,1,5,98,11
2,1,22,0,0,0,1,5,72,11
2,1,2,0,1,0,1,5,98,11
2,1,2,0,1,0,1,5,98,11
2,1,19,1,2,0,1,5,98,11
2,1,12,1,3,0,1,5,98,11
2,1,19,1,4,0,1,5,89,11
2,1,18,1,4,0,1,5,98,11
2,1,17,1,5,1,1,5,98,11
2,1,0,0,6,1,1,5,98,11
2,1,10,1,6,1,1,5,89,11
2,1,20,1,6,1,1,5,89,11
2,1,10,1,0,0,1,5,36,11
2,1,1,0,0,0,1,5,98,11
2,1,17,1,0,0,1,5,89,11
2,1,19,1,0,0,1,5,89,11
2,1,21,0,0,0,1,5,98,11
2,1,18,1,1,0,1,5,89,11
2,1,22,0,1,0,1,5,98,11
2,1,0,0,2,0,1,5,89,11
2,1,18,1,6,1,1,5,89,11
2,1,0,0,6,1,1,5,98,11
2,1,8,1,1,0,1,5,98,11
2,1,13,1,1,0,1,5,98,11
2,1,10,1,1,0,1,5,56,11
2,1,15,1,1,0,1,5,89,11
2,1,9,1,3,0,1,5,89,11
2,1,2,0,4,0,1,5,86,11
2,1,20,1,4,0,1,5,86,11
2,1,8,1,5,1,1,5,89,11
3,2,12,1,6,1,1,5,39,11
3,2,15,1,4,0,1,5,75,11
3,2,20,1,4,0,1,5,62,11
3,2,12,1,5,1,1,5,45,11
3,2,19,1,5,1,1,5,89,11
3,2,11,1,5,1,1,5,89,11
3,2,21,0,6,1,1,5,98,11
3,2,17,1,2,0,1,5,89,11
3,2,12,1,2,0,1,5,98,11
3,2,5,0,3,0,1,5,89,11
3,2,1,0,3,0,1,5,89,11
3,2,17,1,3,0,1,5,98,11
3,2,14,1,4,0,1,5,98,11
3,2,20,1,5,1,1,5,89,11
3,2,22,0,5,1,1,5,98,11
3,2,12,1,6,1,1,5,89,11
3,2,19,1,0,0,1,5,89,11
3,2,13,1,4,0,1,5,64,11
3,2,15,1,6,1,1,5,39,11
3,2,18,1,2,0,1,5,39,11
3,2,14,1,5,1,1,5,75,11
3,2,10,1,6,1,1,5,89,11
3,2,20,1,1,0,1,5,39,11
4,2,6,0,2,0,2,5,89,11
4,2,22,0,3,0,2,5,98,11
4,2,13,1,1,0,2,5,39,11
4,2,12,1,2,0,2,5,98,11
4,2,21,0,2,0,2,5,23,8
4,2,15,1,3,0,2,5,89,11
4,2,22,0,3,0,2,5,89,11
4,2,13,1,1,0,2,5,89,11
4,2,16,1,3,0,2,5,75,11
4,2,21,0,0,0,2,5,65,11
4,2,15,1,1,0,2,5,89,11
4,2,11,1,1,0,2,5,89,11
4,2,2,0,3,0,2,5,86,11
4,2,15,1,3,0,2,5,89,11
4,2,10,1,5,1,2,5,89,11
4,2,11,1,5,1,2,5,86,11
4,2,13,1,6,1,2,5,89,11
4,2,0,0,6,1,2,5,89,11
4,2,12,1,6,1,2,5,89,11
4,2,9,1,0,0,2,5,89,11
4,2,19,1,0,0,2,5,89,11
4,2,16,1,3,0,2,5,89,11
5,2,16,1,4,0,2,5,89,11
5,2,22,0,5,1,2,5,89,11
5,2,21,0,5,1,2,5,64,11
5,2,19,1,5,1,2,5,89,11
5,2,21,0,6,1,2,5,89,11
5,2,11,1,0,0,2,5,46,11
5,2,12,1,1,0,2,5,89,11
5,2,12,1,1,0,2,5,98,11
5,2,14,1,2,0,2,5,89,11
5,2,18,1,2,0,2,5,89,11
5,2,20,1,4,0,2,5,89,11
5,2,20,1,4,0,2,5,89,11
5,2,6,0,6,1,2,5,98,11
5,2,14,1,6,1,2,5,89,11
5,2,22,0,0,0,2,5,89,11
5,2,12,1,1,0,2,5,89,11
5,2,0,0,2,0,2,5,89,11
5,2,21,0,2,0,2,5,89,11
5,2,20,1,3,0,2,5,89,11
5,2,13,1,3,0,2,5,89,11
5,2,21,0,4,0,2,5,89,11
5,2,11,1,4,0,2,5,89,11
5,2,23,0,5,1,2,5,89,11
5,2,0,0,5,1,2,5,89,11
5,2,20,1,1,0,2,5,89,11
5,2,17,1,1,0,2,5,89,11
5,2,0,0,1,0,2,5,89,11
5,2,14,1,2,0,2,5,89,11
5,2,18,1,2,0,2,5,89,11
5,2,17,1,3,0,2,5,89,11
5,2,19,1,5,1,2,5,89,11
5,2,18,1,5,1,2,5,89,11
5,2,2,0,5,1,2,5,98,11
5,2,0,0,5,1,2,5,19,11
5,2,18,1,6,1,2,5,89,11
5,2,11,1,6,1,2,5,89,11
5,2,3,0,1,0,2,5,86,11
5,2,4,0,6,1,2,5,98,11
5,2,21,0,6,1,2,5,89,11
6,3,15,1,3,0,2,5,9,11
6,3,23,0,6,1,2,5,89,11
6,3,14,1,6,1,2,5,89,11
6,3,0,0,1,0,2,5,89,11
6,3,17,1,1,0,2,5,89,11
6,3,0,0,2,0,2,5,89,11
6,3,13,1,2,0,2,5,89,11
6,3,23,0,2,0,2,5,89,11
6,3,12,1,3,0,2,5,89,11
6,3,17,1,3,0,2,5,89,11
6,3,14,1,3,0,2,5,72,11
6,3,13,1,3,0,2,5,89,11
6,3,18,1,3,0,2,5,89,11
6,3,18,1,4,0,2,5,89,11
6,3,18,1,4,0,2,5,89,11
6,3,19,1,4,0,2,5,89,11
6,3,20,1,4,0,2,5,89,11
6,3,21,0,4,0,2,5,89,11
6,3,21,0,5,1,2,5,89,11
6,3,23,0,5,1,2,5,89,11
6,3,11,1,5,1,2,5,89,11
6,3,18,1,5,1,2,5,89,11
6,3,18,1,6,1,2,5,89,11
6,3,17,1,6,1,2,5,89,11
6,3,18,1,6,1,2,5,89,11
6,3,13,1,6,1,2,5,89,11
6,3,19,1,0,0,2,5,72,11
6,3,21,0,0,0,2,5,89,11
6,3,11,1,1,0,2,5,89,11
6,3,22,0,1,0,2,5,89,11
6,3,22,0,1,0,2,5,89,11
6,3,1,0,2,0,2,5,89,11
6,3,2,0,2,0,2,5,89,11
6,3,19,1,2,0,2,5,8,11
6,3,18,1,3,0,2,5,89,11
6,3,0,0,3,0,2,5,89,11
6,3,16,1,3,0,2,5,89,11
6,3,2,0,4,0,2,5,89,11
6,3,20,1,5,1,2,5,89,11
6,3,23,0,5,1,2,5,89,11
6,3,13,1,5,1,2,5,23,9
6,3,2,0,6,1,2,5,89,11
6,3,15,1,6,1,2,5,89,11
6,3,9,1,6,1,2,5,89,11
6,3,3,0,0,0,2,5,86,11
6,3,17,1,1,0,2,5,89,11
6,3,16,1,2,0,2,5,89,11
6,3,16,1,3,0,2,5,89,11
6,3,22,0,4,0,2,5,86,11
6,3,11,1,5,1,2,5,89,11
6,3,22,0,5,1,2,5,89,11
6,3,21,0,6,1,2,5,89,11
6,3,16,1,6,1,2,5,89,11
6,3,17,1,6,1,2,5,64,11
6,3,10,1,6,1,2,5,89,11
6,3,13,1,0,0,2,5,98,11
7,3,15,1,2,0,3,5,89,11
7,3,2,0,3,0,3,5,89,11
7,3,10,1,3,0,3,5,89,11
7,3,1,0,4,0,3,5,89,11
7,3,9,1,4,0,3,5,65,11
7,3,20,1,5,1,3,5,89,11
7,3,1,0,1,0,3,5,89,11
7,3,1,0,1,0,3,5,89,11
7,3,3,0,1,0,3,5,89,11
7,3,18,1,1,0,3,5,89,11
7,3,18,1,1,0,3,5,89,11
7,3,14,1,2,0,3,5,89,11
7,3,1,0,3,0,3,5,89,11
7,3,22,0,4,0,3,5,89,11
7,3,14,1,4,0,3,5,89,11
7,3,18,1,4,0,3,5,89,11
7,3,13,1,5,1,3,5,89,11
7,3,0,0,5,1,3,5,89,11
7,3,18,1,5,1,3,5,89,11
7,3,15,1,6,1,3,5,19,11
7,3,15,1,6,1,3,5,89,11
7,3,15,1,6,1,3,5,89,11
7,3,11,1,6,1,3,5,89,11
7,3,16,1,0,0,3,5,89,11
7,3,22,0,0,0,3,5,19,11
7,3,23,0,1,0,3,5,98,11
7,3,23,0,1,0,3,5,94,11
7,3,21,0,1,0,3,5,89,11
7,3,20,1,1,0,3,5,98,11
7,3,16,1,2,0,3,5,89,11
7,3,21,0,2,0,3,5,98,11
7,3,19,1,2,0,3,5,89,11
7,3,16,1,2,0,3,5,89,11
7,3,21,0,3,0,3,5,89,11
7,3,14,1,3,0,3,5,89,11
7,3,11,1,3,0,3,5,89,11
7,3,18,1,4,0,3,5,89,11
7,3,14,1,6,1,3,5,89,11
7,3,13,1,6,1,3,5,89,11
7,3,20,1,0,0,3,5,98,11
7,3,12,1,0,0,3,5,72,11
7,3,9,1,1,0,3,5,98,11
7,3,12,1,1,0,3,5,98,11
7,3,15,1,1,0,3,5,45,8
7,3,12,1,2,0,3,5,8,11
7,3,16,1,4,0,3,5,89,11
7,3,9,1,4,0,3,5,89,11
7,3,14,1,5,1,3,5,89,11
7,3,8,1,5,1,3,5,89,11
7,3,19,1,5,1,3,5,89,11
7,3,16,1,6,1,3,5,98,11
7,3,0,0,6,1,3,5,89,11
7,3,10,1,6,1,3,5,72,11
7,3,0,0,0,0,3,5,89,11
7,3,20,1,0,0,3,5,89,11
7,3,15,1,0,0,3,5,108,11
7,3,9,1,1,0,3,5,89,11
7,3,17,1,1,0,3,5,89,11
7,3,15,1,1,0,3,5,89,11
7,3,11,1,1,0,3,5,89,11
7,3,9,1,1,0,3,5,89,11
7,3,1,0,3,0,3,5,89,11
7,3,15,1,3,0,3,5,89,11
7,3,14,1,3,0,3,5,89,11
7,3,0,0,4,0,3,5,89,11
7,3,0,0,4,0,3,5,75,11
7,3,5,0,4,0,3,5,98,11
8,3,14,1,5,1,3,5,89,11
8,3,19,1,6,1,3,5,98,11
8,3,23,0,6,1,3,5,19,11
8,3,20,1,0,0,3,5,89,11
8,3,20,1,1,0,3,5,94,11
8,3,19,1,1,0,3,5,89,11
8,3,19,1,2,0,3,5,98,11
8,3,23,0,3,0,3,5,89,11
8,3,14,1,6,1,3,5,8,11
8,3,12,1,6,1,3,5,89,11
8,3,8,1,1,0,3,5,23,11
8,3,7,1,1,0,3,5,19,11
8,3,12,1,2,0,3,5,72,11
8,3,18,1,2,0,3,5,89,11
8,3,6,0,5,1,3,5,45,8
8,3,11,1,1,0,3,5,89,11
8,3,10,1,1,0,3,5,89,11
8,3,20,1,5,1,3,5,89,11
8,3,2,0,5,1,3,5,19,11
8,3,17,1,6,1,3,5,89,11
8,3,2,0,1,0,3,5,89,11
8,3,23,0,1,0,3,5,89,11
8,3,17,1,2,0,3,5,89,11
8,3,15,1,5,1,3,5,89,11
8,3,15,1,6,1,3,5,89,11
8,3,1,0,0,0,3,5,89,11
9,4,20,1,1,0,3,5,89,11
9,4,21,0,2,0,3,5,89,11
9,4,6,0,2,0,3,5,75,11
9,4,19,1,2,0,3,5,89,11
9,4,9,1,3,0,3,5,72,11
9,4,12,1,3,0,3,5,89,11
9,4,2,0,4,0,3,5,19,11
9,4,14,1,4,0,3,5,89,11
9,4,1,0,4,0,3,5,19,11
9,4,9,1,6,1,3,5,89,11
9,4,17,1,6,1,3,5,89,11
9,4,17,1,6,1,3,5,75,11
9,4,3,0,0,0,3,5,86,11
9,4,23,0,1,0,3,5,89,11
9,4,14,1,1,0,3,5,89,11
9,4,4,0,2,0,3,5,89,11
9,4,5,0,2,0,3,5,89,11
9,4,13,1,3,0,3,5,89,11
9,4,15,1,3,0,3,5,89,11
9,4,3,0,5,1,3,5,86,11
9,4,2,0,6,1,3,5,89,11
9,4,8,1,2,0,3,5,31,11
9,4,22,0,3,0,3,5,89,11
9,4,16,1,3,0,3,5,89,11
9,4,20,1,6,1,3,5,125,11
9,4,21,0,1,0,3,5,65,11
9,4,2,0,4,0,3,5,86,11
9,4,9,1,4,0,3,5,98,11
9,4,11,1,4,0,3,5,98,11
9,4,22,0,4,0,3,5,125,11
9,4,15,1,6,1,3,5,89,11
9,4,8,1,6,1,3,5,89,11
9,4,17,1,1,0,3,5,55,11
10,4,12,1,4,0,4,5,89,11
10,4,6,0,5,1,4,5,98,11
10,4,23,0,0,0,4,5,125,11
10,4,19,1,2,0,4,5,55,11
10,4,17,1,2,0,4,5,89,11
10,4,2,0,2,0,4,5,98,11
10,4,22,0,3,0,4,5,72,11
10,4,18,1,4,0,4,5,72,11
10,4,23,0,4,0,4,5,125,11
10,4,23,0,4,0,4,5,125,11
10,4,18,1,5,1,4,5,98,11
10,4,22,0,5,1,4,5,55,11
10,4,18,1,5,1,4,5,39,11
10,4,3,0,6,1,4,5,72,11
10,4,1,0,1,0,4,5,89,11
10,4,18,1,1,0,4,5,98,11
10,4,1,0,2,0,4,5,72,11
10,4,2,0,5,1,4,5,89,11
10,4,5,0,6,1,4,5,47,11
10,4,1,0,2,0,4,5,72,11
10,4,8,1,4,0,4,5,89,11
10,4,19,1,4,0,4,5,72,11
10,4,22,0,4,0,4,5,89,11
10,4,8,1,4,0,4,5,8,11
10,4,0,0,5,1,4,5,89,11
10,4,12,1,6,1,4,5,8,11
10,4,2,0,2,0,4,5,72,11
10,4,1,0,3,0,4,5,98,11
10,4,2,0,3,0,4,5,72,11
10,4,7,1,3,0,4,5,8,11
10,4,16,1,4,0,4,5,76,11
10,4,18,1,5,1,4,5,125,11
11,4,23,0,6,1,4,5,89,11
11,4,11,1,2,0,4,5,89,11
11,4,6,0,0,0,4,5,125,11
11,4,21,0,0,0,4,5,45,11
11,4,21,0,2,0,4,5,125,11
11,4,18,1,3,0,4,5,125,11
11,4,12,1,3,0,4,5,89,11
11,4,1,0,4,0,4,5,98,11
11,4,17,1,4,0,4,5,89,11
11,4,21,0,5,1,4,5,125,11
11,4,20,1,6,1,4,5,98,11
11,4,18,1,6,1,4,5,125,11
11,4,12,1,6,1,4,5,98,11
11,4,15,1,0,0,4,5,89,11
11,4,19,1,0,0,4,5,75,11
11,4,13,1,2,0,4,5,98,11
11,4,16,1,2,0,4,5,125,11
11,4,3,0,2,0,4,5,125,11
11,4,19,1,4,0,4,5,89,11
11,4,0,0,0,0,4,5,89,11
11,4,9,1,0,0,4,5,98,11
11,4,16,1,0,0,4,5,55,11
11,4,21,0,2,0,4,5,89,11
11,4,23,0,2,0,4,5,89,11
11,4,19,1,3,0,4,5,39,11
11,4,18,1,3,0,4,5,89,11
11,4,11,1,3,0,4,5,89,11
11,4,7,1,4,0,4,5,8,11
11,4,17,1,4,0,4,5,23,11
11,4,23,0,4,0,4,5,125,11
11,4,19,1,4,0,4,5,89,11
11,4,11,1,5,1,4,5,89,11
11,4,21,0,5,1,4,5,98,11
11,4,12,1,6,1,4,5,72,11
11,4,17,1,6,1,4,5,89,11
12,1,16,1,2,0,4,5,75,11
12,1,17,1,3,0,4,5,89,11
12,1,23,0,6,1,4,5,125,11
12,1,20,1,0,0,4,5,8,11
12,1,13,1,3,0,4,5,39,11
12,1,1,0,0,0,4,5,72,11
12,1,5,0,2,0,4,5,72,11
12,1,10,1,3,0,4,5,65,11
12,1,7,1,4,0,4,5,47,11
12,1,20,1,6,1,4,5,125,11
12,1,6,0,2,0,4,5,75,11
12,1,20,1,3,0,4,5,125,11
12,1,6,0,3,0,4,5,125,11
12,1,23,0,4,0,4,5,75,11
12,1,0,0,5,1,4,5,72,11
12,1,15,1,5,1,4,5,89,11
12,1,0,0,6,1,4,5,65,11
12,1,13,1,1,0,4,5,75,11
1,1,20,1,2,0,1,5,86,11
1,1,12,1,2,0,1,5,65,11
1,1,15,1,4,0,1,5,75,11
1,1,13,1,6,1,1,5,86,11
1,1,14,1,6,1,1,5,65,8
1,1,13,1,0,0,1,5,86,11
1,1,13,1,0,0,1,5,86,11
1,1,20,1,3,0,1,5,86,11
1,1,2,0,4,0,1,5,86,11
1,1,3,0,4,0,1,5,86,11
1,1,1,0,4,0,1,5,86,11
1,1,11,1,5,1,1,5,19,11
1,1,19,1,1,0,1,5,39,11
1,1,2,0,1,0,1,5,72,11
1,1,13,1,3,0,1,5,65,11
1,1,0,0,5,1,1,5,86,11
1,1,23,0,5,1,1,5,65,11
1,1,17,1,5,1,1,5,65,11
1,1,11,1,5,1,1,5,75,11
1,1,21,0,6,1,1,5,65,8
1,1,23,0,2,0,1,5,65,11
1,1,21,0,2,0,1,5,86,11
1,1,2,0,2,0,1,5,19,11
1,1,7,1,3,0,1,5,86,11
1,1,18,1,3,0,1,5,86,11
1,1,5,0,4,0,1,5,86,11
1,1,9,1,0,0,1,5,86,11
1,1,1,0,0,0,1,5,86,11
2,1,2,0,5,1,1,5,86,11
2,1,15,1,6,1,1,5,65,11
2,1,1,0,1,0,1,5,86,11
2,1,14,1,2,0,1,5,86,11
2,1,0,0,3,0,1,5,15,11
2,1,8,1,3,0,1,5,75,11
2,1,10,1,4,0,1,5,86,11
2,1,23,0,5,1,1,5,86,11
2,1,1,0,0,0,1,5,86,11
2,1,3,0,0,0,1,5,86,11
2,1,21,0,3,0,1,5,19,11
2,1,23,0,5,1,1,5,96,11
2,1,0,0,5,1,1,5,75,11
2,1,17,1,1,0,1,5,86,11
2,1,1,0,1,0,1,5,23,11
2,1,3,0,2,0,1,5,86,11
2,1,19,1,2,0,1,5,65,11
2,1,20,1,2,0,1,5,19,11
2,1,6,0,4,0,1,5,86,11
2,1,11,1,4,0,1,5,56,11
2,1,12,1,6,1,1,5,86,11
2,1,22,0,6,1,1,5,65,11
2,1,19,1,2,0,1,5,19,11
2,1,22,0,2,0,1,5,86,11
2,1,14,1,2,0,1,5,39,11
2,1,9,1,4,0,1,5,65,11
2,1,18,1,4,0,1,5,65,11
3,2,14,1,1,0,1,5,86,11
3,2,18,1,1,0,1,5,39,11
3,2,11,1,4,0,1,5,86,11
3,2,17,1,5,1,1,5,86,11
3,2,22,0,2,0,1,5,89,11
3,2,18,1,3,0,1,5,86,11
3,2,3,0,0,0,1,5,19,11
3,2,19,1,3,0,1,5,86,11
3,2,3,0,3,0,1,5,86,11
3,2,2,0,4,0,1,5,39,11
3,2,2,0,6,1,1,5,86,11
3,2,17,1,0,0,1,5,65,11
3,2,11,1,1,0,1,5,65,11
3,2,14,1,2,0,1,5,86,11
3,2,20,1,6,1,1,5,31,11
3,2,2,0,0,0,1,5,65,11
4,2,20,1,4,0,2,5,65,11
4,2,16,1,5,1,2,5,19,11
4,2,17,1,5,1,2,5,65,11
4,2,0,0,6,1,2,5,86,11
4,2,21,0,6,1,2,5,123,11
4,2,1,0,3,0,2,5,19,11
4,2,1,0,6,1,2,5,72,11
4,2,3,0,2,0,2,5,64,11
4,2,19,1,2,0,2,5,39,11
4,2,9,1,3,0,2,5,65,11
5,2,3,0,4,0,2,5,86,11
5,2,22,0,5,1,2,5,19,11
5,2,14,1,1,0,2,5,89,11
5,2,10,1,1,0,2,5,65,11
5,2,0,0,3,0,2,5,96,11
5,2,13,1,4,0,2,5,65,11
5,2,2,0,0,0,2,5,114,11
5,2,2,0,0,0,2,5,114,11
5,2,17,1,1,0,2,5,86,11
5,2,2,0,0,0,2,5,123,11
5,2,1,0,5,1,2,5,19,11
5,2,8,1,6,1,2,5,56,9
6,3,17,1,0,0,2,5,65,11
6,3,14,1,1,0,2,5,39,11
6,3,17,1,2,0,2,5,19,11
6,3,0,0,5,1,2,5,89,11
6,3,15,1,0,0,2,5,89,11
6,3,17,1,0,0,2,5,65,11
6,3,22,0,2,0,2,5,64,11
6,3,14,1,2,0,2,5,19,11
6,3,21,0,3,0,2,5,72,11
6,3,15,1,4,0,2,5,86,11
6,3,14,1,0,0,2,5,65,11
6,3,12,1,2,0,2,5,75,11
6,3,2,0,3,0,2,5,86,11
6,3,15,1,5,1,2,5,65,11
6,3,12,1,0,0,2,5,89,11
7,3,18,1,6,1,3,5,39,11
7,3,11,1,1,0,3,5,86,11
7,3,1,0,1,0,3,5,89,11
7,3,22,0,2,0,3,5,64,11
7,3,10,1,3,0,3,5,39,11
7,3,2,0,6,1,3,5,65,8
7,3,2,0,1,0,3,5,19,11
7,3,11,1,4,0,3,5,19,11
7,3,13,1,4,0,3,5,76,11
7,3,3,0,0,0,3,5,65,11
7,3,20,1,0,0,3,5,31,11
7,3,17,1,2,0,3,5,86,11
7,3,14,1,2,0,3,5,86,11
7,3,23,0,2,0,3,5,19,11
7,3,17,1,3,0,3,5,89,11
8,3,17,1,5,1,3,5,86,11
8,3,21,0,6,1,3,5,65,11
8,3,23,0,2,0,3,5,65,11
8,3,0,0,3,0,3,5,19,11
8,3,23,0,5,1,3,5,86,11
8,3,17,1,6,1,3,5,65,11
8,3,20,1,6,1,3,5,19,11
8,3,21,0,6,1,3,5,86,11
8,3,5,0,1,0,3,5,86,11
8,3,12,1,1,0,3,5,19,11
8,3,10,1,6,1,3,5,86,11
8,3,22,0,0,0,3,5,14,11
9,4,13,1,1,0,3,5,86,11
9,4,21,0,3,0,3,5,86,11
9,4,18,1,4,0,3,5,65,11
9,4,0,0,6,1,3,5,86,11
9,4,19,1,0,0,3,5,65,11
9,4,7,1,1,0,3,5,86,11
9,4,2,0,3,0,3,5,86,11
9,4,13,1,3,0,3,5,56,11
9,4,21,0,4,0,3,5,86,11
9,4,23,0,6,1,3,5,86,11
9,4,11,1,6,1,3,5,86,11
9,4,22,0,1,0,3,5,65,11
9,4,0,0,3,0,3,5,64,11
9,4,5,0,4,0,3,5,86,11
9,4,0,0,4,0,3,5,86,11
9,4,15,1,6,1,3,5,89,11
9,4,2,0,0,0,3,5,64,11
9,4,14,1,1,0,3,5,19,11
9,4,1,0,2,0,3,5,64,11
10,4,12,1,0,0,4,5,65,11
10,4,23,0,1,0,4,5,86,11
10,4,12,1,6,1,4,5,65,11
10,4,6,0,6,1,4,5,86,11
10,4,19,1,1,0,4,5,19,11
10,4,10,1,1,0,4,5,86,11
10,4,2,0,5,1,4,5,86,11
10,4,21,0,6,1,4,5,65,11
10,4,20,1,3,0,4,5,86,11
10,4,22,0,1,0,4,5,64,11
10,4,2,0,1,0,4,5,102,11
10,4,15,1,2,0,4,5,86,11
10,4,0,0,3,0,4,5,65,11
10,4,9,1,3,0,4,5,86,11
10,4,12,1,4,0,4,5,64,11
11,4,13,1,6,1,4,5,86,11
11,4,16,1,6,1,4,5,56,11
11,4,17,1,0,0,4,5,86,11
11,4,1,0,1,0,4,5,65,11
11,4,0,0,4,0,4,5,86,11
11,4,16,1,4,0,4,5,86,11
11,4,23,0,5,1,4,5,86,11
11,4,21,0,5,1,4,5,65,11
11,4,10,1,6,1,4,5,47,11
11,4,3,0,0,0,4,5,64,11
11,4,8,1,1,0,4,5,65,11
11,4,17,1,1,0,4,5,86,11
11,4,21,0,3,0,4,5,75,11
11,4,12,1,1,0,4,5,39,8
11,4,18,1,1,0,4,5,86,11
11,4,21,0,3,0,4,5,86,11
11,4,16,1,3,0,4,5,86,11
11,4,21,0,6,1,4,5,65,8
12,1,13,1,1,0,4,5,86,11
12,1,15,1,1,0,4,5,65,11
12,1,22,0,3,0,4,5,19,11
12,1,15,1,4,0,4,5,86,11
12,1,10,1,4,0,4,5,65,11
12,1,13,1,5,1,4,5,89,11
12,1,19,1,0,0,4,5,86,11
12,1,16,1,2,0,4,5,39,11
12,1,7,1,5,1,4,5,65,11
12,1,2,0,2,0,4,5,65,11
12,1,13,1,4,0,4,5,86,11
12,1,17,1,4,0,4,5,65,11
12,1,19,1,5,1,4,5,86,11
12,1,12,1,0,0,4,5,65,11
1,1,12,1,2,0,1,5,98,11
1,1,17,1,2,0,1,5,75,11
1,1,19,1,3,0,1,5,98,11
1,1,19,1,4,0,1,5,98,11
1,1,21,0,0,0,1,5,75,11
1,1,16,1,1,0,1,5,98,11
1,1,20,1,1,0,1,5,98,11
1,1,20,1,1,0,1,5,19,8
1,1,23,0,1,0,1,5,98,11
1,1,10,1,2,0,1,5,65,11
1,1,0,0,3,0,1,5,19,11
1,1,10,1,3,0,1,5,65,11
1,1,13,1,3,0,1,5,86,11
1,1,5,0,4,0,1,5,47,11
1,1,13,1,4,0,1,5,65,11
1,1,19,1,4,0,1,5,19,11
1,1,21,0,0,0,1,5,86,11
1,1,20,1,3,0,1,5,64,11
1,1,3,0,5,1,1,5,98,11
1,1,10,1,5,1,1,5,39,8
1,1,18,1,5,1,1,5,98,11
1,1,2,0,0,0,1,5,19,11
1,1,0,0,0,0,1,5,56,11
1,1,2,0,1,0,1,5,103,8
1,1,18,1,1,0,1,5,65,11
1,1,16,1,1,0,1,5,20,11
1,1,12,1,1,0,1,5,86,11
1,1,13,1,1,0,1,5,86,11
1,1,15,1,5,1,1,5,125,11
2,1,23,0,5,1,1,5,125,11
2,1,22,0,5,1,1,5,125,11
2,1,0,0,0,0,1,5,125,11
2,1,19,1,0,0,1,5,65,11
2,1,0,0,2,0,1,5,125,11
2,1,0,0,2,0,1,5,19,11
2,1,19,1,4,0,1,5,49,11
2,1,19,1,4,0,1,5,75,11
2,1,8,1,6,1,1,5,86,11
2,1,18,1,6,1,1,5,125,11
2,1,13,1,6,1,1,5,89,11
2,1,16,1,0,0,1,5,72,9
2,1,20,1,2,0,1,5,65,11
2,1,12,1,6,1,1,5,125,11
2,1,2,0,0,0,1,5,125,11
2,1,3,0,0,0,1,5,125,11
2,1,2,0,0,0,1,5,125,11
2,1,2,0,0,0,1,5,125,11
2,1,21,0,1,0,1,5,65,11
2,1,10,1,2,0,1,5,89,11
3,2,12,1,0,0,1,5,65,11
3,2,12,1,1,0,1,5,19,11
3,2,10,1,6,1,1,5,89,11
3,2,5,0,6,1,1,5,103,11
3,2,6,0,0,0,1,5,14,11
3,2,1,0,0,0,1,5,57,11
3,2,1,0,0,0,1,5,19,11
3,2,23,0,3,0,1,5,65,11
3,2,5,0,6,1,1,5,65,11
3,2,9,1,6,1,1,5,103,11
3,2,12,1,5,1,1,5,89,11
3,2,18,1,5,1,1,5,125,11
3,2,15,1,0,0,1,5,65,11
3,2,15,1,2,0,1,5,65,11
3,2,21,0,2,0,1,5,19,11
3,2,16,1,3,0,1,5,65,11
3,2,13,1,4,0,1,5,19,11
3,2,19,1,5,1,1,5,39,11
3,2,20,1,6,1,1,5,89,11
4,2,13,1,3,0,2,5,89,11
4,2,14,1,4,0,2,5,65,11
4,2,13,1,0,0,2,5,81,11
4,2,17,1,2,0,2,5,125,11
4,2,17,1,3,0,2,5,125,11
4,2,23,0,6,1,2,5,125,11
4,2,0,0,6,1,2,5,98,11
4,2,20,1,6,1,2,5,125,11
4,2,1,0,3,0,2,5,47,11
4,2,8,1,6,1,2,5,89,11
4,2,12,1,1,0,2,5,98,11
4,2,11,1,3,0,2,5,19,11
5,2,9,1,0,0,2,5,94,11
5,2,15,1,3,0,2,5,89,11
5,2,1,0,4,0,2,5,19,11
5,2,19,1,2,0,2,5,19,11
5,2,18,1,6,1,2,5,65,11
5,2,9,1,0,0,2,5,75,11
5,2,22,0,6,1,2,5,77,9
5,2,16,1,0,0,2,5,89,9
5,2,15,1,1,0,2,5,86,11
5,2,9,1,2,0,2,5,89,11
5,2,4,0,4,0,2,5,98,11
5,2,10,1,5,1,2,5,47,11
5,2,18,1,5,1,2,5,19,11
5,2,10,1,5,1,2,5,87,11
6,3,7,1,1,0,2,5,39,8
6,3,16,1,2,0,2,5,89,11
6,3,23,0,2,0,2,5,89,11
6,3,15,1,5,1,2,5,39,11
6,3,11,1,0,0,2,5,77,11
6,3,15,1,1,0,2,5,86,11
6,3,9,1,2,0,2,5,19,11
6,3,9,1,3,0,2,5,42,11
6,3,10,1,4,0,2,5,87,11
6,3,2,0,5,1,2,5,86,11
6,3,10,1,5,1,2,5,19,9
6,3,22,0,0,0,2,5,98,11
6,3,21,0,1,0,2,5,65,11
6,3,8,1,5,1,2,5,101,11
6,3,21,0,5,1,2,5,49,11
6,3,20,1,5,1,2,5,9,11
6,3,21,0,3,0,2,5,65,11
6,3,21,0,0,0,2,5,77,11
6,3,6,0,1,0,2,5,75,11
6,3,1,0,1,0,2,5,89,11
7,3,19,1,3,0,3,5,19,11
7,3,23,0,3,0,3,5,19,11
7,3,18,1,3,0,3,5,98,11
7,3,13,1,4,0,3,5,19,11
7,3,12,1,4,0,3,5,89,11
7,3,0,0,4,0,3,5,65,11
7,3,16,1,5,1,3,5,125,11
7,3,0,0,5,1,3,5,87,11
7,3,1,0,5,1,3,5,125,11
7,3,17,1,6,1,3,5,39,11
7,3,23,0,0,0,3,5,89,11
7,3,15,1,1,0,3,5,19,11
7,3,15,1,1,0,3,5,14,11
7,3,0,0,1,0,3,5,19,11
7,3,4,0,5,1,3,5,58,11
7,3,22,0,1,0,3,5,49,11
7,3,7,1,4,0,3,5,19,11
7,3,19,1,6,1,3,5,60,11
7,3,22,0,0,0,3,5,75,11
7,3,21,0,0,0,3,5,49,11
7,3,16,1,0,0,3,5,56,11
7,3,18,1,3,0,3,5,98,11
7,3,14,1,4,0,3,5,96,11
8,3,15,1,6,1,3,5,65,11
8,3,17,1,0,0,3,5,86,11
8,3,21,0,2,0,3,5,49,11
8,3,22,0,3,0,3,5,65,11
8,3,1,0,5,1,3,5,19,8
8,3,22,0,1,0,3,5,98,11
8,3,15,1,1,0,3,5,65,11
8,3,23,0,4,0,3,5,49,11
8,3,22,0,5,1,3,5,49,11
8,3,13,1,6,1,3,5,125,11
8,3,14,1,0,0,3,5,89,11
8,3,4,0,1,0,3,5,125,11
8,3,17,1,2,0,3,5,65,11
8,3,15,1,2,0,3,5,65,11
8,3,17,1,5,1,3,5,89,11
8,3,20,1,6,1,3,5,49,11
8,3,18,1,6,1,3,5,98,11
8,3,18,1,0,0,3,5,19,11
8,3,3,0,1,0,3,5,89,11
8,3,11,1,1,0,3,5,19,11
8,3,4,0,4,0,3,5,9,11
8,3,6,0,4,0,3,5,95,11
9,4,6,0,1,0,3,5,98,11
9,4,23,0,1,0,3,5,89,11
9,4,16,1,4,0,3,5,89,11
9,4,11,1,1,0,3,5,19,11
9,4,14,1,6,1,3,5,65,11
9,4,12,1,6,1,3,5,98,11
9,4,21,0,0,0,3,5,89,11
9,4,2,0,3,0,3,5,19,11
9,4,19,1,3,0,3,5,19,11
9,4,12,1,6,1,3,5,125,11
9,4,17,1,0,0,3,5,125,11
9,4,19,1,0,0,3,5,56,11
9,4,13,1,1,0,3,5,19,11
9,4,22,0,4,0,3,5,125,11
9,4,16,1,0,0,3,5,19,11
9,4,17,1,2,0,3,5,72,11
10,4,9,1,3,0,4,5,56,8
10,4,2,0,3,0,4,5,65,8
10,4,8,1,3,0,4,5,65,11
10,4,19,1,2,0,4,5,82,11
10,4,22,0,3,0,4,5,125,11
10,4,2,0,5,1,4,5,89,8
10,4,23,0,6,1,4,5,64,11
10,4,12,1,1,0,4,5,89,11
10,4,10,1,1,0,4,5,19,11
10,4,21,0,1,0,4,5,19,11
10,4,20,1,4,0,4,5,96,11
10,4,11,1,6,1,4,5,89,11
10,4,21,0,2,0,4,5,39,11
10,4,5,0,4,0,4,5,75,11
10,4,1,0,5,1,4,5,125,11
10,4,12,1,6,1,4,5,19,11
10,4,13,1,6,1,4,5,47,11
10,4,17,1,6,1,4,5,47,11
10,4,7,1,3,0,4,5,65,11
11,4,6,0,0,0,4,5,20,11
11,4,18,1,1,0,4,5,65,11
11,4,0,0,1,0,4,5,19,11
11,4,12,1,2,0,4,5,89,11
11,4,16,1,5,1,4,5,14,11
11,4,16,1,5,1,4,5,19,11
11,4,12,1,6,1,4,5,19,11
11,4,13,1,0,0,4,5,19,11
11,4,7,1,3,0,4,5,19,11
11,4,0,0,4,0,4,5,125,11
11,4,17,1,6,1,4,5,96,11
11,4,12,1,0,0,4,5,106,11
11,4,15,1,4,0,4,5,39,11
11,4,18,1,4,0,4,5,125,11
11,4,11,1,5,1,4,5,89,11
11,4,14,1,5,1,4,5,125,11
11,4,13,1,6,1,4,5,65,11
11,4,18,1,6,1,4,5,65,11
11,4,17,1,2,0,4,5,65,11
11,4,1,0,3,0,4,5,125,11
11,4,17,1,4,0,4,5,39,11
11,4,19,1,5,1,4,5,106,11
12,1,15,1,1,0,4,5,125,11
12,1,0,0,5,1,4,5,98,11
12,1,18,1,0,0,4,5,65,11
12,1,23,0,0,0,4,5,125,11
12,1,11,1,1,0,4,5,89,11
12,1,20,1,1,0,4,5,98,11
12,1,18,1,1,0,4,5,65,11
12,1,0,0,1,0,4,5,125,11
12,1,23,0,3,0,4,5,56,11
12,1,22,0,3,0,4,5,87,11
12,1,20,1,3,0,4,5,125,11
12,1,10,1,3,0,4,5,106,11
12,1,18,1,5,1,4,5,65,11
12,1,12,1,6,1,4,5,65,11
12,1,13,1,6,1,4,5,65,11
12,1,16,1,1,0,4,5,65,11
12,1,20,1,3,0,4,5,49,11
12,1,9,1,3,0,4,5,65,9
12,1,16,1,3,0,4,5,89,11
12,1,20,1,5,1,4,5,125,11
12,1,11,1,5,1,4,5,125,11
12,1,8,1,0,0,4,5,82,11
12,1,1,0,1,0,4,5,47,11
12,1,12,1,1,0,4,5,98,11
1,1,2,0,3,0,1,5,65,11
1,1,12,1,4,0,1,5,65,11
1,1,20,1,4,0,1,5,125,11
1,1,20,1,5,1,1,5,125,11
1,1,14,1,6,1,1,5,125,11
1,1,12,1,1,0,1,5,86,11
1,1,11,1,1,0,1,5,98,11
1,1,10,1,1,0,1,5,125,11
1,1,17,1,2,0,1,5,89,11
1,1,19,1,3,0,1,5,98,11
1,1,20,1,6,1,1,5,65,11
1,1,19,1,6,1,1,5,86,11
1,1,21,0,1,0,1,5,72,11
1,1,11,1,1,0,1,5,39,9
1,1,9,1,1,0,1,5,75,11
1,1,11,1,1,0,1,5,65,11
1,1,22,0,1,0,1,5,65,11
1,1,17,1,2,0,1,5,65,11
1,1,20,1,3,0,1,5,65,11
1,1,11,1,6,1,1,5,86,11
1,1,16,1,0,0,1,5,86,11
1,1,12,1,0,0,1,5,8,11
1,1,1,0,2,0,1,5,86,11
1,1,12,1,2,0,1,5,86,11
1,1,17,1,5,1,1,5,65,9
1,1,20,1,5,1,1,5,86,11
1,1,20,1,6,1,1,5,103,9
1,1,13,1,0,0,1,5,86,11
1,1,21,0,1,0,1,5,65,11
1,1,6,0,3,0,1,5,65,11
2,1,2,0,5,1,1,5,94,11
2,1,22,0,5,1,1,5,65,11
2,1,1,0,0,0,1,5,86,11
2,1,19,1,6,1,1,5,65,11
2,1,19,1,0,0,1,5,75,11
2,1,18,1,0,0,1,5,125,11
2,1,18,1,0,0,1,5,94,11
2,1,7,1,2,0,1,5,123,11
2,1,15,1,1,0,1,5,86,11
2,1,23,0,3,0,1,5,86,11
2,1,22,0,1,0,1,5,89,11
2,1,11,1,1,0,1,5,126,9
2,1,13,1,2,0,1,5,86,11
2,1,11,1,2,0,1,5,19,9
3,2,2,0,6,1,1,5,86,11
3,2,15,1,6,1,1,5,86,11
3,2,0,0,3,0,1,5,98,11
3,2,11,1,5,1,1,5,86,11
3,2,5,0,0,0,1,5,65,11
3,2,2,0,3,0,1,5,125,11
3,2,11,1,5,1,1,5,31,11
3,2,13,1,6,1,1,5,65,11
3,2,19,1,4,0,1,5,65,11
3,2,13,1,5,1,1,5,86,11
3,2,10,1,5,1,1,5,86,11
3,2,12,1,5,1,1,5,65,11
3,2,2,0,5,1,1,5,65,11
3,2,17,1,6,1,1,5,89,11
3,2,6,0,6,1,1,5,86,11
3,2,14,1,0,0,1,5,86,11
3,2,17,1,0,0,1,5,86,11
3,2,7,1,1,0,1,5,65,11
4,2,15,1,3,0,2,5,86,11
4,2,18,1,3,0,2,5,86,11
4,2,13,1,3,0,2,5,86,11
4,2,21,0,4,0,2,5,65,11
4,2,16,1,4,0,2,5,65,11
4,2,20,1,5,1,2,5,65,11
4,2,15,1,5,1,2,5,65,11
4,2,21,0,5,1,2,5,65,11
4,2,10,1,1,0,2,5,65,11
4,2,10,1,1,0,2,5,65,11
4,2,15,1,3,0,2,5,89,9
4,2,20,1,3,0,2,5,65,11
4,2,0,0,4,0,2,5,86,11
4,2,19,1,4,0,2,5,86,11
4,2,6,0,5,1,2,5,72,11
4,2,19,1,5,1,2,5,65,11
4,2,23,0,5,1,2,5,86,11
4,2,14,1,0,0,2,5,86,11
4,2,20,1,0,0,2,5,86,11
4,2,16,1,0,0,2,5,72,11
4,2,14,1,0,0,2,5,65,11
4,2,12,1,4,0,2,5,86,11
4,2,12,1,4,0,2,5,86,11
4,2,17,1,5,1,2,5,65,11
4,2,17,1,5,1,2,5,65,8
4,2,0,0,6,1,2,5,86,11
4,2,1,0,6,1,2,5,86,11
4,2,3,0,6,1,2,5,86,11
4,2,1,0,6,1,2,5,65,11
4,2,15,1,3,0,2,5,65,11
4,2,14,1,3,0,2,5,65,11
4,2,20,1,6,1,2,5,65,11
4,2,11,1,6,1,2,5,86,11
4,2,20,1,6,1,2,5,89,11
4,2,20,1,3,0,2,5,65,11
5,2,14,1,4,0,2,5,86,11
5,2,7,1,4,0,2,5,65,11
5,2,22,0,5,1,2,5,86,11
5,2,12,1,5,1,2,5,86,11
5,2,17,1,6,1,2,5,29,11
5,2,6,0,2,0,2,5,65,11
5,2,14,1,4,0,2,5,65,11
5,2,8,1,4,0,2,5,86,11
5,2,11,1,5,1,2,5,8,11
5,2,4,0,5,1,2,5,86,11
5,2,19,1,0,0,2,5,9,11
5,2,19,1,1,0,2,5,89,11
5,2,9,1,3,0,2,5,65,11
5,2,12,1,3,0,2,5,65,11
5,2,0,0,4,0,2,5,86,11
5,2,16,1,4,0,2,5,65,11
5,2,19,1,6,1,2,5,65,11
5,2,22,0,6,1,2,5,86,11
5,2,13,1,0,0,2,5,65,11
5,2,2,0,0,0,2,5,72,11
5,2,2,0,0,0,2,5,86,11
5,2,13,1,1,0,2,5,102,11
5,2,11,1,1,0,2,5,65,11
5,2,15,1,3,0,2,5,89,11
5,2,10,1,3,0,2,5,89,11
5,2,7,1,3,0,2,5,89,11
5,2,2,0,4,0,2,5,56,9
5,2,20,1,4,0,2,5,64,11
5,2,20,1,5,1,2,5,86,11
5,2,15,1,0,0,2,5,47,11
5,2,22,0,3,0,2,5,19,11
5,2,1,0,3,0,2,5,86,11
5,2,23,0,3,0,2,5,19,11
5,2,11,1,4,0,2,5,19,11
5,2,7,1,5,1,2,5,56,9
5,2,17,1,5,1,2,5,75,11
5,2,18,1,5,1,2,5,86,11
6,3,15,1,2,0,2,5,86,11
6,3,0,0,0,0,2,5,29,11
6,3,19,1,1,0,2,5,65,8
6,3,15,1,1,0,2,5,19,11
6,3,13,1,1,0,2,5,89,9
6,3,18,1,3,0,2,5,98,11
7,3,16,1,2,0,3,5,123,11
7,3,11,1,2,0,3,5,89,9
7,3,8,1,2,0,3,5,19,9
7,3,7,1,3,0,3,5,19,11
7,3,16,1,4,0,3,5,86,9
7,3,11,1,5,1,3,5,86,11
7,3,0,0,6,1,3,5,19,11
7,3,1,0,0,0,3,5,89,11
7,3,19,1,1,0,3,5,125,11
7,3,18,1,6,1,3,5,75,11
7,3,4,0,0,0,3,5,98,11
7,3,10,1,0,0,3,5,86,11
7,3,3,0,3,0,3,5,114,11
7,3,18,1,4,0,3,5,19,11
7,3,1,0,4,0,3,5,1,11
7,3,20,1,5,1,3,5,125,11
7,3,18,1,5,1,3,5,65,11
7,3,4,0,5,1,3,5,125,11
7,3,12,1,5,1,3,5,89,11
7,3,11,1,6,1,3,5,125,11
7,3,11,1,6,1,3,5,31,11
7,3,12,1,0,0,3,5,19,11
7,3,20,1,0,0,3,5,86,11
7,3,15,1,4,0,3,5,65,11
7,3,14,1,5,1,3,5,1,11
7,3,17,1,0,0,3,5,87,11
7,3,17,1,1,0,3,5,89,11
7,3,0,0,2,0,3,5,65,11
7,3,13,1,3,0,3,5,1,11
7,3,14,1,4,0,3,5,86,11
7,3,3,0,4,0,3,5,86,11
8,3,23,0,5,1,3,5,86,11
8,3,10,1,5,1,3,5,19,11
8,3,14,1,6,1,3,5,86,11
8,3,19,1,0,0,3,5,9,11
8,3,9,1,1,0,3,5,86,11
8,3,16,1,2,0,3,5,39,11
8,3,18,1,4,0,3,5,1,11
8,3,15,1,5,1,3,5,86,11
8,3,13,1,0,0,3,5,65,11
8,3,20,1,1,0,3,5,64,11
8,3,3,0,1,0,3,5,31,11
8,3,21,0,1,0,3,5,9,11
8,3,15,1,3,0,3,5,75,9
8,3,14,1,3,0,3,5,98,11
8,3,19,1,6,1,3,5,98,11
8,3,20,1,6,1,3,5,86,11
8,3,3,0,0,0,3,5,86,11
8,3,12,1,0,0,3,5,89,11
8,3,17,1,4,0,3,5,86,11
8,3,0,0,5,1,3,5,98,11
8,3,4,0,5,1,3,5,86,11
8,3,20,1,5,1,3,5,86,11
8,3,15,1,6,1,3,5,86,11
8,3,13,1,6,1,3,5,72,11
9,4,14,1,1,0,3,5,1,11
9,4,16,1,1,0,3,5,86,11
9,4,22,0,2,0,3,5,65,11
9,4,13,1,2,0,3,5,72,11
9,4,17,1,4,0,3,5,65,11
9,4,14,1,4,0,3,5,65,11
9,4,0,0,6,1,3,5,98,11
9,4,13,1,6,1,3,5,3,11
9,4,14,1,0,0,3,5,65,11
9,4,4,0,1,0,3,5,65,11
9,4,16,1,1,0,3,5,56,11
9,4,15,1,2,0,3,5,86,11
9,4,4,0,2,0,3,5,86,11
9,4,17,1,2,0,3,5,89,8
9,4,17,1,3,0,3,5,19,11
9,4,14,1,3,0,3,5,86,11
9,4,23,0,4,0,3,5,86,11
9,4,11,1,1,0,3,5,86,11
9,4,5,0,1,0,3,5,89,11
9,4,11,1,2,0,3,5,19,11
9,4,11,1,2,0,3,5,19,11
9,4,15,1,3,0,3,5,65,11
9,4,7,1,4,0,3,5,65,11
9,4,12,1,4,0,3,5,65,11
9,4,18,1,4,0,3,5,86,11
9,4,5,0,5,1,3,5,106,11
9,4,10,1,1,0,3,5,106,11
9,4,6,0,4,0,3,5,64,11
9,4,7,1,4,0,3,5,65,11
9,4,17,1,4,0,3,5,65,11
9,4,0,0,1,0,3,5,64,11
9,4,11,1,2,0,3,5,75,9
9,4,15,1,2,0,3,5,122,8
9,4,9,1,2,0,3,5,29,11
10,4,13,1,4,0,4,5,96,11
10,4,20,1,1,0,4,5,19,11
10,4,11,1,2,0,4,5,89,11
10,4,12,1,2,0,4,5,31,11
10,4,22,0,3,0,4,5,86,11
10,4,10,1,3,0,4,5,89,11
10,4,1,0,4,0,4,5,94,11
10,4,5,0,5,1,4,5,19,9
10,4,1,0,6,1,4,5,9,9
10,4,8,1,0,0,4,5,89,11
10,4,11,1,0,0,4,5,56,11
10,4,8,1,1,0,4,5,19,11
10,4,13,1,2,0,4,5,65,11
10,4,12,1,2,0,4,5,9,11
10,4,9,1,6,1,4,5,65,11
10,4,21,0,6,1,4,5,64,11
10,4,20,1,6,1,4,5,86,11
10,4,7,1,1,0,4,5,65,11
10,4,19,1,2,0,4,5,124,11
10,4,12,1,2,0,4,5,65,11
10,4,0,0,3,0,4,5,65,9
10,4,9,1,4,0,4,5,82,11
10,4,0,0,4,0,4,5,86,11
10,4,21,0,6,1,4,5,56,11
10,4,8,1,6,1,4,5,89,11
10,4,21,0,1,0,4,5,124,11
10,4,12,1,2,0,4,5,65,11
10,4,7,1,4,0,4,5,76,11
10,4,5,0,5,1,4,5,86,11
11,4,18,1,1,0,4,5,125,11
11,4,13,1,1,0,4,5,65,11
11,4,15,1,4,0,4,5,65,11
11,4,13,1,4,0,4,5,65,11
11,4,20,1,5,1,4,5,65,11
11,4,11,1,5,1,4,5,47,9
11,4,23,0,5,1,4,5,65,9
11,4,9,1,6,1,4,5,125,11
11,4,19,1,6,1,4,5,65,11
11,4,10,1,0,0,4,5,86,11
11,4,15,1,3,0,4,5,65,11
11,4,13,1,5,1,4,5,86,11
11,4,15,1,0,0,4,5,125,11
11,4,3,0,0,0,4,5,125,11
11,4,3,0,0,0,4,5,125,11
11,4,3,0,0,0,4,5,125,11
11,4,3,0,0,0,4,5,125,11
11,4,23,0,1,0,4,5,86,11
11,4,13,1,1,0,4,5,89,11
11,4,11,1,2,0,4,5,86,11
11,4,0,0,3,0,4,5,125,11
11,4,4,0,3,0,4,5,125,11
11,4,4,0,3,0,4,5,125,11
11,4,3,0,3,0,4,5,125,11
11,4,19,1,3,0,4,5,65,11
11,4,3,0,4,0,4,5,86,11
11,4,3,0,4,0,4,5,125,11
11,4,3,0,4,0,4,5,125,11
11,4,3,0,4,0,4,5,86,11
11,4,13,1,4,0,4,5,86,11
11,4,22,0,4,0,4,5,86,9
11,4,3,0,5,1,4,5,125,11
11,4,3,0,5,1,4,5,125,11
11,4,3,0,5,1,4,5,125,11
11,4,3,0,5,1,4,5,86,11
11,4,20,1,5,1,4,5,65,11
11,4,21,0,5,1,4,5,86,11
11,4,13,1,5,1,4,5,86,11
11,4,12,1,6,1,4,5,86,11
11,4,19,1,6,1,4,5,65,11
11,4,19,1,6,1,4,5,65,11
11,4,23,0,0,0,4,5,86,11
11,4,19,1,2,0,4,5,86,11
11,4,22,0,2,0,4,5,65,11
11,4,18,1,4,0,4,5,19,11
11,4,15,1,4,0,4,5,65,11
11,4,15,1,4,0,4,5,65,11
11,4,3,0,4,0,4,5,125,11
11,4,3,0,4,0,4,5,86,11
11,4,15,1,4,0,4,5,125,11
11,4,17,1,6,1,4,5,125,11
11,4,16,1,6,1,4,5,65,11
11,4,6,0,6,1,4,5,89,11
12,1,17,1,1,0,4,5,125,11
12,1,18,1,1,0,4,5,65,11
12,1,7,1,1,0,4,5,19,11
12,1,12,1,3,0,4,5,65,11
12,1,22,0,3,0,4,5,86,11
12,1,3,0,4,0,4,5,86,11
12,1,3,0,4,0,4,5,86,11
12,1,4,0,5,1,4,5,125,11
12,1,14,1,6,1,4,5,125,11
12,1,2,0,3,0,4,5,86,11
12,1,12,1,6,1,4,5,65,11
12,1,0,0,0,0,4,5,19,11
12,1,15,1,0,0,4,5,19,9
12,1,13,1,1,0,4,5,86,11
12,1,4,0,1,0,4,5,86,11
12,1,21,0,1,0,4,5,89,11
12,1,23,0,3,0,4,5,65,11
12,1,14,1,4,0,4,5,65,11
12,1,10,1,4,0,4,5,86,11
12,1,18,1,4,0,4,5,86,11
12,1,20,1,4,0,4,5,86,11
12,1,17,1,5,1,4,5,86,11
12,1,15,1,6,1,4,5,65,11
12,1,17,1,0,0,4,5,86,11
12,1,17,1,0,0,4,5,65,11
12,1,12,1,1,0,4,5,86,11
12,1,3,0,2,0,4,5,86,11
12,1,13,1,2,0,4,5,65,11
12,1,23,0,2,0,4,5,89,11
12,1,20,1,2,0,4,5,65,11
12,1,14,1,3,0,4,5,89,11
12,1,15,1,4,0,4,5,19,11
12,1,7,1,4,0,4,5,65,11
12,1,18,1,4,0,4,5,65,11
12,1,20,1,6,1,4,5,86,11
12,1,19,1,6,1,4,5,65,11
12,1,9,1,0,0,4,5,19,11
12,1,21,0,0,0,4,5,86,11
1,1,17,1,2,0,1,5,39,11
1,1,20,1,3,0,1,5,125,9
1,1,21,0,3,0,1,5,98,11
1,1,20,1,3,0,1,5,98,11
1,1,12,1,3,0,1,5,98,11
1,1,11,1,3,0,1,5,98,11
1,1,17,1,4,0,1,5,94,11
1,1,18,1,4,0,1,5,39,11
1,1,5,0,5,1,1,5,72,11
1,1,12,1,5,1,1,5,39,11
1,1,16,1,6,1,1,5,98,11
1,1,14,1,6,1,1,5,65,11
1,1,20,1,1,0,1,5,96,11
1,1,1,0,2,0,1,5,98,11
1,1,3,0,2,0,1,5,86,11
1,1,15,1,2,0,1,5,47,11
1,1,0,0,3,0,1,5,86,11
1,1,14,1,4,0,1,5,65,11
1,1,21,0,4,0,1,5,72,11
1,1,2,0,5,1,1,5,39,11
1,1,17,1,5,1,1,5,98,11
1,1,2,0,0,0,1,5,65,11
1,1,19,1,0,0,1,5,39,11
1,1,21,0,0,0,1,5,72,11
1,1,22,0,0,0,1,5,94,11
1,1,22,0,0,0,1,5,94,11
1,1,1,0,0,0,1,5,90,11
1,1,15,1,0,0,1,5,94,11
1,1,7,1,0,0,1,5,72,11
1,1,0,0,1,0,1,5,47,11
1,1,0,0,1,0,1,5,39,11
1,1,16,1,1,0,1,5,46,11
1,1,0,0,2,0,1,5,89,11
1,1,21,0,3,0,1,5,39,11
1,1,21,0,3,0,1,5,86,11
1,1,17,1,3,0,1,5,89,11
1,1,20,1,4,0,1,5,89,11
1,1,19,1,4,0,1,5,103,11
1,1,14,1,5,1,1,5,39,11
1,1,5,0,5,1,1,5,125,11
1,1,10,1,6,1,1,5,86,11
1,1,19,1,6,1,1,5,125,11
1,1,4,0,0,0,1,5,72,11
1,1,20,1,0,0,1,5,98,11
1,1,1,0,1,0,1,5,89,11
1,1,5,0,1,0,1,5,72,11
1,1,17,1,3,0,1,5,75,11
1,1,12,1,3,0,1,5,89,11
1,1,18,1,4,0,1,5,39,11
1,1,20,1,4,0,1,5,75,11
1,1,23,0,5,1,1,5,39,11
1,1,17,1,5,1,1,5,86,11
1,1,4,0,0,0,1,5,72,11
1,1,18,1,0,0,1,5,86,11
1,1,19,1,0,0,1,5,75,11
1,1,17,1,0,0,1,5,65,11
1,1,4,0,1,0,1,5,94,11
1,1,20,1,2,0,1,5,64,9
1,1,23,0,4,0,1,5,98,11
2,1,0,0,6,1,1,5,98,11
2,1,20,1,1,0,1,5,89,11
2,1,6,0,3,0,1,5,65,11
2,1,1,0,4,0,1,5,86,11
2,1,17,1,5,1,1,5,89,11
2,1,23,0,6,1,1,5,86,11
2,1,19,1,6,1,1,5,39,11
2,1,17,1,6,1,1,5,86,11
2,1,4,0,6,1,1,5,39,11
2,1,14,1,1,0,1,5,86,11
2,1,19,1,1,0,1,5,89,11
2,1,5,0,1,0,1,5,86,11
2,1,8,1,2,0,1,5,65,9
2,1,13,1,3,0,1,5,65,11
2,1,4,0,5,1,1,5,72,11
2,1,21,0,0,0,1,5,8,11
2,1,21,0,1,0,1,5,1,11
2,1,20,1,2,0,1,5,64,11
2,1,19,1,2,0,1,5,87,11
2,1,11,1,3,0,1,5,94,11
2,1,15,1,6,1,1,5,72,11
2,1,2,0,6,1,1,5,98,11
2,1,20,1,0,0,1,5,125,11
2,1,10,1,0,0,1,5,94,11
2,1,8,1,3,0,1,5,125,11
2,1,20,1,5,1,1,5,89,11
2,1,18,1,5,1,1,5,23,11
3,2,19,1,6,1,1,5,125,11
3,2,9,1,6,1,1,5,94,11
3,2,14,1,1,0,1,5,39,11
3,2,7,1,5,1,1,5,72,11
3,2,23,0,5,1,1,5,125,11
3,2,21,0,2,0,1,5,14,11
3,2,19,1,3,0,1,5,86,11
3,2,19,1,3,0,1,5,8,11
3,2,8,1,5,1,1,5,94,11
3,2,16,1,2,0,1,5,39,11
3,2,15,1,2,0,1,5,125,11
3,2,1,0,4,0,1,5,89,11
3,2,19,1,5,1,1,5,65,11
3,2,2,0,5,1,1,5,125,9
3,2,11,1,1,0,1,5,39,11
3,2,10,1,1,0,1,5,39,11
3,2,15,1,2,0,1,5,125,11
3,2,4,0,3,0,1,5,72,11
3,2,14,1,3,0,1,5,89,11
3,2,18,1,5,1,1,5,75,9
4,2,18,1,2,0,2,5,89,11
4,2,10,1,4,0,2,5,126,11
4,2,21,0,2,0,2,5,125,11
4,2,14,1,4,0,2,5,65,11
4,2,0,0,4,0,2,5,72,11
4,2,23,0,1,0,2,5,89,11
4,2,1,0,4,0,2,5,125,11
4,2,16,1,6,1,2,5,94,11
4,2,2,0,6,1,2,5,125,11
4,2,4,0,6,1,2,5,65,11
4,2,19,1,1,0,2,5,89,11
4,2,0,0,2,0,2,5,72,11
4,2,19,1,2,0,2,5,72,11
4,2,19,1,4,0,2,5,125,11
4,2,23,0,4,0,2,5,72,11
4,2,23,0,5,1,2,5,65,11
4,2,1,0,6,1,2,5,65,11
5,2,22,0,5,1,2,5,8,11
5,2,13,1,6,1,2,5,89,11
5,2,15,1,6,1,2,5,89,11
5,2,17,1,6,1,2,5,89,11
5,2,9,1,2,0,2,5,89,11
5,2,14,1,4,0,2,5,72,11
5,2,14,1,4,0,2,5,89,11
5,2,14,1,4,0,2,5,89,11
5,2,18,1,4,0,2,5,72,11
5,2,13,1,5,1,2,5,65,11
5,2,21,0,6,1,2,5,89,11
5,2,22,0,0,0,2,5,72,11
5,2,18,1,0,0,2,5,65,11
5,2,1,0,1,0,2,5,1,11
5,2,23,0,2,0,2,5,89,11
5,2,15,1,2,0,2,5,72,11
5,2,1,0,3,0,2,5,65,11
5,2,18,1,3,0,2,5,89,11
5,2,15,1,3,0,2,5,64,11
5,2,23,0,4,0,2,5,89,11
5,2,2,0,4,0,2,5,86,11
5,2,1,0,5,1,2,5,65,11
5,2,10,1,5,1,2,5,89,11
5,2,20,1,6,1,2,5,89,11
5,2,23,0,6,1,2,5,89,11
5,2,13,1,6,1,2,5,89,11
5,2,13,1,6,1,2,5,65,11
5,2,4,0,6,1,2,5,98,11
5,2,12,1,0,0,2,5,89,11
5,2,1,0,0,0,2,5,86,11
5,2,15,1,1,0,2,5,89,11
5,2,19,1,2,0,2,5,98,11
5,2,12,1,2,0,2,5,89,11
5,2,21,0,2,0,2,5,89,9
5,2,21,0,2,0,2,5,89,9
5,2,16,1,3,0,2,5,89,11
5,2,21,0,3,0,2,5,89,11
5,2,21,0,3,0,2,5,89,11
5,2,9,1,4,0,2,5,89,11
5,2,20,1,5,1,2,5,89,11
5,2,15,1,5,1,2,5,89,11
5,2,5,0,5,1,2,5,89,11
5,2,11,1,6,1,2,5,89,11
5,2,21,0,6,1,2,5,123,11
5,2,23,0,6,1,2,5,89,11
5,2,0,0,6,1,2,5,89,11
5,2,22,0,0,0,2,5,89,11
5,2,22,0,4,0,2,5,64,11
5,2,17,1,5,1,2,5,89,11
5,2,18,1,5,1,2,5,89,11
5,2,17,1,6,1,2,5,89,11
6,3,3,0,0,0,2,5,125,9
6,3,3,0,1,0,2,5,72,11
6,3,3,0,1,0,2,5,72,11
6,3,9,1,1,0,2,5,98,11
6,3,19,1,4,0,2,5,72,11
6,3,11,1,0,0,2,5,89,11
6,3,20,1,0,0,2,5,89,11
6,3,21,0,1,0,2,5,89,11
6,3,4,0,1,0,2,5,89,11
6,3,4,0,1,0,2,5,89,11
6,3,14,1,2,0,2,5,86,11
6,3,14,1,2,0,2,5,72,11
6,3,17,1,2,0,2,5,89,11
6,3,21,0,2,0,2,5,89,11
6,3,21,0,3,0,2,5,8,11
6,3,5,0,4,0,2,5,75,9
6,3,4,0,4,0,2,5,72,11
6,3,12,1,4,0,2,5,89,11
6,3,22,0,6,1,2,5,72,11
6,3,23,0,6,1,2,5,89,11
6,3,1,0,0,0,2,5,65,11
6,3,20,1,0,0,2,5,89,11
6,3,15,1,0,0,2,5,89,11
6,3,17,1,1,0,2,5,89,11
6,3,22,0,1,0,2,5,89,11
6,3,15,1,1,0,2,5,39,11
6,3,16,1,1,0,2,5,89,11
6,3,3,0,2,0,2,5,86,11
6,3,5,0,6,1,2,5,72,11
6,3,0,0,6,1,2,5,75,11
6,3,15,1,0,0,2,5,123,11
6,3,22,0,0,0,2,5,106,11
6,3,17,1,1,0,2,5,89,11
6,3,11,1,2,0,2,5,89,11
6,3,23,0,2,0,2,5,96,11
6,3,14,1,3,0,2,5,86,11
6,3,11,1,3,0,2,5,65,11
6,3,1,0,4,0,2,5,39,11
6,3,3,0,4,0,2,5,64,11
6,3,19,1,4,0,2,5,65,11
6,3,0,0,6,1,2,5,89,8
6,3,13,1,6,1,2,5,75,11
6,3,2,0,0,0,2,5,89,11
6,3,19,1,1,0,2,5,72,11
6,3,17,1,1,0,2,5,125,11
7,3,4,0,2,0,3,5,89,11
7,3,18,1,2,0,3,5,89,11
7,3,11,1,2,0,3,5,94,11
7,3,11,1,3,0,3,5,89,9
7,3,4,0,3,0,3,5,86,11
7,3,18,1,3,0,3,5,89,11
7,3,23,0,3,0,3,5,89,11
7,3,16,1,4,0,3,5,89,11
7,3,22,0,5,1,3,5,89,11
7,3,22,0,5,1,3,5,125,11
7,3,3,0,6,1,3,5,89,11
7,3,20,1,1,0,3,5,89,11
7,3,10,1,2,0,3,5,87,11
7,3,15,1,2,0,3,5,89,11
7,3,17,1,2,0,3,5,89,11
7,3,18,1,2,0,3,5,89,11
7,3,7,1,2,0,3,5,72,11
7,3,11,1,3,0,3,5,94,11
7,3,20,1,3,0,3,5,125,11
7,3,5,0,4,0,3,5,89,11
7,3,23,0,5,1,3,5,89,11
7,3,2,0,6,1,3,5,65,11
7,3,21,0,6,1,3,5,89,11
7,3,21,0,6,1,3,5,86,11
7,3,18,1,6,1,3,5,89,11
7,3,14,1,0,0,3,5,39,11
7,3,23,0,0,0,3,5,89,11
7,3,1,0,1,0,3,5,89,11
7,3,2,0,1,0,3,5,123,11
7,3,12,1,1,0,3,5,8,11
7,3,16,1,1,0,3,5,89,11
7,3,19,1,1,0,3,5,89,11
7,3,9,1,2,0,3,5,89,11
7,3,21,0,2,0,3,5,89,11
7,3,19,1,2,0,3,5,98,11
7,3,19,1,2,0,3,5,89,11
7,3,16,1,2,0,3,5,89,11
7,3,2,0,2,0,3,5,89,11
7,3,1,0,3,0,3,5,72,11
7,3,10,1,3,0,3,5,86,11
7,3,18,1,3,0,3,5,94,11
7,3,22,0,3,0,3,5,89,9
7,3,11,1,3,0,3,5,89,11
7,3,21,0,4,0,3,5,72,11
7,3,10,1,4,0,3,5,98,9
7,3,17,1,6,1,3,5,89,9
7,3,10,1,6,1,3,5,89,11
7,3,21,0,0,0,3,5,86,11
7,3,13,1,0,0,3,5,89,11
7,3,19,1,0,0,3,5,76,11
7,3,0,0,0,0,3,5,76,11
7,3,0,0,0,0,3,5,89,11
7,3,7,1,1,0,3,5,98,11
7,3,22,0,1,0,3,5,89,11
7,3,22,0,1,0,3,5,89,11
7,3,1,0,2,0,3,5,89,11
7,3,7,1,3,0,3,5,72,11
7,3,10,1,3,0,3,5,65,11
7,3,0,0,3,0,3,5,64,11
7,3,21,0,4,0,3,5,8,11
7,3,4,0,4,0,3,5,72,11
7,3,6,0,5,1,3,5,94,11
7,3,6,0,5,1,3,5,1,11
7,3,15,1,6,1,3,5,1,11
7,3,9,1,6,1,3,5,72,11
7,3,23,0,6,1,3,5,89,11
7,3,21,0,1,0,3,5,89,11
7,3,21,0,1,0,3,5,75,11
7,3,14,1,2,0,3,5,89,11
7,3,15,1,2,0,3,5,86,11
7,3,11,1,2,0,3,5,89,11
7,3,19,1,2,0,3,5,89,11
7,3,21,0,2,0,3,5,89,11
7,3,19,1,3,0,3,5,98,11
7,3,14,1,3,0,3,5,89,11
7,3,21,0,3,0,3,5,89,11
7,3,10,1,3,0,3,5,89,11
7,3,14,1,4,0,3,5,39,11
7,3,9,1,4,0,3,5,86,11
8,3,19,1,5,1,3,5,89,11
8,3,20,1,5,1,3,5,89,11
8,3,22,0,6,1,3,5,89,11
8,3,12,1,0,0,3,5,86,11
8,3,20,1,0,0,3,5,89,11
8,3,23,0,1,0,3,5,125,11
8,3,18,1,1,0,3,5,98,11
8,3,14,1,1,0,3,5,65,11
8,3,0,0,1,0,3,5,87,11
8,3,0,0,2,0,3,5,89,11
8,3,15,1,2,0,3,5,98,11
8,3,0,0,3,0,3,5,89,11
8,3,20,1,5,1,3,5,89,11
8,3,6,0,5,1,3,5,65,11
8,3,1,0,5,1,3,5,125,11
8,3,20,1,6,1,3,5,39,11
8,3,12,1,0,0,3,5,89,11
8,3,15,1,0,0,3,5,89,11
8,3,16,1,2,0,3,5,86,11
8,3,6,0,3,0,3,5,3,11
8,3,14,1,5,1,3,5,89,11
8,3,7,1,5,1,3,5,94,11
8,3,3,0,5,1,3,5,89,11
8,3,23,0,6,1,3,5,87,11
8,3,12,1,0,0,3,5,72,11
8,3,12,1,1,0,3,5,89,11
8,3,2,0,3,0,3,5,72,11
8,3,14,1,3,0,3,5,125,11
8,3,1,0,3,0,3,5,98,11
8,3,16,1,4,0,3,5,72,11
8,3,18,1,5,1,3,5,89,11
8,3,20,1,5,1,3,5,75,11
8,3,23,0,1,0,3,5,72,11
8,3,3,0,1,0,3,5,98,11
8,3,7,1,1,0,3,5,72,11
8,3,13,1,2,0,3,5,65,11
8,3,11,1,4,0,3,5,8,11
8,3,1,0,5,1,3,5,65,11
8,3,17,1,5,1,3,5,98,11
8,3,19,1,5,1,3,5,89,11
8,3,21,0,0,0,3,5,65,11
8,3,15,1,0,0,3,5,72,11
8,3,22,0,0,0,3,5,89,11
9,4,12,1,1,0,3,5,98,11
9,4,11,1,2,0,3,5,39,11
9,4,16,1,2,0,3,5,72,11
9,4,15,1,4,0,3,5,89,11
9,4,21,0,5,1,3,5,89,11
9,4,0,0,5,1,3,5,89,11
9,4,23,0,5,1,3,5,39,9
9,4,22,0,6,1,3,5,72,11
9,4,14,1,6,1,3,5,72,11
9,4,17,1,6,1,3,5,89,11
9,4,6,0,6,1,3,5,89,11
9,4,12,1,6,1,3,5,39,11
9,4,8,1,6,1,3,5,98,11
9,4,11,1,0,0,3,5,72,11
9,4,16,1,0,0,3,5,72,11
9,4,19,1,2,0,3,5,98,11
9,4,17,1,2,0,3,5,104,11
9,4,8,1,2,0,3,5,89,11
9,4,13,1,2,0,3,5,98,11
9,4,18,1,3,0,3,5,89,11
9,4,7,1,4,0,3,5,89,11
9,4,16,1,5,1,3,5,89,11
9,4,23,0,5,1,3,5,89,11
9,4,9,1,5,1,3,5,72,11
9,4,4,0,6,1,3,5,72,11
9,4,1,0,1,0,3,5,98,11
9,4,2,0,1,0,3,5,89,11
9,4,15,1,1,0,3,5,72,11
9,4,21,0,1,0,3,5,89,11
9,4,6,0,2,0,3,5,75,9
9,4,6,0,3,0,3,5,98,11
9,4,18,1,3,0,3,5,89,11
9,4,21,0,3,0,3,5,65,11
9,4,2,0,4,0,3,5,65,11
9,4,19,1,6,1,3,5,89,11
9,4,5,0,6,1,3,5,72,11
9,4,13,1,6,1,3,5,89,11
9,4,12,1,0,0,3,5,94,11
9,4,19,1,1,0,3,5,89,11
9,4,5,0,3,0,3,5,72,11
9,4,15,1,4,0,3,5,98,11
9,4,22,0,4,0,3,5,64,11
9,4,22,0,5,1,3,5,64,11
9,4,2,0,5,1,3,5,65,11
9,4,19,1,5,1,3,5,125,9
9,4,20,1,0,0,3,5,98,11
9,4,0,0,2,0,3,5,14,11
9,4,17,1,2,0,3,5,89,9
9,4,0,0,2,0,3,5,125,11
9,4,0,0,2,0,3,5,125,11
10,4,13,1,3,0,4,5,64,11
10,4,8,1,6,1,4,5,65,11
10,4,19,1,6,1,4,5,89,11
10,4,19,1,0,0,4,5,44,11
10,4,9,1,1,0,4,5,98,11
10,4,13,1,4,0,4,5,89,11
10,4,20,1,4,0,4,5,86,11
10,4,17,1,4,0,4,5,98,11
10,4,0,0,4,0,4,5,86,11
10,4,19,1,4,0,4,5,86,11
10,4,11,1,5,1,4,5,125,11
10,4,16,1,5,1,4,5,89,11
10,4,12,1,6,1,4,5,89,11
10,4,15,1,0,0,4,5,89,9
10,4,10,1,0,0,4,5,89,11
10,4,15,1,1,0,4,5,72,11
10,4,4,0,1,0,4,5,72,11
10,4,12,1,2,0,4,5,65,11
10,4,21,0,2,0,4,5,89,11
10,4,0,0,3,0,4,5,89,11
10,4,10,1,3,0,4,5,39,11
10,4,8,1,3,0,4,5,72,11
10,4,20,1,6,1,4,5,87,9
10,4,20,1,6,1,4,5,72,11
10,4,23,0,0,0,4,5,75,11
10,4,6,0,1,0,4,5,98,11
10,4,9,1,1,0,4,5,89,11
10,4,14,1,1,0,4,5,86,11
10,4,14,1,1,0,4,5,125,11
10,4,5,0,3,0,4,5,86,11
10,4,21,0,4,0,4,5,89,11
10,4,10,1,4,0,4,5,72,11
10,4,2,0,5,1,4,5,72,11
10,4,2,0,5,1,4,5,86,11
10,4,7,1,6,1,4,5,72,11
10,4,14,1,0,0,4,5,89,11
10,4,3,0,0,0,4,5,125,11
10,4,1,0,2,0,4,5,125,11
10,4,2,0,2,0,4,5,125,11
10,4,1,0,2,0,4,5,125,11
10,4,18,1,2,0,4,5,86,11
10,4,18,1,3,0,4,5,75,11
11,4,18,1,1,0,4,5,72,11
11,4,14,1,1,0,4,5,89,11
11,4,17,1,2,0,4,5,89,11
11,4,13,1,2,0,4,5,89,11
11,4,9,1,3,0,4,5,89,11
11,4,7,1,4,0,4,5,86,11
11,4,21,0,4,0,4,5,94,11
11,4,22,0,4,0,4,5,125,9
11,4,3,0,5,1,4,5,125,11
11,4,4,0,5,1,4,5,125,11
11,4,3,0,5,1,4,5,125,11
11,4,18,1,5,1,4,5,89,11
11,4,17,1,5,1,4,5,125,11
11,4,21,0,0,0,4,5,86,11
11,4,20,1,1,0,4,5,72,11
11,4,13,1,1,0,4,5,65,11
11,4,22,0,2,0,4,5,86,11
11,4,20,1,2,0,4,5,72,11
11,4,20,1,3,0,4,5,125,11
11,4,12,1,3,0,4,5,89,11
11,4,11,1,4,0,4,5,89,11
11,4,20,1,4,0,4,5,72,11
11,4,14,1,5,1,4,5,65,11
11,4,18,1,5,1,4,5,65,11
11,4,21,0,5,1,4,5,125,11
11,4,21,0,5,1,4,5,125,9
11,4,21,0,5,1,4,5,125,9
11,4,18,1,5,1,4,5,89,11
11,4,20,1,5,1,4,5,125,11
11,4,21,0,6,1,4,5,86,11
11,4,21,0,6,1,4,5,86,11
11,4,20,1,6,1,4,5,86,11
11,4,21,0,6,1,4,5,125,11
11,4,10,1,6,1,4,5,8,11
11,4,19,1,0,0,4,5,86,11
11,4,23,0,1,0,4,5,72,11
11,4,21,0,1,0,4,5,125,11
11,4,17,1,1,0,4,5,89,11
11,4,20,1,1,0,4,5,72,11
11,4,23,0,2,0,4,5,64,11
11,4,20,1,2,0,4,5,125,11
11,4,17,1,2,0,4,5,98,11
11,4,4,0,2,0,4,5,125,11
11,4,20,1,3,0,4,5,86,11
11,4,20,1,3,0,4,5,86,11
11,4,16,1,4,0,4,5,89,11
11,4,21,0,4,0,4,5,125,11
11,4,1,0,4,0,4,5,89,11
11,4,17,1,6,1,4,5,94,11
11,4,22,0,0,0,4,5,94,11
11,4,19,1,0,0,4,5,65,11
11,4,21,0,1,0,4,5,98,11
11,4,12,1,1,0,4,5,8,11
11,4,21,0,1,0,4,5,98,11
11,4,19,1,4,0,4,5,65,9
11,4,9,1,5,1,4,5,56,11
11,4,21,0,0,0,4,5,65,11
12,1,16,1,1,0,4,5,86,11
12,1,11,1,1,0,4,5,125,11
12,1,19,1,1,0,4,5,86,11
12,1,17,1,2,0,4,5,65,11
12,1,17,1,3,0,4,5,89,11
12,1,18,1,3,0,4,5,65,11
12,1,2,0,3,0,4,5,72,9
12,1,17,1,4,0,4,5,65,11
12,1,7,1,5,1,4,5,65,11
12,1,19,1,5,1,4,5,86,11
12,1,14,1,5,1,4,5,65,11
12,1,20,1,5,1,4,5,72,9
12,1,4,0,6,1,4,5,72,9
12,1,17,1,6,1,4,5,39,11
12,1,18,1,3,0,4,5,47,11
12,1,13,1,4,0,4,5,65,9
12,1,15,1,5,1,4,5,65,11
12,1,11,1,5,1,4,5,125,11
12,1,12,1,6,1,4,5,86,11
12,1,0,0,6,1,4,5,65,11
12,1,15,1,6,1,4,5,125,11
12,1,23,0,6,1,4,5,86,11
12,1,23,0,6,1,4,5,86,11
12,1,23,0,0,0,4,5,98,11
12,1,18,1,4,0,4,5,65,11
12,1,16,1,6,1,4,5,98,11
12,1,12,1,6,1,4,5,98,11
12,1,13,1,1,0,4,5,125,11
12,1,8,1,1,0,4,5,65,11
12,1,19,1,1,0,4,5,65,11
12,1,3,0,2,0,4,5,125,11
12,1,3,0,2,0,4,5,125,11
12,1,9,1,2,0,4,5,8,11
12,1,21,0,2,0,4,5,98,11
1,1,0,0,2,0,1,5,65,9
1,1,14,1,2,0,1,5,75,11
1,1,8,1,4,0,1,5,86,11
1,1,18,1,6,1,1,5,86,11
1,1,1,0,0,0,1,5,86,11
1,1,10,1,5,1,1,5,3,11
1,1,3,0,5,1,1,5,65,8
1,1,2,0,6,1,1,5,94,11
1,1,10,1,6,1,1,5,86,11
1,1,19,1,0,0,1,5,75,9
1,1,1,0,1,0,1,5,86,11
1,1,14,1,3,0,1,5,39,11
1,1,10,1,3,0,1,5,86,11
1,1,19,1,4,0,1,5,75,11
1,1,13,1,5,1,1,5,89,11
1,1,19,1,2,0,1,5,89,11
1,1,18,1,4,0,1,5,75,11
2,1,9,1,1,0,1,5,89,11
2,1,0,0,3,0,1,5,86,11
2,1,16,1,3,0,1,5,39,8
2,1,18,1,0,0,1,5,86,11
2,1,13,1,1,0,1,5,98,11
2,1,19,1,4,0,1,5,65,11
2,1,7,1,5,1,1,5,94,11
2,1,16,1,6,1,1,5,94,11
2,1,12,1,6,1,1,5,89,11
2,1,17,1,6,1,1,5,19,8
2,1,21,0,4,0,1,5,65,11
2,1,16,1,5,1,1,5,39,11
2,1,16,1,5,1,1,5,94,11
2,1,14,1,6,1,1,5,39,11
2,1,16,1,2,0,1,5,86,11
2,1,12,1,3,0,1,5,39,11
3,2,0,0,6,1,1,5,19,11
3,2,21,0,2,0,1,5,14,11
3,2,12,1,4,0,1,5,89,11
3,2,17,1,4,0,1,5,98,11
3,2,11,1,5,1,1,5,89,11
3,2,20,1,5,1,1,5,39,11
3,2,11,1,3,0,1,5,89,11
3,2,18,1,4,0,1,5,65,11
3,2,18,1,6,1,1,5,75,11
3,2,19,1,0,0,1,5,75,11
3,2,21,0,0,0,1,5,75,11
3,2,22,0,1,0,1,5,86,11
3,2,22,0,1,0,1,5,86,11
3,2,9,1,2,0,1,5,89,11
3,2,19,1,3,0,1,5,89,11
3,2,18,1,4,0,1,5,65,11
3,2,19,1,5,1,1,5,75,11
3,2,19,1,1,0,1,5,75,11
3,2,18,1,2,0,1,5,75,11
3,2,17,1,4,0,1,5,75,11
3,2,19,1,5,1,1,5,75,11
4,2,13,1,2,0,2,5,89,11
4,2,8,1,5,1,2,5,86,11
4,2,17,1,6,1,2,5,86,11
4,2,9,1,6,1,2,5,86,11
4,2,15,1,1,0,2,5,86,11
4,2,23,0,2,0,2,5,75,11
4,2,18,1,0,0,2,5,89,11
4,2,2,0,4,0,2,5,86,11
4,2,2,0,4,0,2,5,86,11
4,2,8,1,6,1,2,5,39,11
4,2,19,1,0,0,2,5,86,11
4,2,13,1,4,0,2,5,75,11
4,2,1,0,0,0,2,5,98,11
5,2,14,1,1,0,2,5,89,11
5,2,18,1,2,0,2,5,89,11
5,2,1,0,3,0,2,5,89,11
5,2,10,1,5,1,2,5,98,11
5,2,19,1,0,0,2,5,89,8
5,2,15,1,1,0,2,5,89,11
5,2,13,1,4,0,2,5,86,11
5,2,13,1,5,1,2,5,89,11
5,2,13,1,6,1,2,5,75,11
5,2,15,1,5,1,2,5,89,11
5,2,6,0,5,1,2,5,14,8
5,2,21,0,6,1,2,5,89,11
6,3,12,1,1,0,2,5,65,11
6,3,17,1,0,0,2,5,86,11
6,3,1,0,3,0,2,5,125,11
6,3,3,0,4,0,2,5,101,11
6,3,13,1,6,1,2,5,89,11
6,3,20,1,4,0,2,5,122,11
6,3,0,0,4,0,2,5,89,11
6,3,2,0,5,1,2,5,86,11
6,3,22,0,2,0,2,5,89,11
6,3,22,0,5,1,2,5,86,11
6,3,18,1,6,1,2,5,89,11
6,3,7,1,1,0,2,5,65,11
6,3,15,1,1,0,2,5,89,11
7,3,6,0,2,0,3,5,89,11
7,3,10,1,2,0,3,5,86,11
7,3,9,1,2,0,3,5,89,11
7,3,2,0,4,0,3,5,89,11
7,3,22,0,4,0,3,5,89,11
7,3,0,0,5,1,3,5,89,11
7,3,2,0,5,1,3,5,89,11
7,3,2,0,5,1,3,5,89,11
7,3,14,1,5,1,3,5,65,11
7,3,20,1,5,1,3,5,86,11
7,3,0,0,6,1,3,5,89,11
7,3,0,0,6,1,3,5,89,11
7,3,1,0,6,1,3,5,89,11
7,3,1,0,6,1,3,5,89,11
7,3,2,0,6,1,3,5,89,11
7,3,2,0,6,1,3,5,89,11
7,3,1,0,0,0,3,5,89,11
7,3,1,0,0,0,3,5,89,11
7,3,19,1,0,0,3,5,89,11
7,3,10,1,0,0,3,5,65,11
7,3,1,0,0,0,3,5,89,8
7,3,1,0,0,0,3,5,89,8
7,3,22,0,1,0,3,5,75,11
7,3,21,0,2,0,3,5,86,11
7,3,10,1,5,1,3,5,56,11
7,3,1,0,1,0,3,5,89,11
7,3,2,0,3,0,3,5,89,11
7,3,14,1,4,0,3,5,39,11
7,3,13,1,6,1,3,5,86,11
7,3,3,0,0,0,3,5,86,11
7,3,21,0,4,0,3,5,86,11
7,3,6,0,5,1,3,5,47,11
7,3,4,0,5,1,3,5,86,11
7,3,21,0,1,0,3,5,89,11
7,3,22,0,1,0,3,5,86,11
7,3,6,0,4,0,3,5,1,11
7,3,8,1,4,0,3,5,65,11
8,3,18,1,6,1,3,5,89,11
8,3,22,0,6,1,3,5,89,11
8,3,16,1,3,0,3,5,14,11
8,3,13,1,1,0,3,5,89,9
8,3,15,1,3,0,3,5,86,11
8,3,11,1,3,0,3,5,86,11
8,3,23,0,4,0,3,5,89,11
8,3,18,1,0,0,3,5,106,11
8,3,10,1,1,0,3,5,19,11
8,3,2,0,4,0,3,5,96,11
8,3,16,1,4,0,3,5,86,11
8,3,17,1,6,1,3,5,98,11
8,3,18,1,6,1,3,5,98,11
8,3,15,1,0,0,3,5,89,11
9,4,16,1,1,0,3,5,89,11
9,4,0,0,1,0,3,5,19,8
9,4,1,0,1,0,3,5,19,8
9,4,15,1,3,0,3,5,89,11
9,4,15,1,3,0,3,5,89,11
9,4,17,1,5,1,3,5,125,11
9,4,16,1,5,1,3,5,89,11
9,4,18,1,5,1,3,5,89,11
9,4,20,1,5,1,3,5,65,11
9,4,20,1,2,0,3,5,3,11
9,4,1,0,3,0,3,5,86,11
9,4,8,1,5,1,3,5,125,11
9,4,10,1,0,0,3,5,89,11
9,4,6,0,1,0,3,5,89,11
9,4,5,0,1,0,3,5,86,11
9,4,5,0,1,0,3,5,86,11
9,4,6,0,1,0,3,5,86,11
9,4,17,1,1,0,3,5,89,11
9,4,6,0,1,0,3,5,86,11
9,4,5,0,1,0,3,5,86,11
9,4,20,1,4,0,3,5,65,11
9,4,13,1,4,0,3,5,42,9
9,4,13,1,0,0,3,5,89,8
10,4,19,1,4,0,4,5,89,11
10,4,15,1,0,0,4,5,89,11
10,4,23,0,3,0,4,5,65,11
10,4,16,1,4,0,4,5,65,11
10,4,14,1,5,1,4,5,98,11
10,4,0,0,5,1,4,5,56,11
10,4,16,1,6,1,4,5,89,8
10,4,16,1,0,0,4,5,89,9
10,4,14,1,0,0,4,5,75,11
10,4,23,0,1,0,4,5,39,11
10,4,5,0,2,0,4,5,39,11
10,4,22,0,2,0,4,5,125,11
10,4,3,0,5,1,4,5,19,11
10,4,23,0,5,1,4,5,86,11
10,4,17,1,0,0,4,5,89,11
10,4,18,1,1,0,4,5,86,11
11,4,0,0,5,1,4,5,121,11
11,4,23,0,5,1,4,5,39,11
11,4,10,1,6,1,4,5,89,8
11,4,8,1,6,1,4,5,89,11
11,4,7,1,6,1,4,5,86,11
11,4,1,0,1,0,4,5,86,11
11,4,17,1,1,0,4,5,86,11
11,4,4,0,2,0,4,5,89,11
11,4,18,1,2,0,4,5,86,11
11,4,9,1,2,0,4,5,86,11
11,4,17,1,3,0,4,5,75,11
11,4,11,1,3,0,4,5,86,11
11,4,16,1,4,0,4,5,98,11
11,4,9,1,5,1,4,5,89,11
11,4,13,1,6,1,4,5,65,11
11,4,16,1,4,0,4,5,86,11
12,1,20,1,1,0,4,5,86,11
12,1,8,1,3,0,4,5,47,11
12,1,0,0,5,1,4,5,106,11
12,1,15,1,5,1,4,5,65,11
12,1,20,1,6,1,4,5,86,11
12,1,17,1,6,1,4,5,1,11
12,1,0,0,0,0,4,5,125,11
12,1,11,1,1,0,4,5,89,11
12,1,15,1,2,0,4,5,19,11
12,1,11,1,5,1,4,5,86,11
12,1,12,1,4,0,4,5,86,11
12,1,15,1,5,1,4,5,45,11
12,1,2,0,5,1,4,5,86,11
12,1,21,0,0,0,4,5,65,8
12,1,3,0,4,0,4,5,86,11
12,1,3,0,5,1,4,5,39,11
12,1,10,1,6,1,4,5,89,11
12,1,20,1,6,1,4,5,86,11
12,1,16,1,6,1,4,5,89,11
12,1,8,1,0,0,4,5,86,11
12,1,16,1,2,0,4,5,39,11
12,1,17,1,3,0,4,5,65,11
12,1,15,1,3,0,4,5,65,11
1,1,22,0,6,1,1,5,17,11
1,1,13,1,0,0,1,5,98,11
1,1,17,1,1,0,1,5,39,11
1,1,18,1,4,0,1,5,89,11
1,1,12,1,6,1,1,5,75,11
1,1,13,1,4,0,1,5,39,11
1,1,15,1,5,1,1,5,89,11
1,1,1,0,0,0,1,5,89,11
2,1,17,1,5,1,1,5,89,11
2,1,22,0,4,0,1,5,98,11
2,1,11,1,0,0,1,5,98,11
2,1,12,1,2,0,1,5,19,11
2,1,19,1,5,1,1,5,89,11
2,1,22,0,6,1,1,5,89,11
2,1,17,1,3,0,1,5,89,11
2,1,6,0,4,0,1,5,125,11
2,1,1,0,4,0,1,5,77,9
3,2,12,1,0,0,1,5,89,9
3,2,3,0,2,0,1,5,72,11
3,2,21,0,3,0,1,5,89,11
3,2,23,0,5,1,1,5,75,11
3,2,14,1,0,0,1,5,75,11
3,2,23,0,0,0,1,5,125,11
3,2,23,0,1,0,1,5,89,11
3,2,13,1,2,0,1,5,75,9
3,2,1,0,3,0,1,5,96,11
3,2,0,0,4,0,1,5,124,11
3,2,11,1,6,1,1,5,68,11
3,2,18,1,2,0,1,5,75,11
4,2,21,0,6,1,2,5,89,11
4,2,12,1,4,0,2,5,98,11
4,2,22,0,5,1,2,5,89,11
4,2,23,0,5,1,2,5,98,11
4,2,21,0,6,1,2,5,89,11
5,2,15,1,1,0,2,5,75,11
5,2,9,1,3,0,2,5,75,11
5,2,19,1,0,0,2,5,89,11
5,2,21,0,5,1,2,5,89,11
5,2,15,1,5,1,2,5,125,11
6,3,9,1,4,0,2,5,89,11
6,3,2,0,5,1,2,5,89,11
6,3,16,1,0,0,2,5,89,11
6,3,14,1,3,0,2,5,89,11
6,3,20,1,3,0,2,5,89,11
6,3,12,1,1,0,2,5,89,11
6,3,13,1,1,0,2,5,89,11
6,3,8,1,2,0,2,5,98,11
6,3,18,1,5,1,2,5,3,11
7,3,21,0,6,1,3,5,72,11
7,3,19,1,6,1,3,5,89,11
7,3,0,0,0,0,3,5,89,11
7,3,3,0,5,1,3,5,127,11
7,3,17,1,5,1,3,5,89,9
7,3,0,0,1,0,3,5,89,11
7,3,11,1,2,0,3,5,89,11
8,3,11,1,6,1,3,5,72,11
8,3,18,1,1,0,3,5,89,11
8,3,22,0,3,0,3,5,75,9
8,3,11,1,5,1,3,5,89,11
8,3,15,1,2,0,3,5,78,11
8,3,4,0,5,1,3,5,125,11
8,3,9,1,6,1,3,5,89,11
8,3,21,0,6,1,3,5,89,11
8,3,22,0,1,0,3,5,98,11
8,3,12,1,6,1,3,5,75,11
8,3,3,0,1,0,3,5,75,9
8,3,18,1,0,0,3,5,89,9
9,4,5,0,1,0,3,5,89,11
9,4,22,0,4,0,3,5,89,11
9,4,19,1,6,1,3,5,89,9
9,4,8,1,3,0,3,5,89,11
9,4,16,1,4,0,3,5,89,11
9,4,0,0,6,1,3,5,89,9
9,4,21,0,6,1,3,5,64,11
10,4,14,1,5,1,4,5,89,11
11,4,15,1,2,0,4,5,125,11
11,4,14,1,0,0,4,5,106,11
11,4,8,1,4,0,4,5,89,11
11,4,10,1,4,0,4,5,89,11
11,4,18,1,0,0,4,5,19,11
11,4,15,1,4,0,4,5,65,9
11,4,11,1,6,1,4,5,89,11
12,1,18,1,2,0,4,5,89,11
12,1,22,0,5,1,4,5,125,11
1,1,20,1,2,0,1,5,86,11
1,1,10,1,2,0,1,5,98,11
2,1,15,1,5,1,1,5,75,11
3,2,16,1,6,1,1,5,89,11
3,2,15,1,5,1,1,5,89,11
5,2,12,1,6,1,2,5,86,11
5,2,6,0,4,0,2,5,98,11
5,2,19,1,4,0,2,5,89,11
6,3,17,1,0,0,2,5,89,8
7,3,10,1,3,0,3,5,19,11
7,3,19,1,5,1,3,5,125,11
7,3,14,1,4,0,3,5,125,11
10,4,8,1,6,1,4,5,89,11
10,4,17,1,1,0,4,5,89,9
10,4,14,1,3,0,4,5,89,11
11,4,18,1,1,0,4,5,89,11
11,4,17,1,5,1,4,5,89,11
11,4,12,1,0,0,4,5,89,11
11,4,18,1,0,0,4,5,89,11
12,1,17,1,2,0,4,5,89,11
12,1,18,1,2,0,4,5,89,11
12,1,8,1,2,0,4,5,19,11
12,1,13,1,2,0,4,5,89,11
12,1,9,1,3,0,4,5,78,11
12,1,14,1,5,1,4,5,19,11
12,1,19,1,1,0,4,5,89,11
12,1,16,1,5,1,4,5,86,11
1,1,18,1,2,0,1,5,65,11
1,1,0,0,2,0,1,5,86,11
1,1,15,1,4,0,1,5,86,11
1,1,19,1,0,0,1,5,65,11
1,1,19,1,2,0,1,5,103,11
1,1,13,1,2,0,1,5,79,11
1,1,10,1,5,1,1,5,86,11
1,1,10,1,5,1,1,5,86,11
1,1,23,0,3,0,1,5,86,11
1,1,20,1,6,1,1,5,86,11
1,1,22,0,0,0,1,5,86,11
2,1,5,0,2,0,1,5,75,9
2,1,17,1,4,0,1,5,23,11
2,1,19,1,2,0,1,5,89,11
2,1,0,0,1,0,1,5,86,11
2,1,10,1,1,0,1,5,86,11
2,1,12,1,1,0,1,5,96,11
2,1,14,1,1,0,1,5,86,11
3,2,23,0,2,0,1,5,86,11
3,2,13,1,4,0,1,5,8,11
3,2,12,1,6,1,1,5,39,11
3,2,18,1,0,0,1,5,65,11
4,2,11,1,3,0,2,5,65,11
4,2,21,0,2,0,2,5,56,9
4,2,22,0,3,0,2,5,86,11
4,2,20,1,3,0,2,5,89,11
4,2,21,0,4,0,2,5,72,11
5,2,12,1,5,1,2,5,109,11
5,2,12,1,6,1,2,5,86,11
5,2,16,1,0,0,2,5,65,11
5,2,11,1,5,1,2,5,86,11
5,2,20,1,3,0,2,5,86,11
5,2,6,0,1,0,2,5,86,11
6,3,16,1,0,0,2,5,86,11
6,3,12,1,1,0,2,5,86,11
6,3,18,1,0,0,2,5,89,11
6,3,16,1,1,0,2,5,86,11
6,3,19,1,1,0,2,5,86,11
6,3,16,1,3,0,2,5,86,11
6,3,3,0,5,1,2,5,86,11
6,3,13,1,0,0,2,5,23,9
6,3,13,1,1,0,2,5,65,11
7,3,16,1,5,1,3,5,75,11
7,3,8,1,5,1,3,5,101,9
7,3,17,1,0,0,3,5,86,11
7,3,8,1,0,0,3,5,65,11
7,3,0,0,1,0,3,5,86,11
7,3,18,1,4,0,3,5,86,11
7,3,7,1,6,1,3,5,86,11
7,3,19,1,3,0,3,5,65,11
8,3,12,1,0,0,3,5,14,11
8,3,11,1,6,1,3,5,86,11
9,4,7,1,2,0,3,5,103,11
9,4,10,1,3,0,3,5,78,11
9,4,19,1,3,0,3,5,65,11
9,4,10,1,3,0,3,5,65,11
9,4,11,1,0,0,3,5,86,11
9,4,10,1,4,0,3,5,89,11
9,4,10,1,1,0,3,5,86,11
10,4,23,0,6,1,4,5,86,11
10,4,11,1,1,0,4,5,65,11
10,4,13,1,3,0,4,5,86,11
10,4,14,1,0,0,4,5,86,11
10,4,18,1,5,1,4,5,56,11
11,4,20,1,3,0,4,5,56,11
11,4,2,0,6,1,4,5,86,11
11,4,22,0,2,0,4,5,86,11
11,4,17,1,5,1,4,5,89,11
11,4,1,0,5,1,4,5,56,11
12,1,16,1,2,0,4,5,14,11
12,1,17,1,4,0,4,5,65,11
12,1,23,0,1,0,4,5,86,11
12,1,5,0,6,1,4,5,86,11
12,1,18,1,3,0,4,5,86,11
1,1,15,1,4,0,1,5,75,8
1,1,22,0,5,1,1,5,8,8
1,1,18,1,6,1,1,5,82,11
1,1,14,1,1,0,1,5,1,9
1,1,16,1,4,0,1,5,102,11
1,1,21,0,0,0,1,5,86,11
1,1,1,0,3,0,1,5,86,11
1,1,15,1,4,0,1,5,65,11
2,1,21,0,6,1,1,5,86,11
2,1,14,1,5,1,1,5,65,11
2,1,21,0,4,0,1,5,86,11
2,1,23,0,6,1,1,5,125,11
2,1,0,0,0,0,1,5,86,11
2,1,0,0,0,0,1,5,19,11
2,1,2,0,4,0,1,5,86,11
2,1,12,1,5,1,1,5,86,11
2,1,3,0,5,1,1,5,86,11
3,2,0,0,0,0,1,5,65,11
3,2,23,0,0,0,1,5,86,11
3,2,11,1,0,0,1,5,65,11
3,2,1,0,1,0,1,5,65,11
3,2,15,1,3,0,1,5,65,11
3,2,12,1,6,1,1,5,65,11
3,2,9,1,6,1,1,5,65,11
3,2,21,0,0,0,1,5,8,11
3,2,10,1,4,0,1,5,8,11
3,2,23,0,4,0,1,5,65,9
3,2,16,1,5,1,1,5,65,11
3,2,21,0,2,0,1,5,86,11
3,2,7,1,4,0,1,5,65,11
4,2,17,1,2,0,2,5,98,11
4,2,23,0,2,0,2,5,86,11
4,2,0,0,2,0,2,5,56,8
4,2,4,0,6,1,2,5,9,11
4,2,5,0,1,0,2,5,86,11
4,2,21,0,5,1,2,5,86,11
4,2,5,0,6,1,2,5,65,11
4,2,5,0,1,0,2,5,19,9
4,2,22,0,1,0,2,5,68,9
4,2,9,1,3,0,2,5,65,8
5,2,10,1,4,0,2,5,75,11
5,2,21,0,5,1,2,5,64,11
5,2,21,0,1,0,2,5,72,11
5,2,7,1,4,0,2,5,86,11
5,2,15,1,4,0,2,5,65,11
5,2,16,1,5,1,2,5,86,11
5,2,14,1,5,1,2,5,65,11
5,2,22,0,3,0,2,5,8,11
6,3,2,0,4,0,2,5,125,11
6,3,20,1,5,1,2,5,19,11
6,3,16,1,6,1,2,5,86,11
6,3,23,0,6,1,2,5,86,11
6,3,23,0,6,1,2,5,86,11
6,3,3,0,6,1,2,5,19,9
7,3,8,1,2,0,3,5,8,11
7,3,1,0,3,0,3,5,86,11
7,3,1,0,2,0,3,5,65,11
7,3,1,0,3,0,3,5,19,11
7,3,18,1,4,0,3,5,82,11
7,3,2,0,6,1,3,5,86,9
7,3,10,1,0,0,3,5,86,11
7,3,17,1,0,0,3,5,19,11
7,3,23,0,1,0,3,5,65,11
7,3,10,1,2,0,3,5,77,9
7,3,9,1,5,1,3,5,65,8
7,3,15,1,4,0,3,5,98,11
7,3,14,1,4,0,3,5,98,11
7,3,17,1,4,0,3,5,106,11
8,3,2,0,0,0,3,5,8,9
8,3,17,1,6,1,3,5,8,11
8,3,6,0,5,1,3,5,86,11
8,3,22,0,5,1,3,5,86,11
8,3,15,1,5,1,3,5,86,11
9,4,14,1,6,1,3,5,65,9
9,4,1,0,3,0,3,5,94,11
9,4,23,0,5,1,3,5,56,9
10,4,10,1,1,0,4,5,19,11
10,4,16,1,5,1,4,5,86,11
10,4,15,1,3,0,4,5,71,11
10,4,10,1,4,0,4,5,87,11
11,4,15,1,4,0,4,5,54,8
11,4,7,1,0,0,4,5,86,11
11,4,10,1,2,0,4,5,65,11
11,4,20,1,0,0,4,5,65,11
12,1,19,1,0,0,4,5,86,11
12,1,23,0,6,1,4,5,86,11
12,1,0,0,1,0,4,5,72,9
12,1,20,1,3,0,4,5,86,11
12,1,5,0,2,0,4,5,65,9
1,1,21,0,2,0,1,5,65,11
1,1,14,1,0,0,1,5,65,11
1,1,7,1,0,0,1,5,75,9
1,1,3,0,1,0,1,5,89,11
1,1,11,1,1,0,1,5,65,11
1,1,14,1,3,0,1,5,98,11
1,1,11,1,4,0,1,5,19,11
2,1,12,1,5,1,1,5,47,11
2,1,4,0,6,1,1,5,19,11
2,1,21,0,5,1,1,5,125,11
2,1,15,1,5,1,1,5,19,11
2,1,11,1,0,0,1,5,94,11
3,2,23,0,6,1,1,5,19,11
3,2,16,1,1,0,1,5,94,11
3,2,2,0,0,0,1,5,65,11
4,2,6,0,0,0,2,5,106,11
4,2,11,1,0,0,2,5,65,11
4,2,21,0,5,1,2,5,75,11
4,2,21,0,6,1,2,5,65,11
5,2,4,0,2,0,2,5,125,11
5,2,12,1,0,0,2,5,19,11
5,2,11,1,3,0,2,5,89,11
5,2,12,1,3,0,2,5,98,11
6,3,23,0,5,1,2,5,89,11
6,3,17,1,5,1,2,5,86,11
6,3,17,1,1,0,2,5,89,11
6,3,10,1,1,0,2,5,125,11
6,3,13,1,5,1,2,5,65,11
6,3,19,1,0,0,2,5,89,11
6,3,21,0,1,0,2,5,89,11
6,3,21,0,3,0,2,5,89,11
6,3,12,1,4,0,2,5,89,11
6,3,20,1,4,0,2,5,19,11
6,3,17,1,4,0,2,5,65,11
6,3,15,1,4,0,2,5,39,11
6,3,3,0,5,1,2,5,39,11
6,3,13,1,6,1,2,5,45,11
6,3,2,0,2,0,2,5,18,11
6,3,18,1,5,1,2,5,65,11
6,3,16,1,0,0,2,5,89,11
7,3,1,0,5,1,3,5,86,11
7,3,4,0,5,1,3,5,39,11
7,3,1,0,0,0,3,5,94,11
7,3,15,1,0,0,3,5,65,11
7,3,18,1,5,1,3,5,93,11
8,3,14,1,1,0,3,5,65,11
8,3,19,1,1,0,3,5,65,11
8,3,19,1,3,0,3,5,75,11
8,3,0,0,4,0,3,5,94,11
8,3,20,1,5,1,3,5,89,11
8,3,23,0,6,1,3,5,65,9
8,3,1,0,0,0,3,5,86,11
8,3,20,1,0,0,3,5,75,11
8,3,1,0,0,0,3,5,125,11
9,4,3,0,1,0,3,5,89,11
9,4,4,0,1,0,3,5,125,11
9,4,21,0,1,0,3,5,14,11
9,4,2,0,2,0,3,5,125,11
9,4,9,1,4,0,3,5,86,11
9,4,20,1,6,1,3,5,65,11
9,4,0,0,0,0,3,5,125,11
9,4,1,0,0,0,3,5,125,11
9,4,10,1,6,1,3,5,125,11
10,4,17,1,0,0,4,5,9,11
10,4,2,0,6,1,4,5,125,11
10,4,5,0,6,1,4,5,94,11
10,4,22,0,0,0,4,5,86,11
10,4,1,0,3,0,4,5,125,11
10,4,22,0,5,1,4,5,19,11
10,4,21,0,3,0,4,5,87,11
11,4,0,0,1,0,4,5,57,11
11,4,14,1,5,1,4,5,75,9
11,4,2,0,0,0,4,5,125,11
11,4,2,0,0,0,4,5,125,11
11,4,3,0,0,0,4,5,125,11
12,1,5,0,6,1,4,5,86,8
12,1,1,0,2,0,4,5,125,11
12,1,1,0,6,1,4,5,125,11
1,1,13,1,1,0,1,5,39,11
1,1,3,0,4,0,1,5,89,11
2,1,8,1,2,0,1,5,19,11
2,1,17,1,6,1,1,5,98,11
2,1,17,1,6,1,1,5,98,11
2,1,5,0,1,0,1,5,89,11
2,1,9,1,5,1,1,5,94,11
2,1,5,0,6,1,1,5,97,9
2,1,21,0,5,1,1,5,89,11
3,2,16,1,3,0,1,5,83,9
3,2,13,1,5,1,1,5,39,11
3,2,6,0,6,1,1,5,8,11
3,2,21,0,4,0,1,5,65,11
3,2,6,0,3,0,1,5,77,11
4,2,11,1,5,1,2,5,75,11
4,2,20,1,5,1,2,5,89,11
4,2,21,0,6,1,2,5,65,11
4,2,16,1,0,0,2,5,65,11
4,2,2,0,1,0,2,5,89,11
4,2,11,1,6,1,2,5,65,11
4,2,14,1,2,0,2,5,14,11
5,2,4,0,4,0,2,5,87,11
5,2,2,0,6,1,2,5,95,11
5,2,14,1,1,0,2,5,89,11
5,2,14,1,4,0,2,5,89,9
5,2,0,0,5,1,2,5,89,9
5,2,21,0,0,0,2,5,89,11
5,2,4,0,2,0,2,5,87,11
5,2,10,1,6,1,2,5,39,11
6,3,18,1,1,0,2,5,39,11
6,3,20,1,5,1,2,5,98,9
6,3,14,1,4,0,2,5,75,11
6,3,15,1,5,1,2,5,65,11
6,3,23,0,6,1,2,5,89,9
6,3,15,1,6,1,2,5,89,11
6,3,23,0,6,1,2,5,89,11
7,3,14,1,4,0,3,5,94,11
7,3,1,0,1,0,3,5,89,11
7,3,3,0,3,0,3,5,89,11
7,3,8,1,6,1,3,5,111,9
7,3,10,1,2,0,3,5,89,11
7,3,9,1,3,0,3,5,127,11
8,3,16,1,3,0,3,5,65,11
8,3,16,1,5,1,3,5,19,11
8,3,0,0,5,1,3,5,86,11
8,3,16,1,0,0,3,5,75,9
8,3,1,0,0,0,3,5,15,9
8,3,13,1,2,0,3,5,89,11
8,3,18,1,3,0,3,5,75,9
8,3,5,0,5,1,3,5,39,11
8,3,18,1,6,1,3,5,89,11
8,3,9,1,6,1,3,5,89,11
8,3,13,1,0,0,3,5,83,11
9,4,7,1,2,0,3,5,89,11
9,4,15,1,3,0,3,5,89,11
9,4,20,1,3,0,3,5,89,11
9,4,0,0,4,0,3,5,89,11
9,4,23,0,6,1,3,5,89,11
9,4,18,1,1,0,3,5,76,11
9,4,4,0,1,0,3,5,89,11
9,4,2,0,1,0,3,5,89,11
9,4,3,0,3,0,3,5,89,11
9,4,1,0,5,1,3,5,89,11
9,4,21,0,5,1,3,5,89,11
9,4,12,1,5,1,3,5,89,11
9,4,15,1,1,0,3,5,89,11
9,4,20,1,5,1,3,5,72,11
9,4,3,0,4,0,3,5,89,11
9,4,0,0,0,0,3,5,89,11
10,4,2,0,0,0,4,5,89,11
10,4,4,0,0,0,4,5,89,11
10,4,3,0,0,0,4,5,89,11
10,4,4,0,6,1,4,5,89,9
10,4,21,0,0,0,4,5,89,11
10,4,2,0,2,0,4,5,89,11
10,4,1,0,5,1,4,5,89,11
11,4,21,0,6,1,4,5,1,11
11,4,23,0,6,1,4,5,86,11
11,4,1,0,0,0,4,5,19,11
11,4,17,1,5,1,4,5,89,11
12,1,13,1,3,0,4,5,89,11
12,1,22,0,6,1,4,5,89,11
12,1,8,1,4,0,4,5,1,9
12,1,5,0,5,1,4,5,83,11
12,1,10,1,6,1,4,5,86,11
12,1,12,1,3,0,4,5,65,11
1,1,12,1,4,0,1,5,14,11
1,1,15,1,6,1,1,5,86,11
1,1,9,1,1,0,1,5,56,11
1,1,21,0,1,0,1,5,75,11
1,1,2,0,3,0,1,5,86,11
1,1,3,0,3,0,1,5,125,11
1,1,10,1,3,0,1,5,125,11
1,1,11,1,3,0,1,5,125,11
1,1,11,1,4,0,1,5,72,11
1,1,18,1,5,1,1,5,89,9
1,1,13,1,6,1,1,5,75,11
1,1,13,1,6,1,1,5,75,9
1,1,11,1,0,0,1,5,72,11
1,1,5,0,1,0,1,5,103,9
1,1,19,1,1,0,1,5,39,11
1,1,12,1,3,0,1,5,75,11
1,1,12,1,5,1,1,5,75,9
1,1,6,0,2,0,1,5,72,9
2,1,14,1,6,1,1,5,72,11
2,1,18,1,6,1,1,5,98,11
2,1,0,0,1,0,1,5,19,11
2,1,3,0,1,0,1,5,19,11
2,1,17,1,3,0,1,5,14,11
2,1,7,1,4,0,1,5,19,11
2,1,18,1,5,1,1,5,89,11
2,1,21,0,6,1,1,5,125,11
2,1,14,1,0,0,1,5,19,11
2,1,13,1,1,0,1,5,89,11
2,1,6,0,1,0,1,5,89,11
2,1,13,1,2,0,1,5,89,11
2,1,13,1,3,0,1,5,78,11
3,2,9,1,6,1,1,5,19,11
3,2,22,0,6,1,1,5,89,11
3,2,8,1,1,0,1,5,89,11
3,2,17,1,5,1,1,5,23,11
3,2,8,1,0,0,1,5,86,11
3,2,20,1,2,0,1,5,86,11
3,2,16,1,1,0,1,5,47,11
3,2,23,0,3,0,1,5,72,11
3,2,21,0,4,0,1,5,89,11
3,2,10,1,1,0,1,5,87,11
4,2,17,1,4,0,2,5,86,11
4,2,9,1,3,0,2,5,89,11
4,2,12,1,2,0,2,5,89,11
4,2,2,0,5,1,2,5,125,11
4,2,15,1,5,1,2,5,89,11
4,2,23,0,6,1,2,5,125,11
4,2,14,1,0,0,2,5,23,11
4,2,21,0,1,0,2,5,86,11
5,2,21,0,4,0,2,5,89,11
5,2,23,0,4,0,2,5,89,11
5,2,17,1,5,1,2,5,19,8
5,2,12,1,5,1,2,5,89,11
5,2,13,1,5,1,2,5,89,11
5,2,14,1,5,1,2,5,89,11
5,2,13,1,6,1,2,5,89,11
5,2,15,1,6,1,2,5,89,11
5,2,9,1,6,1,2,5,89,11
5,2,20,1,6,1,2,5,89,11
5,2,14,1,0,0,2,5,89,11
5,2,10,1,1,0,2,5,89,11
5,2,12,1,2,0,2,5,89,11
5,2,13,1,2,0,2,5,89,11
5,2,8,1,3,0,2,5,89,11
5,2,13,1,3,0,2,5,89,11
5,2,22,0,4,0,2,5,89,9
5,2,14,1,4,0,2,5,89,11
5,2,21,0,4,0,2,5,89,11
5,2,15,1,5,1,2,5,89,11
5,2,20,1,5,1,2,5,89,11
5,2,2,0,5,1,2,5,89,11
5,2,10,1,5,1,2,5,89,11
5,2,12,1,5,1,2,5,89,11
5,2,16,1,5,1,2,5,89,11
5,2,17,1,5,1,2,5,89,11
5,2,20,1,5,1,2,5,89,11
5,2,23,0,5,1,2,5,89,11
5,2,8,1,6,1,2,5,89,11
5,2,12,1,6,1,2,5,89,11
5,2,20,1,6,1,2,5,89,11
5,2,21,0,6,1,2,5,89,11
5,2,14,1,0,0,2,5,89,11
5,2,20,1,0,0,2,5,89,11
5,2,22,0,0,0,2,5,89,11
5,2,16,1,1,0,2,5,89,11
5,2,21,0,1,0,2,5,89,11
5,2,22,0,1,0,2,5,89,11
5,2,17,1,1,0,2,5,89,11
5,2,11,1,2,0,2,5,89,11
5,2,21,0,2,0,2,5,89,11
5,2,22,0,2,0,2,5,89,11
5,2,22,0,2,0,2,5,89,11
5,2,12,1,3,0,2,5,89,9
5,2,12,1,3,0,2,5,89,9
5,2,17,1,3,0,2,5,45,8
5,2,12,1,3,0,2,5,89,11
5,2,13,1,3,0,2,5,89,11
5,2,15,1,3,0,2,5,89,11
5,2,16,1,3,0,2,5,89,11
5,2,22,0,3,0,2,5,89,11
5,2,21,0,3,0,2,5,89,11
5,2,11,1,4,0,2,5,89,11
5,2,18,1,4,0,2,5,89,11
5,2,18,1,4,0,2,5,89,9
5,2,12,1,4,0,2,5,89,11
5,2,7,1,4,0,2,5,89,11
5,2,7,1,4,0,2,5,89,11
5,2,7,1,4,0,2,5,89,11
5,2,12,1,5,1,2,5,89,9
5,2,21,0,5,1,2,5,75,11
5,2,12,1,5,1,2,5,89,11
5,2,4,0,5,1,2,5,89,11
5,2,5,0,5,1,2,5,89,11
5,2,8,1,5,1,2,5,89,11
5,2,7,1,5,1,2,5,89,11
5,2,5,0,5,1,2,5,89,9
5,2,16,1,5,1,2,5,2,11
5,2,19,1,5,1,2,5,89,11
5,2,20,1,5,1,2,5,89,11
5,2,21,0,5,1,2,5,89,11
5,2,22,0,5,1,2,5,89,11
5,2,14,1,6,1,2,5,89,11
5,2,20,1,6,1,2,5,89,11
5,2,11,1,6,1,2,5,89,11
5,2,12,1,6,1,2,5,89,11
5,2,12,1,6,1,2,5,89,11
5,2,22,0,6,1,2,5,89,11
5,2,11,1,6,1,2,5,89,11
5,2,11,1,6,1,2,5,89,11
5,2,13,1,0,0,2,5,89,11
5,2,19,1,0,0,2,5,89,11
5,2,12,1,0,0,2,5,89,11
5,2,14,1,0,0,2,5,89,11
5,2,14,1,0,0,2,5,89,11
5,2,19,1,0,0,2,5,89,11
5,2,5,0,1,0,2,5,23,9
5,2,19,1,1,0,2,5,89,11
5,2,15,1,2,0,2,5,19,11
5,2,16,1,3,0,2,5,89,11
5,2,6,0,3,0,2,5,19,11
5,2,18,1,5,1,2,5,89,9
5,2,12,1,0,0,2,5,72,11
5,2,14,1,5,1,2,5,89,11
6,3,18,1,3,0,2,5,89,11
6,3,13,1,3,0,2,5,89,11
6,3,14,1,5,1,2,5,89,8
6,3,16,1,5,1,2,5,89,8
6,3,21,0,5,1,2,5,89,11
6,3,20,1,2,0,2,5,89,11
6,3,14,1,3,0,2,5,89,11
6,3,18,1,4,0,2,5,14,8
6,3,16,1,5,1,2,5,89,9
6,3,9,1,5,1,2,5,89,9
6,3,2,0,5,1,2,5,89,8
6,3,12,1,1,0,2,5,89,11
6,3,13,1,1,0,2,5,105,11
6,3,15,1,3,0,2,5,89,9
6,3,14,1,4,0,2,5,45,8
6,3,13,1,5,1,2,5,89,11
6,3,18,1,6,1,2,5,89,11
6,3,23,0,6,1,2,5,72,11
6,3,13,1,3,0,2,5,63,11
6,3,12,1,4,0,2,5,89,11
6,3,9,1,5,1,2,5,89,9
6,3,4,0,6,1,2,5,77,11
6,3,11,1,6,1,2,5,89,9
6,3,11,1,6,1,2,5,89,11
6,3,11,1,6,1,2,5,89,11
6,3,12,1,6,1,2,5,89,11
7,3,10,1,2,0,3,5,72,9
7,3,4,0,4,0,3,5,89,11
7,3,7,1,5,1,3,5,19,11
7,3,15,1,5,1,3,5,14,11
7,3,0,0,5,1,3,5,86,11
7,3,0,0,6,1,3,5,19,11
7,3,20,1,6,1,3,5,89,11
7,3,17,1,2,0,3,5,47,11
7,3,11,1,3,0,3,5,98,9
7,3,19,1,3,0,3,5,89,11
7,3,20,1,3,0,3,5,89,9
7,3,15,1,4,0,3,5,89,8
7,3,16,1,5,1,3,5,19,11
7,3,1,0,5,1,3,5,19,11
7,3,17,1,6,1,3,5,89,11
7,3,11,1,0,0,3,5,89,11
7,3,17,1,1,0,3,5,89,11
7,3,0,0,2,0,3,5,72,11
7,3,20,1,3,0,3,5,122,9
7,3,8,1,6,1,3,5,89,9
7,3,17,1,6,1,3,5,19,11
7,3,3,0,0,0,3,5,45,8
7,3,7,1,1,0,3,5,89,11
7,3,14,1,2,0,3,5,89,11
7,3,11,1,4,0,3,5,89,9
7,3,12,1,4,0,3,5,89,11
7,3,11,1,5,1,3,5,72,11
7,3,11,1,0,0,3,5,89,11
7,3,14,1,0,0,3,5,89,11
7,3,13,1,1,0,3,5,89,11
7,3,13,1,1,0,3,5,72,11
7,3,4,0,1,0,3,5,72,11
7,3,5,0,3,0,3,5,72,11
8,3,18,1,5,1,3,5,89,11
8,3,18,1,2,0,3,5,89,11
8,3,12,1,2,0,3,5,89,11
8,3,11,1,4,0,3,5,89,11
8,3,1,0,5,1,3,5,19,11
8,3,17,1,5,1,3,5,72,11
8,3,6,0,6,1,3,5,72,11
8,3,17,1,1,0,3,5,89,9
8,3,10,1,3,0,3,5,72,11
8,3,20,1,4,0,3,5,98,11
8,3,21,0,5,1,3,5,19,11
8,3,6,0,6,1,3,5,72,11
8,3,15,1,6,1,3,5,89,11
8,3,19,1,3,0,3,5,65,11
8,3,12,1,6,1,3,5,86,11
8,3,14,1,0,0,3,5,89,11
8,3,21,0,1,0,3,5,89,11
8,3,14,1,2,0,3,5,72,11
8,3,17,1,3,0,3,5,19,11
8,3,16,1,5,1,3,5,89,11
8,3,4,0,5,1,3,5,89,11
8,3,2,0,6,1,3,5,45,9
8,3,23,0,0,0,3,5,72,11
9,4,4,0,1,0,3,5,86,11
9,4,15,1,4,0,3,5,19,11
9,4,0,0,4,0,3,5,19,11
9,4,1,0,0,0,3,5,19,11
9,4,14,1,2,0,3,5,89,11
9,4,2,0,1,0,3,5,98,11
9,4,13,1,1,0,3,5,14,8
9,4,14,1,1,0,3,5,89,11
9,4,15,1,2,0,3,5,125,11
9,4,21,0,2,0,3,5,86,11
9,4,15,1,1,0,3,5,72,11
10,4,19,1,4,0,4,5,19,11
10,4,5,0,5,1,4,5,19,11
10,4,4,0,5,1,4,5,89,11
10,4,3,0,0,0,4,5,19,9
10,4,10,1,3,0,4,5,89,11
10,4,19,1,5,1,4,5,86,11
10,4,18,1,5,1,4,5,23,11
10,4,22,0,3,0,4,5,14,11
11,4,20,1,6,1,4,5,89,9
11,4,14,1,3,0,4,5,45,8
11,4,0,0,4,0,4,5,89,11
11,4,18,1,1,0,4,5,89,11
12,1,23,0,2,0,4,5,89,11
12,1,17,1,5,1,4,5,75,11
12,1,19,1,5,1,4,5,75,11
12,1,18,1,2,0,4,5,65,11
12,1,17,1,3,0,4,5,89,11
12,1,23,0,6,1,4,5,98,11
12,1,14,1,4,0,4,5,14,9
12,1,0,0,5,1,4,5,125,11
12,1,21,0,1,0,4,5,89,11
12,1,12,1,3,0,4,5,125,11
1,1,19,1,2,0,1,5,89,11
1,1,7,1,4,0,1,5,19,11
1,1,8,1,6,1,1,5,125,11
1,1,17,1,6,1,1,5,89,11
1,1,17,1,4,0,1,5,89,11
1,1,19,1,4,0,1,5,89,11
1,1,12,1,5,1,1,5,3,11
1,1,18,1,1,0,1,5,98,11
2,1,19,1,0,0,1,5,3,11
2,1,18,1,1,0,1,5,89,11
2,1,18,1,2,0,1,5,89,11
2,1,10,1,5,1,1,5,89,11
2,1,12,1,5,1,1,5,125,11
2,1,15,1,5,1,1,5,86,11
2,1,20,1,0,0,1,5,3,11
2,1,12,1,4,0,1,5,98,11
2,1,8,1,5,1,1,5,89,11
3,2,5,0,6,1,1,5,89,11
3,2,19,1,6,1,1,5,89,11
3,2,13,1,0,0,1,5,98,11
3,2,17,1,0,0,1,5,89,11
3,2,14,1,1,0,1,5,89,11
3,2,19,1,2,0,1,5,109,9
3,2,15,1,3,0,1,5,89,11
3,2,19,1,3,0,1,5,98,11
3,2,3,0,1,0,1,5,75,11
3,2,16,1,4,0,1,5,3,11
3,2,13,1,6,1,1,5,86,11
3,2,12,1,1,0,1,5,89,11
3,2,19,1,1,0,1,5,98,11
3,2,13,1,1,0,1,5,87,11
4,2,22,0,4,0,2,5,75,11
4,2,11,1,5,1,2,5,1,11
4,2,18,1,2,0,2,5,89,11
4,2,21,0,3,0,2,5,86,11
4,2,15,1,5,1,2,5,89,11
4,2,1,0,0,0,2,5,98,11
4,2,15,1,6,1,2,5,14,9
4,2,19,1,6,1,2,5,105,11
4,2,14,1,2,0,2,5,89,11
4,2,14,1,4,0,2,5,89,11
4,2,16,1,1,0,2,5,13,11
4,2,9,1,2,0,2,5,122,11
4,2,19,1,3,0,2,5,125,11
5,2,19,1,4,0,2,5,89,11
5,2,19,1,6,1,2,5,89,11
5,2,20,1,1,0,2,5,89,11
5,2,9,1,4,0,2,5,89,11
5,2,21,0,4,0,2,5,89,11
5,2,13,1,6,1,2,5,14,9
5,2,9,1,6,1,2,5,89,11
5,2,17,1,1,0,2,5,89,11
5,2,19,1,2,0,2,5,89,11
5,2,19,1,4,0,2,5,98,11
5,2,17,1,4,0,2,5,89,11
5,2,22,0,5,1,2,5,89,11
5,2,11,1,1,0,2,5,89,11
5,2,14,1,2,0,2,5,89,11
5,2,4,0,3,0,2,5,89,11
5,2,15,1,3,0,2,5,89,11
5,2,13,1,3,0,2,5,89,11
5,2,12,1,5,1,2,5,89,11
5,2,17,1,6,1,2,5,98,9
5,2,9,1,5,1,2,5,109,11
5,2,17,1,6,1,2,5,65,11
5,2,16,1,6,1,2,5,89,11
6,3,14,1,1,0,2,5,89,11
6,3,14,1,2,0,2,5,89,11
6,3,23,0,4,0,2,5,125,11
6,3,13,1,6,1,2,5,89,11
6,3,19,1,2,0,2,5,125,11
6,3,19,1,2,0,2,5,89,11
6,3,21,0,2,0,2,5,89,11
6,3,10,1,3,0,2,5,122,11
6,3,11,1,4,0,2,5,89,11
6,3,13,1,4,0,2,5,1,11
6,3,19,1,0,0,2,5,63,11
6,3,12,1,0,0,2,5,85,11
6,3,16,1,1,0,2,5,98,11
6,3,10,1,4,0,2,5,63,11
6,3,15,1,4,0,2,5,87,11
6,3,16,1,6,1,2,5,89,11
6,3,13,1,1,0,2,5,89,11
6,3,16,1,3,0,2,5,89,11
6,3,17,1,3,0,2,5,98,11
6,3,11,1,5,1,2,5,89,9
6,3,17,1,5,1,2,5,89,11
6,3,20,1,5,1,2,5,98,11
7,3,20,1,2,0,3,5,3,11
7,3,20,1,3,0,3,5,89,9
7,3,8,1,4,0,3,5,3,11
7,3,10,1,4,0,3,5,98,11
7,3,12,1,1,0,3,5,89,11
7,3,17,1,2,0,3,5,98,11
7,3,21,0,2,0,3,5,86,11
7,3,8,1,3,0,3,5,89,11
7,3,19,1,2,0,3,5,86,11
7,3,21,0,3,0,3,5,86,11
8,3,17,1,0,0,3,5,89,11
8,3,8,1,6,1,3,5,89,11
8,3,11,1,0,0,3,5,65,11
8,3,18,1,2,0,3,5,3,11
8,3,1,0,0,0,3,5,125,11
8,3,16,1,1,0,3,5,3,11
8,3,11,1,2,0,3,5,89,9
8,3,20,1,5,1,3,5,89,11
9,4,13,1,3,0,3,5,3,11
9,4,17,1,4,0,3,5,3,11
9,4,7,1,0,0,3,5,3,11
9,4,10,1,0,0,3,5,98,11
9,4,20,1,3,0,3,5,3,11
9,4,16,1,0,0,3,5,3,11
9,4,11,1,5,1,3,5,89,11
10,4,11,1,3,0,4,5,27,11
10,4,21,0,4,0,4,5,122,11
10,4,21,0,4,0,4,5,125,11
10,4,21,0,5,1,4,5,125,11
10,4,13,1,0,0,4,5,125,11
10,4,11,1,2,0,4,5,27,11
10,4,13,1,4,0,4,5,125,11
10,4,11,1,1,0,4,5,106,11
10,4,13,1,2,0,4,5,98,11
10,4,15,1,4,0,4,5,89,11
10,4,12,1,3,0,4,5,98,11
10,4,13,1,6,1,4,5,3,11
10,4,11,1,2,0,4,5,27,11
11,4,13,1,2,0,4,5,3,11
11,4,13,1,2,0,4,5,13,9
11,4,14,1,0,0,4,5,98,11
11,4,8,1,2,0,4,5,14,11
11,4,12,1,2,0,4,5,125,11
11,4,13,1,3,0,4,5,3,9
11,4,23,0,3,0,4,5,98,11
11,4,11,1,4,0,4,5,3,11
11,4,12,1,5,1,4,5,3,11
11,4,14,1,1,0,4,5,3,11
11,4,14,1,1,0,4,5,27,11
11,4,19,1,6,1,4,5,3,11
11,4,16,1,0,0,4,5,89,11
11,4,13,1,1,0,4,5,125,11
11,4,21,0,3,0,4,5,89,11
11,4,16,1,4,0,4,5,89,11
11,4,13,1,4,0,4,5,26,9
11,4,14,1,4,0,4,5,89,11
11,4,14,1,5,1,4,5,122,11
11,4,15,1,5,1,4,5,3,11
12,1,13,1,1,0,4,5,27,11
12,1,16,1,1,0,4,5,98,11
12,1,17,1,1,0,4,5,27,11
12,1,15,1,3,0,4,5,98,11
12,1,14,1,5,1,4,5,89,11
12,1,14,1,6,1,4,5,3,11
12,1,16,1,6,1,4,5,98,11
12,1,12,1,1,0,4,5,125,11
12,1,11,1,3,0,4,5,75,11
12,1,11,1,5,1,4,5,27,11
12,1,12,1,6,1,4,5,89,11
2,1,17,1,6,1,1,5,96,11
2,1,15,1,2,0,1,5,89,9
5,2,15,1,6,1,2,5,89,11
8,3,13,1,6,1,3,5,78,11
8,3,13,1,2,0,3,5,19,11
8,3,19,1,2,0,3,5,19,11
9,4,15,1,2,0,3,5,105,11
12,1,0,0,1,0,4,5,13,11
12,1,6,0,2,0,4,5,13,11
1,1,7,1,3,0,1,5,86,11
5,2,2,0,5,1,2,5,19,11
5,2,7,1,6,1,2,5,19,11
5,2,13,1,4,0,2,5,98,11
6,3,10,1,2,0,2,5,86,11
7,3,22,0,0,0,3,5,19,11
7,3,11,1,5,1,3,5,19,11
7,3,11,1,0,0,3,5,86,11
8,3,12,1,2,0,3,5,86,11
8,3,1,0,0,0,3,5,72,11
8,3,13,1,6,1,3,5,19,9
9,4,16,1,0,0,3,5,72,11
9,4,18,1,1,0,3,5,86,11
10,4,22,0,4,0,4,5,19,11
11,4,9,1,0,0,4,5,19,11
1,1,17,1,6,1,1,5,89,11
1,1,15,1,6,1,1,5,98,11
1,1,15,1,4,0,1,5,86,11
1,1,6,0,0,0,1,5,89,11
1,1,18,1,0,0,1,5,86,11
1,1,9,1,4,0,1,5,75,9
2,1,19,1,2,0,1,5,75,11
2,1,0,0,6,1,1,5,89,11
2,1,10,1,2,0,1,5,89,11
3,2,10,1,0,0,1,5,106,11
3,2,19,1,0,0,1,5,89,11
3,2,15,1,1,0,1,5,75,11
3,2,12,1,5,1,1,5,125,11
4,2,21,0,1,0,2,5,106,11
4,2,20,1,0,0,2,5,89,11
5,2,20,1,5,1,2,5,89,11
5,2,14,1,5,1,2,5,89,11
5,2,11,1,0,0,2,5,89,11
5,2,15,1,5,1,2,5,98,11
5,2,3,0,5,1,2,5,75,9
5,2,14,1,0,0,2,5,89,11
5,2,11,1,5,1,2,5,75,11
5,2,19,1,0,0,2,5,75,11
5,2,14,1,4,0,2,5,89,11
5,2,23,0,4,0,2,5,89,11
5,2,12,1,6,1,2,5,86,11
5,2,16,1,3,0,2,5,89,11
6,3,13,1,5,1,2,5,14,11
6,3,16,1,0,0,2,5,98,11
6,3,16,1,1,0,2,5,89,11
6,3,15,1,3,0,2,5,49,11
6,3,18,1,3,0,2,5,19,11
7,3,17,1,2,0,3,5,89,11
7,3,14,1,3,0,3,5,19,11
7,3,13,1,3,0,3,5,89,11
7,3,15,1,6,1,3,5,86,11
7,3,19,1,6,1,3,5,89,11
8,3,14,1,4,0,3,5,19,11
8,3,9,1,6,1,3,5,89,11
8,3,21,0,3,0,3,5,75,11
9,4,14,1,1,0,3,5,75,11
9,4,14,1,4,0,3,5,89,11
9,4,13,1,5,1,3,5,65,11
9,4,13,1,0,0,3,5,86,11
9,4,3,0,1,0,3,5,86,11
9,4,23,0,2,0,3,5,86,11
9,4,2,0,3,0,3,5,123,11
9,4,1,0,4,0,3,5,89,11
9,4,21,0,5,1,3,5,14,11
9,4,2,0,0,0,3,5,6,11
9,4,19,1,1,0,3,5,19,11
10,4,12,1,2,0,4,5,89,11
10,4,12,1,0,0,4,5,89,11
10,4,11,1,3,0,4,5,75,11
11,4,13,1,0,0,4,5,89,11
11,4,18,1,1,0,4,5,98,11
11,4,13,1,0,0,4,5,89,11
11,4,21,0,0,0,4,5,89,11
11,4,13,1,5,1,4,5,89,11
11,4,12,1,5,1,4,5,86,11
11,4,14,1,2,0,4,5,86,11
11,4,9,1,4,0,4,5,89,11
12,1,21,0,6,1,4,5,75,11
12,1,22,0,1,0,4,5,70,11
12,1,17,1,2,0,4,5,89,11
12,1,17,1,2,0,4,5,89,11
12,1,12,1,1,0,4,5,14,9
12,1,16,1,1,0,4,5,86,11
12,1,17,1,4,0,4,5,75,11
1,1,18,1,3,0,1,5,39,11
1,1,15,1,4,0,1,5,89,11
1,1,11,1,5,1,1,5,125,11
1,1,10,1,6,1,1,5,89,11
1,1,14,1,0,0,1,5,125,11
1,1,17,1,1,0,1,5,89,11
1,1,18,1,5,1,1,5,98,8
1,1,7,1,6,1,1,5,89,11
1,1,12,1,6,1,1,5,89,11
1,1,19,1,0,0,1,5,98,11
1,1,18,1,2,0,1,5,75,11
1,1,8,1,0,0,1,5,75,11
1,1,11,1,4,0,1,5,89,11
1,1,21,0,4,0,1,5,89,11
1,1,19,1,6,1,1,5,89,11
1,1,19,1,0,0,1,5,89,11
1,1,19,1,1,0,1,5,75,11
1,1,14,1,3,0,1,5,89,11
1,1,18,1,3,0,1,5,89,11
2,1,11,1,0,0,1,5,86,11
2,1,16,1,0,0,1,5,98,11
2,1,8,1,2,0,1,5,89,11
2,1,1,0,3,0,1,5,23,11
2,1,17,1,4,0,1,5,89,11
2,1,19,1,4,0,1,5,75,11
2,1,19,1,5,1,1,5,89,11
2,1,10,1,2,0,1,5,3,11
2,1,11,1,6,1,1,5,89,11
2,1,9,1,0,0,1,5,89,11
2,1,17,1,2,0,1,5,98,11
2,1,13,1,3,0,1,5,89,11
2,1,3,0,6,1,1,5,86,11
2,1,8,1,1,0,1,5,39,11
2,1,11,1,3,0,1,5,98,11
2,1,13,1,4,0,1,5,125,11
2,1,10,1,5,1,1,5,89,11
3,2,18,1,6,1,1,5,98,11
3,2,12,1,6,1,1,5,89,11
3,2,15,1,6,1,1,5,86,11
3,2,19,1,1,0,1,5,89,11
3,2,14,1,2,0,1,5,89,11
3,2,8,1,5,1,1,5,18,11
3,2,16,1,5,1,1,5,39,11
3,2,18,1,4,0,1,5,3,11
3,2,18,1,6,1,1,5,89,11
3,2,18,1,0,0,1,5,75,11
3,2,14,1,3,0,1,5,89,11
3,2,18,1,3,0,1,5,75,11
3,2,20,1,3,0,1,5,39,11
3,2,11,1,4,0,1,5,89,11
3,2,22,0,4,0,1,5,86,11
3,2,12,1,5,1,1,5,89,11
3,2,15,1,5,1,1,5,89,11
3,2,17,1,6,1,1,5,75,11
3,2,18,1,6,1,1,5,89,11
3,2,19,1,5,1,1,5,89,11
3,2,21,0,0,0,1,5,89,11
4,2,0,0,2,0,2,5,125,11
4,2,11,1,6,1,2,5,86,11
4,2,14,1,1,0,2,5,75,11
4,2,20,1,5,1,2,5,89,11
4,2,13,1,1,0,2,5,89,11
4,2,19,1,1,0,2,5,98,11
4,2,17,1,2,0,2,5,89,11
4,2,18,1,2,0,2,5,75,11
4,2,13,1,4,0,2,5,98,11
4,2,20,1,5,1,2,5,89,11
4,2,23,0,3,0,2,5,89,11
5,2,18,1,4,0,2,5,89,11
5,2,13,1,5,1,2,5,89,11
5,2,20,1,5,1,2,5,89,11
5,2,12,1,5,1,2,5,19,11
5,2,20,1,0,0,2,5,89,11
5,2,11,1,0,0,2,5,14,11
5,2,10,1,3,0,2,5,75,11
5,2,21,0,3,0,2,5,89,11
5,2,18,1,5,1,2,5,89,11
6,3,11,1,0,0,2,5,47,11
6,3,14,1,5,1,2,5,39,11
6,3,13,1,6,1,2,5,89,11
6,3,11,1,1,0,2,5,89,11
7,3,8,1,2,0,3,5,89,11
7,3,5,0,5,1,3,5,75,11
7,3,13,1,2,0,3,5,89,11
7,3,9,1,5,1,3,5,89,11
7,3,22,0,2,0,3,5,75,11
7,3,0,0,4,0,3,5,86,11
7,3,13,1,4,0,3,5,89,11
7,3,13,1,1,0,3,5,89,11
7,3,18,1,2,0,3,5,89,11
8,3,14,1,3,0,3,5,89,11
8,3,17,1,5,1,3,5,89,11
8,3,18,1,1,0,3,5,89,11
8,3,17,1,4,0,3,5,98,11
8,3,21,0,5,1,3,5,98,11
8,3,19,1,2,0,3,5,98,11
9,4,12,1,3,0,3,5,89,11
9,4,13,1,6,1,3,5,89,11
9,4,9,1,2,0,3,5,89,11
10,4,7,1,5,1,4,5,89,11
10,4,18,1,5,1,4,5,19,11
10,4,20,1,1,0,4,5,89,11
10,4,10,1,4,0,4,5,89,11
10,4,11,1,5,1,4,5,89,11
10,4,13,1,5,1,4,5,89,11
10,4,10,1,6,1,4,5,89,11
10,4,10,1,6,1,4,5,89,11
10,4,10,1,2,0,4,5,89,11
10,4,16,1,2,0,4,5,89,11
11,4,18,1,1,0,4,5,89,11
11,4,19,1,1,0,4,5,98,11
11,4,0,0,2,0,4,5,89,11
11,4,8,1,3,0,4,5,75,11
11,4,18,1,6,1,4,5,98,11
11,4,18,1,0,0,4,5,89,11
11,4,11,1,4,0,4,5,89,11
11,4,15,1,5,1,4,5,89,11
11,4,12,1,0,0,4,5,89,11
11,4,14,1,0,0,4,5,89,11
11,4,22,0,3,0,4,5,98,11
11,4,13,1,5,1,4,5,89,11
11,4,13,1,5,1,4,5,89,11
11,4,19,1,5,1,4,5,89,11
11,4,18,1,6,1,4,5,86,11
11,4,6,0,0,0,4,5,75,11
12,1,18,1,1,0,4,5,39,11
12,1,23,0,2,0,4,5,89,11
12,1,17,1,3,0,4,5,89,11
12,1,17,1,4,0,4,5,125,11
12,1,8,1,1,0,4,5,39,11
12,1,17,1,1,0,4,5,75,11
12,1,20,1,1,0,4,5,89,11
12,1,20,1,2,0,4,5,89,11
12,1,19,1,5,1,4,5,89,11
1,1,19,1,6,1,1,5,86,11
1,1,18,1,3,0,1,5,75,11
1,1,21,0,4,0,1,5,19,9
1,1,21,0,4,0,1,5,65,11
1,1,18,1,0,0,1,5,89,11
1,1,9,1,0,0,1,5,89,11
1,1,2,0,1,0,1,5,89,11
1,1,13,1,4,0,1,5,86,11
1,1,17,1,5,1,1,5,65,11
1,1,14,1,0,0,1,5,98,11
1,1,15,1,3,0,1,5,86,11
1,1,18,1,3,0,1,5,89,11
1,1,19,1,4,0,1,5,89,11
2,1,1,0,1,0,1,5,89,11
2,1,14,1,4,0,1,5,89,11
2,1,13,1,6,1,1,5,89,11
2,1,11,1,2,0,1,5,89,11
2,1,19,1,2,0,1,5,89,11
2,1,15,1,3,0,1,5,89,11
2,1,17,1,5,1,1,5,89,11
2,1,1,0,0,0,1,5,98,11
2,1,7,1,0,0,1,5,75,11
2,1,17,1,0,0,1,5,89,11
2,1,15,1,2,0,1,5,72,11
2,1,9,1,0,0,1,5,89,11
2,1,14,1,0,0,1,5,75,11
2,1,13,1,1,0,1,5,89,11
2,1,16,1,2,0,1,5,65,11
2,1,15,1,3,0,1,5,89,11
2,1,14,1,5,1,1,5,89,11
3,2,13,1,6,1,1,5,89,11
3,2,22,0,3,0,1,5,89,11
3,2,10,1,2,0,1,5,89,11
3,2,21,0,2,0,1,5,89,11
3,2,19,1,4,0,1,5,89,11
3,2,12,1,6,1,1,5,89,9
3,2,19,1,4,0,1,5,75,11
3,2,11,1,5,1,1,5,89,11
3,2,17,1,6,1,1,5,89,11
4,2,11,1,5,1,2,5,89,11
4,2,11,1,6,1,2,5,89,11
4,2,14,1,0,0,2,5,89,11
4,2,15,1,0,0,2,5,65,11
4,2,0,0,1,0,2,5,65,11
4,2,11,1,2,0,2,5,86,11
4,2,11,1,3,0,2,5,89,11
4,2,8,1,1,0,2,5,56,11
4,2,21,0,4,0,2,5,89,11
4,2,1,0,5,1,2,5,89,9
4,2,22,0,3,0,2,5,89,11
5,2,18,1,0,0,2,5,89,11
5,2,17,1,0,0,2,5,89,11
5,2,22,0,2,0,2,5,89,11
5,2,20,1,2,0,2,5,89,11
5,2,1,0,5,1,2,5,15,9
5,2,23,0,5,1,2,5,89,11
5,2,15,1,6,1,2,5,75,8
5,2,12,1,0,0,2,5,89,11
5,2,21,0,4,0,2,5,89,11
5,2,20,1,6,1,2,5,89,11
5,2,13,1,4,0,2,5,89,11
5,2,12,1,0,0,2,5,89,11
5,2,12,1,1,0,2,5,89,11
5,2,17,1,1,0,2,5,86,11
5,2,1,0,1,0,2,5,75,11
5,2,12,1,2,0,2,5,89,11
5,2,18,1,5,1,2,5,89,9
6,3,19,1,1,0,2,5,75,11
6,3,14,1,3,0,2,5,89,11
6,3,18,1,2,0,2,5,89,11
6,3,7,1,4,0,2,5,86,11
6,3,10,1,1,0,2,5,89,11
6,3,2,0,2,0,2,5,87,11
6,3,16,1,2,0,2,5,65,11
6,3,20,1,4,0,2,5,89,11
6,3,15,1,4,0,2,5,89,11
6,3,20,1,4,0,2,5,86,11
6,3,15,1,5,1,2,5,89,11
6,3,20,1,5,1,2,5,89,11
6,3,16,1,0,0,2,5,65,11
6,3,12,1,0,0,2,5,86,11
6,3,7,1,1,0,2,5,31,11
7,3,8,1,4,0,3,5,72,11
7,3,9,1,4,0,3,5,34,11
7,3,13,1,1,0,3,5,89,11
7,3,20,1,4,0,3,5,86,11
7,3,18,1,4,0,3,5,89,11
7,3,0,0,5,1,3,5,75,11
7,3,13,1,6,1,3,5,72,11
7,3,23,0,5,1,3,5,39,11
7,3,18,1,3,0,3,5,72,11
7,3,10,1,2,0,3,5,89,11
7,3,12,1,3,0,3,5,75,11
8,3,9,1,5,1,3,5,98,11
8,3,12,1,6,1,3,5,89,9
8,3,10,1,0,0,3,5,56,11
8,3,18,1,2,0,3,5,19,11
8,3,9,1,3,0,3,5,89,11
8,3,2,0,4,0,3,5,89,11
8,3,19,1,4,0,3,5,65,11
8,3,9,1,4,0,3,5,72,11
8,3,22,0,5,1,3,5,89,11
8,3,11,1,0,0,3,5,65,9
9,4,9,1,3,0,3,5,89,11
9,4,11,1,4,0,3,5,89,11
9,4,16,1,2,0,3,5,89,11
9,4,12,1,5,1,3,5,89,11
9,4,18,1,6,1,3,5,65,9
10,4,15,1,0,0,4,5,86,11
10,4,15,1,2,0,4,5,89,11
10,4,10,1,3,0,4,5,89,11
10,4,16,1,4,0,4,5,89,11
10,4,17,1,0,0,4,5,89,11
10,4,12,1,0,0,4,5,89,11
10,4,11,1,2,0,4,5,89,11
10,4,14,1,3,0,4,5,86,11
10,4,11,1,3,0,4,5,89,11
10,4,10,1,4,0,4,5,89,11
10,4,18,1,5,1,4,5,89,11
10,4,13,1,5,1,4,5,89,11
10,4,15,1,0,0,4,5,89,11
10,4,18,1,1,0,4,5,89,11
10,4,18,1,2,0,4,5,86,11
10,4,12,1,4,0,4,5,65,11
10,4,22,0,4,0,4,5,89,11
10,4,14,1,0,0,4,5,89,11
10,4,16,1,1,0,4,5,89,11
10,4,17,1,4,0,4,5,65,9
10,4,12,1,5,1,4,5,19,11
11,4,2,0,0,0,4,5,89,9
11,4,19,1,0,0,4,5,89,11
11,4,15,1,0,0,4,5,89,11
11,4,12,1,1,0,4,5,89,11
11,4,23,0,4,0,4,5,19,11
11,4,18,1,5,1,4,5,65,11
11,4,13,1,6,1,4,5,89,11
11,4,19,1,0,0,4,5,98,11
11,4,14,1,3,0,4,5,89,11
11,4,11,1,4,0,4,5,89,11
11,4,19,1,5,1,4,5,89,9
11,4,20,1,5,1,4,5,89,11
11,4,12,1,0,0,4,5,89,11
11,4,12,1,0,0,4,5,89,11
11,4,17,1,0,0,4,5,89,11
11,4,19,1,1,0,4,5,65,11
11,4,12,1,2,0,4,5,89,11
11,4,13,1,5,1,4,5,86,11
11,4,12,1,5,1,4,5,89,11
11,4,4,0,6,1,4,5,89,11
11,4,12,1,0,0,4,5,89,11
11,4,14,1,0,0,4,5,89,9
11,4,22,0,0,0,4,5,89,9
11,4,14,1,1,0,4,5,89,11
11,4,16,1,2,0,4,5,89,11
11,4,9,1,4,0,4,5,89,11
11,4,11,1,5,1,4,5,89,11
11,4,19,1,5,1,4,5,89,11
12,1,12,1,3,0,4,5,89,11
12,1,11,1,6,1,4,5,89,11
12,1,14,1,2,0,4,5,86,11
12,1,10,1,4,0,4,5,89,11
12,1,20,1,5,1,4,5,89,11
12,1,19,1,3,0,4,5,89,11
12,1,12,1,1,0,4,5,89,11
1,1,15,1,2,0,1,5,89,11
1,1,14,1,3,0,1,5,75,11
1,1,13,1,4,0,1,5,86,11
1,1,5,0,6,1,1,5,47,11
1,1,14,1,1,0,1,5,89,11
1,1,15,1,2,0,1,5,86,11
1,1,20,1,2,0,1,5,86,11
1,1,16,1,6,1,1,5,89,11
1,1,0,0,6,1,1,5,86,11
1,1,9,1,2,0,1,5,89,11
1,1,15,1,2,0,1,5,89,11
1,1,16,1,5,1,1,5,89,11
1,1,10,1,6,1,1,5,89,11
1,1,12,1,6,1,1,5,75,11
1,1,15,1,1,0,1,5,86,11
1,1,11,1,2,0,1,5,89,11
1,1,17,1,2,0,1,5,86,11
1,1,15,1,4,0,1,5,89,11
1,1,8,1,1,0,1,5,86,11
1,1,22,0,1,0,1,5,75,11
2,1,15,1,4,0,1,5,86,11
2,1,14,1,6,1,1,5,75,11
2,1,18,1,0,0,1,5,98,11
2,1,14,1,1,0,1,5,89,11
2,1,21,0,6,1,1,5,89,11
2,1,12,1,6,1,1,5,98,11
2,1,12,1,6,1,1,5,89,11
2,1,14,1,6,1,1,5,86,11
2,1,7,1,0,0,1,5,89,11
2,1,6,0,0,0,1,5,86,11
2,1,22,0,1,0,1,5,56,11
2,1,8,1,2,0,1,5,75,11
3,2,8,1,0,0,1,5,89,11
3,2,12,1,1,0,1,5,3,11
3,2,10,1,2,0,1,5,106,11
3,2,11,1,6,1,1,5,89,11
3,2,10,1,4,0,1,5,89,11
3,2,13,1,0,0,1,5,89,11
3,2,19,1,5,1,1,5,89,11
3,2,19,1,6,1,1,5,89,11
3,2,18,1,6,1,1,5,75,11
3,2,11,1,6,1,1,5,86,11
4,2,20,1,4,0,2,5,89,11
4,2,20,1,5,1,2,5,89,11
4,2,14,1,6,1,2,5,89,11
4,2,11,1,3,0,2,5,86,11
4,2,4,0,1,0,2,5,86,11
4,2,19,1,1,0,2,5,86,11
4,2,12,1,2,0,2,5,89,11
4,2,8,1,3,0,2,5,89,11
4,2,16,1,5,1,2,5,89,11
4,2,13,1,5,1,2,5,89,11
4,2,14,1,1,0,2,5,89,11
5,2,13,1,4,0,2,5,89,11
5,2,18,1,4,0,2,5,89,11
5,2,18,1,4,0,2,5,89,11
5,2,13,1,4,0,2,5,89,11
5,2,19,1,6,1,2,5,89,11
5,2,22,0,3,0,2,5,98,11
5,2,22,0,3,0,2,5,98,11
5,2,13,1,4,0,2,5,86,11
5,2,3,0,5,1,2,5,89,11
5,2,3,0,5,1,2,5,75,11
5,2,22,0,6,1,2,5,106,11
5,2,8,1,0,0,2,5,89,11
5,2,22,0,4,0,2,5,89,11
5,2,19,1,6,1,2,5,19,11
5,2,12,1,2,0,2,5,89,11
5,2,20,1,2,0,2,5,89,11
5,2,19,1,5,1,2,5,89,11
5,2,20,1,5,1,2,5,89,11
5,2,11,1,0,0,2,5,89,11
5,2,11,1,1,0,2,5,89,11
5,2,17,1,5,1,2,5,89,11
6,3,9,1,0,0,2,5,89,11
6,3,11,1,2,0,2,5,89,11
6,3,17,1,4,0,2,5,75,11
6,3,15,1,5,1,2,5,89,11
6,3,21,0,5,1,2,5,89,11
6,3,12,1,5,1,2,5,89,11
6,3,21,0,5,1,2,5,89,11
6,3,17,1,6,1,2,5,89,11
6,3,20,1,0,0,2,5,89,11
6,3,11,1,6,1,2,5,89,8
6,3,14,1,5,1,2,5,89,11
6,3,9,1,0,0,2,5,89,11
6,3,1,0,2,0,2,5,75,11
6,3,15,1,3,0,2,5,89,11
6,3,7,1,5,1,2,5,89,11
6,3,20,1,6,1,2,5,89,11
7,3,9,1,3,0,3,5,89,11
7,3,11,1,3,0,3,5,89,9
7,3,19,1,4,0,3,5,89,11
7,3,20,1,5,1,3,5,89,11
7,3,7,1,6,1,3,5,75,11
7,3,10,1,0,0,3,5,98,11
7,3,11,1,1,0,3,5,89,9
7,3,8,1,1,0,3,5,89,11
7,3,0,0,3,0,3,5,86,11
7,3,18,1,5,1,3,5,89,11
7,3,7,1,6,1,3,5,86,11
7,3,15,1,2,0,3,5,98,11
7,3,11,1,4,0,3,5,35,8
7,3,7,1,0,0,3,5,89,11
7,3,15,1,2,0,3,5,35,8
7,3,15,1,3,0,3,5,89,11
8,3,14,1,1,0,3,5,89,11
8,3,19,1,1,0,3,5,89,11
8,3,15,1,2,0,3,5,89,11
8,3,13,1,4,0,3,5,75,11
8,3,23,0,4,0,3,5,75,11
8,3,12,1,6,1,3,5,89,11
8,3,15,1,0,0,3,5,89,11
8,3,19,1,1,0,3,5,86,11
8,3,0,0,2,0,3,5,86,11
8,3,9,1,5,1,3,5,89,11
8,3,16,1,1,0,3,5,89,11
8,3,21,0,2,0,3,5,89,11
8,3,18,1,5,1,3,5,86,11
8,3,18,1,6,1,3,5,86,11
8,3,23,0,6,1,3,5,89,11
9,4,23,0,1,0,3,5,72,11
9,4,9,1,2,0,3,5,89,11
9,4,19,1,2,0,3,5,86,11
9,4,15,1,5,1,3,5,86,11
9,4,21,0,0,0,3,5,89,11
9,4,22,0,0,0,3,5,89,11
9,4,22,0,0,0,3,5,89,11
9,4,23,0,0,0,3,5,89,11
9,4,1,0,1,0,3,5,89,11
9,4,15,1,4,0,3,5,27,9
9,4,13,1,6,1,3,5,86,11
9,4,17,1,6,1,3,5,124,11
9,4,17,1,6,1,3,5,124,11
9,4,10,1,0,0,3,5,86,11
9,4,19,1,1,0,3,5,122,9
9,4,13,1,5,1,3,5,89,11
9,4,8,1,0,0,3,5,75,11
10,4,15,1,3,0,4,5,27,11
10,4,17,1,3,0,4,5,35,11
10,4,17,1,5,1,4,5,86,11
10,4,14,1,6,1,4,5,27,11
10,4,17,1,3,0,4,5,89,11
10,4,11,1,6,1,4,5,89,11
10,4,19,1,1,0,4,5,89,11
10,4,8,1,1,0,4,5,89,11
10,4,18,1,2,0,4,5,86,11
10,4,9,1,5,1,4,5,47,11
10,4,18,1,5,1,4,5,75,11
10,4,11,1,1,0,4,5,75,11
11,4,19,1,6,1,4,5,89,11
11,4,13,1,6,1,4,5,89,11
11,4,14,1,6,1,4,5,89,11
11,4,15,1,0,0,4,5,89,11
11,4,17,1,2,0,4,5,3,11
11,4,15,1,2,0,4,5,89,11
11,4,4,0,5,1,4,5,125,9
11,4,12,1,5,1,4,5,89,11
11,4,10,1,5,1,4,5,89,11
11,4,12,1,1,0,4,5,89,11
11,4,9,1,2,0,4,5,72,11
11,4,14,1,3,0,4,5,98,11
11,4,9,1,3,0,4,5,89,11
11,4,12,1,3,0,4,5,89,11
11,4,9,1,3,0,4,5,89,11
11,4,9,1,4,0,4,5,89,11
11,4,12,1,4,0,4,5,89,11
11,4,11,1,5,1,4,5,89,11
11,4,14,1,5,1,4,5,89,11
11,4,9,1,0,0,4,5,89,11
11,4,14,1,1,0,4,5,89,11
11,4,17,1,2,0,4,5,89,11
11,4,19,1,3,0,4,5,89,11
11,4,17,1,4,0,4,5,75,11
11,4,17,1,5,1,4,5,89,9
11,4,14,1,6,1,4,5,89,11
11,4,12,1,6,1,4,5,125,11
11,4,13,1,6,1,4,5,89,11
11,4,15,1,0,0,4,5,89,9
11,4,10,1,2,0,4,5,89,11
11,4,10,1,2,0,4,5,89,11
11,4,12,1,2,0,4,5,89,11
11,4,23,0,2,0,4,5,89,9
11,4,18,1,3,0,4,5,125,11
11,4,11,1,4,0,4,5,89,11
11,4,11,1,5,1,4,5,89,11
11,4,12,1,5,1,4,5,89,11
11,4,17,1,6,1,4,5,65,11
12,1,12,1,3,0,4,5,27,11
12,1,18,1,5,1,4,5,75,11
12,1,10,1,1,0,4,5,89,11
12,1,10,1,2,0,4,5,89,11
12,1,13,1,2,0,4,5,98,11
12,1,23,0,1,0,4,5,75,11
12,1,11,1,1,0,4,5,89,11
12,1,19,1,0,0,4,5,89,11
12,1,8,1,3,0,4,5,89,11
1,1,13,1,4,0,1,42,86,11
1,1,15,1,4,0,1,42,86,11
1,1,23,0,5,1,1,42,86,11
1,1,4,0,0,0,1,42,89,11
1,1,9,1,0,0,1,42,86,11
1,1,11,1,1,0,1,42,98,11
1,1,16,1,1,0,1,42,30,11
1,1,11,1,6,1,1,42,86,11
1,1,13,1,0,0,1,42,98,11
1,1,2,0,3,0,1,42,86,11
1,1,19,1,4,0,1,42,86,11
1,1,21,0,6,1,1,42,86,11
1,1,9,1,2,0,1,42,19,11
1,1,13,1,2,0,1,42,86,11
1,1,21,0,3,0,1,42,86,11
1,1,17,1,5,1,1,42,98,11
1,1,11,1,6,1,1,42,122,11
1,1,13,1,6,1,1,42,122,11
2,1,8,1,6,1,1,42,86,11
2,1,4,0,5,1,1,42,75,11
2,1,16,1,6,1,1,42,123,11
2,1,10,1,0,0,1,42,86,11
2,1,18,1,4,0,1,42,14,11
2,1,11,1,6,1,1,42,98,11
2,1,17,1,6,1,1,42,39,11
2,1,21,0,3,0,1,42,13,11
2,1,10,1,2,0,1,42,98,11
2,1,11,1,2,0,1,42,89,11
3,2,16,1,5,1,1,42,75,11
3,2,14,1,2,0,1,42,19,11
3,2,16,1,4,0,1,42,30,11
3,2,1,0,5,1,1,42,86,11
3,2,11,1,3,0,1,42,14,11
3,2,16,1,3,0,1,42,86,11
3,2,11,1,4,0,1,42,89,11
3,2,12,1,6,1,1,42,86,11
3,2,13,1,1,0,1,42,86,11
3,2,21,0,4,0,1,42,75,11
4,2,9,1,3,0,2,42,75,11
4,2,12,1,5,1,2,42,86,11
4,2,14,1,5,1,2,42,86,11
4,2,16,1,6,1,2,42,89,11
4,2,19,1,2,0,2,42,89,11
5,2,10,1,5,1,2,42,75,11
5,2,5,0,6,1,2,42,106,11
5,2,6,0,2,0,2,42,98,11
5,2,14,1,3,0,2,42,39,11
5,2,0,0,0,0,2,42,64,11
5,2,20,1,5,1,2,42,98,11
6,3,13,1,5,1,2,42,89,11
6,3,13,1,0,0,2,42,98,11
7,3,19,1,3,0,3,42,86,11
7,3,20,1,3,0,3,42,86,11
7,3,21,0,4,0,3,42,75,11
7,3,5,0,2,0,3,42,75,11
7,3,3,0,3,0,3,42,98,11
7,3,14,1,6,1,3,42,86,11
7,3,21,0,6,1,3,42,14,11
7,3,4,0,1,0,3,42,19,11
7,3,21,0,4,0,3,42,98,11
7,3,10,1,6,1,3,42,89,11
7,3,9,1,2,0,3,42,86,11
7,3,10,1,2,0,3,42,56,11
7,3,17,1,2,0,3,42,98,11
7,3,22,0,2,0,3,42,125,11
7,3,13,1,5,1,3,42,86,11
7,3,2,0,1,0,3,42,106,11
7,3,6,0,3,0,3,42,98,11
8,3,20,1,5,1,3,42,98,11
8,3,8,1,2,0,3,42,107,11
8,3,21,0,6,1,3,42,113,11
8,3,12,1,0,0,3,42,98,11
8,3,10,1,1,0,3,42,89,11
8,3,22,0,1,0,3,42,89,11
8,3,2,0,2,0,3,42,98,11
8,3,11,1,2,0,3,42,98,11
8,3,10,1,6,1,3,42,89,11
8,3,12,1,6,1,3,42,89,11
8,3,12,1,0,0,3,42,86,11
9,4,11,1,3,0,3,42,89,11
9,4,12,1,5,1,3,42,89,11
9,4,17,1,2,0,3,42,19,11
9,4,18,1,2,0,3,42,98,11
9,4,12,1,3,0,3,42,89,11
9,4,0,0,4,0,3,42,75,11
9,4,19,1,4,0,3,42,98,11
9,4,21,0,5,1,3,42,89,11
9,4,15,1,6,1,3,42,19,11
9,4,11,1,0,0,3,42,76,11
9,4,13,1,0,0,3,42,86,11
9,4,19,1,3,0,3,42,98,11
9,4,14,1,4,0,3,42,3,11
9,4,22,0,5,1,3,42,98,11
9,4,20,1,0,0,3,42,89,11
9,4,5,0,1,0,3,42,98,11
9,4,10,1,3,0,3,42,98,11
9,4,23,0,3,0,3,42,98,11
9,4,14,1,2,0,3,42,25,11
9,4,19,1,2,0,3,42,98,11
10,4,12,1,4,0,4,42,98,11
10,4,13,1,5,1,4,42,98,11
10,4,0,0,5,1,4,42,86,11
10,4,16,1,6,1,4,42,98,11
10,4,12,1,0,0,4,42,98,11
10,4,12,1,1,0,4,42,106,11
10,4,17,1,6,1,4,42,98,11
10,4,9,1,0,0,4,42,14,11
10,4,12,1,2,0,4,42,98,11
10,4,14,1,4,0,4,42,89,11
10,4,15,1,4,0,4,42,89,11
10,4,17,1,1,0,4,42,86,11
11,4,13,1,2,0,4,42,89,11
11,4,13,1,6,1,4,42,86,11
11,4,23,0,5,1,4,42,65,11
11,4,17,1,0,0,4,42,98,11
11,4,14,1,3,0,4,42,98,11
11,4,18,1,4,0,4,42,89,11
11,4,4,0,0,0,4,42,86,11
11,4,20,1,0,0,4,42,65,11
12,1,9,1,2,0,4,42,98,11
12,1,21,0,6,1,4,42,65,11
12,1,9,1,1,0,4,42,75,11
12,1,17,1,1,0,4,42,98,11
12,1,1,0,6,1,4,42,106,11
12,1,0,0,1,0,4,42,98,11
12,1,18,1,1,0,4,42,86,11
1,1,22,0,2,0,1,42,19,11
1,1,19,1,0,0,1,42,13,11
1,1,21,0,2,0,1,42,124,11
1,1,13,1,6,1,1,42,86,11
2,1,19,1,2,0,1,42,13,11
3,2,14,1,4,0,1,42,13,11
3,2,22,0,6,1,1,42,86,11
3,2,0,0,1,0,1,42,86,11
4,2,8,1,5,1,2,42,106,11
4,2,19,1,0,0,2,42,14,11
4,2,16,1,2,0,2,42,75,11
5,2,20,1,5,1,2,42,14,9
5,2,6,0,3,0,2,42,43,11
5,2,1,0,6,1,2,42,75,11
7,3,11,1,2,0,3,42,89,11
7,3,23,0,4,0,3,42,86,11
7,3,9,1,6,1,3,42,75,9
7,3,2,0,4,0,3,42,65,11
8,3,2,0,0,0,3,42,63,11
8,3,19,1,1,0,3,42,47,11
8,3,22,0,5,1,3,42,89,11
8,3,9,1,6,1,3,42,14,11
9,4,2,0,1,0,3,42,19,11
9,4,1,0,2,0,3,42,79,11
9,4,11,1,2,0,3,42,98,11
9,4,19,1,4,0,3,42,98,11
9,4,11,1,6,1,3,42,79,11
10,4,2,0,0,0,4,42,19,11
10,4,17,1,2,0,4,42,86,11
11,4,18,1,4,0,4,42,98,11
11,4,13,1,2,0,4,42,14,11
12,1,16,1,5,1,4,42,98,11
1,1,14,1,5,1,1,42,98,11
1,1,9,1,2,0,1,42,86,11
2,1,18,1,5,1,1,42,63,11
2,1,23,0,6,1,1,42,86,11
2,1,22,0,6,1,1,42,86,11
2,1,13,1,3,0,1,42,98,11
3,2,21,0,6,1,1,42,86,11
5,2,17,1,0,0,2,42,75,11
7,3,14,1,4,0,3,42,89,11
7,3,19,1,4,0,3,42,86,11
7,3,12,1,3,0,3,42,89,11
8,3,16,1,6,1,3,42,14,11
9,4,0,0,0,0,3,42,98,11
9,4,18,1,1,0,3,42,98,11
9,4,16,1,1,0,3,42,98,11
10,4,19,1,2,0,4,42,86,11
10,4,0,0,3,0,4,42,19,11
11,4,22,0,2,0,4,42,13,11
1,1,8,1,0,0,1,42,89,11
5,2,17,1,6,1,2,42,89,11
7,3,21,0,2,0,3,42,45,11
7,3,18,1,3,0,3,42,14,11
7,3,14,1,4,0,3,42,98,11
7,3,7,1,4,0,3,42,45,11
8,3,22,0,5,1,3,42,106,11
8,3,0,0,2,0,3,42,98,11
8,3,2,0,2,0,3,42,98,11
8,3,1,0,2,0,3,42,98,11
8,3,13,1,0,0,3,42,89,11
9,4,16,1,0,0,3,42,89,11
9,4,16,1,0,0,3,42,98,11
9,4,20,1,3,0,3,42,19,11
9,4,12,1,3,0,3,42,45,11
10,4,17,1,0,0,4,42,75,11
11,4,11,1,6,1,4,42,98,11
11,4,19,1,6,1,4,42,125,11
11,4,12,1,0,0,4,42,98,11
11,4,12,1,4,0,4,42,98,11
11,4,11,1,4,0,4,42,25,11
11,4,17,1,5,1,4,42,98,11
11,4,18,1,6,1,4,42,98,11
11,4,21,0,6,1,4,42,98,11
11,4,21,0,0,0,4,42,98,11
11,4,22,0,3,0,4,42,98,11
1,1,23,0,4,0,1,21,109,11
1,1,7,1,2,0,1,21,65,11
1,1,12,1,3,0,1,21,75,11
1,1,17,1,2,0,1,21,39,9
1,1,7,1,5,1,1,21,86,11
1,1,9,1,6,1,1,21,39,9
1,1,18,1,3,0,1,21,86,11
1,1,23,0,3,0,1,21,94,11
1,1,23,0,3,0,1,21,98,11
1,1,23,0,3,0,1,21,98,11
1,1,18,1,1,0,1,21,98,11
1,1,20,1,4,0,1,21,39,11
2,1,17,1,1,0,1,21,98,11
2,1,20,1,1,0,1,21,65,11
2,1,0,0,1,0,1,21,86,11
2,1,20,1,2,0,1,21,65,9
2,1,12,1,3,0,1,21,72,11
2,1,23,0,5,1,1,21,98,11
2,1,15,1,0,0,1,21,89,11
2,1,13,1,4,0,1,21,98,11
3,2,18,1,1,0,1,21,98,11
3,2,14,1,3,0,1,21,86,11
3,2,10,1,4,0,1,21,65,8
4,2,17,1,6,1,2,21,89,11
4,2,16,1,4,0,2,21,98,11
4,2,18,1,4,0,2,21,98,11
4,2,11,1,5,1,2,21,75,11
4,2,17,1,4,0,2,21,106,11
4,2,14,1,6,1,2,21,89,11
4,2,21,0,3,0,2,21,106,11
5,2,18,1,4,0,2,21,86,11
5,2,14,1,4,0,2,21,98,11
5,2,12,1,0,0,2,21,98,11
6,3,19,1,1,0,2,21,72,9
6,3,3,0,1,0,2,21,72,8
6,3,8,1,5,1,2,21,65,11
7,3,16,1,3,0,3,21,89,11
7,3,23,0,6,1,3,21,39,11
7,3,1,0,3,0,3,21,82,9
7,3,3,0,4,0,3,21,75,9
8,3,13,1,3,0,3,21,75,8
8,3,14,1,0,0,3,21,98,11
9,4,12,1,1,0,3,21,123,11
9,4,16,1,5,1,3,21,72,9
9,4,10,1,6,1,3,21,47,11
9,4,11,1,6,1,3,21,29,11
9,4,2,0,6,1,3,21,65,8
9,4,16,1,1,0,3,21,65,11
9,4,21,0,1,0,3,21,65,11
10,4,1,0,3,0,4,21,72,11
10,4,18,1,6,1,4,21,14,11
10,4,10,1,2,0,4,21,72,11
10,4,16,1,3,0,4,21,72,11
10,4,11,1,4,0,4,21,39,9
10,4,15,1,4,0,4,21,65,8
10,4,17,1,4,0,4,21,98,11
10,4,10,1,5,1,4,21,13,9
10,4,19,1,6,1,4,21,86,11
10,4,8,1,1,0,4,21,23,9
11,4,14,1,6,1,4,21,89,11
11,4,21,0,2,0,4,21,125,11
11,4,14,1,4,0,4,21,98,11
11,4,14,1,4,0,4,21,98,11
11,4,14,1,5,1,4,21,89,11
11,4,7,1,0,0,4,21,86,11
11,4,15,1,1,0,4,21,98,11
11,4,19,1,3,0,4,21,65,11
11,4,17,1,3,0,4,21,98,11
11,4,11,1,3,0,4,21,72,11
12,1,16,1,4,0,4,21,98,11
12,1,19,1,2,0,4,21,65,11
12,1,16,1,2,0,4,21,86,11
12,1,20,1,4,0,4,21,65,11
12,1,17,1,4,0,4,21,89,11
1,1,15,1,3,0,1,21,89,11
1,1,21,0,6,1,1,21,98,11
2,1,11,1,5,1,1,21,39,9
3,2,20,1,4,0,1,21,98,11
5,2,1,0,1,0,2,21,39,11
6,3,22,0,0,0,2,21,106,11
7,3,11,1,4,0,3,21,98,11
7,3,4,0,0,0,3,21,75,11
7,3,8,1,3,0,3,21,89,11
8,3,11,1,0,0,3,21,82,11
9,4,18,1,4,0,3,21,19,9
9,4,11,1,3,0,3,21,104,11
10,4,13,1,2,0,4,21,98,11
10,4,9,1,6,1,4,21,65,9
11,4,15,1,4,0,4,21,98,11
11,4,3,0,3,0,4,21,89,11
11,4,12,1,4,0,4,21,14,11
11,4,14,1,4,0,4,21,89,11
11,4,9,1,5,1,4,21,89,11
11,4,12,1,0,0,4,21,39,9
12,1,11,1,3,0,4,21,125,11
12,1,15,1,3,0,4,21,125,11
1,1,10,1,5,1,1,21,89,11
1,1,17,1,6,1,1,21,75,11
1,1,13,1,1,0,1,21,75,11
1,1,12,1,6,1,1,21,89,11
1,1,17,1,1,0,1,21,89,11
1,1,17,1,5,1,1,21,75,11
1,1,19,1,4,0,1,21,39,11
1,1,20,1,4,0,1,21,39,11
2,1,21,0,5,1,1,21,75,11
2,1,19,1,4,0,1,21,1,11
2,1,15,1,1,0,1,21,98,11
2,1,2,0,2,0,1,21,1,11
2,1,1,0,5,1,1,21,75,11
2,1,7,1,6,1,1,21,75,11
2,1,20,1,2,0,1,21,39,11
2,1,17,1,4,0,1,21,89,11
2,1,10,1,5,1,1,21,89,11
3,2,0,0,0,0,1,21,75,11
3,2,13,1,0,0,1,21,75,11
3,2,19,1,5,1,1,21,98,11
3,2,11,1,6,1,1,21,98,11
3,2,15,1,3,0,1,21,23,9
4,2,15,1,6,1,2,21,75,11
4,2,18,1,3,0,2,21,1,11
5,2,13,1,6,1,2,21,75,11
5,2,20,1,1,0,2,21,1,11
5,2,15,1,1,0,2,21,39,11
5,2,22,0,1,0,2,21,75,11
6,3,12,1,3,0,2,21,27,11
7,3,12,1,5,1,3,21,72,11
7,3,17,1,1,0,3,21,98,11
7,3,10,1,5,1,3,21,98,11
7,3,21,0,4,0,3,21,98,11
7,3,21,0,2,0,3,21,75,11
8,3,14,1,6,1,3,21,89,9
8,3,4,0,1,0,3,21,89,11
8,3,17,1,4,0,3,21,3,11
8,3,1,0,3,0,3,21,106,11
8,3,7,1,6,1,3,21,19,11
9,4,11,1,2,0,3,21,3,11
9,4,20,1,3,0,3,21,98,11
10,4,14,1,3,0,4,21,50,9
10,4,15,1,4,0,4,21,89,11
10,4,8,1,0,0,4,21,89,11
10,4,13,1,3,0,4,21,72,11
10,4,7,1,1,0,4,21,106,11
10,4,22,0,1,0,4,21,67,11
10,4,8,1,1,0,4,21,75,11
10,4,13,1,1,0,4,21,98,11
10,4,7,1,3,0,4,21,106,11
11,4,23,0,0,0,4,21,75,11
11,4,15,1,2,0,4,21,75,11
11,4,16,1,4,0,4,21,55,11
11,4,18,1,5,1,4,21,75,11
11,4,16,1,2,0,4,21,89,11
11,4,17,1,3,0,4,21,75,11
11,4,11,1,4,0,4,21,98,11
11,4,10,1,4,0,4,21,89,11
11,4,15,1,6,1,4,21,98,11
11,4,19,1,0,0,4,21,125,11
12,1,5,0,5,1,4,21,106,11
12,1,19,1,3,0,4,21,56,11
12,1,12,1,6,1,4,21,55,11
12,1,17,1,2,0,4,21,122,11
12,1,8,1,4,0,4,21,12,11
12,1,17,1,6,1,4,21,75,11
12,1,1,0,2,0,4,21,75,11
1,1,11,1,0,0,1,21,75,11
1,1,21,0,4,0,1,21,56,11
1,1,14,1,1,0,1,21,39,11
2,1,18,1,2,0,1,21,19,11
2,1,7,1,0,0,1,21,86,11
3,2,2,0,5,1,1,21,86,11
3,2,5,0,5,1,1,21,86,11
3,2,9,1,0,0,1,21,39,11
3,2,15,1,4,0,1,21,3,11
4,2,18,1,1,0,2,21,63,9
4,2,11,1,2,0,2,21,19,9
4,2,21,0,4,0,2,21,67,11
4,2,14,1,1,0,2,21,89,11
4,2,13,1,3,0,2,21,89,11
5,2,21,0,4,0,2,21,13,8
5,2,11,1,4,0,2,21,101,11
6,3,14,1,4,0,2,21,89,11
6,3,16,1,6,1,2,21,86,9
8,3,20,1,5,1,3,21,75,11
8,3,1,0,3,0,3,21,89,11
8,3,23,0,5,1,3,21,13,8
9,4,10,1,1,0,3,21,86,11
9,4,11,1,4,0,3,21,86,11
9,4,19,1,2,0,3,21,86,11
10,4,14,1,3,0,4,21,19,11
10,4,7,1,4,0,4,21,14,8
10,4,19,1,0,0,4,21,63,11
11,4,15,1,6,1,4,21,23,9
11,4,16,1,1,0,4,21,89,9
11,4,13,1,2,0,4,21,98,11
11,4,16,1,2,0,4,21,86,9
12,1,1,0,3,0,4,21,39,8
1,1,18,1,2,0,1,9,86,11
1,1,8,1,3,0,1,9,65,11
1,1,13,1,3,0,1,9,75,11
1,1,13,1,0,0,1,9,98,11
1,1,15,1,0,0,1,9,98,11
1,1,19,1,0,0,1,9,86,11
1,1,0,0,1,0,1,9,86,11
1,1,15,1,1,0,1,9,45,9
1,1,18,1,3,0,1,9,98,11
1,1,20,1,3,0,1,9,86,11
1,1,0,0,4,0,1,9,98,11
1,1,10,1,4,0,1,9,27,11
1,1,14,1,4,0,1,9,89,11
1,1,20,1,6,1,1,9,86,11
1,1,7,1,0,0,1,9,86,11
1,1,12,1,0,0,1,9,98,11
1,1,14,1,0,0,1,9,86,11
1,1,19,1,0,0,1,9,65,11
1,1,20,1,3,0,1,9,19,11
1,1,16,1,6,1,1,9,77,11
1,1,15,1,5,1,1,9,98,11
1,1,19,1,5,1,1,9,65,11
1,1,15,1,6,1,1,9,3,9
1,1,21,0,1,0,1,9,98,11
2,1,3,0,5,1,1,9,86,11
2,1,3,0,5,1,1,9,86,11
2,1,4,0,5,1,1,9,86,11
2,1,4,0,5,1,1,9,98,11
2,1,13,1,5,1,1,9,23,9
2,1,22,0,0,0,1,9,65,11
2,1,15,1,6,1,1,9,98,11
2,1,18,1,1,0,1,9,79,11
2,1,13,1,6,1,1,9,98,11
2,1,13,1,0,0,1,9,98,11
2,1,5,0,3,0,1,9,63,9
2,1,16,1,5,1,1,9,98,11
3,2,21,0,6,1,1,9,125,11
3,2,23,0,6,1,1,9,8,11
3,2,19,1,0,0,1,9,65,11
3,2,14,1,1,0,1,9,98,11
3,2,21,0,1,0,1,9,106,11
3,2,23,0,2,0,1,9,6,11
3,2,7,1,2,0,1,9,6,11
3,2,23,0,6,1,1,9,86,11
3,2,19,1,4,0,1,9,86,11
3,2,19,1,5,1,1,9,65,11
3,2,18,1,0,0,1,9,89,11
3,2,19,1,1,0,1,9,65,11
3,2,17,1,5,1,1,9,98,11
3,2,18,1,5,1,1,9,98,11
3,2,11,1,6,1,1,9,65,11
3,2,15,1,6,1,1,9,98,11
3,2,16,1,6,1,1,9,98,11
3,2,18,1,0,0,1,9,65,11
3,2,19,1,3,0,1,9,75,11
3,2,20,1,3,0,1,9,65,11
3,2,19,1,6,1,1,9,65,11
4,2,21,0,4,0,2,9,65,11
4,2,15,1,0,0,2,9,75,11
4,2,16,1,2,0,2,9,98,11
4,2,14,1,6,1,2,9,65,11
4,2,5,0,1,0,2,9,39,11
4,2,15,1,6,1,2,9,98,11
4,2,2,0,2,0,2,9,98,11
5,2,16,1,5,1,2,9,72,11
5,2,12,1,1,0,2,9,98,11
5,2,17,1,3,0,2,9,89,11
5,2,19,1,3,0,2,9,98,11
5,2,17,1,0,0,2,9,98,11
5,2,14,1,1,0,2,9,89,11
5,2,12,1,5,1,2,9,98,11
5,2,16,1,0,0,2,9,98,11
5,2,20,1,2,0,2,9,98,11
6,3,19,1,3,0,2,9,98,11
6,3,22,0,5,1,2,9,75,9
6,3,17,1,2,0,2,9,98,11
6,3,16,1,3,0,2,9,75,11
6,3,16,1,3,0,2,9,98,11
6,3,17,1,3,0,2,9,98,11
6,3,20,1,5,1,2,9,98,11
6,3,0,0,0,0,2,9,65,11
6,3,10,1,6,1,2,9,86,11
6,3,13,1,0,0,2,9,98,11
6,3,19,1,0,0,2,9,98,11
6,3,4,0,1,0,2,9,94,11
7,3,11,1,3,0,3,9,98,11
7,3,10,1,4,0,3,9,3,11
7,3,10,1,0,0,3,9,19,11
7,3,11,1,1,0,3,9,65,9
7,3,20,1,4,0,3,9,98,11
7,3,0,0,5,1,3,9,19,11
7,3,13,1,5,1,3,9,89,11
7,3,16,1,6,1,3,9,98,11
7,3,18,1,3,0,3,9,106,11
7,3,19,1,4,0,3,9,108,11
7,3,0,0,5,1,3,9,75,11
7,3,7,1,4,0,3,9,63,11
7,3,20,1,2,0,3,9,98,11
8,3,14,1,1,0,3,9,63,11
8,3,15,1,5,1,3,9,25,11
8,3,14,1,2,0,3,9,98,11
8,3,14,1,6,1,3,9,75,11
8,3,10,1,0,0,3,9,98,11
8,3,20,1,6,1,3,9,98,11
9,4,10,1,4,0,3,9,63,11
9,4,17,1,4,0,3,9,89,11
9,4,18,1,4,0,3,9,98,11
9,4,22,0,4,0,3,9,64,11
9,4,11,1,0,0,3,9,89,11
9,4,13,1,0,0,3,9,89,11
9,4,15,1,0,0,3,9,89,11
9,4,12,1,4,0,3,9,98,11
9,4,14,1,5,1,3,9,98,11
9,4,3,0,0,0,3,9,98,11
9,4,10,1,1,0,3,9,98,11
9,4,17,1,4,0,3,9,89,11
9,4,18,1,0,0,3,9,98,11
9,4,1,0,5,1,3,9,98,11
10,4,15,1,3,0,4,9,75,9
10,4,16,1,3,0,4,9,89,9
10,4,19,1,3,0,4,9,98,11
10,4,21,0,5,1,4,9,86,11
10,4,10,1,6,1,4,9,98,11
10,4,18,1,6,1,4,9,25,9
10,4,13,1,6,1,4,9,89,11
10,4,14,1,1,0,4,9,67,11
10,4,21,0,5,1,4,9,94,11
10,4,14,1,6,1,4,9,89,11
10,4,14,1,0,0,4,9,98,11
10,4,12,1,1,0,4,9,89,11
10,4,17,1,1,0,4,9,98,11
10,4,21,0,3,0,4,9,19,11
10,4,11,1,6,1,4,9,23,11
10,4,13,1,0,0,4,9,75,11
10,4,11,1,1,0,4,9,25,11
10,4,15,1,4,0,4,9,98,11
10,4,15,1,5,1,4,9,98,11
11,4,12,1,6,1,4,9,98,11
11,4,15,1,6,1,4,9,98,11
11,4,16,1,6,1,4,9,98,11
11,4,8,1,1,0,4,9,50,11
11,4,15,1,3,0,4,9,89,11
11,4,13,1,5,1,4,9,98,11
11,4,12,1,6,1,4,9,89,11
11,4,17,1,1,0,4,9,98,11
11,4,19,1,1,0,4,9,125,11
11,4,15,1,4,0,4,9,75,11
11,4,14,1,5,1,4,9,98,11
11,4,16,1,5,1,4,9,98,11
11,4,13,1,1,0,4,9,89,11
11,4,16,1,3,0,4,9,98,11
11,4,0,0,4,0,4,9,79,11
11,4,18,1,4,0,4,9,98,11
11,4,17,1,6,1,4,9,86,11
11,4,13,1,0,0,4,9,98,11
11,4,0,0,3,0,4,9,98,11
11,4,16,1,3,0,4,9,89,11
11,4,14,1,4,0,4,9,98,11
11,4,15,1,5,1,4,9,56,11
11,4,13,1,6,1,4,9,98,11
11,4,16,1,6,1,4,9,98,11
11,4,18,1,6,1,4,9,98,11
12,1,22,0,1,0,4,9,75,9
12,1,6,0,3,0,4,9,86,11
12,1,15,1,3,0,4,9,98,11
12,1,20,1,4,0,4,9,65,9
12,1,10,1,6,1,4,9,98,11
12,1,19,1,6,1,4,9,106,11
12,1,3,0,6,1,4,9,14,11
12,1,0,0,0,0,4,9,75,9
12,1,14,1,1,0,4,9,98,11
12,1,13,1,2,0,4,9,19,11
12,1,20,1,4,0,4,9,98,11
12,1,18,1,5,1,4,9,75,11
1,1,12,1,3,0,1,9,75,11
1,1,23,0,6,1,1,9,86,11
1,1,2,0,1,0,1,9,14,9
1,1,11,1,0,0,1,9,13,9
1,1,21,0,2,0,1,9,75,9
2,1,16,1,0,0,1,9,89,11
2,1,9,1,5,1,1,9,65,11
2,1,17,1,1,0,1,9,98,11
2,1,13,1,4,0,1,9,3,11
5,2,21,0,1,0,2,9,98,11
8,3,15,1,6,1,3,9,98,11
8,3,12,1,1,0,3,9,89,9
8,3,0,0,4,0,3,9,98,11
9,4,15,1,4,0,3,9,89,11
9,4,12,1,2,0,3,9,89,11
11,4,18,1,6,1,4,9,98,11
12,1,15,1,3,0,4,9,75,11
1,1,6,0,2,0,1,9,75,11
6,3,9,1,2,0,2,9,75,11
1,1,19,1,4,0,1,37,98,11
1,1,17,1,5,1,1,37,65,11
1,1,20,1,5,1,1,37,94,11
1,1,16,1,6,1,1,37,98,11
1,1,20,1,6,1,1,37,98,11
1,1,21,0,6,1,1,37,3,11
1,1,2,0,0,0,1,37,65,11
1,1,2,0,0,0,1,37,89,11
1,1,17,1,2,0,1,37,94,11
1,1,15,1,3,0,1,37,98,11
1,1,18,1,3,0,1,37,94,11
1,1,22,0,3,0,1,37,98,11
1,1,9,1,4,0,1,37,89,11
1,1,20,1,4,0,1,37,65,11
1,1,21,0,4,0,1,37,65,11
1,1,14,1,5,1,1,37,98,11
1,1,16,1,5,1,1,37,98,11
1,1,12,1,1,0,1,37,89,11
1,1,19,1,3,0,1,37,19,11
1,1,18,1,4,0,1,37,98,11
1,1,17,1,5,1,1,37,65,11
1,1,15,1,0,0,1,37,39,11
1,1,11,1,1,0,1,37,65,11
1,1,14,1,1,0,1,37,39,11
1,1,20,1,1,0,1,37,98,11
1,1,14,1,2,0,1,37,98,11
1,1,23,0,3,0,1,37,98,11
1,1,22,0,3,0,1,37,39,11
1,1,13,1,4,0,1,37,98,11
1,1,15,1,5,1,1,37,98,11
1,1,13,1,0,0,1,37,75,11
1,1,18,1,0,0,1,37,98,11
1,1,17,1,1,0,1,37,98,11
1,1,8,1,2,0,1,37,98,11
2,1,11,1,5,1,1,37,98,11
2,1,12,1,0,0,1,37,98,11
2,1,21,0,0,0,1,37,14,11
2,1,16,1,2,0,1,37,67,11
2,1,20,1,3,0,1,37,98,11
2,1,17,1,5,1,1,37,98,11
2,1,11,1,6,1,1,37,89,11
2,1,3,0,1,0,1,37,65,11
2,1,10,1,3,0,1,37,98,11
2,1,11,1,6,1,1,37,94,11
2,1,13,1,6,1,1,37,75,11
2,1,19,1,6,1,1,37,94,11
2,1,19,1,2,0,1,37,94,11
2,1,19,1,3,0,1,37,39,11
2,1,23,0,4,0,1,37,65,11
2,1,13,1,5,1,1,37,98,11
2,1,1,0,6,1,1,37,94,11
2,1,12,1,6,1,1,37,98,11
2,1,13,1,2,0,1,37,98,11
2,1,23,0,4,0,1,37,94,11
2,1,12,1,5,1,1,37,98,11
2,1,17,1,5,1,1,37,72,11
3,2,5,0,6,1,1,37,94,11
3,2,5,0,6,1,1,37,94,11
3,2,22,0,6,1,1,37,98,11
3,2,6,0,0,0,1,37,94,11
3,2,6,0,0,0,1,37,94,11
3,2,16,1,1,0,1,37,98,11
3,2,13,1,2,0,1,37,65,11
3,2,15,1,2,0,1,37,106,11
3,2,18,1,4,0,1,37,98,11
3,2,12,1,4,0,1,37,98,11
3,2,17,1,0,0,1,37,65,11
3,2,16,1,1,0,1,37,98,11
3,2,19,1,1,0,1,37,65,11
3,2,21,0,2,0,1,37,98,11
3,2,17,1,2,0,1,37,98,11
3,2,19,1,3,0,1,37,98,11
3,2,18,1,4,0,1,37,98,11
3,2,14,1,5,1,1,37,98,11
3,2,11,1,5,1,1,37,98,11
3,2,17,1,6,1,1,37,98,11
3,2,17,1,0,0,1,37,72,11
3,2,18,1,0,0,1,37,75,11
3,2,15,1,0,0,1,37,98,11
3,2,9,1,0,0,1,37,98,11
3,2,16,1,2,0,1,37,86,11
3,2,12,1,2,0,1,37,86,11
3,2,15,1,6,1,1,37,98,11
4,2,20,1,6,1,2,37,65,11
4,2,20,1,6,1,2,37,75,11
4,2,0,0,0,0,2,37,65,11
4,2,14,1,2,0,2,37,98,11
4,2,20,1,6,1,2,37,75,11
4,2,12,1,2,0,2,37,14,11
4,2,13,1,2,0,2,37,65,11
4,2,9,1,5,1,2,37,65,11
4,2,16,1,5,1,2,37,98,11
4,2,8,1,0,0,2,37,94,11
4,2,18,1,0,0,2,37,39,11
4,2,17,1,3,0,2,37,98,11
4,2,9,1,4,0,2,37,19,11
4,2,1,0,5,1,2,37,39,11
4,2,19,1,6,1,2,37,65,11
5,2,21,0,6,1,2,37,98,11
5,2,12,1,6,1,2,37,98,11
5,2,17,1,1,0,2,37,98,11
5,2,22,0,1,0,2,37,19,11
5,2,18,1,3,0,2,37,98,11
5,2,1,0,3,0,2,37,65,11
5,2,11,1,3,0,2,37,98,11
5,2,23,0,6,1,2,37,106,11
6,3,13,1,2,0,2,37,98,11
6,3,12,1,5,1,2,37,98,11
6,3,13,1,5,1,2,37,98,11
6,3,19,1,5,1,2,37,98,11
6,3,20,1,5,1,2,37,98,11
6,3,11,1,4,0,2,37,98,11
6,3,16,1,4,0,2,37,72,11
6,3,1,0,5,1,2,37,94,11
6,3,12,1,0,0,2,37,89,11
6,3,0,0,2,0,2,37,94,11
6,3,13,1,3,0,2,37,98,11
6,3,17,1,3,0,2,37,98,11
6,3,22,0,3,0,2,37,98,11
6,3,13,1,4,0,2,37,98,11
6,3,19,1,4,0,2,37,98,11
6,3,17,1,5,1,2,37,98,11
6,3,21,0,0,0,2,37,98,11
7,3,19,1,3,0,3,37,98,11
7,3,21,0,1,0,3,37,98,11
7,3,19,1,3,0,3,37,98,11
7,3,22,0,3,0,3,37,94,11
7,3,17,1,4,0,3,37,98,11
7,3,19,1,5,1,3,37,19,11
7,3,15,1,6,1,3,37,98,11
7,3,15,1,6,1,3,37,89,11
7,3,19,1,6,1,3,37,98,11
7,3,22,0,6,1,3,37,98,11
7,3,2,0,0,0,3,37,3,11
7,3,17,1,2,0,3,37,98,11
7,3,17,1,6,1,3,37,98,11
7,3,16,1,1,0,3,37,98,11
7,3,13,1,2,0,3,37,98,11
7,3,13,1,2,0,3,37,98,11
7,3,19,1,2,0,3,37,98,11
7,3,0,0,3,0,3,37,98,11
7,3,10,1,3,0,3,37,98,11
7,3,12,1,3,0,3,37,98,11
7,3,13,1,3,0,3,37,98,11
7,3,18,1,3,0,3,37,89,11
7,3,10,1,4,0,3,37,98,11
7,3,18,1,4,0,3,37,98,11
7,3,19,1,4,0,3,37,98,11
7,3,21,0,5,1,3,37,98,11
7,3,9,1,6,1,3,37,98,11
7,3,15,1,6,1,3,37,39,11
7,3,14,1,0,0,3,37,98,11
7,3,19,1,1,0,3,37,98,11
7,3,16,1,2,0,3,37,98,11
7,3,14,1,2,0,3,37,89,11
7,3,15,1,3,0,3,37,98,11
7,3,15,1,3,0,3,37,98,11
7,3,12,1,4,0,3,37,98,11
7,3,14,1,4,0,3,37,98,11
8,3,10,1,5,1,3,37,89,11
8,3,11,1,5,1,3,37,98,11
8,3,13,1,1,0,3,37,98,11
8,3,20,1,1,0,3,37,23,11
8,3,8,1,2,0,3,37,98,11
8,3,20,1,2,0,3,37,98,11
8,3,16,1,5,1,3,37,98,11
8,3,9,1,6,1,3,37,98,11
8,3,14,1,6,1,3,37,98,11
8,3,17,1,6,1,3,37,98,11
8,3,18,1,6,1,3,37,98,11
8,3,18,1,6,1,3,37,98,11
8,3,11,1,0,0,3,37,89,11
8,3,13,1,0,0,3,37,98,11
8,3,20,1,0,0,3,37,89,11
8,3,21,0,0,0,3,37,98,11
8,3,11,1,1,0,3,37,89,11
8,3,12,1,1,0,3,37,89,11
8,3,12,1,1,0,3,37,89,11
8,3,11,1,2,0,3,37,98,11
8,3,22,0,2,0,3,37,98,11
8,3,17,1,3,0,3,37,98,11
8,3,18,1,3,0,3,37,98,11
8,3,22,0,3,0,3,37,98,11
8,3,12,1,4,0,3,37,89,11
8,3,16,1,4,0,3,37,98,11
8,3,21,0,4,0,3,37,89,11
8,3,13,1,5,1,3,37,98,11
8,3,16,1,5,1,3,37,98,11
8,3,13,1,6,1,3,37,65,11
8,3,21,0,6,1,3,37,98,11
8,3,11,1,0,0,3,37,98,11
8,3,14,1,0,0,3,37,98,11
8,3,14,1,0,0,3,37,65,11
8,3,17,1,1,0,3,37,98,11
8,3,21,0,1,0,3,37,98,11
8,3,1,0,2,0,3,37,98,11
8,3,10,1,4,0,3,37,98,11
8,3,14,1,5,1,3,37,89,11
8,3,15,1,5,1,3,37,89,11
8,3,15,1,5,1,3,37,89,11
8,3,22,0,5,1,3,37,19,11
8,3,15,1,6,1,3,37,98,11
8,3,17,1,6,1,3,37,122,11
8,3,17,1,6,1,3,37,98,11
8,3,12,1,0,0,3,37,98,11
8,3,18,1,0,0,3,37,98,11
8,3,15,1,1,0,3,37,98,11
8,3,20,1,1,0,3,37,89,11
8,3,0,0,3,0,3,37,98,11
8,3,14,1,3,0,3,37,98,11
8,3,18,1,3,0,3,37,98,11
8,3,13,1,4,0,3,37,98,11
8,3,16,1,4,0,3,37,89,11
8,3,23,0,6,1,3,37,98,11
8,3,9,1,0,0,3,37,98,11
8,3,14,1,0,0,3,37,89,11
8,3,16,1,0,0,3,37,89,11
8,3,20,1,0,0,3,37,105,11
9,4,8,1,1,0,3,37,65,11
9,4,15,1,1,0,3,37,19,11
9,4,16,1,2,0,3,37,98,11
9,4,17,1,2,0,3,37,98,11
9,4,19,1,2,0,3,37,98,11
9,4,20,1,2,0,3,37,98,11
9,4,21,0,4,0,3,37,98,11
9,4,16,1,5,1,3,37,89,11
9,4,18,1,5,1,3,37,98,11
9,4,11,1,6,1,3,37,89,11
9,4,14,1,6,1,3,37,98,11
9,4,12,1,0,0,3,37,98,11
9,4,14,1,0,0,3,37,98,11
9,4,21,0,0,0,3,37,19,11
9,4,13,1,1,0,3,37,98,11
9,4,16,1,1,0,3,37,98,11
9,4,16,1,1,0,3,37,98,11
9,4,17,1,1,0,3,37,89,11
9,4,20,1,1,0,3,37,98,11
9,4,12,1,2,0,3,37,89,11
9,4,13,1,2,0,3,37,89,11
9,4,14,1,2,0,3,37,98,11
9,4,16,1,2,0,3,37,89,11
9,4,20,1,2,0,3,37,89,11
9,4,13,1,3,0,3,37,65,11
9,4,16,1,3,0,3,37,98,11
9,4,17,1,3,0,3,37,98,11
9,4,14,1,4,0,3,37,98,11
9,4,12,1,5,1,3,37,98,11
9,4,15,1,5,1,3,37,89,11
9,4,15,1,5,1,3,37,89,11
9,4,16,1,5,1,3,37,98,11
9,4,13,1,6,1,3,37,89,11
9,4,16,1,6,1,3,37,98,11
9,4,17,1,6,1,3,37,98,11
9,4,6,0,0,0,3,37,98,11
9,4,12,1,0,0,3,37,98,11
9,4,9,1,1,0,3,37,98,11
9,4,13,1,1,0,3,37,89,11
9,4,23,0,1,0,3,37,89,11
9,4,16,1,2,0,3,37,98,11
9,4,9,1,3,0,3,37,98,11
9,4,9,1,4,0,3,37,98,11
9,4,9,1,4,0,3,37,98,11
9,4,22,0,4,0,3,37,98,11
9,4,1,0,5,1,3,37,89,11
9,4,17,1,5,1,3,37,98,11
9,4,19,1,5,1,3,37,98,11
9,4,0,0,6,1,3,37,19,11
9,4,0,0,0,0,3,37,98,11
9,4,18,1,0,0,3,37,98,11
9,4,13,1,1,0,3,37,98,11
9,4,17,1,1,0,3,37,14,11
9,4,18,1,1,0,3,37,98,11
9,4,18,1,1,0,3,37,65,11
9,4,23,0,1,0,3,37,98,11
9,4,3,0,2,0,3,37,98,11
9,4,15,1,2,0,3,37,98,11
9,4,16,1,2,0,3,37,98,11
9,4,18,1,2,0,3,37,98,11
9,4,22,0,2,0,3,37,98,11
9,4,15,1,4,0,3,37,98,11
9,4,15,1,4,0,3,37,98,11
9,4,19,1,6,1,3,37,89,11
9,4,19,1,6,1,3,37,89,11
9,4,13,1,1,0,3,37,98,11
9,4,16,1,1,0,3,37,98,11
9,4,18,1,2,0,3,37,89,11
10,4,16,1,3,0,4,37,89,11
10,4,18,1,3,0,4,37,98,11
10,4,0,0,4,0,4,37,98,11
10,4,12,1,4,0,4,37,98,11
10,4,12,1,4,0,4,37,98,11
10,4,14,1,5,1,4,37,98,11
10,4,13,1,6,1,4,37,89,11
10,4,18,1,6,1,4,37,98,11
10,4,16,1,1,0,4,37,98,8
10,4,20,1,2,0,4,37,98,11
10,4,15,1,6,1,4,37,98,11
10,4,20,1,5,1,4,37,98,11
10,4,16,1,6,1,4,37,98,11
10,4,15,1,0,0,4,37,98,11
10,4,17,1,1,0,4,37,98,11
10,4,11,1,2,0,4,37,89,11
10,4,16,1,2,0,4,37,98,11
10,4,15,1,3,0,4,37,94,11
10,4,14,1,5,1,4,37,98,11
10,4,18,1,1,0,4,37,98,11
10,4,10,1,2,0,4,37,98,11
10,4,6,0,3,0,4,37,94,11
10,4,14,1,3,0,4,37,98,11
10,4,8,1,4,0,4,37,98,11
11,4,15,1,0,0,4,37,98,11
11,4,23,0,0,0,4,37,98,11
11,4,23,0,0,0,4,37,89,11
11,4,1,0,1,0,4,37,94,11
11,4,22,0,1,0,4,37,65,11
11,4,7,1,3,0,4,37,98,11
11,4,23,0,4,0,4,37,23,11
11,4,0,0,5,1,4,37,65,11
11,4,19,1,5,1,4,37,98,11
11,4,13,1,3,0,4,37,57,11
11,4,14,1,4,0,4,37,98,11
11,4,14,1,6,1,4,37,98,11
11,4,9,1,3,0,4,37,105,11
11,4,14,1,3,0,4,37,98,11
11,4,18,1,4,0,4,37,98,11
11,4,11,1,5,1,4,37,39,11
11,4,13,1,5,1,4,37,98,11
11,4,18,1,5,1,4,37,98,11
11,4,21,0,5,1,4,37,94,11
11,4,15,1,6,1,4,37,98,11
11,4,20,1,6,1,4,37,19,11
11,4,21,0,0,0,4,37,89,11
11,4,11,1,1,0,4,37,105,11
11,4,15,1,1,0,4,37,98,11
11,4,13,1,2,0,4,37,98,11
11,4,17,1,2,0,4,37,98,11
11,4,9,1,2,0,4,37,75,11
11,4,10,1,3,0,4,37,72,11
11,4,11,1,3,0,4,37,72,11
11,4,5,0,4,0,4,37,75,11
11,4,12,1,4,0,4,37,98,11
11,4,15,1,4,0,4,37,98,11
11,4,17,1,5,1,4,37,98,11
11,4,13,1,6,1,4,37,98,11
11,4,13,1,6,1,4,37,56,11
12,1,12,1,2,0,4,37,98,11
12,1,11,1,4,0,4,37,98,11
12,1,14,1,6,1,4,37,98,11
12,1,14,1,6,1,4,37,65,11
12,1,23,0,6,1,4,37,19,11
12,1,23,0,5,1,4,37,65,11
12,1,11,1,6,1,4,37,94,11
12,1,17,1,0,0,4,37,98,11
12,1,21,0,1,0,4,37,75,11
12,1,23,0,2,0,4,37,19,11
12,1,17,1,4,0,4,37,94,11
12,1,22,0,1,0,4,37,94,11
1,1,18,1,1,0,1,37,39,11
2,1,17,1,1,0,1,37,89,11
4,2,9,1,5,1,2,37,39,8
7,3,15,1,3,0,3,37,98,11
9,4,19,1,6,1,3,37,105,11
10,4,0,0,0,0,4,37,14,11
10,4,2,0,4,0,4,37,39,8
1,1,17,1,6,1,1,37,89,11
1,1,14,1,2,0,1,37,89,11
1,1,21,0,3,0,1,37,19,11
1,1,14,1,4,0,1,37,98,11
1,1,23,0,0,0,1,37,3,11
2,1,17,1,6,1,1,37,98,11
2,1,16,1,0,0,1,37,98,11
2,1,15,1,4,0,1,37,98,11
3,2,8,1,0,0,1,37,106,11
3,2,12,1,0,0,1,37,98,11
3,2,11,1,3,0,1,37,125,11
3,2,14,1,4,0,1,37,98,11
4,2,20,1,1,0,2,37,86,11
5,2,19,1,2,0,2,37,98,11
6,3,23,0,0,0,2,37,75,9
6,3,8,1,6,1,2,37,98,11
7,3,19,1,2,0,3,37,8,9
7,3,10,1,0,0,3,37,125,11
7,3,1,0,4,0,3,37,3,11
8,3,7,1,3,0,3,37,105,11
8,3,10,1,2,0,3,37,89,11
8,3,20,1,4,0,3,37,98,11
8,3,16,1,5,1,3,37,89,11
8,3,16,1,0,0,3,37,89,11
8,3,17,1,0,0,3,37,98,11
8,3,10,1,0,0,3,37,98,11
9,4,13,1,2,0,3,37,89,11
9,4,13,1,4,0,3,37,98,11
9,4,10,1,3,0,3,37,98,11
9,4,10,1,4,0,3,37,98,11
9,4,17,1,4,0,3,37,98,11
9,4,18,1,6,1,3,37,98,11
9,4,12,1,1,0,3,37,98,9
10,4,17,1,3,0,4,37,19,11
10,4,20,1,4,0,4,37,89,11
10,4,15,1,4,0,4,37,75,8
11,4,5,0,0,0,4,37,89,11
11,4,1,0,3,0,4,37,3,11
11,4,14,1,4,0,4,37,98,11
11,4,17,1,4,0,4,37,98,11
11,4,11,1,6,1,4,37,98,11
11,4,13,1,1,0,4,37,98,11
12,1,18,1,3,0,4,37,98,11
12,1,17,1,1,0,4,37,13,11
1,1,5,0,0,0,1,11,63,11
1,1,15,1,1,0,1,11,86,11
1,1,16,1,2,0,1,11,89,11
1,1,18,1,2,0,1,11,75,11
1,1,16,1,4,0,1,11,125,11
1,1,3,0,1,0,1,11,65,11
1,1,15,1,1,0,1,11,65,11
1,1,14,1,2,0,1,11,89,11
1,1,20,1,3,0,1,11,19,11
1,1,13,1,3,0,1,11,86,11
2,1,7,1,0,0,1,11,125,11
2,1,7,1,2,0,1,11,86,11
2,1,11,1,4,0,1,11,65,11
2,1,23,0,0,0,1,11,86,11
2,1,15,1,0,0,1,11,96,11
2,1,11,1,0,0,1,11,86,11
2,1,8,1,0,0,1,11,86,11
2,1,13,1,0,0,1,11,125,11
2,1,18,1,2,0,1,11,89,11
2,1,20,1,4,0,1,11,75,11
2,1,18,1,0,0,1,11,125,11
2,1,14,1,1,0,1,11,75,9
2,1,18,1,2,0,1,11,98,11
3,2,6,0,6,1,1,11,75,11
3,2,8,1,2,0,1,11,108,9
3,2,12,1,4,0,1,11,89,11
3,2,18,1,0,0,1,11,86,11
3,2,18,1,0,0,1,11,86,11
3,2,12,1,1,0,1,11,86,11
3,2,7,1,3,0,1,11,75,11
3,2,13,1,4,0,1,11,86,11
3,2,16,1,2,0,1,11,14,11
3,2,14,1,5,1,1,11,125,11
3,2,17,1,5,1,1,11,19,11
4,2,14,1,5,1,2,11,86,11
4,2,15,1,4,0,2,11,86,11
4,2,12,1,2,0,2,11,75,8
4,2,16,1,0,0,2,11,125,11
4,2,14,1,1,0,2,11,65,9
4,2,14,1,0,0,2,11,98,11
5,2,0,0,3,0,2,11,106,11
5,2,21,0,0,0,2,11,98,11
5,2,12,1,2,0,2,11,87,11
5,2,7,1,3,0,2,11,94,11
5,2,1,0,4,0,2,11,125,11
5,2,17,1,6,1,2,11,98,11
5,2,1,0,2,0,2,11,63,11
5,2,9,1,4,0,2,11,108,11
5,2,12,1,6,1,2,11,98,11
6,3,18,1,0,0,2,11,101,11
6,3,20,1,4,0,2,11,65,11
6,3,15,1,1,0,2,11,98,11
6,3,20,1,2,0,2,11,14,11
6,3,21,0,6,1,2,11,98,11
6,3,12,1,2,0,2,11,65,11
6,3,12,1,3,0,2,11,86,11
6,3,14,1,1,0,2,11,98,11
7,3,14,1,2,0,3,11,98,11
7,3,9,1,3,0,3,11,108,11
7,3,14,1,0,0,3,11,23,11
7,3,21,0,6,1,3,11,98,11
7,3,12,1,0,0,3,11,98,11
7,3,13,1,1,0,3,11,75,11
7,3,17,1,3,0,3,11,98,11
7,3,18,1,6,1,3,11,98,11
7,3,22,0,0,0,3,11,89,11
7,3,12,1,4,0,3,11,89,11
7,3,17,1,3,0,3,11,65,11
8,3,21,0,5,1,3,11,98,11
8,3,21,0,0,0,3,11,3,11
8,3,1,0,4,0,3,11,98,11
8,3,5,0,4,0,3,11,98,11
8,3,19,1,6,1,3,11,98,11
8,3,16,1,6,1,3,11,72,11
8,3,8,1,0,0,3,11,1,11
8,3,16,1,0,0,3,11,19,9
8,3,23,0,2,0,3,11,98,11
8,3,9,1,5,1,3,11,40,11
8,3,11,1,5,1,3,11,78,11
8,3,9,1,0,0,3,11,89,11
8,3,14,1,1,0,3,11,82,11
8,3,0,0,1,0,3,11,65,11
8,3,21,0,3,0,3,11,86,11
8,3,21,0,3,0,3,11,65,11
8,3,12,1,6,1,3,11,94,11
9,4,10,1,2,0,3,11,98,11
9,4,12,1,2,0,3,11,98,11
9,4,21,0,1,0,3,11,98,11
9,4,12,1,3,0,3,11,98,11
9,4,18,1,4,0,3,11,47,11
9,4,19,1,5,1,3,11,89,11
9,4,22,0,6,1,3,11,98,11
9,4,21,0,0,0,3,11,89,11
9,4,19,1,1,0,3,11,98,11
9,4,17,1,3,0,3,11,86,11
9,4,13,1,5,1,3,11,98,11
9,4,19,1,5,1,3,11,98,11
10,4,3,0,6,1,4,11,86,11
10,4,14,1,6,1,4,11,98,11
10,4,5,0,0,0,4,11,65,11
10,4,5,0,1,0,4,11,75,11
10,4,13,1,3,0,4,11,3,11
10,4,9,1,6,1,4,11,3,11
10,4,22,0,1,0,4,11,27,11
11,4,12,1,1,0,4,11,98,11
11,4,10,1,1,0,4,11,89,11
11,4,23,0,2,0,4,11,98,11
11,4,0,0,5,1,4,11,89,11
11,4,20,1,6,1,4,11,72,11
11,4,4,0,2,0,4,11,39,9
11,4,20,1,0,0,4,11,65,11
11,4,10,1,1,0,4,11,86,11
11,4,9,1,1,0,4,11,98,11
11,4,17,1,2,0,4,11,86,11
11,4,9,1,2,0,4,11,98,11
11,4,17,1,0,0,4,11,65,11
12,1,13,1,3,0,4,11,113,11
12,1,14,1,4,0,4,11,125,11
12,1,12,1,5,1,4,11,122,9
12,1,15,1,5,1,4,11,125,11
12,1,17,1,5,1,4,11,39,11
12,1,14,1,2,0,4,11,19,11
12,1,21,0,2,0,4,11,86,11
12,1,18,1,2,0,4,11,39,11
12,1,16,1,0,0,4,11,98,11
12,1,14,1,5,1,4,11,94,11
12,1,5,0,0,0,4,11,65,11
12,1,18,1,3,0,4,11,75,11
2,1,14,1,1,0,1,11,89,11
3,2,3,0,3,0,1,11,106,11
4,2,13,1,6,1,2,11,87,11
5,2,8,1,3,0,2,11,108,9
6,3,12,1,0,0,2,11,86,11
7,3,3,0,6,1,3,11,14,11
11,4,4,0,2,0,4,11,75,11
2,1,14,1,6,1,1,11,98,11
2,1,16,1,1,0,1,11,63,9
7,3,16,1,6,1,3,11,98,11
8,3,14,1,1,0,3,11,86,11
12,1,16,1,1,0,4,11,125,11
1,1,16,1,3,0,1,11,89,11
1,1,16,1,5,1,1,11,125,11
1,1,23,0,3,0,1,11,125,11
1,1,20,1,5,1,1,11,125,11
1,1,16,1,1,0,1,11,125,11
1,1,15,1,2,0,1,11,75,8
1,1,15,1,6,1,1,11,75,8
1,1,16,1,4,0,1,11,75,11
2,1,2,0,6,1,1,11,125,11
2,1,14,1,6,1,1,11,89,11
2,1,6,0,0,0,1,11,125,11
2,1,6,0,0,0,1,11,39,11
2,1,11,1,3,0,1,11,98,11
2,1,3,0,0,0,1,11,125,11
2,1,4,0,0,0,1,11,125,11
2,1,5,0,0,0,1,11,125,11
2,1,22,0,0,0,1,11,14,8
2,1,14,1,1,0,1,11,98,11
2,1,22,0,3,0,1,11,13,8
2,1,12,1,5,1,1,11,125,11
2,1,20,1,0,0,1,11,89,11
2,1,21,0,5,1,1,11,98,11
3,2,4,0,1,0,1,11,125,11
3,2,4,0,1,0,1,11,125,11
3,2,7,1,1,0,1,11,125,11
4,2,19,1,2,0,2,11,125,11
4,2,15,1,5,1,2,11,75,11
4,2,9,1,3,0,2,11,113,11
4,2,18,1,5,1,2,11,89,9
4,2,10,1,2,0,2,11,109,11
4,2,22,0,5,1,2,11,65,11
5,2,20,1,0,0,2,11,98,11
5,2,18,1,5,1,2,11,89,11
5,2,18,1,6,1,2,11,86,11
5,2,18,1,6,1,2,11,89,11
5,2,19,1,6,1,2,11,89,11
6,3,17,1,0,0,2,11,125,11
6,3,4,0,3,0,2,11,25,9
6,3,12,1,3,0,2,11,78,11
6,3,7,1,5,1,2,11,125,11
7,3,21,0,2,0,3,11,98,11
7,3,13,1,0,0,3,11,89,9
7,3,9,1,3,0,3,11,89,11
7,3,16,1,1,0,3,11,19,11
7,3,16,1,2,0,3,11,89,8
7,3,16,1,3,0,3,11,89,8
7,3,14,1,4,0,3,11,89,11
8,3,21,0,4,0,3,11,86,11
8,3,13,1,0,0,3,11,89,11
8,3,13,1,0,0,3,11,19,11
8,3,20,1,0,0,3,11,98,11
8,3,16,1,4,0,3,11,89,11
8,3,0,0,5,1,3,11,14,9
9,4,4,0,4,0,3,11,89,11
9,4,9,1,4,0,3,11,98,11
9,4,19,1,4,0,3,11,25,11
9,4,7,1,0,0,3,11,89,11
10,4,10,1,0,0,4,11,125,11
10,4,13,1,0,0,4,11,89,11
10,4,22,0,0,0,4,11,72,11
10,4,2,0,3,0,4,11,106,11
10,4,16,1,4,0,4,11,75,11
11,4,13,1,0,0,4,11,125,11
11,4,2,0,6,1,4,11,25,9
11,4,17,1,2,0,4,11,65,11
11,4,13,1,4,0,4,11,19,11
11,4,19,1,6,1,4,11,75,8
12,1,17,1,4,0,4,11,125,11
12,1,17,1,5,1,4,11,65,11
12,1,20,1,4,0,4,11,86,11
12,1,14,1,0,0,4,11,89,11
12,1,19,1,2,0,4,11,125,11
12,1,11,1,1,0,4,11,125,11
12,1,17,1,3,0,4,11,86,11
2,1,10,1,0,0,1,11,89,11
2,1,12,1,2,0,1,11,14,8
3,2,15,1,1,0,1,11,75,9
6,3,13,1,3,0,2,11,25,9
6,3,18,1,5,1,2,11,25,9
7,3,8,1,4,0,3,11,24,11
7,3,7,1,5,1,3,11,24,11
8,3,14,1,2,0,3,11,3,11
8,3,15,1,2,0,3,11,14,11
8,3,18,1,5,1,3,11,25,11
10,4,15,1,0,0,4,11,25,11
12,1,0,0,5,1,4,11,67,9
1,1,16,1,3,0,1,11,19,11
1,1,8,1,3,0,1,11,89,11
1,1,22,0,4,0,1,11,39,11
1,1,6,0,6,1,1,11,106,11
1,1,19,1,6,1,1,11,75,9
1,1,16,1,1,0,1,11,75,11
1,1,13,1,2,0,1,11,125,11
1,1,18,1,2,0,1,11,89,11
1,1,11,1,3,0,1,11,39,11
1,1,17,1,5,1,1,11,3,11
1,1,22,0,1,0,1,11,77,11
2,1,13,1,0,0,1,11,98,11
2,1,23,0,4,0,1,11,75,11
2,1,3,0,6,1,1,11,65,11
2,1,14,1,5,1,1,11,3,11
2,1,17,1,3,0,1,11,39,11
2,1,5,0,6,1,1,11,21,9
2,1,11,1,2,0,1,11,39,11
3,2,3,0,6,1,1,11,79,11
3,2,4,0,1,0,1,11,125,11
3,2,13,1,1,0,1,11,39,11
3,2,7,1,6,1,1,11,39,11
4,2,7,1,6,1,2,11,65,11
4,2,22,0,6,1,2,11,39,11
4,2,13,1,2,0,2,11,39,11
4,2,19,1,4,0,2,11,3,11
6,3,11,1,4,0,2,11,98,11
6,3,18,1,5,1,2,11,39,11
6,3,20,1,5,1,2,11,19,11
6,3,17,1,6,1,2,11,94,11
6,3,9,1,2,0,2,11,98,11
6,3,21,0,1,0,2,11,3,11
6,3,16,1,4,0,2,11,89,11
7,3,18,1,0,0,3,11,55,11
7,3,10,1,1,0,3,11,89,11
7,3,16,1,1,0,3,11,89,11
7,3,7,1,5,1,3,11,19,11
7,3,19,1,2,0,3,11,98,11
7,3,18,1,4,0,3,11,89,11
7,3,9,1,1,0,3,11,89,11
7,3,22,0,3,0,3,11,39,9
8,3,19,1,0,0,3,11,89,11
8,3,10,1,2,0,3,11,89,11
8,3,9,1,0,0,3,11,89,11
8,3,21,0,0,0,3,11,13,11
8,3,9,1,4,0,3,11,98,11
9,4,11,1,4,0,3,11,89,11
9,4,21,0,5,1,3,11,89,11
9,4,19,1,6,1,3,11,89,11
9,4,15,1,2,0,3,11,3,11
9,4,13,1,5,1,3,11,89,11
10,4,18,1,5,1,4,11,39,9
10,4,3,0,5,1,4,11,19,11
10,4,15,1,2,0,4,11,39,11
10,4,18,1,5,1,4,11,125,11
11,4,1,0,1,0,4,11,65,11
11,4,21,0,2,0,4,11,39,11
12,1,22,0,2,0,4,11,39,11
12,1,18,1,2,0,4,11,19,9
12,1,15,1,4,0,4,11,75,11
12,1,13,1,0,0,4,11,75,11
12,1,18,1,2,0,4,11,89,11
2,1,12,1,0,0,1,11,75,11
3,2,12,1,4,0,1,11,105,11
3,2,15,1,5,1,1,11,3,11
6,3,11,1,1,0,2,11,13,11
7,3,10,1,5,1,3,11,13,9
8,3,23,0,1,0,3,11,98,11
8,3,13,1,2,0,3,11,98,11
11,4,21,0,2,0,4,11,75,11
12,1,12,1,1,0,4,11,13,11
1,1,4,0,2,0,1,19,65,11
1,1,16,1,3,0,1,19,94,11
1,1,18,1,4,0,1,19,75,11
1,1,16,1,5,1,1,19,65,11
1,1,3,0,2,0,1,19,19,11
1,1,15,1,3,0,1,19,65,11
1,1,22,0,3,0,1,19,75,9
1,1,0,0,4,0,1,19,65,11
1,1,12,1,4,0,1,19,87,11
1,1,0,0,0,0,1,19,95,11
1,1,20,1,1,0,1,19,65,11
1,1,21,0,3,0,1,19,125,11
1,1,8,1,0,0,1,19,65,11
2,1,4,0,5,1,1,19,94,11
2,1,1,0,6,1,1,19,125,11
2,1,22,0,1,0,1,19,19,11
2,1,19,1,2,0,1,19,39,11
2,1,13,1,4,0,1,19,65,11
2,1,14,1,6,1,1,19,65,11
2,1,17,1,0,0,1,19,19,11
2,1,16,1,0,0,1,19,65,11
2,1,17,1,1,0,1,19,39,11
2,1,11,1,2,0,1,19,65,11
2,1,2,0,3,0,1,19,94,11
2,1,15,1,0,0,1,19,65,11
2,1,6,0,0,0,1,19,65,8
2,1,3,0,4,0,1,19,72,11
2,1,18,1,5,1,1,19,125,11
2,1,14,1,4,0,1,19,47,11
2,1,14,1,4,0,1,19,93,9
3,2,4,0,6,1,1,19,86,11
3,2,19,1,0,0,1,19,65,11
3,2,14,1,5,1,1,19,65,11
3,2,10,1,6,1,1,19,56,11
3,2,12,1,0,0,1,19,89,11
3,2,20,1,3,0,1,19,65,11
3,2,22,0,4,0,1,19,64,11
3,2,16,1,6,1,1,19,65,11
3,2,4,0,0,0,1,19,72,9
3,2,4,0,1,0,1,19,101,11
3,2,6,0,2,0,1,19,86,11
3,2,16,1,4,0,1,19,65,11
3,2,2,0,4,0,1,19,65,11
3,2,12,1,5,1,1,19,65,11
3,2,20,1,6,1,1,19,65,11
3,2,0,0,0,0,1,19,65,11
4,2,17,1,2,0,2,19,65,11
4,2,0,0,4,0,2,19,73,11
4,2,15,1,4,0,2,19,65,11
4,2,22,0,6,1,2,19,72,11
4,2,2,0,0,0,2,19,73,11
4,2,6,0,1,0,2,19,77,11
4,2,12,1,0,0,2,19,86,11
4,2,12,1,2,0,2,19,65,11
4,2,18,1,2,0,2,19,30,11
4,2,23,0,3,0,2,19,65,11
4,2,7,1,6,1,2,19,65,8
4,2,14,1,3,0,2,19,94,11
4,2,16,1,5,1,2,19,65,11
4,2,18,1,6,1,2,19,65,11
4,2,16,1,3,0,2,19,19,11
5,2,9,1,4,0,2,19,89,11
5,2,15,1,0,0,2,19,77,11
5,2,11,1,1,0,2,19,19,11
5,2,21,0,3,0,2,19,75,11
5,2,22,0,6,1,2,19,94,11
5,2,3,0,2,0,2,19,39,11
5,2,4,0,2,0,2,19,125,11
5,2,21,0,2,0,2,19,65,11
5,2,13,1,3,0,2,19,65,11
5,2,19,1,3,0,2,19,65,11
5,2,5,0,5,1,2,19,94,11
6,3,10,1,3,0,2,19,19,11
6,3,17,1,4,0,2,19,65,11
6,3,21,0,5,1,2,19,65,11
6,3,23,0,5,1,2,19,81,9
6,3,5,0,6,1,2,19,125,11
6,3,16,1,0,0,2,19,30,11
6,3,5,0,1,0,2,19,125,11
6,3,11,1,2,0,2,19,56,11
6,3,11,1,3,0,2,19,65,11
6,3,22,0,5,1,2,19,56,11
6,3,12,1,3,0,2,19,56,11
6,3,12,1,1,0,2,19,65,11
6,3,15,1,1,0,2,19,65,11
6,3,20,1,2,0,2,19,56,11
6,3,17,1,5,1,2,19,56,11
6,3,15,1,0,0,2,19,65,11
7,3,2,0,5,1,3,19,109,11
7,3,16,1,5,1,3,19,125,11
7,3,3,0,2,0,3,19,94,11
7,3,4,0,6,1,3,19,125,11
7,3,6,0,6,1,3,19,75,11
7,3,2,0,2,0,3,19,57,11
7,3,20,1,5,1,3,19,125,11
7,3,19,1,1,0,3,19,72,11
7,3,22,0,2,0,3,19,86,11
7,3,15,1,3,0,3,19,89,11
8,3,14,1,6,1,3,19,125,11
8,3,20,1,4,0,3,19,72,11
8,3,18,1,6,1,3,19,65,11
8,3,2,0,1,0,3,19,47,11
8,3,7,1,2,0,3,19,56,11
8,3,15,1,4,0,3,19,65,9
8,3,18,1,2,0,3,19,75,11
8,3,14,1,2,0,3,19,65,11
8,3,8,1,2,0,3,19,72,11
8,3,21,0,3,0,3,19,65,11
8,3,1,0,3,0,3,19,72,11
8,3,19,1,6,1,3,19,65,11
9,4,23,0,2,0,3,19,65,11
9,4,16,1,2,0,3,19,19,11
9,4,13,1,4,0,3,19,98,11
9,4,22,0,4,0,3,19,65,9
9,4,18,1,5,1,3,19,65,11
9,4,19,1,5,1,3,19,65,11
9,4,21,0,0,0,3,19,125,11
9,4,21,0,1,0,3,19,125,11
9,4,13,1,3,0,3,19,65,11
9,4,17,1,5,1,3,19,75,11
9,4,0,0,4,0,3,19,65,8
9,4,2,0,5,1,3,19,125,11
9,4,14,1,2,0,3,19,65,11
9,4,6,0,2,0,3,19,75,11
10,4,3,0,3,0,4,19,125,11
10,4,4,0,4,0,4,19,94,11
10,4,20,1,4,0,4,19,72,11
10,4,14,1,3,0,4,19,98,11
10,4,17,1,3,0,4,19,65,11
10,4,18,1,6,1,4,19,94,11
10,4,1,0,1,0,4,19,72,11
10,4,19,1,3,0,4,19,65,11
10,4,9,1,4,0,4,19,65,11
10,4,11,1,0,0,4,19,65,11
11,4,9,1,2,0,4,19,125,11
11,4,13,1,5,1,4,19,56,11
11,4,20,1,5,1,4,19,19,11
11,4,1,0,6,1,4,19,65,11
11,4,22,0,6,1,4,19,19,11
11,4,19,1,6,1,4,19,65,11
11,4,22,0,0,0,4,19,65,11
11,4,4,0,2,0,4,19,94,11
11,4,5,0,2,0,4,19,94,11
11,4,13,1,3,0,4,19,65,11
11,4,21,0,0,0,4,19,72,11
12,1,19,1,4,0,4,19,72,11
12,1,21,0,1,0,4,19,82,11
12,1,12,1,2,0,4,19,65,11
12,1,13,1,4,0,4,19,65,11
12,1,7,1,1,0,4,19,125,11
12,1,20,1,4,0,4,19,94,11
12,1,1,0,6,1,4,19,56,11
12,1,17,1,3,0,4,19,65,11
1,1,16,1,2,0,1,19,98,11
1,1,10,1,2,0,1,19,113,9
1,1,16,1,2,0,1,19,98,11
1,1,18,1,4,0,1,19,89,11
1,1,13,1,4,0,1,19,98,11
1,1,2,0,5,1,1,19,89,9
1,1,20,1,6,1,1,19,94,11
1,1,13,1,6,1,1,19,89,11
1,1,12,1,6,1,1,19,39,11
1,1,19,1,0,0,1,19,65,11
1,1,0,0,0,0,1,19,98,11
1,1,8,1,0,0,1,19,65,11
1,1,1,0,0,0,1,19,89,11
1,1,12,1,1,0,1,19,94,11
1,1,11,1,2,0,1,19,89,11
1,1,22,0,2,0,1,19,8,11
1,1,3,0,2,0,1,19,94,11
1,1,2,0,2,0,1,19,19,11
1,1,10,1,2,0,1,19,19,11
1,1,16,1,2,0,1,19,98,11
1,1,18,1,2,0,1,19,108,11
1,1,19,1,2,0,1,19,23,11
1,1,0,0,2,0,1,19,65,11
1,1,12,1,3,0,1,19,8,11
1,1,11,1,5,1,1,19,98,11
1,1,14,1,5,1,1,19,65,11
1,1,20,1,5,1,1,19,65,11
1,1,23,0,6,1,1,19,65,11
1,1,16,1,6,1,1,19,65,11
1,1,1,0,0,0,1,19,94,11
1,1,17,1,0,0,1,19,98,11
1,1,17,1,1,0,1,19,98,11
1,1,23,0,1,0,1,19,75,11
1,1,9,1,3,0,1,19,65,11
1,1,19,1,4,0,1,19,19,11
1,1,13,1,5,1,1,19,14,11
1,1,15,1,5,1,1,19,29,11
1,1,20,1,6,1,1,19,39,11
1,1,19,1,6,1,1,19,94,11
1,1,20,1,6,1,1,19,89,11
1,1,11,1,0,0,1,19,39,11
1,1,18,1,0,0,1,19,75,11
1,1,23,0,1,0,1,19,98,11
1,1,4,0,1,0,1,19,65,11
1,1,23,0,1,0,1,19,64,11
1,1,16,1,2,0,1,19,94,11
1,1,20,1,3,0,1,19,98,11
1,1,23,0,3,0,1,19,98,11
1,1,23,0,3,0,1,19,98,11
1,1,21,0,3,0,1,19,98,11
1,1,21,0,3,0,1,19,89,11
1,1,16,1,3,0,1,19,113,9
1,1,13,1,3,0,1,19,65,11
1,1,21,0,3,0,1,19,89,11
1,1,17,1,4,0,1,19,98,9
1,1,10,1,4,0,1,19,89,11
1,1,6,0,4,0,1,19,89,11
1,1,12,1,4,0,1,19,23,11
1,1,16,1,4,0,1,19,108,11
1,1,21,0,4,0,1,19,34,11
1,1,17,1,5,1,1,19,89,11
1,1,2,0,6,1,1,19,94,11
1,1,23,0,0,0,1,19,94,11
1,1,15,1,0,0,1,19,65,11
1,1,20,1,0,0,1,19,65,11
1,1,20,1,2,0,1,19,98,11
1,1,23,0,3,0,1,19,39,11
1,1,0,0,4,0,1,19,19,11
1,1,19,1,4,0,1,19,98,11
1,1,17,1,4,0,1,19,98,11
2,1,13,1,5,1,1,19,89,11
2,1,14,1,5,1,1,19,75,11
2,1,10,1,5,1,1,19,72,9
2,1,21,0,6,1,1,19,94,11
2,1,6,0,6,1,1,19,108,11
2,1,23,0,0,0,1,19,65,11
2,1,19,1,0,0,1,19,94,11
2,1,11,1,2,0,1,19,65,11
2,1,16,1,2,0,1,19,14,11
2,1,1,0,4,0,1,19,65,11
2,1,23,0,4,0,1,19,64,11
2,1,20,1,5,1,1,19,14,11
2,1,18,1,5,1,1,19,14,9
2,1,11,1,6,1,1,19,65,11
2,1,22,0,6,1,1,19,75,11
2,1,12,1,6,1,1,19,39,11
2,1,15,1,6,1,1,19,98,11
2,1,15,1,6,1,1,19,98,11
2,1,15,1,0,0,1,19,75,11
2,1,17,1,0,0,1,19,75,11
2,1,9,1,1,0,1,19,19,11
2,1,21,0,1,0,1,19,125,11
2,1,18,1,1,0,1,19,19,11
2,1,20,1,1,0,1,19,89,11
2,1,16,1,1,0,1,19,94,11
2,1,18,1,1,0,1,19,19,11
2,1,0,0,2,0,1,19,19,11
2,1,18,1,3,0,1,19,89,11
2,1,17,1,3,0,1,19,89,11
2,1,12,1,4,0,1,19,19,11
2,1,15,1,6,1,1,19,64,9
2,1,11,1,3,0,1,19,75,11
2,1,14,1,3,0,1,19,94,11
2,1,10,1,3,0,1,19,65,11
2,1,13,1,4,0,1,19,98,11
2,1,17,1,4,0,1,19,65,11
2,1,6,0,5,1,1,19,19,11
2,1,17,1,1,0,1,19,124,11
2,1,14,1,1,0,1,19,19,11
2,1,9,1,1,0,1,19,89,11
2,1,21,0,2,0,1,19,98,11
2,1,23,0,2,0,1,19,89,11
2,1,19,1,2,0,1,19,8,11
2,1,8,1,3,0,1,19,98,11
2,1,10,1,3,0,1,19,98,11
2,1,20,1,4,0,1,19,65,11
2,1,21,0,4,0,1,19,89,11
2,1,23,0,4,0,1,19,106,11
2,1,8,1,4,0,1,19,89,11
2,1,14,1,5,1,1,19,98,11
2,1,17,1,5,1,1,19,98,11
2,1,16,1,5,1,1,19,98,11
2,1,4,0,5,1,1,19,19,11
2,1,2,0,5,1,1,19,29,11
2,1,20,1,5,1,1,19,39,11
3,2,16,1,6,1,1,19,89,11
3,2,8,1,0,0,1,19,98,11
3,2,6,0,0,0,1,19,75,11
3,2,19,1,0,0,1,19,89,11
3,2,22,0,1,0,1,19,125,11
3,2,21,0,1,0,1,19,89,11
3,2,18,1,1,0,1,19,75,11
3,2,18,1,1,0,1,19,89,11
3,2,0,0,2,0,1,19,89,11
3,2,0,0,3,0,1,19,39,11
3,2,11,1,4,0,1,19,89,11
3,2,23,0,5,1,1,19,64,11
3,2,21,0,5,1,1,19,98,11
3,2,20,1,5,1,1,19,98,11
3,2,8,1,5,1,1,19,89,9
3,2,3,0,5,1,1,19,98,11
3,2,10,1,6,1,1,19,8,11
3,2,12,1,6,1,1,19,47,11
3,2,17,1,0,0,1,19,89,11
3,2,20,1,1,0,1,19,94,11
3,2,13,1,2,0,1,19,75,11
3,2,8,1,2,0,1,19,89,11
3,2,18,1,3,0,1,19,89,11
3,2,15,1,4,0,1,19,65,11
3,2,3,0,4,0,1,19,114,11
3,2,17,1,5,1,1,19,65,9
3,2,19,1,5,1,1,19,94,11
3,2,18,1,5,1,1,19,98,11
3,2,23,0,5,1,1,19,98,11
3,2,0,0,6,1,1,19,56,9
3,2,15,1,6,1,1,19,65,11
3,2,11,1,6,1,1,19,14,11
3,2,19,1,0,0,1,19,65,11
3,2,19,1,0,0,1,19,8,11
3,2,2,0,0,0,1,19,94,11
3,2,15,1,0,0,1,19,1,11
3,2,2,0,2,0,1,19,19,11
3,2,12,1,2,0,1,19,89,11
3,2,19,1,3,0,1,19,89,11
3,2,18,1,4,0,1,19,65,11
3,2,12,1,4,0,1,19,65,11
3,2,1,0,4,0,1,19,94,11
3,2,18,1,4,0,1,19,94,11
3,2,12,1,4,0,1,19,89,11
3,2,13,1,4,0,1,19,89,11
3,2,13,1,4,0,1,19,89,11
3,2,23,0,5,1,1,19,98,11
3,2,14,1,6,1,1,19,89,11
3,2,15,1,6,1,1,19,65,11
3,2,20,1,0,0,1,19,65,11
3,2,21,0,0,0,1,19,65,11
3,2,19,1,1,0,1,19,19,11
3,2,16,1,1,0,1,19,14,11
3,2,2,0,2,0,1,19,65,11
3,2,3,0,2,0,1,19,76,11
3,2,1,0,3,0,1,19,94,11
3,2,12,1,4,0,1,19,75,11
3,2,3,0,5,1,1,19,45,8
3,2,13,1,5,1,1,19,94,11
3,2,17,1,6,1,1,19,89,11
3,2,0,0,0,0,1,19,19,8
3,2,16,1,1,0,1,19,98,11
3,2,5,0,1,0,1,19,65,11
3,2,6,0,1,0,1,19,89,11
4,2,17,1,2,0,2,19,8,11
4,2,19,1,2,0,2,19,65,11
4,2,7,1,3,0,2,19,65,11
4,2,3,0,3,0,2,19,98,11
4,2,5,0,3,0,2,19,98,11
4,2,15,1,4,0,2,19,98,11
4,2,22,0,4,0,2,19,98,11
4,2,20,1,6,1,2,19,65,11
4,2,1,0,6,1,2,19,39,11
4,2,20,1,0,0,2,19,65,11
4,2,17,1,1,0,2,19,65,11
4,2,15,1,1,0,2,19,89,11
4,2,16,1,1,0,2,19,31,11
4,2,9,1,3,0,2,19,39,11
4,2,20,1,4,0,2,19,89,11
4,2,1,0,5,1,2,19,75,11
4,2,11,1,6,1,2,19,65,11
4,2,3,0,6,1,2,19,19,11
4,2,13,1,0,0,2,19,76,11
4,2,20,1,0,0,2,19,89,11
4,2,16,1,1,0,2,19,8,11
4,2,14,1,2,0,2,19,19,11
4,2,23,0,2,0,2,19,94,11
4,2,6,0,3,0,2,19,19,11
4,2,2,0,3,0,2,19,65,11
4,2,13,1,3,0,2,19,19,11
4,2,1,0,3,0,2,19,94,11
4,2,16,1,3,0,2,19,89,11
4,2,4,0,4,0,2,19,19,11
4,2,0,0,4,0,2,19,19,11
4,2,13,1,4,0,2,19,65,11
4,2,11,1,4,0,2,19,125,11
4,2,4,0,4,0,2,19,86,11
4,2,14,1,6,1,2,19,65,11
4,2,15,1,6,1,2,19,65,11
4,2,22,0,6,1,2,19,89,11
4,2,3,0,6,1,2,19,65,11
4,2,19,1,3,0,2,19,89,11
4,2,1,0,4,0,2,19,98,11
4,2,21,0,4,0,2,19,98,11
4,2,23,0,5,1,2,19,89,11
4,2,14,1,6,1,2,19,3,11
4,2,0,0,0,0,2,19,94,11
4,2,23,0,1,0,2,19,75,11
4,2,19,1,1,0,2,19,64,11
4,2,4,0,1,0,2,19,98,11
4,2,3,0,2,0,2,19,19,11
4,2,2,0,2,0,2,19,74,11
4,2,4,0,3,0,2,19,19,11
5,2,4,0,4,0,2,19,89,11
5,2,0,0,4,0,2,19,94,11
5,2,12,1,4,0,2,19,65,11
5,2,19,1,4,0,2,19,75,11
5,2,23,0,0,0,2,19,98,11
5,2,0,0,0,0,2,19,98,9
5,2,23,0,0,0,2,19,94,11
5,2,2,0,1,0,2,19,98,11
5,2,13,1,1,0,2,19,65,11
5,2,10,1,1,0,2,19,89,11
5,2,10,1,1,0,2,19,3,11
5,2,8,1,2,0,2,19,65,11
5,2,17,1,3,0,2,19,65,11
5,2,13,1,4,0,2,19,98,11
5,2,12,1,5,1,2,19,89,11
5,2,21,0,1,0,2,19,89,8
5,2,15,1,1,0,2,19,98,11
5,2,7,1,1,0,2,19,19,11
5,2,13,1,2,0,2,19,98,11
5,2,19,1,2,0,2,19,98,11
5,2,16,1,2,0,2,19,98,11
5,2,14,1,2,0,2,19,98,11
5,2,19,1,2,0,2,19,89,11
5,2,20,1,3,0,2,19,98,11
5,2,2,0,3,0,2,19,98,11
5,2,19,1,3,0,2,19,3,11
5,2,19,1,6,1,2,19,89,11
5,2,22,0,6,1,2,19,108,11
5,2,21,0,6,1,2,19,89,11
5,2,11,1,1,0,2,19,14,9
5,2,3,0,2,0,2,19,19,11
5,2,1,0,2,0,2,19,76,11
5,2,15,1,2,0,2,19,108,11
5,2,17,1,2,0,2,19,3,11
5,2,1,0,3,0,2,19,125,11
5,2,4,0,3,0,2,19,19,11
5,2,13,1,4,0,2,19,98,11
5,2,16,1,4,0,2,19,98,11
5,2,19,1,4,0,2,19,89,11
5,2,10,1,5,1,2,19,125,9
5,2,20,1,5,1,2,19,98,11
5,2,22,0,1,0,2,19,94,11
5,2,13,1,1,0,2,19,57,11
5,2,18,1,3,0,2,19,98,11
5,2,11,1,4,0,2,19,98,11
5,2,22,0,5,1,2,19,94,11
5,2,1,0,5,1,2,19,8,11
5,2,17,1,6,1,2,19,65,11
6,3,17,1,0,0,2,19,108,11
6,3,0,0,1,0,2,19,89,11
6,3,4,0,2,0,2,19,39,11
6,3,13,1,2,0,2,19,89,11
6,3,11,1,2,0,2,19,98,11
6,3,4,0,2,0,2,19,89,11
6,3,14,1,3,0,2,19,108,11
6,3,17,1,3,0,2,19,108,11
6,3,19,1,3,0,2,19,3,11
6,3,21,0,4,0,2,19,89,11
6,3,20,1,4,0,2,19,72,11
6,3,15,1,6,1,2,19,98,11
6,3,23,0,6,1,2,19,98,11
6,3,9,1,0,0,2,19,19,11
6,3,13,1,0,0,2,19,98,11
6,3,2,0,1,0,2,19,65,11
6,3,0,0,1,0,2,19,89,11
6,3,22,0,1,0,2,19,19,11
6,3,15,1,2,0,2,19,72,11
6,3,11,1,2,0,2,19,98,11
6,3,22,0,3,0,2,19,55,11
6,3,23,0,4,0,2,19,89,11
6,3,12,1,4,0,2,19,89,11
6,3,11,1,4,0,2,19,89,11
6,3,7,1,4,0,2,19,65,11
6,3,10,1,4,0,2,19,98,11
6,3,19,1,4,0,2,19,89,11
6,3,23,0,4,0,2,19,98,11
6,3,23,0,5,1,2,19,3,11
6,3,15,1,6,1,2,19,98,8
6,3,11,1,6,1,2,19,89,11
6,3,19,1,6,1,2,19,44,9
6,3,18,1,6,1,2,19,98,11
6,3,23,0,6,1,2,19,94,11
6,3,15,1,6,1,2,19,98,11
6,3,1,0,0,0,2,19,28,11
6,3,20,1,0,0,2,19,89,11
6,3,0,0,4,0,2,19,94,11
6,3,14,1,4,0,2,19,39,11
6,3,18,1,5,1,2,19,75,11
6,3,12,1,5,1,2,19,89,11
6,3,9,1,5,1,2,19,19,11
6,3,12,1,5,1,2,19,35,11
6,3,14,1,5,1,2,19,3,11
6,3,10,1,6,1,2,19,94,11
6,3,18,1,6,1,2,19,98,11
6,3,19,1,0,0,2,19,89,11
6,3,2,0,0,0,2,19,65,11
6,3,13,1,2,0,2,19,89,11
6,3,12,1,2,0,2,19,98,11
6,3,22,0,3,0,2,19,65,11
6,3,20,1,3,0,2,19,89,11
6,3,13,1,4,0,2,19,89,11
6,3,0,0,4,0,2,19,94,11
6,3,15,1,4,0,2,19,98,11
6,3,23,0,4,0,2,19,89,11
6,3,23,0,4,0,2,19,89,11
6,3,16,1,4,0,2,19,89,11
6,3,16,1,4,0,2,19,89,11
6,3,14,1,5,1,2,19,89,11
6,3,13,1,5,1,2,19,89,11
6,3,19,1,5,1,2,19,89,11
6,3,14,1,6,1,2,19,72,11
6,3,21,0,6,1,2,19,125,11
6,3,16,1,0,0,2,19,65,11
6,3,22,0,0,0,2,19,19,11
6,3,15,1,1,0,2,19,98,11
6,3,7,1,1,0,2,19,89,9
6,3,15,1,1,0,2,19,98,11
6,3,14,1,1,0,2,19,98,11
7,3,21,0,2,0,3,19,98,11
7,3,21,0,2,0,3,19,98,11
7,3,1,0,3,0,3,19,75,9
7,3,20,1,3,0,3,19,89,11
7,3,0,0,4,0,3,19,98,11
7,3,1,0,5,1,3,19,89,11
7,3,8,1,5,1,3,19,75,11
7,3,0,0,5,1,3,19,98,9
7,3,0,0,5,1,3,19,89,11
7,3,19,1,6,1,3,19,94,11
7,3,12,1,6,1,3,19,89,11
7,3,9,1,6,1,3,19,8,11
7,3,20,1,0,0,3,19,89,11
7,3,22,0,1,0,3,19,89,11
7,3,14,1,1,0,3,19,57,11
7,3,14,1,2,0,3,19,98,11
7,3,14,1,3,0,3,19,89,11
7,3,18,1,3,0,3,19,3,11
7,3,1,0,3,0,3,19,94,11
7,3,16,1,4,0,3,19,89,11
7,3,11,1,4,0,3,19,3,11
7,3,3,0,5,1,3,19,8,11
7,3,4,0,5,1,3,19,19,11
7,3,0,0,6,1,3,19,98,11
7,3,6,0,6,1,3,19,108,11
7,3,8,1,6,1,3,19,89,11
7,3,16,1,0,0,3,19,89,11
7,3,7,1,0,0,3,19,65,9
7,3,6,0,0,0,3,19,98,11
7,3,23,0,1,0,3,19,94,11
7,3,23,0,1,0,3,19,94,11
7,3,9,1,2,0,3,19,125,11
7,3,2,0,2,0,3,19,94,11
7,3,21,0,3,0,3,19,89,11
7,3,16,1,3,0,3,19,89,11
7,3,18,1,3,0,3,19,3,11
7,3,21,0,3,0,3,19,3,11
7,3,18,1,4,0,3,19,98,11
7,3,20,1,4,0,3,19,89,11
7,3,6,0,4,0,3,19,89,11
7,3,20,1,5,1,3,19,98,11
7,3,6,0,6,1,3,19,89,11
7,3,17,1,0,0,3,19,65,11
7,3,23,0,1,0,3,19,89,11
7,3,19,1,1,0,3,19,92,11
7,3,23,0,2,0,3,19,89,11
7,3,12,1,2,0,3,19,89,9
7,3,18,1,2,0,3,19,89,11
7,3,1,0,2,0,3,19,98,11
7,3,23,0,3,0,3,19,65,11
7,3,10,1,3,0,3,19,89,11
7,3,21,0,3,0,3,19,94,11
7,3,23,0,4,0,3,19,89,11
7,3,12,1,4,0,3,19,89,11
7,3,19,1,4,0,3,19,89,11
7,3,19,1,4,0,3,19,89,11
7,3,13,1,5,1,3,19,65,11
7,3,17,1,5,1,3,19,98,11
7,3,21,0,5,1,3,19,89,11
7,3,8,1,6,1,3,19,56,11
7,3,14,1,0,0,3,19,89,11
7,3,17,1,0,0,3,19,89,11
7,3,4,0,1,0,3,19,89,11
7,3,17,1,3,0,3,19,89,11
7,3,0,0,3,0,3,19,98,11
7,3,4,0,4,0,3,19,98,11
7,3,4,0,4,0,3,19,98,11
8,3,18,1,5,1,3,19,98,11
8,3,0,0,5,1,3,19,125,11
8,3,23,0,5,1,3,19,98,11
8,3,16,1,5,1,3,19,65,11
8,3,17,1,6,1,3,19,89,9
8,3,16,1,6,1,3,19,98,9
8,3,21,0,6,1,3,19,64,11
8,3,15,1,6,1,3,19,98,11
8,3,5,0,0,0,3,19,3,11
8,3,19,1,0,0,3,19,98,11
8,3,18,1,0,0,3,19,56,11
8,3,13,1,0,0,3,19,94,11
8,3,5,0,1,0,3,19,98,11
8,3,16,1,1,0,3,19,98,11
8,3,10,1,1,0,3,19,89,11
8,3,11,1,2,0,3,19,89,11
8,3,2,0,4,0,3,19,19,11
8,3,10,1,4,0,3,19,65,11
8,3,15,1,4,0,3,19,23,11
8,3,14,1,5,1,3,19,65,11
8,3,17,1,6,1,3,19,98,11
8,3,17,1,6,1,3,19,3,11
8,3,12,1,6,1,3,19,65,11
8,3,12,1,0,0,3,19,98,11
8,3,23,0,0,0,3,19,86,11
8,3,20,1,1,0,3,19,19,11
8,3,21,0,2,0,3,19,8,11
8,3,19,1,2,0,3,19,19,11
8,3,21,0,2,0,3,19,89,11
8,3,3,0,3,0,3,19,65,11
8,3,12,1,4,0,3,19,65,11
8,3,1,0,4,0,3,19,94,11
8,3,23,0,5,1,3,19,98,11
8,3,22,0,6,1,3,19,98,11
8,3,3,0,1,0,3,19,89,11
8,3,19,1,1,0,3,19,89,11
8,3,18,1,2,0,3,19,98,11
8,3,18,1,2,0,3,19,98,11
8,3,2,0,3,0,3,19,89,11
8,3,21,0,3,0,3,19,89,11
8,3,14,1,3,0,3,19,89,11
8,3,2,0,4,0,3,19,89,11
8,3,17,1,4,0,3,19,8,11
8,3,9,1,4,0,3,19,75,11
8,3,4,0,4,0,3,19,89,11
8,3,3,0,5,1,3,19,76,11
8,3,13,1,5,1,3,19,98,11
8,3,19,1,0,0,3,19,65,11
8,3,2,0,3,0,3,19,98,11
8,3,7,1,4,0,3,19,89,11
8,3,20,1,5,1,3,19,23,11
8,3,16,1,6,1,3,19,98,11
8,3,1,0,0,0,3,19,125,9
8,3,12,1,0,0,3,19,8,11
9,4,12,1,1,0,3,19,39,11
9,4,14,1,2,0,3,19,98,11
9,4,8,1,2,0,3,19,89,11
9,4,15,1,2,0,3,19,98,11
9,4,1,0,2,0,3,19,89,11
9,4,22,0,2,0,3,19,89,11
9,4,21,0,3,0,3,19,98,11
9,4,21,0,3,0,3,19,98,11
9,4,22,0,3,0,3,19,98,11
9,4,13,1,4,0,3,19,89,11
9,4,7,1,4,0,3,19,14,9
9,4,14,1,4,0,3,19,89,11
9,4,11,1,5,1,3,19,65,11
9,4,21,0,6,1,3,19,89,11
9,4,6,0,0,0,3,19,19,11
9,4,5,0,0,0,3,19,19,11
9,4,13,1,0,0,3,19,56,9
9,4,14,1,0,0,3,19,89,11
9,4,21,0,2,0,3,19,3,11
9,4,4,0,2,0,3,19,125,11
9,4,20,1,3,0,3,19,19,11
9,4,21,0,3,0,3,19,98,11
9,4,11,1,0,0,3,19,89,11
9,4,14,1,0,0,3,19,105,11
9,4,16,1,0,0,3,19,98,11
9,4,0,0,0,0,3,19,89,9
9,4,17,1,1,0,3,19,98,11
9,4,15,1,1,0,3,19,98,11
9,4,20,1,1,0,3,19,3,11
9,4,16,1,2,0,3,19,10,11
9,4,15,1,2,0,3,19,19,11
9,4,0,0,2,0,3,19,98,11
9,4,5,0,2,0,3,19,89,11
9,4,16,1,2,0,3,19,125,9
9,4,23,0,2,0,3,19,98,11
9,4,16,1,2,0,3,19,3,9
9,4,0,0,2,0,3,19,3,11
9,4,23,0,2,0,3,19,89,11
9,4,7,1,3,0,3,19,89,11
9,4,23,0,5,1,3,19,98,11
9,4,14,1,6,1,3,19,3,11
9,4,0,0,0,0,3,19,98,11
9,4,19,1,0,0,3,19,98,11
9,4,23,0,1,0,3,19,89,11
9,4,19,1,1,0,3,19,108,11
9,4,14,1,1,0,3,19,89,11
9,4,18,1,2,0,3,19,98,11
9,4,20,1,4,0,3,19,98,11
9,4,19,1,4,0,3,19,86,11
9,4,18,1,5,1,3,19,19,11
9,4,22,0,6,1,3,19,94,11
9,4,22,0,6,1,3,19,65,11
9,4,23,0,0,0,3,19,108,11
9,4,19,1,0,0,3,19,65,11
9,4,23,0,0,0,3,19,108,11
9,4,2,0,1,0,3,19,98,11
9,4,23,0,2,0,3,19,19,11
9,4,22,0,2,0,3,19,98,11
10,4,13,1,3,0,4,19,89,11
10,4,14,1,3,0,4,19,65,11
10,4,0,0,3,0,4,19,125,11
10,4,2,0,3,0,4,19,125,11
10,4,0,0,3,0,4,19,89,11
10,4,12,1,4,0,4,19,14,11
10,4,11,1,5,1,4,19,76,11
10,4,5,0,5,1,4,19,98,11
10,4,22,0,0,0,4,19,89,11
10,4,20,1,0,0,4,19,23,11
10,4,8,1,0,0,4,19,19,11
10,4,23,0,0,0,4,19,89,11
10,4,20,1,1,0,4,19,86,11
10,4,12,1,2,0,4,19,89,11
10,4,5,0,2,0,4,19,19,11
10,4,20,1,3,0,4,19,94,11
10,4,17,1,3,0,4,19,89,11
10,4,16,1,3,0,4,19,98,11
10,4,22,0,3,0,4,19,86,11
10,4,15,1,4,0,4,19,89,11
10,4,20,1,6,1,4,19,98,11
10,4,1,0,6,1,4,19,19,11
10,4,4,0,1,0,4,19,19,11
10,4,6,0,1,0,4,19,19,11
10,4,15,1,1,0,4,19,94,11
10,4,5,0,1,0,4,19,94,11
10,4,5,0,3,0,4,19,19,11
10,4,21,0,3,0,4,19,98,11
10,4,21,0,3,0,4,19,94,11
10,4,18,1,5,1,4,19,3,11
10,4,23,0,5,1,4,19,89,11
10,4,18,1,6,1,4,19,94,11
10,4,15,1,6,1,4,19,125,11
10,4,19,1,0,0,4,19,98,11
10,4,19,1,1,0,4,19,98,11
10,4,14,1,1,0,4,19,98,11
10,4,2,0,2,0,4,19,57,8
10,4,19,1,3,0,4,19,45,11
10,4,16,1,3,0,4,19,89,11
10,4,5,0,3,0,4,19,98,11
10,4,16,1,4,0,4,19,14,11
10,4,23,0,5,1,4,19,75,11
10,4,23,0,2,0,4,19,8,11
10,4,12,1,2,0,4,19,65,11
10,4,11,1,2,0,4,19,89,11
10,4,13,1,2,0,4,19,125,11
10,4,13,1,3,0,4,19,89,11
10,4,14,1,4,0,4,19,89,11
10,4,22,0,4,0,4,19,94,11
10,4,14,1,4,0,4,19,89,9
10,4,15,1,5,1,4,19,98,11
10,4,17,1,5,1,4,19,108,11
10,4,2,0,5,1,4,19,98,11
11,4,12,1,6,1,4,19,65,11
11,4,12,1,6,1,4,19,89,11
11,4,17,1,6,1,4,19,65,11
11,4,3,0,6,1,4,19,56,11
11,4,18,1,0,0,4,19,94,11
11,4,1,0,1,0,4,19,64,11
11,4,20,1,3,0,4,19,86,11
11,4,12,1,4,0,4,19,65,11
11,4,0,0,4,0,4,19,89,9
11,4,13,1,5,1,4,19,65,11
11,4,14,1,1,0,4,19,89,11
11,4,10,1,2,0,4,19,65,11
11,4,18,1,2,0,4,19,65,11
11,4,22,0,3,0,4,19,94,11
11,4,16,1,3,0,4,19,27,11
11,4,10,1,4,0,4,19,65,11
11,4,20,1,6,1,4,19,98,11
11,4,1,0,0,0,4,19,89,11
11,4,8,1,0,0,4,19,65,11
11,4,20,1,0,0,4,19,125,11
11,4,17,1,1,0,4,19,98,11
11,4,13,1,1,0,4,19,19,9
11,4,18,1,1,0,4,19,94,11
11,4,23,0,2,0,4,19,127,11
11,4,14,1,2,0,4,19,75,11
11,4,15,1,3,0,4,19,94,11
11,4,20,1,3,0,4,19,75,11
11,4,1,0,4,0,4,19,98,11
11,4,17,1,4,0,4,19,89,11
11,4,20,1,5,1,4,19,98,11
11,4,7,1,6,1,4,19,98,11
11,4,12,1,0,0,4,19,94,11
11,4,15,1,1,0,4,19,98,11
11,4,12,1,1,0,4,19,89,11
11,4,19,1,2,0,4,19,94,11
11,4,5,0,3,0,4,19,98,11
11,4,21,0,4,0,4,19,122,11
11,4,18,1,4,0,4,19,98,11
11,4,17,1,4,0,4,19,98,11
11,4,17,1,4,0,4,19,89,11
11,4,21,0,4,0,4,19,89,11
11,4,9,1,5,1,4,19,98,11
11,4,13,1,5,1,4,19,89,11
11,4,16,1,5,1,4,19,65,11
11,4,11,1,6,1,4,19,98,11
11,4,12,1,6,1,4,19,89,11
11,4,16,1,6,1,4,19,98,11
11,4,16,1,0,0,4,19,75,11
11,4,18,1,0,0,4,19,89,11
11,4,0,0,0,0,4,19,94,11
11,4,20,1,0,0,4,19,75,9
12,1,22,0,3,0,4,19,86,11
12,1,13,1,4,0,4,19,125,11
12,1,22,0,0,0,4,19,3,11
12,1,13,1,3,0,4,19,98,11
12,1,20,1,3,0,4,19,125,11
12,1,12,1,5,1,4,19,56,11
12,1,9,1,6,1,4,19,56,9
12,1,23,0,6,1,4,19,125,11
12,1,8,1,6,1,4,19,94,11
12,1,6,0,6,1,4,19,3,11
12,1,1,0,0,0,4,19,125,11
12,1,23,0,0,0,4,19,56,11
12,1,5,0,2,0,4,19,88,11
12,1,21,0,3,0,4,19,98,11
12,1,21,0,4,0,4,19,65,11
12,1,21,0,5,1,4,19,89,11
12,1,21,0,5,1,4,19,57,11
12,1,20,1,6,1,4,19,3,11
12,1,14,1,6,1,4,19,94,11
12,1,12,1,0,0,4,19,65,11
12,1,18,1,0,0,4,19,75,11
12,1,2,0,2,0,4,19,94,11
12,1,13,1,2,0,4,19,98,11
12,1,11,1,2,0,4,19,65,11
12,1,3,0,3,0,4,19,65,11
12,1,18,1,3,0,4,19,98,9
12,1,15,1,3,0,4,19,19,11
12,1,17,1,4,0,4,19,23,11
12,1,20,1,5,1,4,19,94,11
12,1,4,0,6,1,4,19,94,11
12,1,11,1,6,1,4,19,108,11
12,1,4,0,6,1,4,19,94,11
12,1,17,1,6,1,4,19,80,11
12,1,18,1,0,0,4,19,23,11
12,1,16,1,1,0,4,19,98,11
12,1,7,1,2,0,4,19,14,11
12,1,22,0,3,0,4,19,14,11
12,1,21,0,3,0,4,19,76,11
1,1,11,1,5,1,1,19,94,11
1,1,15,1,5,1,1,19,19,11
1,1,15,1,6,1,1,19,89,11
1,1,17,1,2,0,1,19,98,11
1,1,12,1,3,0,1,19,89,11
1,1,13,1,3,0,1,19,83,9
1,1,12,1,4,0,1,19,98,11
1,1,14,1,5,1,1,19,89,11
1,1,15,1,5,1,1,19,98,11
1,1,12,1,3,0,1,19,3,11
1,1,19,1,4,0,1,19,19,11
4,2,16,1,3,0,2,19,19,11
4,2,23,0,6,1,2,19,98,11
4,2,20,1,0,0,2,19,75,11
5,2,19,1,4,0,2,19,89,11
5,2,1,0,6,1,2,19,94,11
5,2,21,0,3,0,2,19,89,11
8,3,4,0,6,1,3,19,94,11
8,3,14,1,0,0,3,19,98,11
8,3,4,0,4,0,3,19,94,11
8,3,0,0,5,1,3,19,94,11
8,3,3,0,6,1,3,19,98,11
9,4,10,1,5,1,3,19,98,11
9,4,19,1,5,1,3,19,98,11
9,4,12,1,6,1,3,19,98,11
9,4,18,1,0,0,3,19,98,11
9,4,1,0,1,0,3,19,19,11
9,4,21,0,1,0,3,19,75,11
9,4,14,1,6,1,3,19,3,9
9,4,10,1,1,0,3,19,75,11
9,4,17,1,6,1,3,19,98,11
10,4,12,1,6,1,4,19,98,11
10,4,22,0,0,0,4,19,98,11
10,4,16,1,3,0,4,19,98,11
10,4,13,1,3,0,4,19,89,11
10,4,12,1,0,0,4,19,98,11
10,4,14,1,2,0,4,19,13,11
10,4,10,1,4,0,4,19,19,11
10,4,18,1,4,0,4,19,98,11
11,4,17,1,2,0,4,19,98,11
11,4,11,1,4,0,4,19,98,11
11,4,17,1,6,1,4,19,98,11
11,4,18,1,0,0,4,19,98,11
11,4,21,0,2,0,4,19,98,11
11,4,15,1,6,1,4,19,98,11
11,4,13,1,0,0,4,19,98,11
11,4,10,1,1,0,4,19,39,11
11,4,12,1,1,0,4,19,105,9
11,4,13,1,4,0,4,19,98,11
11,4,19,1,4,0,4,19,75,11
11,4,22,0,6,1,4,19,98,11
12,1,23,0,4,0,4,19,75,9
12,1,16,1,5,1,4,19,98,11
12,1,15,1,3,0,4,19,89,11
12,1,17,1,2,0,4,19,98,11
1,1,10,1,3,0,1,19,75,11
1,1,10,1,3,0,1,19,3,11
1,1,11,1,3,0,1,19,98,11
1,1,17,1,2,0,1,19,75,11
1,1,11,1,3,0,1,19,98,11
1,1,10,1,3,0,1,19,19,11
1,1,15,1,5,1,1,19,3,11
1,1,16,1,0,0,1,19,98,11
1,1,13,1,0,0,1,19,39,11
1,1,6,0,1,0,1,19,19,11
1,1,15,1,2,0,1,19,125,11
1,1,18,1,5,1,1,19,3,11
1,1,20,1,6,1,1,19,98,11
1,1,5,0,0,0,1,19,39,11
1,1,18,1,2,0,1,19,98,11
1,1,18,1,2,0,1,19,98,11
1,1,0,0,0,0,1,19,98,11
2,1,16,1,5,1,1,19,98,11
2,1,14,1,5,1,1,19,98,11
2,1,15,1,1,0,1,19,98,11
2,1,13,1,1,0,1,19,3,11
2,1,1,0,1,0,1,19,39,9
2,1,19,1,1,0,1,19,39,11
2,1,9,1,1,0,1,19,75,11
2,1,19,1,4,0,1,19,3,11
2,1,16,1,4,0,1,19,24,9
2,1,15,1,6,1,1,19,98,11
2,1,13,1,0,0,1,19,98,11
2,1,22,0,1,0,1,19,89,11
2,1,11,1,1,0,1,19,98,11
2,1,17,1,2,0,1,19,39,11
2,1,23,0,4,0,1,19,13,11
2,1,13,1,5,1,1,19,98,11
2,1,22,0,5,1,1,19,39,11
2,1,13,1,6,1,1,19,98,11
2,1,18,1,0,0,1,19,98,11
2,1,14,1,1,0,1,19,98,11
2,1,15,1,1,0,1,19,98,11
2,1,18,1,1,0,1,19,75,11
2,1,16,1,1,0,1,19,98,11
2,1,18,1,2,0,1,19,98,11
2,1,12,1,5,1,1,19,75,11
2,1,23,0,5,1,1,19,65,11
3,2,14,1,0,0,1,19,98,11
3,2,15,1,1,0,1,19,98,11
3,2,15,1,1,0,1,19,98,11
3,2,19,1,1,0,1,19,98,11
3,2,14,1,3,0,1,19,98,11
3,2,21,0,4,0,1,19,98,11
3,2,19,1,5,1,1,19,98,11
3,2,18,1,4,0,1,19,19,11
3,2,17,1,6,1,1,19,13,11
3,2,19,1,0,0,1,19,3,11
3,2,12,1,4,0,1,19,98,11
3,2,13,1,4,0,1,19,89,11
3,2,18,1,6,1,1,19,98,11
3,2,13,1,2,0,1,19,98,11
3,2,14,1,1,0,1,19,98,11
4,2,16,1,2,0,2,19,98,11
4,2,18,1,1,0,2,19,125,11
4,2,9,1,6,1,2,19,125,11
4,2,7,1,1,0,2,19,19,9
4,2,21,0,2,0,2,19,98,11
4,2,23,0,5,1,2,19,47,11
4,2,23,0,3,0,2,19,45,11
5,2,22,0,0,0,2,19,98,11
5,2,21,0,3,0,2,19,105,11
5,2,14,1,3,0,2,19,98,11
5,2,17,1,4,0,2,19,98,11
5,2,12,1,0,0,2,19,98,11
5,2,17,1,3,0,2,19,9,11
5,2,11,1,5,1,2,19,98,11
5,2,5,0,6,1,2,19,105,9
5,2,9,1,5,1,2,19,98,11
6,3,15,1,2,0,2,19,19,11
7,3,9,1,3,0,3,19,86,11
7,3,20,1,3,0,3,19,98,11
7,3,16,1,4,0,3,19,89,11
7,3,9,1,2,0,3,19,98,11
7,3,10,1,5,1,3,19,98,11
7,3,18,1,1,0,3,19,98,11
7,3,18,1,1,0,3,19,98,11
7,3,10,1,4,0,3,19,98,11
7,3,15,1,0,0,3,19,86,11
7,3,18,1,1,0,3,19,3,11
7,3,15,1,2,0,3,19,98,11
7,3,16,1,2,0,3,19,98,11
7,3,1,0,6,1,3,19,86,11
7,3,21,0,6,1,3,19,98,11
7,3,1,0,0,0,3,19,98,11
7,3,15,1,0,0,3,19,98,11
7,3,16,1,0,0,3,19,89,11
7,3,18,1,2,0,3,19,122,11
8,3,11,1,6,1,3,19,89,11
8,3,21,0,0,0,3,19,98,11
8,3,20,1,5,1,3,19,98,11
8,3,17,1,1,0,3,19,19,11
8,3,17,1,3,0,3,19,3,11
8,3,19,1,5,1,3,19,98,11
8,3,21,0,5,1,3,19,89,11
8,3,21,0,6,1,3,19,98,11
8,3,11,1,0,0,3,19,25,11
9,4,2,0,1,0,3,19,98,11
9,4,3,0,1,0,3,19,94,11
9,4,11,1,2,0,3,19,98,11
9,4,11,1,2,0,3,19,98,11
9,4,20,1,3,0,3,19,98,11
9,4,19,1,4,0,3,19,98,11
9,4,15,1,3,0,3,19,89,11
9,4,21,0,3,0,3,19,98,11
9,4,18,1,3,0,3,19,98,11
9,4,15,1,5,1,3,19,3,11
9,4,14,1,6,1,3,19,98,11
9,4,14,1,6,1,3,19,19,11
9,4,12,1,1,0,3,19,98,11
9,4,16,1,2,0,3,19,98,11
9,4,11,1,3,0,3,19,98,11
9,4,10,1,3,0,3,19,98,11
9,4,16,1,5,1,3,19,89,11
9,4,7,1,0,0,3,19,98,11
9,4,20,1,0,0,3,19,98,11
9,4,13,1,0,0,3,19,98,11
9,4,19,1,1,0,3,19,3,11
9,4,11,1,2,0,3,19,19,11
9,4,16,1,3,0,3,19,98,11
9,4,14,1,4,0,3,19,13,11
10,4,13,1,4,0,4,19,98,11
10,4,21,0,1,0,4,19,98,11
10,4,9,1,2,0,4,19,3,11
10,4,13,1,3,0,4,19,89,11
10,4,23,0,4,0,4,19,98,11
10,4,5,0,4,0,4,19,105,11
10,4,13,1,0,0,4,19,98,11
10,4,19,1,0,0,4,19,98,11
10,4,15,1,0,0,4,19,98,11
10,4,19,1,2,0,4,19,98,11
10,4,10,1,3,0,4,19,89,11
10,4,16,1,3,0,4,19,98,11
10,4,12,1,5,1,4,19,3,11
10,4,16,1,1,0,4,19,3,11
10,4,19,1,3,0,4,19,98,11
10,4,12,1,4,0,4,19,98,11
10,4,0,0,5,1,4,19,105,8
10,4,11,1,5,1,4,19,98,11
10,4,19,1,5,1,4,19,98,11
10,4,16,1,1,0,4,19,98,11
10,4,19,1,1,0,4,19,98,11
10,4,14,1,4,0,4,19,98,11
10,4,11,1,5,1,4,19,98,11
10,4,20,1,5,1,4,19,98,11
11,4,10,1,6,1,4,19,98,9
11,4,21,0,6,1,4,19,98,11
11,4,12,1,2,0,4,19,98,11
11,4,17,1,2,0,4,19,98,11
11,4,21,0,0,0,4,19,3,11
11,4,16,1,1,0,4,19,98,11
11,4,19,1,1,0,4,19,98,11
11,4,15,1,1,0,4,19,98,11
11,4,13,1,3,0,4,19,98,11
11,4,16,1,4,0,4,19,98,11
11,4,13,1,4,0,4,19,98,11
11,4,17,1,1,0,4,19,98,11
11,4,15,1,1,0,4,19,75,11
11,4,9,1,2,0,4,19,105,11
11,4,16,1,3,0,4,19,98,11
11,4,14,1,3,0,4,19,98,11
11,4,1,0,4,0,4,19,26,11
11,4,8,1,5,1,4,19,39,9
11,4,18,1,6,1,4,19,94,11
11,4,17,1,6,1,4,19,3,11
11,4,12,1,6,1,4,19,3,11
11,4,14,1,6,1,4,19,98,11
11,4,15,1,0,0,4,19,89,11
11,4,23,0,1,0,4,19,89,11
11,4,10,1,1,0,4,19,98,11
11,4,14,1,3,0,4,19,19,11
11,4,16,1,4,0,4,19,98,11
11,4,13,1,4,0,4,19,98,11
11,4,17,1,4,0,4,19,98,11
11,4,15,1,4,0,4,19,98,11
11,4,13,1,4,0,4,19,3,11
11,4,22,0,5,1,4,19,98,11
11,4,16,1,5,1,4,19,3,11
11,4,16,1,5,1,4,19,98,11
12,1,18,1,0,0,4,19,19,9
1,1,16,1,2,0,1,19,94,11
1,1,16,1,2,0,1,19,65,11
1,1,18,1,2,0,1,19,94,11
1,1,14,1,3,0,1,19,98,11
1,1,11,1,4,0,1,19,31,11
1,1,19,1,5,1,1,19,65,11
1,1,8,1,6,1,1,19,98,9
1,1,10,1,0,0,1,19,94,11
1,1,12,1,1,0,1,19,125,9
1,1,10,1,1,0,1,19,72,11
1,1,6,0,3,0,1,19,65,9
1,1,19,1,4,0,1,19,3,11
1,1,0,0,5,1,1,19,98,11
1,1,21,0,2,0,1,19,65,11
1,1,22,0,3,0,1,19,75,11
1,1,12,1,4,0,1,19,65,9
1,1,17,1,6,1,1,19,65,9
1,1,22,0,6,1,1,19,94,11
1,1,12,1,0,0,1,19,89,11
1,1,5,0,1,0,1,19,94,11
1,1,15,1,1,0,1,19,23,11
1,1,20,1,3,0,1,19,124,11
1,1,13,1,3,0,1,19,94,11
1,1,21,0,4,0,1,19,23,9
1,1,20,1,4,0,1,19,98,11
1,1,8,1,4,0,1,19,72,9
1,1,11,1,3,0,1,19,89,11
2,1,17,1,5,1,1,19,98,11
2,1,10,1,6,1,1,19,65,11
2,1,14,1,0,0,1,19,8,11
2,1,17,1,0,0,1,19,98,11
2,1,15,1,2,0,1,19,2,11
2,1,15,1,2,0,1,19,72,11
2,1,12,1,3,0,1,19,65,11
2,1,6,0,4,0,1,19,65,11
2,1,14,1,4,0,1,19,94,11
2,1,22,0,5,1,1,19,72,9
2,1,0,0,0,0,1,19,65,11
2,1,19,1,2,0,1,19,89,9
2,1,17,1,3,0,1,19,94,11
2,1,19,1,3,0,1,19,65,11
2,1,21,0,0,0,1,19,14,9
2,1,22,0,2,0,1,19,65,11
2,1,20,1,3,0,1,19,47,9
2,1,12,1,4,0,1,19,98,11
2,1,0,0,4,0,1,19,94,11
2,1,4,0,5,1,1,19,19,9
2,1,3,0,6,1,1,19,94,11
2,1,7,1,6,1,1,19,65,11
2,1,21,0,6,1,1,19,78,11
2,1,21,0,6,1,1,19,75,11
2,1,13,1,6,1,1,19,94,11
2,1,16,1,2,0,1,19,57,11
3,2,17,1,6,1,1,19,94,11
3,2,16,1,6,1,1,19,3,11
3,2,16,1,6,1,1,19,94,11
3,2,2,0,0,0,1,19,56,11
3,2,5,0,0,0,1,19,94,11
3,2,17,1,1,0,1,19,65,11
3,2,14,1,1,0,1,19,89,11
3,2,15,1,2,0,1,19,65,11
3,2,0,0,2,0,1,19,65,11
3,2,8,1,3,0,1,19,72,11
3,2,4,0,4,0,1,19,19,11
3,2,13,1,4,0,1,19,98,11
3,2,14,1,5,1,1,19,98,11
3,2,16,1,6,1,1,19,65,11
3,2,18,1,0,0,1,19,65,11
3,2,18,1,0,0,1,19,75,11
3,2,14,1,0,0,1,19,72,9
3,2,15,1,1,0,1,19,94,11
3,2,20,1,3,0,1,19,65,11
3,2,17,1,4,0,1,19,65,11
3,2,0,0,4,0,1,19,72,11
3,2,19,1,5,1,1,19,94,11
3,2,17,1,1,0,1,19,3,11
3,2,21,0,1,0,1,19,98,11
3,2,7,1,2,0,1,19,65,11
3,2,1,0,2,0,1,19,16,9
3,2,1,0,2,0,1,19,16,9
3,2,18,1,3,0,1,19,65,11
3,2,16,1,3,0,1,19,65,11
3,2,15,1,4,0,1,19,72,11
3,2,12,1,6,1,1,19,75,11
3,2,13,1,6,1,1,19,65,11
3,2,0,0,0,0,1,19,65,11
3,2,10,1,0,0,1,19,65,11
3,2,9,1,1,0,1,19,65,11
3,2,20,1,1,0,1,19,75,11
3,2,22,0,3,0,1,19,56,11
3,2,15,1,3,0,1,19,98,11
3,2,5,0,0,0,1,19,64,11
4,2,19,1,3,0,2,19,65,11
4,2,5,0,4,0,2,19,65,11
4,2,7,1,4,0,2,19,65,11
4,2,10,1,1,0,2,19,75,11
4,2,19,1,2,0,2,19,72,11
4,2,23,0,5,1,2,19,65,11
4,2,18,1,6,1,2,19,65,11
4,2,12,1,6,1,2,19,65,11
4,2,7,1,0,0,2,19,65,11
4,2,20,1,2,0,2,19,65,11
4,2,0,0,6,1,2,19,65,11
4,2,20,1,6,1,2,19,65,11
4,2,18,1,6,1,2,19,94,11
4,2,3,0,6,1,2,19,94,11
4,2,13,1,2,0,2,19,94,11
4,2,18,1,2,0,2,19,65,11
4,2,17,1,4,0,2,19,89,11
4,2,1,0,5,1,2,19,65,11
4,2,12,1,6,1,2,19,65,11
4,2,20,1,2,0,2,19,89,11
4,2,14,1,2,0,2,19,65,9
4,2,16,1,2,0,2,19,65,11
5,2,12,1,4,0,2,19,75,11
5,2,9,1,0,0,2,19,72,11
5,2,3,0,1,0,2,19,65,11
5,2,21,0,3,0,2,19,65,11
5,2,11,1,5,1,2,19,89,11
5,2,21,0,6,1,2,19,65,11
5,2,0,0,2,0,2,19,65,11
5,2,14,1,3,0,2,19,89,11
5,2,14,1,3,0,2,19,65,11
5,2,14,1,3,0,2,19,89,11
5,2,18,1,3,0,2,19,104,11
5,2,16,1,6,1,2,19,65,11
5,2,8,1,6,1,2,19,98,11
5,2,14,1,0,0,2,19,72,11
5,2,13,1,1,0,2,19,65,11
5,2,13,1,1,0,2,19,65,11
5,2,17,1,3,0,2,19,65,11
5,2,16,1,5,1,2,19,65,11
5,2,15,1,5,1,2,19,65,11
5,2,22,0,1,0,2,19,65,11
5,2,18,1,3,0,2,19,65,11
6,3,5,0,5,1,2,19,65,11
6,3,0,0,5,1,2,19,65,11
6,3,21,0,6,1,2,19,65,11
6,3,3,0,2,0,2,19,14,11
6,3,19,1,5,1,2,19,98,11
6,3,18,1,6,1,2,19,98,11
6,3,15,1,0,0,2,19,65,11
6,3,18,1,1,0,2,19,3,11
6,3,17,1,2,0,2,19,87,11
6,3,15,1,2,0,2,19,89,11
6,3,12,1,2,0,2,19,89,11
6,3,3,0,4,0,2,19,98,11
6,3,13,1,0,0,2,19,65,11
6,3,9,1,2,0,2,19,72,11
6,3,3,0,3,0,2,19,72,11
6,3,7,1,3,0,2,19,89,11
6,3,13,1,3,0,2,19,65,11
6,3,22,0,3,0,2,19,94,11
6,3,14,1,6,1,2,19,98,11
6,3,0,0,0,0,2,19,89,11
6,3,19,1,1,0,2,19,89,11
6,3,3,0,1,0,2,19,15,11
6,3,18,1,1,0,2,19,65,11
7,3,22,0,2,0,3,19,94,11
7,3,22,0,2,0,3,19,86,11
7,3,17,1,3,0,3,19,65,11
7,3,8,1,4,0,3,19,89,11
7,3,14,1,6,1,3,19,72,11
7,3,9,1,6,1,3,19,65,11
7,3,1,0,2,0,3,19,72,11
7,3,13,1,3,0,3,19,65,11
7,3,11,1,4,0,3,19,56,11
7,3,19,1,0,0,3,19,47,11
7,3,18,1,1,0,3,19,3,11
7,3,15,1,1,0,3,19,86,11
7,3,7,1,1,0,3,19,98,11
7,3,13,1,2,0,3,19,98,11
7,3,17,1,2,0,3,19,3,11
7,3,18,1,5,1,3,19,98,11
7,3,17,1,0,0,3,19,89,11
7,3,15,1,0,0,3,19,89,11
7,3,12,1,1,0,3,19,72,11
7,3,13,1,1,0,3,19,65,11
7,3,7,1,2,0,3,19,72,11
7,3,16,1,3,0,3,19,56,11
7,3,0,0,3,0,3,19,96,11
8,3,10,1,5,1,3,19,98,11
8,3,18,1,0,0,3,19,3,11
8,3,9,1,1,0,3,19,3,11
8,3,15,1,2,0,3,19,65,11
8,3,15,1,3,0,3,19,72,11
8,3,5,0,3,0,3,19,72,11
8,3,1,0,1,0,3,19,15,9
8,3,11,1,3,0,3,19,89,11
8,3,20,1,3,0,3,19,72,11
8,3,2,0,5,1,3,19,72,11
8,3,21,0,4,0,3,19,65,11
8,3,16,1,6,1,3,19,65,11
8,3,14,1,0,0,3,19,13,9
8,3,14,1,1,0,3,19,65,11
8,3,4,0,2,0,3,19,72,11
8,3,21,0,3,0,3,19,65,11
8,3,20,1,3,0,3,19,72,11
8,3,2,0,4,0,3,19,98,11
8,3,1,0,0,0,3,19,86,11
9,4,10,1,1,0,3,19,87,11
9,4,1,0,1,0,3,19,94,11
9,4,2,0,2,0,3,19,19,11
9,4,12,1,3,0,3,19,65,11
9,4,19,1,3,0,3,19,94,11
9,4,5,0,5,1,3,19,94,11
9,4,19,1,6,1,3,19,65,11
9,4,12,1,0,0,3,19,72,11
9,4,19,1,6,1,3,19,89,11
9,4,23,0,6,1,3,19,19,11
9,4,13,1,0,0,3,19,89,11
9,4,11,1,0,0,3,19,86,11
9,4,17,1,1,0,3,19,94,11
9,4,14,1,2,0,3,19,65,11
9,4,10,1,6,1,3,19,19,11
9,4,16,1,6,1,3,19,98,11
9,4,0,0,6,1,3,19,72,11
9,4,8,1,3,0,3,19,2,11
9,4,17,1,3,0,3,19,65,11
9,4,20,1,3,0,3,19,94,11
9,4,16,1,4,0,3,19,3,11
9,4,18,1,5,1,3,19,89,11
9,4,20,1,2,0,3,19,65,11
10,4,12,1,4,0,4,19,19,11
10,4,9,1,6,1,4,19,65,11
10,4,0,0,1,0,4,19,72,11
10,4,14,1,1,0,4,19,65,11
10,4,16,1,1,0,4,19,94,11
10,4,13,1,4,0,4,19,64,11
10,4,6,0,4,0,4,19,94,11
10,4,6,0,4,0,4,19,98,11
10,4,12,1,5,1,4,19,89,11
10,4,4,0,5,1,4,19,48,11
10,4,0,0,6,1,4,19,94,11
10,4,3,0,0,0,4,19,72,11
10,4,6,0,2,0,4,19,72,11
10,4,20,1,3,0,4,19,56,11
10,4,16,1,3,0,4,19,98,11
10,4,13,1,3,0,4,19,72,11
10,4,20,1,4,0,4,19,98,11
10,4,14,1,6,1,4,19,75,11
10,4,19,1,0,0,4,19,72,11
10,4,22,0,4,0,4,19,98,11
10,4,1,0,4,0,4,19,94,11
10,4,0,0,4,0,4,19,94,11
10,4,23,0,6,1,4,19,98,11
10,4,22,0,6,1,4,19,98,11
10,4,11,1,6,1,4,19,89,11
10,4,9,1,2,0,4,19,94,11
10,4,12,1,4,0,4,19,65,11
10,4,19,1,4,0,4,19,65,11
11,4,11,1,1,0,4,19,65,11
11,4,19,1,2,0,4,19,72,11
11,4,0,0,2,0,4,19,65,11
11,4,1,0,3,0,4,19,72,11
11,4,17,1,4,0,4,19,89,11
11,4,3,0,5,1,4,19,65,11
11,4,18,1,6,1,4,19,89,11
11,4,20,1,2,0,4,19,98,11
11,4,11,1,3,0,4,19,98,11
11,4,23,0,4,0,4,19,94,11
11,4,15,1,4,0,4,19,98,11
11,4,20,1,5,1,4,19,94,11
11,4,21,0,5,1,4,19,94,11
11,4,22,0,6,1,4,19,72,11
11,4,12,1,0,0,4,19,89,11
11,4,6,0,3,0,4,19,65,11
11,4,22,0,5,1,4,19,65,11
11,4,12,1,0,0,4,19,89,11
11,4,12,1,1,0,4,19,98,11
11,4,17,1,1,0,4,19,89,11
11,4,12,1,2,0,4,19,94,11
11,4,19,1,3,0,4,19,89,11
11,4,8,1,4,0,4,19,65,11
11,4,20,1,5,1,4,19,94,11
11,4,9,1,0,0,4,19,65,11
12,1,10,1,1,0,4,19,65,9
12,1,16,1,2,0,4,19,94,11
12,1,18,1,2,0,4,19,94,11
12,1,0,0,2,0,4,19,75,11
12,1,18,1,5,1,4,19,65,11
12,1,4,0,0,0,4,19,65,11
12,1,22,0,4,0,4,19,78,11
12,1,21,0,4,0,4,19,78,11
12,1,15,1,0,0,4,19,65,11
12,1,20,1,2,0,4,19,94,11
12,1,19,1,3,0,4,19,65,11
12,1,18,1,5,1,4,19,65,11
12,1,9,1,5,1,4,19,89,11
12,1,17,1,6,1,4,19,75,11
12,1,12,1,6,1,4,19,94,11
12,1,12,1,0,0,4,19,75,11
12,1,10,1,3,0,4,19,98,11
12,1,22,0,4,0,4,19,65,11
12,1,16,1,4,0,4,19,86,11
12,1,6,0,4,0,4,19,65,11
12,1,15,1,5,1,4,19,14,11
5,2,19,1,5,1,2,19,4,11
8,3,20,1,2,0,3,19,19,11
1,1,17,1,2,0,1,19,125,11
1,1,18,1,4,0,1,19,89,11
1,1,18,1,5,1,1,19,1,11
1,1,17,1,0,0,1,19,98,11
1,1,23,0,1,0,1,19,105,11
1,1,11,1,1,0,1,19,89,9
1,1,6,0,2,0,1,19,65,11
1,1,22,0,3,0,1,19,86,11
1,1,12,1,4,0,1,19,89,11
1,1,15,1,4,0,1,19,1,11
1,1,19,1,5,1,1,19,3,9
1,1,15,1,6,1,1,19,98,11
1,1,10,1,2,0,1,19,3,11
1,1,6,0,3,0,1,19,89,9
1,1,13,1,4,0,1,19,89,11
1,1,5,0,5,1,1,19,72,9
1,1,19,1,5,1,1,19,78,11
1,1,7,1,0,0,1,19,98,11
1,1,18,1,0,0,1,19,98,11
1,1,10,1,0,0,1,19,105,11
1,1,4,0,0,0,1,19,98,11
1,1,18,1,1,0,1,19,122,11
1,1,19,1,1,0,1,19,65,11
1,1,8,1,3,0,1,19,125,9
1,1,17,1,3,0,1,19,98,11
1,1,14,1,3,0,1,19,98,11
1,1,17,1,3,0,1,19,89,11
1,1,22,0,5,1,1,19,19,11
1,1,19,1,0,0,1,19,14,8
1,1,15,1,3,0,1,19,98,11
1,1,12,1,3,0,1,19,98,9
2,1,14,1,0,0,1,19,125,11
2,1,1,0,1,0,1,19,19,11
2,1,8,1,1,0,1,19,89,11
2,1,16,1,2,0,1,19,65,11
2,1,3,0,2,0,1,19,89,11
2,1,4,0,2,0,1,19,125,9
2,1,18,1,4,0,1,19,3,11
2,1,8,1,4,0,1,19,3,9
2,1,2,0,4,0,1,19,19,11
2,1,14,1,5,1,1,19,98,11
2,1,2,0,5,1,1,19,72,9
2,1,18,1,5,1,1,19,89,11
2,1,13,1,0,0,1,19,3,11
2,1,19,1,1,0,1,19,98,11
2,1,8,1,2,0,1,19,89,11
2,1,15,1,2,0,1,19,98,11
2,1,12,1,3,0,1,19,98,11
2,1,19,1,3,0,1,19,98,11
2,1,12,1,4,0,1,19,14,11
2,1,18,1,2,0,1,19,98,11
2,1,23,0,2,0,1,19,98,11
2,1,16,1,4,0,1,19,125,11
2,1,18,1,5,1,1,19,98,11
2,1,17,1,5,1,1,19,98,11
2,1,19,1,6,1,1,19,98,11
2,1,20,1,6,1,1,19,98,11
2,1,18,1,2,0,1,19,98,11
2,1,12,1,2,0,1,19,98,11
2,1,12,1,3,0,1,19,3,11
2,1,17,1,4,0,1,19,125,11
2,1,15,1,4,0,1,19,3,11
2,1,14,1,5,1,1,19,89,11
2,1,22,0,5,1,1,19,98,11
3,2,11,1,0,0,1,19,98,11
3,2,14,1,0,0,1,19,98,11
3,2,23,0,3,0,1,19,125,11
3,2,7,1,1,0,1,19,89,11
3,2,20,1,2,0,1,19,89,11
3,2,7,1,2,0,1,19,29,11
3,2,18,1,3,0,1,19,89,11
3,2,16,1,3,0,1,19,89,11
3,2,23,0,3,0,1,19,98,11
3,2,8,1,4,0,1,19,89,11
3,2,13,1,4,0,1,19,98,11
3,2,20,1,5,1,1,19,89,11
3,2,4,0,6,1,1,19,89,11
3,2,5,0,1,0,1,19,19,11
3,2,17,1,1,0,1,19,72,11
3,2,6,0,1,0,1,19,50,8
3,2,20,1,3,0,1,19,89,9
3,2,22,0,4,0,1,19,3,11
3,2,12,1,5,1,1,19,86,11
3,2,13,1,5,1,1,19,98,11
4,2,15,1,4,0,2,19,19,11
4,2,20,1,5,1,2,19,14,8
4,2,13,1,0,0,2,19,72,11
4,2,16,1,4,0,2,19,98,11
4,2,3,0,5,1,2,19,89,11
4,2,13,1,4,0,2,19,98,11
4,2,23,0,4,0,2,19,125,11
4,2,17,1,4,0,2,19,75,11
4,2,21,0,0,0,2,19,98,11
4,2,5,0,1,0,2,19,45,11
4,2,13,1,5,1,2,19,89,11
4,2,16,1,0,0,2,19,13,8
4,2,14,1,1,0,2,19,98,11
5,2,14,1,4,0,2,19,98,11
5,2,13,1,4,0,2,19,89,11
5,2,23,0,5,1,2,19,98,11
5,2,22,0,1,0,2,19,89,11
5,2,16,1,1,0,2,19,98,11
5,2,19,1,3,0,2,19,98,11
5,2,12,1,4,0,2,19,98,9
5,2,15,1,4,0,2,19,98,11
5,2,12,1,5,1,2,19,19,11
5,2,11,1,5,1,2,19,86,11
5,2,21,0,0,0,2,19,96,11
5,2,17,1,0,0,2,19,109,8
5,2,21,0,0,0,2,19,98,11
5,2,13,1,2,0,2,19,89,11
5,2,11,1,2,0,2,19,89,11
5,2,9,1,2,0,2,19,89,11
5,2,23,0,5,1,2,19,98,11
5,2,16,1,5,1,2,19,89,11
5,2,14,1,6,1,2,19,98,11
5,2,2,0,6,1,2,19,98,11
5,2,12,1,1,0,2,19,98,11
5,2,15,1,2,0,2,19,98,11
5,2,1,0,3,0,2,19,23,11
5,2,17,1,0,0,2,19,98,11
5,2,21,0,0,0,2,19,98,11
5,2,2,0,1,0,2,19,89,9
5,2,15,1,2,0,2,19,106,11
5,2,14,1,4,0,2,19,98,11
5,2,15,1,4,0,2,19,86,11
5,2,14,1,4,0,2,19,98,11
5,2,21,0,5,1,2,19,98,9
5,2,18,1,6,1,2,19,98,11
5,2,20,1,6,1,2,19,125,11
6,3,13,1,0,0,2,19,98,11
6,3,12,1,1,0,2,19,13,9
6,3,20,1,2,0,2,19,89,11
6,3,18,1,3,0,2,19,98,11
6,3,16,1,3,0,2,19,89,11
6,3,14,1,3,0,2,19,98,11
6,3,21,0,1,0,2,19,89,11
6,3,16,1,1,0,2,19,89,11
6,3,14,1,3,0,2,19,125,11
6,3,20,1,3,0,2,19,82,11
6,3,13,1,4,0,2,19,125,11
6,3,13,1,5,1,2,19,98,11
6,3,12,1,5,1,2,19,89,11
6,3,17,1,0,0,2,19,72,11
6,3,8,1,1,0,2,19,89,11
6,3,6,0,1,0,2,19,72,11
6,3,19,1,3,0,2,19,89,11
6,3,4,0,3,0,2,19,56,11
6,3,7,1,5,1,2,19,98,11
6,3,17,1,5,1,2,19,3,11
6,3,21,0,6,1,2,19,98,11
6,3,2,0,6,1,2,19,89,11
6,3,20,1,6,1,2,19,98,11
6,3,20,1,0,0,2,19,89,11
6,3,8,1,0,0,2,19,63,11
6,3,15,1,2,0,2,19,89,11
6,3,22,0,3,0,2,19,98,11
6,3,21,0,5,1,2,19,89,11
6,3,18,1,6,1,2,19,89,11
6,3,12,1,1,0,2,19,98,11
6,3,11,1,1,0,2,19,3,9
7,3,22,0,2,0,3,19,98,11
7,3,14,1,2,0,3,19,98,11
7,3,4,0,2,0,3,19,72,11
7,3,10,1,2,0,3,19,98,11
7,3,4,0,4,0,3,19,86,11
7,3,10,1,5,1,3,19,98,11
7,3,12,1,5,1,3,19,98,11
7,3,15,1,5,1,3,19,98,11
7,3,17,1,5,1,3,19,89,11
7,3,12,1,6,1,3,19,98,11
7,3,13,1,0,0,3,19,98,11
7,3,22,0,0,0,3,19,89,11
7,3,22,0,1,0,3,19,98,11
7,3,22,0,1,0,3,19,89,8
7,3,21,0,2,0,3,19,89,11
7,3,11,1,3,0,3,19,3,11
7,3,19,1,3,0,3,19,86,11
7,3,15,1,6,1,3,19,65,11
7,3,12,1,0,0,3,19,89,9
7,3,17,1,1,0,3,19,125,11
7,3,2,0,1,0,3,19,89,11
7,3,22,0,2,0,3,19,98,11
7,3,7,1,3,0,3,19,98,11
7,3,18,1,6,1,3,19,89,9
7,3,18,1,0,0,3,19,89,11
7,3,17,1,0,0,3,19,98,11
7,3,17,1,1,0,3,19,89,11
7,3,14,1,1,0,3,19,98,11
7,3,13,1,1,0,3,19,98,11
7,3,19,1,2,0,3,19,19,9
7,3,11,1,3,0,3,19,3,11
7,3,11,1,4,0,3,19,98,11
7,3,21,0,4,0,3,19,89,11
7,3,18,1,4,0,3,19,98,11
7,3,12,1,6,1,3,19,106,11
7,3,11,1,6,1,3,19,125,11
7,3,14,1,6,1,3,19,65,11
7,3,23,0,6,1,3,19,106,11
7,3,13,1,0,0,3,19,98,11
7,3,21,0,0,0,3,19,98,11
7,3,18,1,0,0,3,19,89,11
7,3,20,1,0,0,3,19,89,11
7,3,22,0,1,0,3,19,89,9
7,3,14,1,2,0,3,19,98,11
7,3,22,0,3,0,3,19,89,11
7,3,23,0,3,0,3,19,89,11
7,3,14,1,3,0,3,19,98,11
7,3,0,0,4,0,3,19,89,11
7,3,23,0,4,0,3,19,89,9
8,3,0,0,6,1,3,19,98,9
8,3,12,1,6,1,3,19,89,11
8,3,11,1,6,1,3,19,89,11
8,3,16,1,0,0,3,19,14,11
8,3,6,0,0,0,3,19,98,11
8,3,0,0,1,0,3,19,89,11
8,3,14,1,1,0,3,19,89,11
8,3,17,1,2,0,3,19,98,11
8,3,17,1,2,0,3,19,3,11
8,3,3,0,2,0,3,19,98,9
8,3,19,1,0,0,3,19,98,9
8,3,2,0,0,0,3,19,72,11
8,3,11,1,0,0,3,19,72,9
8,3,21,0,0,0,3,19,89,11
8,3,0,0,1,0,3,19,89,11
8,3,15,1,1,0,3,19,98,11
8,3,20,1,4,0,3,19,89,11
8,3,16,1,4,0,3,19,98,11
8,3,12,1,4,0,3,19,98,11
8,3,15,1,0,0,3,19,89,11
8,3,22,0,0,0,3,19,89,11
8,3,15,1,3,0,3,19,98,11
8,3,13,1,3,0,3,19,89,11
8,3,14,1,3,0,3,19,98,11
8,3,16,1,5,1,3,19,98,11
8,3,12,1,5,1,3,19,39,11
8,3,23,0,0,0,3,19,98,9
8,3,21,0,0,0,3,19,86,11
9,4,0,0,2,0,3,19,125,11
9,4,5,0,3,0,3,19,89,11
9,4,2,0,3,0,3,19,125,11
9,4,5,0,4,0,3,19,89,9
9,4,11,1,4,0,3,19,89,11
9,4,3,0,0,0,3,19,125,11
9,4,11,1,0,0,3,19,89,11
9,4,12,1,0,0,3,19,3,11
9,4,20,1,0,0,3,19,89,11
9,4,12,1,1,0,3,19,123,11
9,4,0,0,1,0,3,19,89,11
9,4,12,1,3,0,3,19,89,11
9,4,10,1,4,0,3,19,98,11
9,4,13,1,5,1,3,19,89,11
9,4,10,1,5,1,3,19,98,11
9,4,14,1,0,0,3,19,98,11
9,4,1,0,0,0,3,19,89,11
9,4,16,1,0,0,3,19,98,11
9,4,14,1,1,0,3,19,125,11
9,4,21,0,2,0,3,19,98,11
9,4,12,1,4,0,3,19,89,11
9,4,20,1,4,0,3,19,125,11
9,4,14,1,4,0,3,19,89,11
9,4,23,0,6,1,3,19,98,11
9,4,8,1,0,0,3,19,89,9
9,4,15,1,3,0,3,19,72,11
9,4,19,1,3,0,3,19,125,11
9,4,15,1,4,0,3,19,3,11
9,4,20,1,1,0,3,19,89,11
10,4,22,0,3,0,4,19,89,11
10,4,19,1,0,0,4,19,98,11
10,4,18,1,0,0,4,19,89,11
10,4,12,1,0,0,4,19,3,11
10,4,20,1,1,0,4,19,98,9
10,4,19,1,1,0,4,19,3,11
10,4,4,0,2,0,4,19,19,11
10,4,17,1,2,0,4,19,3,11
10,4,8,1,3,0,4,19,98,11
10,4,22,0,3,0,4,19,98,11
10,4,6,0,3,0,4,19,3,9
10,4,23,0,4,0,4,19,98,8
10,4,13,1,4,0,4,19,89,9
10,4,17,1,4,0,4,19,98,9
10,4,11,1,5,1,4,19,98,11
10,4,21,0,5,1,4,19,98,11
10,4,18,1,5,1,4,19,98,11
10,4,17,1,5,1,4,19,98,11
10,4,12,1,5,1,4,19,25,11
10,4,14,1,5,1,4,19,89,11
10,4,16,1,6,1,4,19,72,11
10,4,21,0,6,1,4,19,98,11
10,4,0,0,1,0,4,19,106,11
10,4,1,0,3,0,4,19,89,11
10,4,18,1,3,0,4,19,89,11
10,4,21,0,3,0,4,19,89,11
10,4,10,1,5,1,4,19,98,11
10,4,3,0,1,0,4,19,72,11
10,4,12,1,1,0,4,19,72,9
10,4,13,1,2,0,4,19,98,9
10,4,18,1,2,0,4,19,98,11
10,4,13,1,3,0,4,19,72,11
10,4,15,1,5,1,4,19,98,11
10,4,16,1,6,1,4,19,13,11
10,4,8,1,0,0,4,19,72,11
10,4,0,0,1,0,4,19,98,11
10,4,16,1,1,0,4,19,89,11
10,4,20,1,4,0,4,19,98,11
10,4,15,1,5,1,4,19,13,11
11,4,12,1,6,1,4,19,13,9
11,4,3,0,6,1,4,19,72,11
11,4,11,1,0,0,4,19,72,11
11,4,17,1,0,0,4,19,89,11
11,4,19,1,0,0,4,19,98,11
11,4,11,1,3,0,4,19,89,9
11,4,4,0,3,0,4,19,72,11
11,4,10,1,4,0,4,19,75,11
11,4,20,1,1,0,4,19,72,11
11,4,15,1,1,0,4,19,98,11
11,4,15,1,2,0,4,19,98,11
11,4,11,1,3,0,4,19,89,11
11,4,9,1,5,1,4,19,65,11
11,4,23,0,5,1,4,19,125,11
11,4,14,1,6,1,4,19,125,11
11,4,18,1,6,1,4,19,98,11
11,4,0,0,6,1,4,19,20,11
11,4,9,1,0,0,4,19,45,11
11,4,16,1,1,0,4,19,14,8
11,4,18,1,3,0,4,19,86,11
11,4,19,1,3,0,4,19,89,11
11,4,20,1,4,0,4,19,98,11
11,4,17,1,5,1,4,19,89,11
11,4,12,1,5,1,4,19,89,11
11,4,17,1,5,1,4,19,98,11
11,4,10,1,6,1,4,19,89,9
11,4,13,1,0,0,4,19,98,9
11,4,17,1,0,0,4,19,125,11
11,4,16,1,0,0,4,19,98,11
11,4,17,1,0,0,4,19,125,9
11,4,7,1,1,0,4,19,125,11
11,4,19,1,2,0,4,19,125,9
11,4,14,1,2,0,4,19,98,11
11,4,14,1,2,0,4,19,125,8
11,4,14,1,3,0,4,19,89,11
11,4,22,0,4,0,4,19,72,11
11,4,12,1,5,1,4,19,23,11
11,4,13,1,5,1,4,19,3,11
11,4,9,1,5,1,4,19,98,11
11,4,16,1,5,1,4,19,75,11
11,4,3,0,0,0,4,19,86,11
12,1,22,0,3,0,4,19,19,9
12,1,7,1,4,0,4,19,89,11
12,1,6,0,3,0,4,19,23,11
12,1,23,0,4,0,4,19,98,11
12,1,14,1,5,1,4,19,125,11
12,1,19,1,1,0,4,19,86,11
12,1,22,0,1,0,4,19,19,11
12,1,15,1,3,0,4,19,65,11
12,1,13,1,4,0,4,19,65,11
12,1,11,1,1,0,4,19,19,9
12,1,13,1,3,0,4,19,39,11
1,1,12,1,0,0,1,19,98,11
1,1,9,1,0,0,1,19,98,11
1,1,11,1,2,0,1,19,89,11
1,1,14,1,3,0,1,19,98,11
1,1,13,1,3,0,1,19,98,11
1,1,14,1,6,1,1,19,75,11
1,1,0,0,6,1,1,19,125,11
1,1,21,0,0,0,1,19,125,11
1,1,12,1,1,0,1,19,98,11
1,1,20,1,6,1,1,19,75,11
1,1,5,0,0,0,1,19,75,11
1,1,19,1,1,0,1,19,75,11
1,1,7,1,3,0,1,19,19,11
1,1,14,1,3,0,1,19,89,11
1,1,18,1,4,0,1,19,3,11
2,1,17,1,5,1,1,19,89,11
2,1,11,1,6,1,1,19,75,9
2,1,15,1,1,0,1,19,98,11
2,1,19,1,3,0,1,19,3,11
2,1,14,1,3,0,1,19,3,11
2,1,10,1,4,0,1,19,50,11
2,1,14,1,5,1,1,19,39,9
2,1,4,0,6,1,1,19,75,9
2,1,14,1,1,0,1,19,98,11
2,1,22,0,1,0,1,19,19,11
2,1,16,1,5,1,1,19,23,9
2,1,19,1,0,0,1,19,125,8
2,1,14,1,6,1,1,19,89,9
2,1,16,1,2,0,1,19,3,11
2,1,20,1,5,1,1,19,72,9
3,2,0,0,6,1,1,19,75,9
3,2,11,1,0,0,1,19,3,11
3,2,19,1,0,0,1,19,98,11
3,2,18,1,3,0,1,19,50,9
3,2,6,0,2,0,1,19,23,9
3,2,16,1,2,0,1,19,89,11
3,2,15,1,2,0,1,19,65,9
3,2,4,0,6,1,1,19,94,11
3,2,4,0,2,0,1,19,125,11
3,2,20,1,2,0,1,19,19,11
3,2,4,0,3,0,1,19,19,11
4,2,18,1,1,0,2,19,98,11
4,2,9,1,3,0,2,19,39,11
4,2,17,1,6,1,2,19,89,11
4,2,5,0,3,0,2,19,3,11
5,2,20,1,6,1,2,19,23,9
5,2,14,1,0,0,2,19,89,11
5,2,0,0,1,0,2,19,19,11
5,2,10,1,3,0,2,19,20,9
5,2,14,1,5,1,2,19,3,11
5,2,20,1,6,1,2,19,3,11
5,2,17,1,1,0,2,19,3,11
5,2,14,1,1,0,2,19,89,9
5,2,17,1,2,0,2,19,125,9
5,2,18,1,0,0,2,19,89,11
5,2,17,1,2,0,2,19,72,11
5,2,5,0,3,0,2,19,72,11
5,2,13,1,3,0,2,19,98,11
5,2,15,1,5,1,2,19,89,11
6,3,19,1,5,1,2,19,3,11
6,3,18,1,6,1,2,19,3,11
6,3,4,0,0,0,2,19,19,11
6,3,16,1,1,0,2,19,3,8
6,3,18,1,2,0,2,19,3,9
6,3,17,1,6,1,2,19,89,11
6,3,18,1,0,0,2,19,89,9
6,3,6,0,1,0,2,19,89,11
6,3,13,1,2,0,2,19,3,9
6,3,9,1,4,0,2,19,3,9
6,3,21,0,5,1,2,19,89,11
6,3,9,1,5,1,2,19,89,9
6,3,10,1,5,1,2,19,89,9
6,3,14,1,5,1,2,19,89,9
6,3,15,1,5,1,2,19,89,9
6,3,17,1,6,1,2,19,89,11
6,3,23,0,0,0,2,19,98,11
6,3,18,1,1,0,2,19,3,11
7,3,17,1,1,0,3,19,89,11
7,3,16,1,1,0,3,19,89,11
7,3,16,1,3,0,3,19,19,11
7,3,18,1,3,0,3,19,3,11
7,3,16,1,5,1,3,19,89,11
7,3,19,1,0,0,3,19,98,11
7,3,1,0,3,0,3,19,19,11
7,3,12,1,1,0,3,19,3,11
7,3,5,0,6,1,3,19,89,11
7,3,4,0,1,0,3,19,94,11
7,3,6,0,1,0,3,19,65,11
7,3,16,1,1,0,3,19,98,11
7,3,12,1,4,0,3,19,89,11
7,3,14,1,4,0,3,19,98,11
7,3,18,1,4,0,3,19,89,9
8,3,7,1,5,1,3,19,19,9
8,3,18,1,1,0,3,19,3,11
8,3,3,0,3,0,3,19,98,11
8,3,15,1,3,0,3,19,89,11
8,3,19,1,3,0,3,19,3,11
8,3,16,1,0,0,3,19,45,8
8,3,18,1,0,0,3,19,98,11
8,3,18,1,1,0,3,19,3,11
8,3,19,1,6,1,3,19,89,11
8,3,15,1,0,0,3,19,98,11
8,3,0,0,5,1,3,19,3,9
8,3,16,1,6,1,3,19,89,11
8,3,20,1,6,1,3,19,3,11
9,4,13,1,2,0,3,19,98,11
9,4,20,1,4,0,3,19,3,11
9,4,16,1,6,1,3,19,98,11
9,4,17,1,0,0,3,19,89,11
9,4,17,1,1,0,3,19,98,11
9,4,17,1,1,0,3,19,89,9
9,4,12,1,3,0,3,19,98,11
9,4,20,1,6,1,3,19,3,11
9,4,21,0,0,0,3,19,3,11
9,4,23,0,0,0,3,19,89,11
9,4,15,1,0,0,3,19,3,9
9,4,8,1,1,0,3,19,3,11
9,4,0,0,1,0,3,19,3,9
9,4,0,0,6,1,3,19,19,9
9,4,13,1,6,1,3,19,89,11
9,4,15,1,6,1,3,19,89,11
9,4,11,1,1,0,3,19,3,9
9,4,21,0,2,0,3,19,98,11
9,4,22,0,0,0,3,19,98,11
9,4,20,1,1,0,3,19,125,11
9,4,23,0,2,0,3,19,125,11
9,4,14,1,2,0,3,19,65,9
10,4,15,1,3,0,4,19,89,11
10,4,22,0,4,0,4,19,98,11
10,4,10,1,6,1,4,19,98,11
10,4,16,1,6,1,4,19,98,11
10,4,16,1,0,0,4,19,98,11
10,4,18,1,0,0,4,19,98,11
10,4,12,1,2,0,4,19,3,11
10,4,13,1,4,0,4,19,3,11
10,4,5,0,5,1,4,19,19,9
10,4,15,1,6,1,4,19,19,9
10,4,14,1,6,1,4,19,3,11
10,4,23,0,0,0,4,19,98,11
10,4,19,1,2,0,4,19,89,11
10,4,12,1,5,1,4,19,98,11
10,4,16,1,5,1,4,19,89,11
10,4,10,1,6,1,4,19,89,11
10,4,13,1,0,0,4,19,89,11
10,4,22,0,1,0,4,19,3,11
10,4,18,1,1,0,4,19,3,9
10,4,10,1,1,0,4,19,125,9
10,4,11,1,1,0,4,19,89,11
10,4,22,0,2,0,4,19,75,9
10,4,17,1,3,0,4,19,3,9
10,4,12,1,4,0,4,19,3,11
10,4,19,1,5,1,4,19,89,9
10,4,16,1,5,1,4,19,89,11
10,4,0,0,5,1,4,19,98,11
10,4,15,1,5,1,4,19,89,11
10,4,14,1,6,1,4,19,3,11
10,4,16,1,6,1,4,19,125,11
10,4,15,1,2,0,4,19,89,11
10,4,17,1,3,0,4,19,89,11
10,4,16,1,4,0,4,19,89,11
10,4,17,1,4,0,4,19,3,9
10,4,13,1,4,0,4,19,89,9
10,4,17,1,5,1,4,19,3,11
10,4,13,1,5,1,4,19,3,11
10,4,17,1,5,1,4,19,3,11
11,4,12,1,6,1,4,19,3,11
11,4,10,1,0,0,4,19,89,11
11,4,17,1,0,0,4,19,3,11
11,4,17,1,1,0,4,19,98,11
11,4,13,1,3,0,4,19,3,11
11,4,10,1,6,1,4,19,75,11
11,4,14,1,6,1,4,19,3,11
11,4,15,1,6,1,4,19,3,11
11,4,14,1,0,0,4,19,98,11
11,4,8,1,2,0,4,19,39,11
11,4,11,1,5,1,4,19,3,11
11,4,13,1,5,1,4,19,89,11
11,4,14,1,5,1,4,19,3,9
11,4,11,1,6,1,4,19,3,9
11,4,12,1,6,1,4,19,98,11
11,4,13,1,6,1,4,19,3,11
11,4,15,1,6,1,4,19,98,11
11,4,16,1,6,1,4,19,89,11
11,4,16,1,6,1,4,19,3,11
11,4,18,1,6,1,4,19,98,11
11,4,20,1,6,1,4,19,89,11
11,4,1,0,0,0,4,19,125,11
11,4,20,1,0,0,4,19,98,11
11,4,11,1,1,0,4,19,75,9
11,4,11,1,1,0,4,19,3,11
11,4,18,1,1,0,4,19,3,9
11,4,11,1,1,0,4,19,75,9
11,4,12,1,2,0,4,19,89,11
11,4,10,1,4,0,4,19,3,9
11,4,10,1,5,1,4,19,3,11
11,4,15,1,5,1,4,19,3,11
11,4,16,1,5,1,4,19,89,11
11,4,14,1,6,1,4,19,98,11
11,4,15,1,6,1,4,19,89,11
11,4,17,1,0,0,4,19,39,11
12,1,17,1,2,0,4,19,65,11
12,1,10,1,4,0,4,19,3,11
12,1,20,1,5,1,4,19,75,9
12,1,10,1,1,0,4,19,3,11
12,1,23,0,0,0,4,19,98,11
12,1,15,1,4,0,4,19,98,11
12,1,19,1,5,1,4,19,3,11
1,1,10,1,4,0,1,44,23,11
1,1,23,0,5,1,1,44,98,11
1,1,16,1,2,0,1,44,98,11
1,1,15,1,5,1,1,44,98,11
1,1,14,1,3,0,1,44,98,11
1,1,15,1,1,0,1,44,98,11
1,1,11,1,3,0,1,44,98,11
1,1,11,1,0,0,1,44,19,11
2,1,11,1,1,0,1,44,98,11
2,1,5,0,2,0,1,44,98,11
2,1,6,0,4,0,1,44,72,11
2,1,17,1,4,0,1,44,98,11
2,1,18,1,5,1,1,44,75,11
2,1,19,1,5,1,1,44,98,11
2,1,7,1,1,0,1,44,19,11
2,1,16,1,3,0,1,44,106,11
2,1,19,1,1,0,1,44,98,11
2,1,13,1,4,0,1,44,125,11
2,1,13,1,4,0,1,44,65,11
2,1,20,1,6,1,1,44,98,11
2,1,19,1,0,0,1,44,98,11
2,1,17,1,0,0,1,44,98,11
2,1,10,1,0,0,1,44,98,11
2,1,22,0,0,0,1,44,98,11
2,1,18,1,4,0,1,44,58,11
3,2,18,1,0,0,1,44,75,11
3,2,18,1,0,0,1,44,63,11
3,2,12,1,0,0,1,44,98,11
3,2,18,1,1,0,1,44,98,11
3,2,16,1,1,0,1,44,98,11
3,2,18,1,1,0,1,44,98,11
3,2,11,1,1,0,1,44,98,11
3,2,22,0,6,1,1,44,75,11
3,2,16,1,6,1,1,44,19,11
3,2,12,1,1,0,1,44,98,11
3,2,11,1,4,0,1,44,98,11
3,2,10,1,5,1,1,44,98,11
3,2,17,1,4,0,1,44,75,11
4,2,20,1,2,0,2,44,98,11
4,2,16,1,6,1,2,44,13,11
4,2,19,1,4,0,2,44,19,11
4,2,15,1,0,0,2,44,65,11
4,2,9,1,3,0,2,44,75,11
4,2,8,1,5,1,2,44,65,11
4,2,16,1,6,1,2,44,98,11
5,2,15,1,6,1,2,44,98,11
5,2,18,1,0,0,2,44,98,11
5,2,15,1,1,0,2,44,72,11
5,2,18,1,1,0,2,44,94,11
5,2,13,1,3,0,2,44,89,11
5,2,14,1,4,0,2,44,3,9
5,2,17,1,4,0,2,44,89,11
5,2,18,1,4,0,2,44,98,11
5,2,16,1,5,1,2,44,98,11
5,2,19,1,6,1,2,44,98,11
5,2,11,1,6,1,2,44,78,11
5,2,21,0,0,0,2,44,72,11
5,2,11,1,2,0,2,44,98,11
5,2,6,0,3,0,2,44,98,11
5,2,13,1,4,0,2,44,89,11
5,2,8,1,4,0,2,44,19,11
5,2,12,1,6,1,2,44,3,11
5,2,11,1,6,1,2,44,65,11
6,3,13,1,1,0,2,44,98,11
6,3,10,1,2,0,2,44,98,11
6,3,12,1,3,0,2,44,89,11
6,3,13,1,1,0,2,44,98,11
6,3,13,1,1,0,2,44,98,11
6,3,20,1,1,0,2,44,72,11
6,3,12,1,1,0,2,44,75,11
6,3,18,1,2,0,2,44,98,11
6,3,18,1,6,1,2,44,94,11
6,3,21,0,0,0,2,44,86,11
7,3,14,1,2,0,3,44,98,11
7,3,23,0,3,0,3,44,98,11
7,3,13,1,6,1,3,44,89,11
7,3,3,0,6,1,3,44,106,11
7,3,18,1,2,0,3,44,98,11
7,3,7,1,3,0,3,44,98,11
7,3,21,0,5,1,3,44,98,11
7,3,15,1,0,0,3,44,98,11
7,3,21,0,1,0,3,44,98,11
7,3,18,1,2,0,3,44,89,9
7,3,12,1,3,0,3,44,89,11
7,3,19,1,4,0,3,44,89,11
7,3,13,1,6,1,3,44,98,11
7,3,9,1,0,0,3,44,89,11
7,3,18,1,1,0,3,44,98,11
7,3,22,0,2,0,3,44,63,11
7,3,18,1,0,0,3,44,98,11
7,3,20,1,0,0,3,44,98,11
7,3,21,0,0,0,3,44,98,11
7,3,12,1,1,0,3,44,98,11
7,3,12,1,2,0,3,44,98,11
7,3,11,1,4,0,3,44,75,11
7,3,18,1,4,0,3,44,98,11
7,3,20,1,4,0,3,44,98,11
8,3,16,1,6,1,3,44,63,11
8,3,15,1,0,0,3,44,98,11
8,3,16,1,4,0,3,44,25,11
8,3,0,0,1,0,3,44,89,11
8,3,9,1,1,0,3,44,72,11
8,3,9,1,5,1,3,44,39,11
8,3,15,1,6,1,3,44,98,11
8,3,22,0,2,0,3,44,98,11
8,3,13,1,4,0,3,44,89,11
8,3,20,1,6,1,3,44,98,9
8,3,12,1,1,0,3,44,98,11
8,3,9,1,4,0,3,44,89,11
8,3,17,1,4,0,3,44,72,11
8,3,18,1,4,0,3,44,98,11
8,3,18,1,0,0,3,44,98,11
9,4,12,1,1,0,3,44,19,11
9,4,15,1,3,0,3,44,89,11
9,4,20,1,4,0,3,44,98,11
9,4,12,1,5,1,3,44,72,11
9,4,8,1,5,1,3,44,75,11
9,4,5,0,6,1,3,44,72,11
9,4,16,1,6,1,3,44,89,11
9,4,17,1,0,0,3,44,98,11
9,4,6,0,3,0,3,44,19,11
9,4,17,1,3,0,3,44,89,11
9,4,1,0,6,1,3,44,89,11
9,4,13,1,0,0,3,44,98,11
9,4,17,1,2,0,3,44,98,11
9,4,20,1,3,0,3,44,98,11
9,4,22,0,3,0,3,44,94,11
9,4,14,1,4,0,3,44,98,11
9,4,14,1,4,0,3,44,65,11
9,4,20,1,5,1,3,44,89,11
9,4,2,0,6,1,3,44,98,11
9,4,15,1,0,0,3,44,25,11
9,4,13,1,1,0,3,44,89,11
9,4,8,1,2,0,3,44,75,11
9,4,11,1,4,0,3,44,89,11
9,4,19,1,0,0,3,44,72,11
9,4,19,1,1,0,3,44,72,11
10,4,4,0,4,0,4,44,98,11
10,4,12,1,0,0,4,44,98,11
10,4,21,0,0,0,4,44,72,11
10,4,12,1,3,0,4,44,98,11
10,4,13,1,4,0,4,44,98,11
10,4,0,0,5,1,4,44,14,11
10,4,12,1,5,1,4,44,98,11
10,4,22,0,2,0,4,44,72,11
10,4,14,1,6,1,4,44,98,11
10,4,17,1,6,1,4,44,89,11
10,4,12,1,3,0,4,44,56,11
10,4,13,1,3,0,4,44,89,11
10,4,20,1,5,1,4,44,75,11
10,4,18,1,1,0,4,44,98,11
10,4,15,1,1,0,4,44,98,11
10,4,13,1,2,0,4,44,98,11
10,4,14,1,4,0,4,44,72,11
10,4,12,1,5,1,4,44,98,11
11,4,12,1,6,1,4,44,98,11
11,4,9,1,0,0,4,44,98,11
11,4,18,1,2,0,4,44,98,11
11,4,16,1,2,0,4,44,65,11
11,4,16,1,3,0,4,44,81,11
11,4,7,1,5,1,4,44,3,11
11,4,10,1,6,1,4,44,65,11
11,4,12,1,0,0,4,44,98,11
11,4,20,1,0,0,4,44,45,11
11,4,14,1,0,0,4,44,89,11
11,4,12,1,0,0,4,44,98,11
11,4,13,1,1,0,4,44,98,11
11,4,10,1,2,0,4,44,98,11
11,4,20,1,2,0,4,44,98,11
11,4,16,1,3,0,4,44,98,11
11,4,22,0,3,0,4,44,94,11
11,4,17,1,5,1,4,44,87,11
11,4,18,1,5,1,4,44,98,11
11,4,17,1,0,0,4,44,98,11
11,4,12,1,1,0,4,44,89,11
11,4,14,1,2,0,4,44,89,11
11,4,13,1,3,0,4,44,89,11
11,4,17,1,3,0,4,44,75,11
11,4,12,1,4,0,4,44,98,11
11,4,15,1,6,1,4,44,98,11
11,4,15,1,1,0,4,44,98,11
11,4,18,1,1,0,4,44,47,11
11,4,16,1,2,0,4,44,89,11
11,4,18,1,2,0,4,44,98,11
11,4,18,1,3,0,4,44,98,11
11,4,14,1,5,1,4,44,98,11
11,4,2,0,6,1,4,44,125,11
11,4,18,1,6,1,4,44,89,11
11,4,13,1,0,0,4,44,65,11
12,1,12,1,2,0,4,44,19,11
12,1,9,1,6,1,4,44,65,11
12,1,7,1,3,0,4,44,39,11
1,1,12,1,0,0,1,44,98,11
1,1,9,1,6,1,1,44,75,11
1,1,14,1,4,0,1,44,98,11
1,1,18,1,4,0,1,44,65,11
2,1,15,1,1,0,1,44,98,11
2,1,16,1,2,0,1,44,3,11
2,1,16,1,2,0,1,44,3,11
2,1,19,1,2,0,1,44,3,11
3,2,13,1,4,0,1,44,98,11
3,2,18,1,5,1,1,44,75,11
4,2,19,1,1,0,2,44,3,11
4,2,12,1,6,1,2,44,75,11
5,2,14,1,2,0,2,44,98,11
5,2,16,1,6,1,2,44,98,11
5,2,19,1,2,0,2,44,14,11
6,3,9,1,1,0,2,44,98,11
6,3,14,1,2,0,2,44,75,11
6,3,13,1,1,0,2,44,20,11
6,3,12,1,3,0,2,44,98,11
6,3,14,1,0,0,2,44,3,11
7,3,16,1,3,0,3,44,98,11
7,3,17,1,3,0,3,44,98,11
7,3,13,1,0,0,3,44,98,11
7,3,15,1,0,0,3,44,98,11
8,3,18,1,2,0,3,44,98,11
8,3,2,0,6,1,3,44,98,11
8,3,0,0,5,1,3,44,25,11
8,3,19,1,4,0,3,44,98,11
8,3,22,0,0,0,3,44,89,11
9,4,14,1,2,0,3,44,98,11
9,4,20,1,2,0,3,44,98,11
9,4,3,0,3,0,3,44,86,11
9,4,13,1,3,0,3,44,98,11
9,4,12,1,3,0,3,44,75,11
9,4,15,1,5,1,3,44,98,11
9,4,15,1,0,0,3,44,98,11
9,4,18,1,1,0,3,44,98,11
9,4,13,1,1,0,3,44,98,11
9,4,22,0,4,0,3,44,98,11
9,4,11,1,2,0,3,44,98,11
9,4,13,1,3,0,3,44,98,11
9,4,12,1,0,0,3,44,98,11
10,4,16,1,4,0,4,44,98,11
10,4,14,1,0,0,4,44,98,11
10,4,11,1,2,0,4,44,98,11
10,4,10,1,4,0,4,44,98,11
10,4,11,1,5,1,4,44,98,11
10,4,15,1,3,0,4,44,98,11
10,4,23,0,6,1,4,44,98,11
10,4,13,1,0,0,4,44,25,11
10,4,12,1,0,0,4,44,72,11
10,4,16,1,0,0,4,44,98,11
10,4,15,1,1,0,4,44,25,11
10,4,15,1,2,0,4,44,25,11
10,4,11,1,2,0,4,44,98,11
10,4,18,1,4,0,4,44,98,11
11,4,8,1,0,0,4,44,98,11
11,4,13,1,5,1,4,44,72,11
11,4,14,1,5,1,4,44,72,11
11,4,14,1,5,1,4,44,98,11
11,4,13,1,1,0,4,44,98,11
11,4,12,1,3,0,4,44,98,11
11,4,13,1,4,0,4,44,98,11
12,1,8,1,3,0,4,44,94,11
12,1,12,1,0,0,4,44,75,11
12,1,20,1,3,0,4,44,75,9
12,1,20,1,2,0,4,44,98,11
1,1,12,1,6,1,1,44,98,11
1,1,18,1,0,0,1,44,98,11
1,1,9,1,2,0,1,44,98,11
1,1,7,1,3,0,1,44,39,9
1,1,17,1,3,0,1,44,98,11
1,1,20,1,5,1,1,44,98,11
2,1,18,1,5,1,1,44,98,11
2,1,19,1,3,0,1,44,14,9
2,1,18,1,0,0,1,44,98,11
2,1,14,1,1,0,1,44,98,11
2,1,21,0,4,0,1,44,98,11
2,1,16,1,6,1,1,44,98,11
2,1,19,1,0,0,1,44,98,11
2,1,19,1,0,0,1,44,98,11
2,1,16,1,0,0,1,44,98,11
2,1,12,1,0,0,1,44,98,11
3,2,17,1,1,0,1,44,98,11
3,2,10,1,3,0,1,44,75,9
3,2,18,1,4,0,1,44,98,11
3,2,3,0,6,1,1,44,19,11
3,2,19,1,1,0,1,44,98,11
3,2,15,1,5,1,1,44,98,11
3,2,16,1,5,1,1,44,98,11
3,2,20,1,2,0,1,44,19,11
3,2,20,1,1,0,1,44,19,11
4,2,11,1,2,0,2,44,39,11
4,2,16,1,0,0,2,44,98,11
4,2,1,0,4,0,2,44,75,9
4,2,13,1,4,0,2,44,98,11
4,2,1,0,3,0,2,44,86,11
4,2,21,0,5,1,2,44,3,11
4,2,18,1,5,1,2,44,3,11
4,2,18,1,6,1,2,44,98,11
4,2,14,1,6,1,2,44,98,11
4,2,15,1,3,0,2,44,14,11
5,2,12,1,0,0,2,44,86,11
5,2,17,1,6,1,2,44,15,11
5,2,16,1,1,0,2,44,98,11
5,2,10,1,2,0,2,44,75,11
5,2,21,0,3,0,2,44,98,11
5,2,21,0,6,1,2,44,98,11
5,2,9,1,2,0,2,44,98,11
5,2,14,1,3,0,2,44,106,11
5,2,11,1,3,0,2,44,106,11
6,3,19,1,0,0,2,44,98,11
6,3,19,1,3,0,2,44,98,11
6,3,19,1,6,1,2,44,98,11
6,3,23,0,2,0,2,44,106,11
6,3,19,1,5,1,2,44,98,11
6,3,20,1,6,1,2,44,3,11
6,3,12,1,6,1,2,44,39,11
6,3,7,1,1,0,2,44,106,11
6,3,15,1,6,1,2,44,75,11
6,3,16,1,2,0,2,44,98,11
6,3,21,0,3,0,2,44,98,11
6,3,20,1,3,0,2,44,98,11
6,3,16,1,5,1,2,44,89,11
7,3,14,1,3,0,3,44,98,11
7,3,12,1,5,1,3,44,98,11
7,3,12,1,4,0,3,44,98,11
7,3,14,1,4,0,3,44,98,11
8,3,21,0,2,0,3,44,98,11
8,3,13,1,2,0,3,44,98,11
8,3,13,1,4,0,3,44,98,11
8,3,14,1,1,0,3,44,98,11
8,3,11,1,2,0,3,44,98,11
8,3,14,1,0,0,3,44,98,11
8,3,17,1,0,0,3,44,98,11
8,3,1,0,0,0,3,44,72,11
9,4,19,1,2,0,3,44,98,11
9,4,8,1,5,1,3,44,98,11
9,4,13,1,1,0,3,44,39,11
9,4,4,0,4,0,3,44,19,11
9,4,20,1,6,1,3,44,98,11
9,4,16,1,1,0,3,44,19,11
9,4,17,1,4,0,3,44,98,11
9,4,16,1,6,1,3,44,98,11
9,4,15,1,1,0,3,44,98,11
9,4,12,1,2,0,3,44,98,11
9,4,9,1,5,1,3,44,106,11
9,4,18,1,5,1,3,44,106,11
10,4,13,1,5,1,4,44,72,11
10,4,18,1,6,1,4,44,98,11
10,4,17,1,5,1,4,44,98,11
10,4,17,1,6,1,4,44,98,11
10,4,19,1,1,0,4,44,98,11
10,4,13,1,4,0,4,44,98,11
10,4,17,1,0,0,4,44,20,11
10,4,12,1,3,0,4,44,14,11
11,4,12,1,6,1,4,44,89,11
11,4,13,1,0,0,4,44,25,11
11,4,13,1,3,0,4,44,98,11
11,4,8,1,4,0,4,44,75,11
11,4,9,1,3,0,4,44,75,11
11,4,15,1,3,0,4,44,20,11
11,4,17,1,5,1,4,44,98,11
12,1,2,0,5,1,4,44,72,11
1,1,12,1,2,0,1,44,39,11
1,1,13,1,3,0,1,44,94,11
2,1,19,1,1,0,1,44,98,11
3,2,15,1,6,1,1,44,98,11
4,2,8,1,1,0,2,44,39,9
5,2,21,0,2,0,2,44,75,11
5,2,18,1,5,1,2,44,98,11
7,3,21,0,6,1,3,44,94,11
9,4,18,1,4,0,3,44,75,11
10,4,23,0,5,1,4,44,19,11
11,4,18,1,6,1,4,44,98,11
11,4,17,1,4,0,4,44,75,11
11,4,19,1,6,1,4,44,98,11
11,4,13,1,6,1,4,44,98,11
12,1,20,1,2,0,4,44,19,11
1,1,13,1,2,0,1,44,75,11
1,1,10,1,3,0,1,44,75,11
1,1,23,0,2,0,1,44,75,11
2,1,12,1,1,0,1,44,98,11
2,1,12,1,3,0,1,44,98,11
3,2,19,1,6,1,1,44,75,11
3,2,19,1,4,0,1,44,98,11
3,2,1,0,3,0,1,44,19,11
4,2,12,1,0,0,2,44,19,11
4,2,10,1,1,0,2,44,125,11
5,2,12,1,3,0,2,44,3,11
6,3,13,1,3,0,2,44,19,9
6,3,20,1,3,0,2,44,89,11
6,3,3,0,2,0,2,44,23,9
6,3,20,1,3,0,2,44,98,11
6,3,13,1,1,0,2,44,72,9
7,3,10,1,4,0,3,44,98,11
7,3,3,0,6,1,3,44,106,11
7,3,19,1,0,0,3,44,106,11
7,3,11,1,4,0,3,44,98,11
7,3,21,0,2,0,3,44,98,11
8,3,18,1,6,1,3,44,98,11
8,3,21,0,0,0,3,44,98,11
8,3,11,1,5,1,3,44,89,11
9,4,15,1,6,1,3,44,72,11
9,4,8,1,1,0,3,44,98,11
9,4,14,1,3,0,3,44,98,11
10,4,13,1,4,0,4,44,98,11
10,4,8,1,2,0,4,44,89,11
10,4,17,1,3,0,4,44,98,11
10,4,12,1,5,1,4,44,98,11
10,4,13,1,1,0,4,44,98,11
10,4,15,1,1,0,4,44,98,11
10,4,13,1,3,0,4,44,98,11
10,4,15,1,4,0,4,44,98,11
10,4,15,1,6,1,4,44,19,11
10,4,11,1,2,0,4,44,98,11
11,4,17,1,0,0,4,44,98,11
11,4,20,1,1,0,4,44,98,11
11,4,12,1,5,1,4,44,98,11
11,4,12,1,3,0,4,44,98,11
11,4,10,1,6,1,4,44,19,11
11,4,13,1,1,0,4,44,98,11
11,4,19,1,2,0,4,44,94,11
11,4,12,1,5,1,4,44,98,11
12,1,8,1,1,0,4,44,75,11
1,1,14,1,6,1,1,44,75,11
1,1,13,1,0,0,1,44,75,8
1,1,11,1,0,0,1,44,75,11
1,1,16,1,5,1,1,44,94,11
1,1,0,0,6,1,1,44,39,11
1,1,18,1,3,0,1,44,55,11
2,1,1,0,2,0,1,44,75,11
2,1,19,1,4,0,1,44,75,11
2,1,9,1,2,0,1,44,98,11
2,1,15,1,3,0,1,44,98,11
2,1,19,1,6,1,1,44,98,11
2,1,15,1,1,0,1,44,3,11
2,1,16,1,4,0,1,44,3,11
3,2,0,0,6,1,1,44,98,11
3,2,19,1,4,0,1,44,98,11
3,2,11,1,4,0,1,44,75,9
3,2,19,1,5,1,1,44,98,11
4,2,13,1,2,0,2,44,19,11
4,2,23,0,4,0,2,44,89,11
4,2,18,1,0,0,2,44,75,11
5,2,11,1,5,1,2,44,98,11
5,2,14,1,0,0,2,44,98,11
5,2,8,1,1,0,2,44,98,11
6,3,13,1,1,0,2,44,98,11
6,3,8,1,5,1,2,44,75,11
6,3,13,1,0,0,2,44,27,11
7,3,13,1,1,0,3,44,98,11
7,3,11,1,2,0,3,44,75,11
7,3,18,1,6,1,3,44,98,11
7,3,13,1,4,0,3,44,63,11
8,3,21,0,5,1,3,44,106,11
8,3,15,1,5,1,3,44,19,11
8,3,20,1,1,0,3,44,98,11
9,4,8,1,3,0,3,44,89,11
9,4,18,1,5,1,3,44,89,11
9,4,16,1,3,0,3,44,98,11
9,4,17,1,4,0,3,44,98,11
9,4,21,0,2,0,3,44,98,11
9,4,18,1,5,1,3,44,98,11
10,4,14,1,0,0,4,44,98,11
10,4,11,1,3,0,4,44,98,11
10,4,16,1,3,0,4,44,98,11
10,4,12,1,6,1,4,44,98,11
10,4,15,1,2,0,4,44,98,11
10,4,16,1,5,1,4,44,3,11
11,4,12,1,5,1,4,44,98,11
11,4,19,1,0,0,4,44,14,11
11,4,11,1,5,1,4,44,98,11
11,4,16,1,5,1,4,44,98,11
1,1,9,1,0,0,1,49,94,11
1,1,9,1,0,0,1,49,125,11
1,1,15,1,1,0,1,49,75,9
1,1,9,1,0,0,1,49,72,11
1,1,2,0,2,0,1,49,14,11
1,1,11,1,4,0,1,49,39,11
1,1,19,1,5,1,1,49,39,11
1,1,22,0,4,0,1,49,39,11
2,1,18,1,0,0,1,49,14,11
2,1,3,0,4,0,1,49,19,11
3,2,2,0,2,0,1,49,75,8
4,2,11,1,0,0,2,49,65,8
4,2,0,0,2,0,2,49,65,11
5,2,1,0,1,0,2,49,125,11
5,2,11,1,5,1,2,49,39,11
5,2,13,1,0,0,2,49,89,11
6,3,11,1,6,1,2,49,89,11
6,3,12,1,6,1,2,49,106,9
6,3,21,0,3,0,2,49,89,11
6,3,13,1,4,0,2,49,72,11
6,3,11,1,0,0,2,49,89,11
7,3,13,1,2,0,3,49,89,11
8,3,16,1,5,1,3,49,89,11
8,3,16,1,6,1,3,49,89,11
9,4,15,1,5,1,3,49,98,9
9,4,11,1,0,0,3,49,89,11
11,4,9,1,2,0,4,49,19,11
11,4,6,0,4,0,4,49,23,8
11,4,11,1,5,1,4,49,105,11
11,4,7,1,6,1,4,49,19,11
11,4,10,1,1,0,4,49,85,8
11,4,12,1,3,0,4,49,89,9
12,1,19,1,3,0,4,49,89,11
11,4,5,0,5,1,4,49,89,11
1,1,15,1,0,0,1,49,89,11
2,1,19,1,2,0,1,49,98,11
3,2,23,0,0,0,1,49,125,11
3,2,11,1,6,1,1,49,89,11
3,2,14,1,1,0,1,49,125,11
3,2,14,1,1,0,1,49,65,11
4,2,21,0,4,0,2,49,75,11
4,2,12,1,5,1,2,49,89,11
5,2,16,1,4,0,2,49,89,11
5,2,23,0,6,1,2,49,115,11
6,3,15,1,2,0,2,49,89,11
6,3,16,1,3,0,2,49,89,11
7,3,22,0,1,0,3,49,39,9
7,3,22,0,5,1,3,49,98,11
7,3,1,0,6,1,3,49,106,11
7,3,14,1,4,0,3,49,89,11
8,3,15,1,1,0,3,49,75,11
9,4,17,1,2,0,3,49,98,11
9,4,9,1,5,1,3,49,106,11
11,4,17,1,1,0,4,49,89,11
11,4,17,1,2,0,4,49,98,11
11,4,5,0,4,0,4,49,89,11
11,4,15,1,5,1,4,49,89,11
11,4,11,1,6,1,4,49,89,11
11,4,17,1,1,0,4,49,98,11
1,1,12,1,3,0,1,49,89,11
1,1,13,1,1,0,1,49,125,11
1,1,13,1,3,0,1,49,39,11
2,1,18,1,6,1,1,49,39,11
2,1,16,1,5,1,1,49,89,11
3,2,14,1,1,0,1,49,98,11
3,2,16,1,4,0,1,49,89,11
3,2,8,1,0,0,1,49,47,9
3,2,13,1,5,1,1,49,89,11
3,2,20,1,0,0,1,49,125,11
3,2,15,1,3,0,1,49,98,11
3,2,15,1,5,1,1,49,89,11
4,2,12,1,2,0,2,49,89,11
4,2,15,1,2,0,2,49,106,11
5,2,14,1,1,0,2,49,89,11
5,2,19,1,1,0,2,49,89,11
5,2,12,1,2,0,2,49,89,11
5,2,16,1,6,1,2,49,98,11
5,2,14,1,0,0,2,49,125,11
6,3,11,1,6,1,2,49,98,11
6,3,12,1,6,1,2,49,106,11
6,3,15,1,0,0,2,49,25,9
6,3,15,1,0,0,2,49,25,9
7,3,21,0,4,0,3,49,98,11
7,3,21,0,6,1,3,49,89,11
7,3,16,1,6,1,3,49,89,11
7,3,21,0,6,1,3,49,98,11
8,3,21,0,3,0,3,49,125,9
8,3,13,1,3,0,3,49,89,11
8,3,21,0,4,0,3,49,15,9
9,4,20,1,6,1,3,49,125,11
9,4,12,1,4,0,3,49,89,9
9,4,18,1,0,0,3,49,106,11
9,4,13,1,1,0,3,49,89,11
10,4,15,1,3,0,4,49,89,11
10,4,10,1,0,0,4,49,89,11
10,4,22,0,0,0,4,49,125,11
10,4,15,1,0,0,4,49,98,11
10,4,16,1,1,0,4,49,89,9
10,4,9,1,2,0,4,49,89,11
10,4,9,1,3,0,4,49,89,11
10,4,12,1,4,0,4,49,89,11
10,4,18,1,5,1,4,49,89,11
10,4,14,1,1,0,4,49,64,11
10,4,10,1,3,0,4,49,98,11
10,4,17,1,4,0,4,49,89,11
10,4,12,1,5,1,4,49,89,11
11,4,13,1,6,1,4,49,89,11
11,4,10,1,0,0,4,49,89,11
11,4,13,1,6,1,4,49,98,11
12,1,18,1,5,1,4,49,67,11
12,1,1,0,4,0,4,49,115,11
12,1,17,1,2,0,4,49,89,11
1,1,21,0,5,1,1,49,75,11
2,1,18,1,0,0,1,49,89,11
2,1,21,0,0,0,1,49,75,11
5,2,17,1,5,1,2,49,106,11
6,3,22,0,2,0,2,49,19,11
6,3,12,1,2,0,2,49,65,11
6,3,16,1,6,1,2,49,75,11
8,3,10,1,6,1,3,49,100,11
8,3,10,1,0,0,3,49,125,11
11,4,10,1,5,1,4,49,98,11
11,4,13,1,5,1,4,49,89,11
1,1,5,0,1,0,1,49,125,11
1,1,8,1,3,0,1,49,39,11
1,1,18,1,4,0,1,49,125,11
2,1,11,1,6,1,1,49,75,11
4,2,1,0,2,0,2,49,75,11
7,3,14,1,5,1,3,49,89,11
8,3,22,0,6,1,3,49,125,11
9,4,14,1,0,0,3,49,19,11
9,4,23,0,2,0,3,49,89,11
11,4,13,1,6,1,4,49,98,11
11,4,23,0,2,0,4,49,98,11
12,1,9,1,0,0,4,49,75,11
12,1,12,1,0,0,4,49,75,11
1,1,13,1,2,0,1,26,14,11
1,1,15,1,6,1,1,26,75,11
1,1,16,1,0,0,1,26,14,11
1,1,23,0,3,0,1,26,65,11
1,1,18,1,4,0,1,26,89,11
1,1,14,1,4,0,1,26,89,11
1,1,22,0,5,1,1,26,3,11
1,1,16,1,5,1,1,26,20,11
1,1,20,1,5,1,1,26,14,11
1,1,12,1,0,0,1,26,89,11
1,1,11,1,1,0,1,26,98,11
1,1,14,1,3,0,1,26,86,11
1,1,19,1,3,0,1,26,65,11
2,1,13,1,5,1,1,26,72,11
2,1,12,1,5,1,1,26,72,11
2,1,17,1,6,1,1,26,3,11
2,1,12,1,1,0,1,26,98,11
2,1,21,0,6,1,1,26,75,11
2,1,20,1,1,0,1,26,65,11
2,1,15,1,5,1,1,26,39,11
2,1,11,1,0,0,1,26,98,11
3,2,13,1,0,0,1,26,3,11
3,2,13,1,1,0,1,26,55,11
4,2,11,1,1,0,2,26,106,11
4,2,15,1,5,1,2,26,86,11
5,2,21,0,4,0,2,26,75,11
5,2,15,1,5,1,2,26,106,11
5,2,6,0,3,0,2,26,65,11
5,2,10,1,4,0,2,26,55,11
5,2,11,1,4,0,2,26,3,11
6,3,13,1,0,0,2,26,72,11
6,3,8,1,2,0,2,26,3,11
6,3,20,1,4,0,2,26,56,11
6,3,21,0,4,0,2,26,14,8
6,3,16,1,1,0,2,26,65,11
7,3,9,1,2,0,3,26,98,11
7,3,19,1,0,0,3,26,3,8
7,3,21,0,0,0,3,26,106,11
7,3,21,0,1,0,3,26,89,11
7,3,19,1,1,0,3,26,89,11
7,3,16,1,4,0,3,26,89,11
7,3,16,1,6,1,3,26,89,11
7,3,18,1,1,0,3,26,98,11
7,3,19,1,1,0,3,26,3,9
7,3,18,1,3,0,3,26,89,11
8,3,12,1,6,1,3,26,3,11
8,3,9,1,6,1,3,26,98,11
8,3,19,1,0,0,3,26,106,11
8,3,1,0,3,0,3,26,106,11
8,3,15,1,2,0,3,26,98,11
8,3,12,1,4,0,3,26,98,11
8,3,14,1,5,1,3,26,75,11
9,4,15,1,2,0,3,26,89,11
9,4,7,1,4,0,3,26,3,11
9,4,19,1,1,0,3,26,89,11
9,4,14,1,3,0,3,26,89,11
9,4,19,1,4,0,3,26,89,11
9,4,17,1,6,1,3,26,98,11
9,4,16,1,1,0,3,26,98,11
9,4,7,1,2,0,3,26,39,11
9,4,13,1,4,0,3,26,13,8
10,4,15,1,1,0,4,26,89,11
10,4,15,1,2,0,4,26,89,11
10,4,17,1,3,0,4,26,89,11
10,4,15,1,2,0,4,26,3,11
10,4,14,1,3,0,4,26,65,11
10,4,16,1,3,0,4,26,98,11
11,4,9,1,6,1,4,26,3,11
11,4,13,1,6,1,4,26,75,11
11,4,19,1,1,0,4,26,65,11
11,4,19,1,4,0,4,26,98,11
11,4,15,1,1,0,4,26,89,8
11,4,16,1,5,1,4,26,94,11
11,4,18,1,0,0,4,26,94,11
11,4,17,1,2,0,4,26,98,11
11,4,14,1,4,0,4,26,65,11
11,4,17,1,5,1,4,26,98,11
11,4,5,0,0,0,4,26,75,11
11,4,18,1,4,0,4,26,98,11
11,4,19,1,4,0,4,26,98,11
12,1,22,0,1,0,4,26,89,11
12,1,15,1,4,0,4,26,65,11
12,1,16,1,2,0,4,26,75,11
12,1,12,1,5,1,4,26,65,11
12,1,5,0,0,0,4,26,86,11
12,1,17,1,3,0,4,26,86,11
12,1,22,0,1,0,4,26,75,11
12,1,21,0,1,0,4,26,75,11
12,1,11,1,4,0,4,26,65,11
12,1,0,0,1,0,4,26,94,11
12,1,1,0,1,0,4,26,98,11
1,1,15,1,5,1,1,26,125,11
1,1,12,1,1,0,1,26,86,11
1,1,16,1,4,0,1,26,98,11
2,1,14,1,5,1,1,26,71,11
2,1,13,1,1,0,1,26,98,11
2,1,0,0,5,1,1,26,13,11
3,2,8,1,4,0,1,26,13,11
5,2,10,1,4,0,2,26,98,11
5,2,12,1,0,0,2,26,89,11
7,3,19,1,1,0,3,26,98,11
8,3,13,1,4,0,3,26,39,11
9,4,12,1,1,0,3,26,98,11
9,4,13,1,3,0,3,26,98,11
11,4,23,0,1,0,4,26,89,11
2,1,13,1,5,1,1,26,98,11
2,1,18,1,1,0,1,26,98,11
5,2,22,0,5,1,2,26,89,11
6,3,14,1,5,1,2,26,25,9
6,3,10,1,6,1,2,26,125,11
6,3,17,1,1,0,2,26,106,11
7,3,7,1,1,0,3,26,3,11
11,4,18,1,0,0,4,26,125,11
11,4,12,1,2,0,4,26,125,11
11,4,16,1,4,0,4,26,125,11
1,1,11,1,2,0,1,26,94,11
1,1,3,0,3,0,1,26,14,8
1,1,20,1,3,0,1,26,75,8
1,1,0,0,3,0,1,26,72,9
2,1,20,1,3,0,1,26,75,11
2,1,23,0,1,0,1,26,89,11
2,1,12,1,0,0,1,26,19,11
2,1,3,0,3,0,1,26,13,11
3,2,22,0,0,0,1,26,75,11
3,2,14,1,4,0,1,26,89,11
5,2,21,0,6,1,2,26,106,11
5,2,15,1,3,0,2,26,94,11
5,2,3,0,5,1,2,26,75,11
6,3,14,1,4,0,2,26,98,11
6,3,17,1,4,0,2,26,86,11
9,4,14,1,6,1,3,26,98,11
11,4,13,1,1,0,4,26,98,11
11,4,15,1,4,0,4,26,13,11
11,4,5,0,6,1,4,26,57,9
1,1,13,1,2,0,1,38,39,11
1,1,15,1,3,0,1,38,98,11
1,1,14,1,1,0,1,38,39,11
1,1,1,0,2,0,1,38,65,11
1,1,2,0,3,0,1,38,98,11
1,1,10,1,4,0,1,38,98,11
1,1,13,1,1,0,1,38,98,11
1,1,9,1,2,0,1,38,14,11
2,1,15,1,5,1,1,38,89,11
2,1,19,1,0,0,1,38,125,11
2,1,6,0,3,0,1,38,98,11
2,1,17,1,5,1,1,38,39,9
2,1,19,1,2,0,1,38,19,8
2,1,12,1,1,0,1,38,98,11
2,1,19,1,1,0,1,38,98,11
2,1,13,1,3,0,1,38,89,11
2,1,12,1,5,1,1,38,98,11
3,2,12,1,0,0,1,38,98,11
3,2,18,1,1,0,1,38,98,11
3,2,22,0,2,0,1,38,98,11
3,2,13,1,3,0,1,38,98,11
3,2,12,1,6,1,1,38,13,11
3,2,10,1,1,0,1,38,75,11
3,2,10,1,1,0,1,38,65,11
3,2,19,1,2,0,1,38,98,11
3,2,20,1,5,1,1,38,75,11
3,2,1,0,6,1,1,38,125,11
3,2,22,0,0,0,1,38,98,11
4,2,9,1,0,0,2,38,86,11
4,2,14,1,3,0,2,38,75,11
4,2,19,1,5,1,2,38,75,11
4,2,10,1,5,1,2,38,46,11
4,2,10,1,0,0,2,38,125,11
5,2,18,1,4,0,2,38,19,11
5,2,16,1,6,1,2,38,98,11
5,2,17,1,6,1,2,38,86,11
5,2,11,1,0,0,2,38,89,11
5,2,1,0,1,0,2,38,82,11
5,2,17,1,2,0,2,38,23,11
5,2,18,1,2,0,2,38,98,11
5,2,20,1,2,0,2,38,89,11
5,2,10,1,0,0,2,38,65,11
5,2,16,1,5,1,2,38,98,11
6,3,10,1,1,0,2,38,89,11
6,3,17,1,1,0,2,38,98,11
6,3,16,1,5,1,2,38,98,11
6,3,11,1,6,1,2,38,98,11
7,3,12,1,4,0,3,38,98,11
8,3,22,0,0,0,3,38,125,11
8,3,15,1,5,1,3,38,101,11
8,3,17,1,6,1,3,38,3,11
9,4,10,1,1,0,3,38,19,11
9,4,9,1,4,0,3,38,125,11
9,4,15,1,4,0,3,38,98,11
9,4,1,0,3,0,3,38,125,11
9,4,19,1,0,0,3,38,98,11
9,4,15,1,6,1,3,38,98,11
9,4,16,1,6,1,3,38,98,11
10,4,12,1,6,1,4,38,56,11
10,4,18,1,2,0,4,38,89,11
10,4,10,1,5,1,4,38,19,9
10,4,9,1,5,1,4,38,72,11
10,4,20,1,6,1,4,38,39,11
10,4,17,1,2,0,4,38,98,11
11,4,12,1,4,0,4,38,98,11
11,4,13,1,4,0,4,38,98,11
11,4,15,1,4,0,4,38,98,11
11,4,16,1,6,1,4,38,65,11
11,4,15,1,6,1,4,38,98,11
11,4,20,1,0,0,4,38,89,11
12,1,13,1,2,0,4,38,65,11
12,1,11,1,3,0,4,38,98,11
12,1,3,0,4,0,4,38,86,11
1,1,6,0,0,0,1,38,72,8
1,1,15,1,0,0,1,38,39,11
1,1,20,1,0,0,1,38,65,11
1,1,11,1,4,0,1,38,19,11
1,1,0,0,5,1,1,38,94,11
1,1,23,0,0,0,1,38,57,11
1,1,23,0,1,0,1,38,94,11
1,1,14,1,3,0,1,38,94,11
2,1,14,1,5,1,1,38,123,11
2,1,21,0,3,0,1,38,94,11
2,1,15,1,4,0,1,38,89,11
2,1,16,1,6,1,1,38,89,11
2,1,18,1,0,0,1,38,89,11
2,1,12,1,1,0,1,38,94,11
2,1,18,1,6,1,1,38,94,11
2,1,4,0,1,0,1,38,94,11
2,1,13,1,6,1,1,38,94,11
2,1,4,0,0,0,1,38,94,11
2,1,3,0,2,0,1,38,94,11
2,1,12,1,2,0,1,38,104,11
2,1,16,1,3,0,1,38,89,11
2,1,2,0,4,0,1,38,94,11
3,2,0,0,1,0,1,38,94,11
3,2,17,1,6,1,1,38,94,11
3,2,3,0,0,0,1,38,94,11
3,2,19,1,6,1,1,38,14,11
3,2,21,0,2,0,1,38,94,11
4,2,20,1,1,0,2,38,115,11
5,2,17,1,6,1,2,38,101,11
5,2,22,0,3,0,2,38,94,11
5,2,20,1,1,0,2,38,98,11
6,3,7,1,5,1,2,38,106,11
6,3,14,1,2,0,2,38,89,11
6,3,3,0,6,1,2,38,94,11
7,3,14,1,5,1,3,38,89,11
7,3,19,1,0,0,3,38,89,11
7,3,19,1,4,0,3,38,25,11
7,3,17,1,1,0,3,38,106,11
7,3,21,0,5,1,3,38,106,11
7,3,12,1,1,0,3,38,86,11
8,3,5,0,5,1,3,38,20,11
8,3,4,0,1,0,3,19,14,11
8,3,20,1,5,1,3,38,89,11
9,4,0,0,2,0,3,38,19,11
9,4,15,1,5,1,3,38,89,11
9,4,4,0,1,0,3,38,14,11
9,4,17,1,2,0,3,38,72,11
10,4,18,1,4,0,4,38,20,11
10,4,18,1,6,1,4,19,20,11
10,4,2,0,5,1,4,19,72,11
10,4,6,0,1,0,4,38,19,11
11,4,22,0,4,0,4,38,89,11
11,4,4,0,6,1,4,38,14,11
11,4,11,1,0,0,4,38,98,11
11,4,13,1,3,0,4,38,65,11
11,4,8,1,6,1,4,38,75,11
11,4,7,1,1,0,4,38,39,11
12,1,7,1,3,0,4,38,106,11
12,1,17,1,5,1,4,38,94,11
12,1,1,0,0,0,4,38,94,11
3,2,22,0,6,1,1,19,94,11
6,3,19,1,0,0,2,19,75,11
6,3,21,0,3,0,2,19,19,11
9,4,18,1,3,0,3,19,89,11
9,4,21,0,3,0,3,19,25,11
1,1,7,1,2,0,1,38,86,11
1,1,23,0,5,1,1,38,47,9
1,1,15,1,2,0,1,38,89,11
1,1,18,1,3,0,1,38,86,11
1,1,18,1,3,0,1,38,86,11
1,1,19,1,3,0,1,38,86,11
1,1,8,1,3,0,1,38,65,8
1,1,13,1,5,1,1,38,122,9
2,1,19,1,0,0,1,38,86,11
2,1,13,1,5,1,1,38,26,11
2,1,14,1,6,1,1,38,86,11
2,1,14,1,6,1,1,38,89,11
2,1,23,0,5,1,1,38,82,11
2,1,13,1,5,1,1,38,39,11
2,1,15,1,0,0,1,38,98,11
2,1,22,0,2,0,1,38,86,11
3,2,12,1,6,1,1,38,86,11
3,2,14,1,1,0,1,38,75,11
3,2,0,0,4,0,1,38,98,11
3,2,16,1,5,1,1,38,89,9
3,2,22,0,2,0,1,38,98,11
4,2,12,1,2,0,2,38,39,11
4,2,1,0,0,0,2,38,86,11
4,2,10,1,2,0,2,38,13,9
4,2,21,0,1,0,2,38,98,11
4,2,8,1,2,0,2,38,3,9
5,2,3,0,1,0,2,38,50,11
5,2,21,0,1,0,2,38,94,11
5,2,19,1,4,0,2,38,13,11
6,3,22,0,4,0,2,38,86,11
6,3,16,1,6,1,2,38,86,9
6,3,21,0,2,0,2,38,98,11
6,3,19,1,5,1,2,38,39,11
6,3,1,0,4,0,2,38,86,11
7,3,15,1,0,0,3,38,13,9
7,3,14,1,0,0,3,38,89,9
7,3,14,1,1,0,3,38,47,11
7,3,20,1,4,0,3,38,45,11
8,3,18,1,5,1,3,38,89,11
8,3,19,1,2,0,3,38,65,11
8,3,15,1,4,0,3,38,19,11
9,4,13,1,2,0,3,38,64,8
10,4,11,1,0,0,4,38,86,11
11,4,10,1,3,0,4,38,86,11
11,4,23,0,1,0,4,38,13,8
12,1,8,1,2,0,4,38,86,11
12,1,18,1,3,0,4,38,86,11
1,1,9,1,2,0,1,16,75,11
1,1,18,1,3,0,1,16,98,11
1,1,20,1,3,0,1,16,14,11
1,1,15,1,6,1,1,16,98,11
1,1,9,1,0,0,1,16,86,11
1,1,17,1,2,0,1,16,86,11
1,1,0,0,3,0,1,16,86,11
1,1,16,1,5,1,1,16,98,11
1,1,17,1,3,0,1,16,3,11
1,1,6,0,5,1,1,16,86,11
1,1,18,1,6,1,1,16,98,11
1,1,0,0,2,0,1,16,89,11
1,1,22,0,3,0,1,16,14,11
1,1,12,1,6,1,1,16,98,11
1,1,22,0,1,0,1,16,98,11
1,1,16,1,2,0,1,16,98,11
2,1,19,1,5,1,1,16,65,11
2,1,9,1,0,0,1,16,86,11
2,1,18,1,5,1,1,16,65,11
2,1,18,1,5,1,1,16,75,11
2,1,18,1,4,0,1,16,75,11
2,1,20,1,4,0,1,16,75,9
2,1,10,1,1,0,1,16,67,11
2,1,14,1,2,0,1,16,86,11
2,1,16,1,2,0,1,16,98,11
2,1,21,0,5,1,1,16,65,11
2,1,10,1,3,0,1,16,75,9
3,2,8,1,6,1,1,16,65,11
3,2,19,1,3,0,1,16,89,11
3,2,22,0,3,0,1,16,98,11
3,2,12,1,4,0,1,16,72,11
3,2,7,1,5,1,1,16,19,11
3,2,8,1,5,1,1,16,98,11
3,2,21,0,3,0,1,16,65,11
4,2,15,1,0,0,2,16,86,11
4,2,19,1,2,0,2,16,39,11
4,2,15,1,3,0,2,16,56,11
5,2,16,1,6,1,2,16,78,11
5,2,12,1,3,0,2,16,106,11
5,2,20,1,4,0,2,16,98,11
5,2,1,0,0,0,2,16,98,11
5,2,10,1,0,0,2,16,19,11
6,3,18,1,4,0,2,16,72,11
6,3,4,0,3,0,2,16,56,11
6,3,21,0,5,1,2,16,98,11
6,3,22,0,1,0,2,16,98,11
7,3,20,1,5,1,3,16,89,11
7,3,2,0,5,1,3,16,125,11
7,3,19,1,5,1,3,16,39,8
7,3,11,1,4,0,3,16,19,11
7,3,4,0,6,1,3,16,19,11
7,3,13,1,1,0,3,16,65,11
8,3,9,1,6,1,3,16,86,11
8,3,9,1,2,0,3,16,98,11
8,3,19,1,5,1,3,16,89,11
9,4,20,1,0,0,3,16,86,11
9,4,14,1,3,0,3,16,98,11
9,4,14,1,4,0,3,16,65,8
9,4,16,1,6,1,3,16,72,9
9,4,17,1,1,0,3,16,65,11
9,4,21,0,2,0,3,16,86,11
9,4,15,1,5,1,3,16,86,11
9,4,16,1,5,1,3,16,86,11
9,4,19,1,3,0,3,16,14,11
9,4,22,0,4,0,3,16,89,11
9,4,1,0,5,1,3,16,98,11
10,4,13,1,3,0,4,16,65,11
10,4,13,1,1,0,4,16,72,11
10,4,19,1,2,0,4,16,86,11
11,4,18,1,3,0,4,16,89,11
11,4,12,1,5,1,4,16,98,11
11,4,2,0,6,1,4,16,65,11
11,4,19,1,2,0,4,16,75,9
11,4,16,1,6,1,4,16,98,11
12,1,18,1,3,0,4,16,106,11
12,1,17,1,4,0,4,16,106,11
12,1,17,1,6,1,4,16,39,11
12,1,9,1,1,0,4,16,67,11
12,1,11,1,0,0,4,16,3,11
2,1,2,0,4,0,1,16,75,11
2,1,22,0,5,1,1,16,86,11
1,1,2,0,4,0,1,16,125,11
1,1,19,1,3,0,1,16,98,11
1,1,7,1,6,1,1,16,45,11
1,1,19,1,0,0,1,16,122,11
1,1,23,0,4,0,1,16,13,9
2,1,12,1,0,0,1,16,115,9
2,1,16,1,1,0,1,16,98,11
2,1,12,1,2,0,1,16,50,11
2,1,17,1,4,0,1,16,125,11
2,1,19,1,4,0,1,16,94,11
2,1,11,1,2,0,1,16,98,11
2,1,10,1,3,0,1,16,109,11
2,1,15,1,3,0,1,16,65,11
2,1,18,1,4,0,1,16,98,11
2,1,10,1,5,1,1,16,98,11
3,2,16,1,0,0,1,16,98,11
4,2,8,1,3,0,2,16,125,11
4,2,11,1,5,1,2,16,39,11
5,2,5,0,4,0,2,16,94,11
5,2,21,0,6,1,2,16,98,11
5,2,19,1,0,0,2,16,75,9
5,2,16,1,2,0,2,16,98,11
5,2,20,1,5,1,2,16,125,11
6,3,16,1,3,0,2,16,19,11
6,3,22,0,3,0,2,16,89,11
7,3,13,1,4,0,3,16,75,11
7,3,14,1,4,0,3,16,75,11
8,3,20,1,5,1,3,16,27,11
8,3,22,0,4,0,3,16,79,11
9,4,11,1,0,0,3,16,125,11
10,4,10,1,0,0,4,16,19,11
10,4,18,1,4,0,4,16,127,11
11,4,12,1,4,0,4,16,86,11
11,4,11,1,3,0,4,16,94,11
12,1,17,1,2,0,4,16,65,11
12,1,10,1,0,0,4,16,94,11
12,1,12,1,0,0,4,16,94,11
12,1,18,1,0,0,4,16,39,11
1,1,16,1,5,1,1,16,14,11
1,1,21,0,1,0,1,16,75,11
2,1,14,1,4,0,1,16,89,11
2,1,0,0,4,0,1,16,19,11
2,1,20,1,1,0,1,16,89,11
3,2,18,1,1,0,1,16,14,11
3,2,22,0,1,0,1,16,89,11
3,2,2,0,2,0,1,16,19,11
3,2,3,0,5,1,1,16,19,11
3,2,17,1,5,1,1,16,89,9
3,2,15,1,5,1,1,16,89,11
3,2,13,1,5,1,1,16,89,9
3,2,15,1,2,0,1,16,87,11
3,2,16,1,3,0,1,16,102,11
3,2,17,1,1,0,1,16,19,11
4,2,14,1,3,0,2,16,75,11
4,2,23,0,1,0,2,16,106,11
5,2,18,1,1,0,2,16,65,11
5,2,14,1,4,0,2,16,41,9
6,3,15,1,6,1,2,16,89,11
6,3,23,0,2,0,2,16,3,11
6,3,13,1,4,0,2,16,3,11
6,3,10,1,1,0,2,16,89,11
6,3,16,1,1,0,2,16,89,11
7,3,12,1,1,0,3,16,89,11
7,3,14,1,3,0,3,16,3,11
8,3,2,0,5,1,3,16,19,11
8,3,23,0,5,1,3,16,19,11
10,4,13,1,5,1,4,16,89,11
10,4,13,1,1,0,4,16,19,11
10,4,16,1,1,0,4,16,75,11
10,4,12,1,3,0,4,16,75,9
10,4,17,1,2,0,4,16,25,11
10,4,16,1,3,0,4,16,20,11
10,4,16,1,5,1,4,16,20,11
10,4,18,1,5,1,4,16,20,11
11,4,9,1,0,0,4,16,13,9
11,4,1,0,5,1,4,16,75,11
11,4,14,1,1,0,4,16,14,11
11,4,4,0,2,0,4,16,108,11
12,1,23,0,2,0,4,16,14,11
12,1,3,0,4,0,4,16,19,11
12,1,16,1,6,1,4,16,19,11
12,1,5,0,3,0,4,16,75,11
12,1,14,1,3,0,4,16,19,11
12,1,22,0,6,1,4,16,19,11
12,1,23,0,3,0,4,16,75,9
1,1,14,1,3,0,1,39,14,11
1,1,20,1,4,0,1,39,39,9
1,1,16,1,0,0,1,39,98,11
1,1,20,1,1,0,1,39,19,11
1,1,8,1,1,0,1,39,39,11
1,1,19,1,2,0,1,39,23,9
1,1,12,1,3,0,1,39,89,11
1,1,15,1,3,0,1,39,83,11
1,1,21,0,5,1,1,39,65,11
1,1,15,1,5,1,1,39,98,11
1,1,16,1,1,0,1,39,75,11
1,1,10,1,3,0,1,39,39,11
1,1,19,1,4,0,1,39,89,8
1,1,11,1,4,0,1,39,14,9
1,1,10,1,5,1,1,39,75,11
1,1,14,1,6,1,1,39,89,11
1,1,19,1,1,0,1,39,72,9
1,1,11,1,3,0,1,39,89,11
1,1,22,0,6,1,1,39,14,11
1,1,16,1,0,0,1,39,65,11
1,1,12,1,2,0,1,39,65,11
1,1,14,1,2,0,1,39,98,11
1,1,12,1,4,0,1,39,72,11
2,1,16,1,5,1,1,39,65,11
2,1,13,1,5,1,1,39,19,11
2,1,19,1,1,0,1,39,98,11
2,1,18,1,6,1,1,39,39,11
2,1,18,1,6,1,1,39,30,11
2,1,19,1,4,0,1,39,98,11
2,1,13,1,6,1,1,39,83,11
2,1,13,1,0,0,1,39,39,11
2,1,12,1,2,0,1,39,65,11
2,1,19,1,4,0,1,39,19,11
2,1,17,1,1,0,1,39,98,11
2,1,15,1,1,0,1,39,75,11
2,1,17,1,1,0,1,39,89,11
2,1,11,1,3,0,1,39,75,11
2,1,15,1,3,0,1,39,98,11
2,1,19,1,3,0,1,39,98,11
3,2,19,1,0,0,1,39,98,11
3,2,23,0,4,0,1,39,89,11
3,2,18,1,5,1,1,39,65,11
3,2,11,1,6,1,1,39,72,11
3,2,12,1,6,1,1,39,75,11
3,2,11,1,1,0,1,39,65,11
3,2,16,1,2,0,1,39,65,11
3,2,14,1,4,0,1,39,98,11
3,2,8,1,5,1,1,39,89,11
3,2,20,1,0,0,1,39,65,11
3,2,16,1,6,1,1,39,98,11
3,2,21,0,0,0,1,39,75,11
3,2,15,1,1,0,1,39,65,11
3,2,21,0,3,0,1,39,39,11
3,2,18,1,5,1,1,39,75,11
3,2,8,1,5,1,1,39,106,11
4,2,23,0,4,0,2,39,65,11
4,2,1,0,0,0,2,39,48,11
4,2,11,1,2,0,2,39,75,11
4,2,17,1,4,0,2,39,89,11
4,2,17,1,0,0,2,39,98,11
4,2,13,1,0,0,2,39,89,11
4,2,14,1,4,0,2,39,39,11
4,2,19,1,5,1,2,39,75,11
4,2,14,1,5,1,2,39,19,11
4,2,20,1,0,0,2,39,89,11
4,2,14,1,2,0,2,39,39,11
4,2,8,1,3,0,2,39,20,11
4,2,12,1,1,0,2,39,98,11
4,2,9,1,2,0,2,39,72,11
4,2,13,1,3,0,2,39,98,11
5,2,20,1,0,0,2,39,98,11
5,2,12,1,3,0,2,39,98,11
5,2,13,1,4,0,2,39,89,11
5,2,22,0,1,0,2,39,75,11
5,2,23,0,2,0,2,39,15,11
5,2,14,1,4,0,2,39,89,11
5,2,19,1,5,1,2,39,98,11
5,2,0,0,6,1,2,39,98,11
5,2,20,1,1,0,2,39,98,11
5,2,19,1,1,0,2,39,76,11
5,2,21,0,2,0,2,39,98,11
5,2,21,0,2,0,2,39,39,11
5,2,13,1,3,0,2,39,65,11
5,2,13,1,6,1,2,39,98,11
5,2,13,1,6,1,2,39,98,11
6,3,11,1,6,1,2,39,98,11
6,3,14,1,0,0,2,39,98,9
6,3,16,1,1,0,2,39,98,11
6,3,11,1,4,0,2,39,27,11
6,3,8,1,0,0,2,39,72,9
7,3,15,1,6,1,3,39,98,11
7,3,16,1,6,1,3,39,89,11
7,3,18,1,0,0,3,39,27,9
7,3,18,1,1,0,3,39,98,11
7,3,19,1,1,0,3,39,27,11
7,3,12,1,5,1,3,39,89,11
7,3,15,1,6,1,3,39,98,11
7,3,16,1,6,1,3,39,47,11
7,3,9,1,2,0,3,39,98,11
7,3,20,1,2,0,3,39,98,11
7,3,7,1,5,1,3,39,98,11
7,3,18,1,6,1,3,39,98,11
7,3,21,0,6,1,3,39,19,11
7,3,1,0,2,0,3,39,31,8
7,3,20,1,5,1,3,39,19,11
7,3,18,1,1,0,3,39,78,11
8,3,11,1,5,1,3,39,98,11
8,3,12,1,6,1,3,39,89,11
8,3,14,1,2,0,3,39,89,11
8,3,8,1,2,0,3,39,75,9
8,3,14,1,3,0,3,39,47,11
8,3,20,1,1,0,3,39,39,11
8,3,17,1,4,0,3,39,65,11
8,3,3,0,0,0,3,39,39,11
8,3,11,1,5,1,3,39,89,11
8,3,19,1,0,0,3,39,82,11
8,3,10,1,3,0,3,39,85,11
8,3,19,1,5,1,3,39,98,11
9,4,20,1,1,0,3,39,98,11
9,4,11,1,1,0,3,39,98,11
9,4,19,1,4,0,3,39,89,11
9,4,20,1,4,0,3,39,98,11
9,4,18,1,4,0,3,39,89,11
9,4,17,1,1,0,3,39,98,11
9,4,15,1,1,0,3,39,109,11
9,4,11,1,6,1,3,39,89,11
9,4,14,1,1,0,3,39,98,11
9,4,19,1,1,0,3,39,98,11
9,4,17,1,3,0,3,39,89,11
9,4,15,1,6,1,3,39,89,11
9,4,0,0,6,1,3,39,72,11
9,4,18,1,0,0,3,39,50,11
9,4,13,1,0,0,3,39,98,11
9,4,20,1,1,0,3,39,98,11
9,4,11,1,4,0,3,39,98,11
10,4,16,1,3,0,4,39,25,11
10,4,12,1,3,0,4,39,98,11
10,4,14,1,1,0,4,39,98,11
10,4,11,1,2,0,4,39,25,11
10,4,10,1,2,0,4,39,89,11
10,4,22,0,4,0,4,39,86,11
10,4,14,1,5,1,4,39,19,11
10,4,12,1,5,1,4,39,89,11
10,4,11,1,6,1,4,39,98,11
10,4,16,1,2,0,4,39,98,11
10,4,0,0,3,0,4,39,64,11
10,4,14,1,4,0,4,39,89,11
10,4,2,0,6,1,4,39,65,11
10,4,18,1,0,0,4,39,27,11
10,4,16,1,0,0,4,39,98,11
10,4,17,1,1,0,4,39,89,11
10,4,22,0,1,0,4,39,105,8
10,4,16,1,2,0,4,39,89,11
10,4,21,0,3,0,4,39,98,11
10,4,14,1,4,0,4,39,98,11
10,4,12,1,4,0,4,39,89,11
10,4,14,1,0,0,4,39,3,11
10,4,16,1,0,0,4,39,27,9
10,4,9,1,4,0,4,39,89,9
10,4,17,1,5,1,4,39,98,11
11,4,13,1,6,1,4,39,98,11
11,4,12,1,0,0,4,39,89,11
11,4,16,1,0,0,4,39,98,11
11,4,4,0,1,0,4,39,39,8
11,4,16,1,1,0,4,39,98,11
11,4,19,1,6,1,4,39,65,11
11,4,15,1,6,1,4,39,65,11
11,4,15,1,6,1,4,39,3,11
11,4,9,1,6,1,4,39,98,11
11,4,9,1,6,1,4,39,98,11
11,4,13,1,6,1,4,39,98,11
11,4,15,1,0,0,4,39,89,11
11,4,17,1,0,0,4,39,13,11
11,4,20,1,1,0,4,39,65,11
11,4,0,0,2,0,4,39,82,9
11,4,21,0,4,0,4,39,39,11
11,4,12,1,6,1,4,39,98,11
11,4,13,1,1,0,4,39,98,11
11,4,13,1,1,0,4,39,98,11
11,4,7,1,2,0,4,39,19,11
11,4,13,1,4,0,4,39,89,11
11,4,16,1,4,0,4,39,98,11
11,4,15,1,0,0,4,39,65,11
12,1,3,0,2,0,4,39,75,11
12,1,7,1,6,1,4,39,65,11
12,1,14,1,1,0,4,39,75,11
12,1,22,0,5,1,4,39,65,11
12,1,20,1,4,0,4,39,65,11
12,1,0,0,6,1,4,39,19,11
12,1,9,1,4,0,4,39,75,8
12,1,13,1,4,0,4,39,65,11
12,1,6,0,3,0,4,39,65,11
1,1,21,0,2,0,1,39,98,11
1,1,12,1,5,1,1,39,14,11
1,1,16,1,6,1,1,39,98,11
2,1,15,1,6,1,1,39,98,11
2,1,21,0,2,0,1,39,98,9
2,1,8,1,3,0,1,39,98,9
2,1,14,1,6,1,1,39,93,11
2,1,9,1,5,1,1,39,98,11
3,2,11,1,3,0,1,39,98,11
5,2,22,0,3,0,2,39,98,11
5,2,17,1,2,0,2,39,98,11
6,3,23,0,6,1,2,39,72,11
8,3,10,1,5,1,3,39,75,11
1,1,19,1,4,0,1,39,98,11
1,1,15,1,4,0,1,39,98,11
1,1,19,1,6,1,1,39,75,11
1,1,15,1,2,0,1,39,75,11
1,1,18,1,3,0,1,39,125,11
1,1,15,1,3,0,1,39,115,9
1,1,17,1,6,1,1,39,19,9
1,1,12,1,1,0,1,39,78,11
1,1,9,1,1,0,1,39,125,11
1,1,17,1,1,0,1,39,98,11
1,1,14,1,4,0,1,39,122,11
2,1,8,1,5,1,1,39,125,11
2,1,10,1,5,1,1,39,98,11
2,1,12,1,2,0,1,39,19,11
2,1,21,0,3,0,1,39,75,11
2,1,18,1,5,1,1,39,98,11
3,2,19,1,6,1,1,39,98,11
3,2,17,1,0,0,1,39,98,11
3,2,11,1,6,1,1,39,125,11
3,2,11,1,2,0,1,39,89,11
4,2,19,1,4,0,2,39,125,11
4,2,19,1,0,0,2,39,75,11
4,2,14,1,0,0,2,39,125,11
4,2,20,1,0,0,2,39,125,11
4,2,10,1,1,0,2,39,125,11
4,2,16,1,4,0,2,39,39,8
4,2,10,1,6,1,2,39,101,11
5,2,12,1,6,1,2,39,19,11
5,2,15,1,1,0,2,39,75,11
6,3,11,1,6,1,2,39,75,11
6,3,18,1,2,0,2,39,125,11
6,3,17,1,3,0,2,39,89,11
7,3,21,0,6,1,3,39,106,11
7,3,11,1,4,0,3,39,125,11
7,3,10,1,3,0,3,39,89,11
7,3,15,1,2,0,3,39,125,11
8,3,10,1,6,1,3,39,125,11
8,3,2,0,3,0,3,39,19,9
9,4,0,0,0,0,3,39,125,11
9,4,21,0,1,0,3,39,98,11
9,4,10,1,4,0,3,39,98,11
9,4,11,1,0,0,3,39,98,11
10,4,18,1,2,0,4,39,19,11
11,4,16,1,0,0,4,39,75,11
11,4,18,1,2,0,4,39,19,11
11,4,17,1,6,1,4,39,125,9
11,4,18,1,6,1,4,39,98,11
11,4,12,1,5,1,4,39,19,11
12,1,18,1,1,0,4,39,125,11
12,1,21,0,1,0,4,39,125,11
12,1,13,1,5,1,4,39,1,11
2,1,14,1,6,1,1,39,98,11
2,1,9,1,5,1,1,39,98,11
5,2,19,1,0,0,2,39,72,11
6,3,13,1,2,0,2,39,86,9
6,3,10,1,3,0,2,39,98,11
7,3,8,1,4,0,3,39,19,11
8,3,6,0,0,0,3,39,19,11
8,3,4,0,4,0,3,39,72,11
9,4,1,0,6,1,3,39,19,11
9,4,13,1,3,0,3,39,98,11
10,4,18,1,2,0,4,39,72,11
11,4,2,0,3,0,4,39,72,11
11,4,13,1,0,0,4,39,107,11
1,1,13,1,5,1,1,27,78,11
1,1,7,1,2,0,1,27,89,11
1,1,9,1,3,0,1,27,39,11
1,1,14,1,3,0,1,27,87,11
1,1,18,1,3,0,1,27,87,11
1,1,3,0,6,1,1,27,75,8
1,1,3,0,1,0,1,27,89,11
1,1,16,1,5,1,1,27,89,11
2,1,1,0,6,1,1,27,98,11
2,1,16,1,3,0,1,27,86,11
3,2,13,1,6,1,1,27,3,11
3,2,1,0,3,0,1,27,13,11
3,2,22,0,5,1,1,27,98,11
3,2,1,0,1,0,1,27,78,8
3,2,21,0,5,1,1,27,89,11
4,2,10,1,3,0,2,27,19,11
4,2,15,1,6,1,2,27,94,11
4,2,10,1,1,0,2,27,89,11
4,2,20,1,1,0,2,27,65,11
4,2,9,1,3,0,2,27,39,11
5,2,18,1,5,1,2,27,96,11
5,2,14,1,0,0,2,27,113,11
5,2,9,1,0,0,2,27,19,9
5,2,20,1,2,0,2,27,39,9
6,3,12,1,2,0,2,27,65,11
6,3,9,1,3,0,2,27,75,11
7,3,22,0,1,0,3,27,75,11
7,3,15,1,3,0,3,27,3,11
7,3,14,1,4,0,3,27,89,11
7,3,17,1,5,1,3,27,3,11
9,4,19,1,5,1,3,27,13,11
9,4,20,1,0,0,3,27,14,11
10,4,1,0,6,1,4,27,86,11
10,4,9,1,6,1,4,27,65,11
10,4,22,0,0,0,4,27,13,11
10,4,20,1,1,0,4,27,87,11
10,4,2,0,3,0,4,27,75,8
10,4,6,0,5,1,4,27,75,8
11,4,17,1,0,0,4,27,89,11
12,1,5,0,6,1,4,27,86,11
1,1,11,1,2,0,1,27,75,11
2,1,6,0,5,1,1,27,98,11
3,2,18,1,0,0,1,27,75,11
3,2,19,1,2,0,1,27,75,11
3,2,23,0,5,1,1,27,75,11
3,2,2,0,5,1,1,27,75,11
4,2,10,1,0,0,2,27,87,11
5,2,13,1,5,1,2,27,75,11
6,3,19,1,5,1,2,27,98,11
6,3,14,1,6,1,2,27,13,11
6,3,15,1,0,0,2,27,98,11
7,3,23,0,1,0,3,27,75,11
8,3,12,1,6,1,3,27,106,11
8,3,19,1,0,0,3,27,98,11
9,4,18,1,3,0,3,27,98,11
1,1,11,1,4,0,1,27,39,8
1,1,22,0,4,0,1,27,125,11
3,2,8,1,2,0,1,27,75,11
4,2,13,1,0,0,2,27,75,11
4,2,15,1,2,0,2,27,75,11
8,3,11,1,6,1,3,27,98,11
1,1,21,0,3,0,1,27,56,11
1,1,3,0,4,0,1,27,104,11
2,1,16,1,5,1,1,27,3,11
2,1,17,1,5,1,1,27,75,11
2,1,20,1,4,0,1,27,65,11
3,2,14,1,1,0,1,27,39,11
5,2,15,1,2,0,2,27,89,11
7,3,15,1,1,0,3,27,19,11
7,3,17,1,5,1,3,27,25,11
7,3,15,1,1,0,3,27,13,9
8,3,8,1,6,1,3,27,65,11
8,3,9,1,3,0,3,27,103,9
8,3,17,1,2,0,3,27,15,9
9,4,13,1,4,0,3,27,89,11
9,4,3,0,0,0,3,27,105,8
9,4,20,1,3,0,3,27,39,11
9,4,12,1,4,0,3,27,43,11
10,4,20,1,0,0,4,27,65,11
10,4,23,0,1,0,4,27,19,11
11,4,2,0,6,1,4,27,75,11
11,4,18,1,5,1,4,27,13,11
12,1,6,0,2,0,4,27,46,8
12,1,13,1,2,0,4,27,98,11
1,1,23,0,2,0,1,47,111,11
1,1,0,0,3,0,1,47,75,11
1,1,17,1,4,0,1,47,56,11
1,1,21,0,4,0,1,47,89,11
1,1,22,0,4,0,1,47,65,11
1,1,11,1,0,0,1,47,75,11
1,1,18,1,0,0,1,47,94,11
1,1,23,0,4,0,1,47,94,11
1,1,21,0,6,1,1,47,94,11
1,1,5,0,0,0,1,47,94,11
1,1,9,1,4,0,1,47,94,11
1,1,20,1,4,0,1,47,94,11
1,1,21,0,6,1,1,47,94,11
1,1,15,1,6,1,1,47,67,11
1,1,8,1,3,0,1,47,94,11
1,1,7,1,4,0,1,47,67,11
1,1,2,0,1,0,1,47,94,11
1,1,10,1,2,0,1,47,94,11
1,1,12,1,3,0,1,47,94,11
1,1,22,0,3,0,1,47,94,11
2,1,6,0,4,0,1,47,65,11
2,1,19,1,1,0,1,47,39,11
2,1,1,0,4,0,1,47,94,11
2,1,17,1,2,0,1,47,75,11
2,1,22,0,3,0,1,47,94,11
2,1,9,1,5,1,1,47,94,11
3,2,9,1,5,1,1,47,89,11
3,2,20,1,2,0,1,47,89,11
3,2,6,0,2,0,1,47,94,11
3,2,15,1,6,1,1,47,94,11
4,2,18,1,5,1,2,47,94,11
4,2,15,1,1,0,2,47,94,11
4,2,17,1,4,0,2,47,98,11
4,2,14,1,4,0,2,47,98,11
4,2,1,0,5,1,2,47,106,11
5,2,3,0,4,0,2,47,89,11
5,2,1,0,1,0,2,47,94,11
5,2,9,1,2,0,2,47,94,11
6,3,10,1,3,0,2,47,14,11
6,3,14,1,5,1,2,47,98,11
6,3,20,1,5,1,2,47,89,11
6,3,1,0,5,1,2,47,94,11
7,3,22,0,5,1,3,47,65,11
7,3,13,1,6,1,3,47,98,11
8,3,12,1,2,0,3,47,106,11
9,4,15,1,6,1,3,47,24,9
9,4,13,1,6,1,3,47,98,11
10,4,19,1,6,1,4,47,72,11
11,4,18,1,6,1,4,47,94,11
11,4,19,1,6,1,4,47,75,11
11,4,17,1,0,0,4,47,94,11
11,4,18,1,2,0,4,47,94,11
11,4,14,1,3,0,4,47,94,11
11,4,18,1,3,0,4,47,86,11
11,4,19,1,3,0,4,47,65,11
11,4,19,1,4,0,4,47,94,11
11,4,16,1,6,1,4,47,94,11
11,4,16,1,6,1,4,47,89,11
11,4,15,1,1,0,4,47,89,11
11,4,23,0,1,0,4,47,65,11
11,4,0,0,2,0,4,47,94,11
11,4,10,1,2,0,4,47,94,11
11,4,6,0,3,0,4,47,98,11
11,4,9,1,4,0,4,47,94,11
11,4,22,0,6,1,4,47,75,9
11,4,15,1,0,0,4,47,98,11
11,4,18,1,5,1,4,47,98,11
11,4,18,1,5,1,4,47,89,11
11,4,12,1,0,0,4,47,1,11
11,4,16,1,0,0,4,47,94,11
12,1,18,1,2,0,4,47,94,11
12,1,20,1,6,1,4,47,14,11
12,1,12,1,2,0,4,47,65,11
12,1,9,1,2,0,4,47,94,11
12,1,11,1,4,0,4,47,94,11
12,1,22,0,2,0,4,47,89,11
12,1,21,0,2,0,4,47,89,11
12,1,10,1,2,0,4,47,94,11
12,1,20,1,2,0,4,47,89,11
12,1,19,1,1,0,4,47,94,11
12,1,16,1,3,0,4,47,94,11
1,1,1,0,3,0,1,23,75,11
1,1,17,1,3,0,1,23,39,11
1,1,10,1,4,0,1,23,98,11
1,1,22,0,4,0,1,23,1,11
1,1,17,1,5,1,1,23,122,11
1,1,10,1,0,0,1,23,75,11
1,1,22,0,0,0,1,23,39,11
1,1,0,0,1,0,1,23,1,11
1,1,13,1,1,0,1,23,1,11
1,1,16,1,2,0,1,23,72,11
1,1,7,1,3,0,1,23,67,11
1,1,19,1,3,0,1,23,65,11
1,1,11,1,5,1,1,23,1,11
1,1,22,0,5,1,1,23,65,11
1,1,16,1,3,0,1,23,1,11
1,1,19,1,3,0,1,23,1,11
1,1,17,1,5,1,1,23,98,11
1,1,15,1,1,0,1,23,75,11
1,1,17,1,1,0,1,23,39,11
1,1,21,0,3,0,1,23,75,11
1,1,16,1,4,0,1,23,98,11
2,1,9,1,3,0,1,23,39,11
2,1,20,1,6,1,1,23,98,11
2,1,18,1,0,0,1,23,98,11
2,1,9,1,1,0,1,23,75,11
2,1,21,0,1,0,1,23,98,11
2,1,18,1,5,1,1,23,1,11
2,1,11,1,2,0,1,23,65,11
2,1,18,1,3,0,1,23,75,11
2,1,17,1,2,0,1,23,98,11
2,1,19,1,2,0,1,23,98,11
2,1,18,1,4,0,1,23,106,11
2,1,19,1,4,0,1,23,39,11
2,1,18,1,5,1,1,23,98,11
2,1,19,1,5,1,1,23,98,11
3,2,20,1,6,1,1,23,65,11
3,2,17,1,1,0,1,23,98,11
3,2,13,1,4,0,1,23,75,11
3,2,19,1,5,1,1,23,65,11
3,2,10,1,2,0,1,23,98,11
3,2,19,1,2,0,1,23,75,11
3,2,21,0,3,0,1,23,75,11
3,2,10,1,5,1,1,23,98,11
3,2,15,1,3,0,1,23,98,11
3,2,16,1,4,0,1,23,98,11
3,2,18,1,6,1,1,23,13,11
3,2,10,1,1,0,1,23,75,11
3,2,18,1,4,0,1,23,65,11
3,2,9,1,5,1,1,23,75,11
3,2,20,1,5,1,1,23,39,11
4,2,22,0,5,1,2,23,1,11
4,2,21,0,1,0,2,23,75,11
4,2,10,1,2,0,2,23,75,11
4,2,16,1,4,0,2,23,47,11
4,2,15,1,5,1,2,23,98,11
4,2,14,1,0,0,2,23,98,11
4,2,21,0,1,0,2,23,1,11
4,2,22,0,3,0,2,23,1,11
4,2,11,1,4,0,2,23,39,11
4,2,8,1,0,0,2,23,98,11
4,2,20,1,2,0,2,23,65,11
4,2,21,0,1,0,2,23,98,11
5,2,10,1,2,0,2,23,1,11
5,2,20,1,3,0,2,23,98,11
5,2,22,0,6,1,2,23,98,11
5,2,17,1,2,0,2,23,1,9
5,2,17,1,2,0,2,23,1,9
6,3,18,1,6,1,2,23,47,11
6,3,19,1,0,0,2,23,89,11
6,3,12,1,4,0,2,23,39,11
6,3,21,0,4,0,2,23,98,11
6,3,13,1,0,0,2,23,78,11
6,3,4,0,4,0,2,23,1,11
6,3,13,1,4,0,2,23,65,11
7,3,4,0,2,0,3,23,98,11
7,3,23,0,0,0,3,23,14,11
7,3,16,1,4,0,3,23,98,11
8,3,12,1,2,0,3,23,39,11
9,4,20,1,2,0,3,23,98,11
10,4,22,0,2,0,4,23,89,11
10,4,19,1,3,0,4,23,65,11
10,4,23,0,2,0,4,23,1,11
11,4,23,0,5,1,4,23,1,11
11,4,15,1,0,0,4,23,98,11
11,4,13,1,5,1,4,23,98,11
11,4,16,1,5,1,4,23,19,11
11,4,19,1,6,1,4,23,75,11
12,1,0,0,1,0,4,23,75,11
12,1,10,1,6,1,4,23,65,11
12,1,13,1,6,1,4,23,1,11
12,1,21,0,6,1,4,23,39,11
12,1,13,1,5,1,4,23,65,9
12,1,12,1,5,1,4,23,39,11
12,1,17,1,5,1,4,23,39,11
1,1,13,1,5,1,1,23,75,11
2,1,13,1,3,0,1,23,39,11
1,1,11,1,6,1,1,23,1,11
1,1,16,1,6,1,1,23,39,11
1,1,23,0,3,0,1,23,1,11
1,1,0,0,4,0,1,23,1,11
1,1,15,1,0,0,1,23,14,11
1,1,16,1,6,1,1,23,39,11
1,1,9,1,0,0,1,23,39,11
1,1,20,1,4,0,1,23,89,11
1,1,23,0,1,0,1,23,39,11
1,1,16,1,2,0,1,23,98,11
1,1,15,1,3,0,1,23,1,11
2,1,12,1,5,1,1,23,89,11
2,1,14,1,1,0,1,23,105,11
2,1,13,1,2,0,1,23,39,11
2,1,13,1,2,0,1,23,39,11
2,1,21,0,0,0,1,23,89,11
2,1,1,0,6,1,1,23,98,11
2,1,16,1,1,0,1,23,89,11
3,2,14,1,6,1,1,23,98,11
3,2,13,1,0,0,1,23,98,11
3,2,16,1,1,0,1,23,98,11
3,2,18,1,2,0,1,23,98,11
3,2,13,1,2,0,1,23,98,11
3,2,13,1,2,0,1,23,13,11
3,2,4,0,3,0,1,23,19,11
3,2,12,1,5,1,1,23,98,11
3,2,22,0,6,1,1,23,75,11
4,2,16,1,4,0,2,23,39,11
4,2,14,1,5,1,2,23,39,11
4,2,20,1,0,0,2,23,39,11
4,2,21,0,4,0,2,23,98,11
4,2,20,1,5,1,2,23,75,11
4,2,21,0,5,1,2,23,75,11
4,2,8,1,0,0,2,23,1,11
5,2,11,1,3,0,2,23,13,11
5,2,21,0,1,0,2,23,75,11
6,3,21,0,0,0,2,23,39,9
6,3,20,1,4,0,2,23,98,11
7,3,12,1,2,0,3,23,75,11
7,3,4,0,1,0,3,23,98,11
8,3,12,1,5,1,3,23,89,11
8,3,14,1,6,1,3,23,98,11
8,3,19,1,3,0,3,23,98,11
9,4,17,1,3,0,3,23,98,11
10,4,16,1,6,1,4,23,89,11
10,4,7,1,2,0,4,23,98,11
10,4,16,1,3,0,4,23,27,11
11,4,15,1,6,1,4,23,98,11
11,4,1,0,0,0,4,23,1,11
11,4,17,1,2,0,4,23,98,11
11,4,15,1,5,1,4,23,1,11
11,4,13,1,6,1,4,23,27,11
1,1,14,1,2,0,1,8,65,11
1,1,11,1,6,1,1,8,75,11
1,1,1,0,1,0,1,8,75,11
1,1,0,0,1,0,1,8,39,11
1,1,0,0,3,0,1,8,106,11
1,1,6,0,4,0,1,8,64,9
1,1,16,1,1,0,1,8,94,11
1,1,8,1,3,0,1,8,98,11
1,1,14,1,3,0,1,8,98,11
1,1,17,1,1,0,1,8,94,11
1,1,12,1,3,0,1,8,94,11
2,1,14,1,5,1,1,8,98,11
2,1,17,1,6,1,1,8,94,11
2,1,18,1,6,1,1,8,98,11
2,1,13,1,0,0,1,8,98,11
2,1,15,1,0,0,1,8,19,9
2,1,8,1,1,0,1,8,94,11
2,1,20,1,2,0,1,8,87,11
2,1,9,1,5,1,1,8,94,11
2,1,19,1,5,1,1,8,65,11
2,1,14,1,1,0,1,8,98,11
2,1,21,0,1,0,1,8,94,11
2,1,21,0,4,0,1,8,75,11
2,1,22,0,5,1,1,8,64,11
3,2,7,1,6,1,1,8,65,11
3,2,14,1,6,1,1,8,98,11
3,2,1,0,0,0,1,8,124,11
3,2,8,1,0,0,1,8,106,11
3,2,19,1,1,0,1,8,3,11
3,2,20,1,1,0,1,8,98,11
3,2,19,1,5,1,1,8,65,11
3,2,6,0,6,1,1,8,94,11
3,2,11,1,2,0,1,8,75,11
3,2,18,1,3,0,1,8,94,11
3,2,15,1,0,0,1,8,65,11
3,2,12,1,5,1,1,8,19,8
3,2,11,1,6,1,1,8,94,11
4,2,11,1,2,0,2,8,75,11
4,2,19,1,3,0,2,8,39,11
4,2,18,1,3,0,2,8,98,11
4,2,20,1,3,0,2,8,98,11
4,2,13,1,4,0,2,8,89,11
4,2,20,1,2,0,2,8,65,11
6,3,20,1,0,0,2,8,39,11
6,3,9,1,1,0,2,8,75,11
6,3,16,1,1,0,2,8,45,11
7,3,17,1,4,0,3,8,72,11
7,3,15,1,1,0,3,8,89,11
7,3,15,1,3,0,3,8,72,11
8,3,16,1,3,0,3,8,39,11
8,3,6,0,0,0,3,8,19,11
9,4,18,1,3,0,3,8,98,11
9,4,14,1,6,1,3,8,89,9
10,4,18,1,1,0,4,8,89,11
10,4,15,1,4,0,4,8,3,11
10,4,15,1,5,1,4,8,89,11
10,4,20,1,5,1,4,8,39,11
10,4,21,0,6,1,4,8,19,11
10,4,11,1,0,0,4,8,98,11
10,4,18,1,6,1,4,8,98,11
10,4,0,0,2,0,4,8,65,11
10,4,18,1,2,0,4,8,98,11
10,4,13,1,4,0,4,8,98,11
10,4,14,1,5,1,4,8,98,11
10,4,8,1,6,1,4,8,89,11
10,4,15,1,6,1,4,8,98,11
10,4,14,1,3,0,4,8,98,11
11,4,20,1,6,1,4,8,86,11
11,4,20,1,6,1,4,8,94,11
11,4,16,1,5,1,4,8,94,11
11,4,17,1,5,1,4,8,87,11
11,4,11,1,3,0,4,8,94,11
11,4,18,1,5,1,4,8,14,11
12,1,14,1,2,0,4,8,65,11
12,1,23,0,3,0,4,8,94,11
12,1,15,1,4,0,4,8,94,11
12,1,14,1,5,1,4,8,65,11
12,1,16,1,6,1,4,8,98,11
12,1,23,0,1,0,4,8,94,11
12,1,14,1,6,1,4,8,94,11
12,1,12,1,1,0,4,8,94,11
2,1,10,1,5,1,1,8,75,11
3,2,15,1,6,1,1,8,98,11
4,2,15,1,3,0,2,8,89,11
5,2,15,1,2,0,2,8,89,11
7,3,11,1,2,0,3,8,75,11
8,3,21,0,2,0,3,8,19,11
9,4,15,1,2,0,3,8,122,11
9,4,15,1,4,0,3,8,106,11
9,4,13,1,6,1,3,8,98,11
10,4,18,1,4,0,4,8,86,11
10,4,10,1,5,1,4,8,86,11
10,4,16,1,0,0,4,8,98,11
10,4,11,1,5,1,4,8,98,11
11,4,13,1,0,0,4,8,98,11
11,4,16,1,0,0,4,8,122,11
8,3,1,0,0,0,3,8,13,11
8,3,14,1,2,0,3,8,106,11
1,1,11,1,3,0,1,20,125,11
1,1,0,0,4,0,1,20,94,11
1,1,2,0,4,0,1,20,125,11
1,1,21,0,5,1,1,20,75,11
1,1,19,1,5,1,1,20,23,8
1,1,22,0,6,1,1,20,39,11
1,1,16,1,6,1,1,20,98,11
1,1,18,1,2,0,1,20,65,11
1,1,13,1,2,0,1,20,98,11
1,1,19,1,3,0,1,20,125,11
1,1,16,1,4,0,1,20,39,11
1,1,16,1,0,0,1,20,39,11
1,1,20,1,0,0,1,20,89,11
1,1,23,0,4,0,1,20,72,11
1,1,13,1,4,0,1,20,98,11
1,1,16,1,4,0,1,20,98,11
1,1,20,1,5,1,1,20,125,11
1,1,14,1,5,1,1,20,98,11
1,1,14,1,6,1,1,20,89,11
1,1,20,1,6,1,1,20,125,11
1,1,8,1,6,1,1,20,65,11
1,1,14,1,0,0,1,20,56,11
1,1,12,1,2,0,1,20,65,11
1,1,17,1,2,0,1,20,14,11
1,1,15,1,3,0,1,20,98,11
1,1,17,1,3,0,1,20,98,11
1,1,19,1,5,1,1,20,125,11
1,1,14,1,6,1,1,20,39,11
1,1,7,1,6,1,1,20,125,11
1,1,12,1,3,0,1,20,125,11
1,1,16,1,3,0,1,20,125,11
1,1,15,1,4,0,1,20,125,11
2,1,16,1,6,1,1,20,125,11
2,1,22,0,6,1,1,20,39,11
2,1,15,1,1,0,1,20,89,11
2,1,18,1,1,0,1,20,65,11
2,1,9,1,5,1,1,20,125,11
2,1,16,1,5,1,1,20,98,11
2,1,12,1,6,1,1,20,98,11
2,1,8,1,0,0,1,20,65,11
2,1,2,0,3,0,1,20,89,11
2,1,20,1,1,0,1,20,125,11
2,1,22,0,1,0,1,20,98,11
2,1,20,1,3,0,1,20,125,11
2,1,11,1,3,0,1,20,75,11
2,1,18,1,5,1,1,20,125,11
2,1,22,0,6,1,1,20,39,11
2,1,5,0,1,0,1,20,101,11
2,1,20,1,1,0,1,20,125,11
2,1,15,1,1,0,1,20,98,11
2,1,23,0,1,0,1,20,125,11
2,1,15,1,2,0,1,20,98,11
2,1,21,0,3,0,1,20,125,11
2,1,20,1,4,0,1,20,125,11
2,1,23,0,5,1,1,20,125,11
3,2,9,1,6,1,1,20,125,11
3,2,19,1,6,1,1,20,89,11
3,2,17,1,0,0,1,20,75,11
3,2,7,1,0,0,1,20,125,11
3,2,10,1,0,0,1,20,125,11
3,2,11,1,1,0,1,20,125,11
3,2,19,1,3,0,1,20,1,11
3,2,1,0,3,0,1,20,94,11
3,2,17,1,3,0,1,20,39,11
3,2,20,1,4,0,1,20,86,11
3,2,22,0,2,0,1,20,122,11
3,2,19,1,2,0,1,20,89,11
3,2,17,1,2,0,1,20,39,11
3,2,14,1,2,0,1,20,39,11
3,2,12,1,2,0,1,20,98,11
3,2,13,1,3,0,1,20,89,11
3,2,18,1,3,0,1,20,89,11
3,2,23,0,4,0,1,20,75,11
3,2,19,1,5,1,1,20,39,11
3,2,15,1,6,1,1,20,98,11
3,2,16,1,1,0,1,20,125,11
3,2,12,1,3,0,1,20,94,11
3,2,17,1,5,1,1,20,125,11
4,2,13,1,3,0,2,20,125,11
4,2,11,1,5,1,2,20,125,11
4,2,16,1,0,0,2,20,125,11
4,2,15,1,3,0,2,20,89,11
4,2,20,1,3,0,2,20,89,11
4,2,14,1,4,0,2,20,3,11
4,2,21,0,0,0,2,20,3,11
4,2,12,1,1,0,2,20,98,11
4,2,12,1,1,0,2,20,14,11
4,2,19,1,6,1,2,20,14,11
4,2,10,1,0,0,2,20,125,11
4,2,20,1,6,1,2,20,98,11
5,2,21,0,1,0,2,20,98,11
5,2,17,1,2,0,2,20,125,11
5,2,20,1,3,0,2,20,89,11
5,2,10,1,6,1,2,20,13,9
5,2,16,1,5,1,2,20,98,11
5,2,16,1,6,1,2,20,89,11
5,2,9,1,6,1,2,20,98,11
5,2,9,1,0,0,2,20,86,11
5,2,18,1,0,0,2,20,86,11
5,2,10,1,1,0,2,20,98,11
5,2,11,1,3,0,2,20,39,11
5,2,15,1,3,0,2,20,44,11
5,2,17,1,0,0,2,20,98,11
5,2,23,0,0,0,2,20,94,11
5,2,6,0,1,0,2,20,125,9
5,2,6,0,1,0,2,20,89,11
5,2,19,1,1,0,2,20,45,8
6,3,16,1,3,0,2,20,125,11
6,3,21,0,3,0,2,20,89,11
6,3,17,1,3,0,2,20,89,11
6,3,8,1,4,0,2,20,98,11
6,3,11,1,6,1,2,20,125,11
6,3,13,1,3,0,2,20,86,11
6,3,2,0,1,0,2,20,19,11
7,3,14,1,4,0,3,20,19,11
7,3,20,1,1,0,3,20,86,11
7,3,13,1,1,0,3,20,98,11
7,3,19,1,5,1,3,20,83,11
7,3,9,1,6,1,3,20,98,8
7,3,22,0,5,1,3,20,98,11
7,3,22,0,6,1,3,20,86,11
7,3,21,0,6,1,3,20,89,11
7,3,9,1,1,0,3,20,89,9
7,3,10,1,3,0,3,20,86,11
7,3,12,1,4,0,3,20,39,11
8,3,18,1,5,1,3,20,86,11
8,3,21,0,0,0,3,20,98,11
8,3,11,1,1,0,3,20,125,11
8,3,12,1,4,0,3,20,98,11
8,3,8,1,0,0,3,20,98,11
8,3,12,1,2,0,3,20,86,11
8,3,16,1,4,0,3,20,125,11
8,3,19,1,1,0,3,20,89,11
8,3,1,0,4,0,3,20,125,11
8,3,20,1,5,1,3,20,89,11
8,3,20,1,2,0,3,20,98,11
8,3,20,1,5,1,3,20,89,11
9,4,17,1,2,0,3,20,89,11
9,4,13,1,3,0,3,20,98,11
9,4,16,1,4,0,3,20,65,11
9,4,20,1,4,0,3,20,65,11
9,4,19,1,5,1,3,20,98,11
9,4,14,1,5,1,3,20,98,11
9,4,12,1,0,0,3,20,64,11
9,4,20,1,3,0,3,20,89,11
9,4,13,1,4,0,3,20,65,11
9,4,17,1,5,1,3,20,89,11
9,4,17,1,0,0,3,20,98,11
9,4,18,1,1,0,3,20,98,11
9,4,16,1,2,0,3,20,98,11
9,4,16,1,5,1,3,20,1,11
9,4,18,1,5,1,3,20,103,11
9,4,15,1,6,1,3,20,98,11
9,4,5,0,6,1,3,20,23,9
9,4,19,1,6,1,3,20,72,11
9,4,18,1,0,0,3,20,39,11
9,4,0,0,0,0,3,20,98,11
9,4,6,0,1,0,3,20,64,11
10,4,6,0,4,0,4,20,125,11
10,4,19,1,6,1,4,20,89,11
10,4,14,1,6,1,4,20,98,11
10,4,22,0,1,0,4,20,125,11
10,4,15,1,5,1,4,20,98,11
10,4,19,1,0,0,4,20,87,11
10,4,12,1,0,0,4,20,64,11
10,4,23,0,3,0,4,20,39,11
10,4,0,0,6,1,4,20,125,11
10,4,16,1,2,0,4,20,94,11
10,4,17,1,5,1,4,20,98,11
11,4,3,0,6,1,4,20,98,11
11,4,19,1,6,1,4,20,86,11
11,4,17,1,0,0,4,20,75,11
11,4,7,1,0,0,4,20,98,9
11,4,17,1,5,1,4,20,98,11
11,4,12,1,6,1,4,20,65,11
11,4,18,1,2,0,4,20,86,11
11,4,20,1,3,0,4,20,94,11
11,4,22,0,4,0,4,20,65,11
11,4,21,0,5,1,4,20,65,11
11,4,7,1,5,1,4,20,65,9
11,4,20,1,5,1,4,20,125,11
11,4,15,1,6,1,4,20,75,11
11,4,19,1,0,0,4,20,65,11
11,4,2,0,0,0,4,20,94,11
11,4,16,1,1,0,4,20,65,11
11,4,18,1,1,0,4,20,125,11
11,4,11,1,1,0,4,20,125,11
11,4,10,1,2,0,4,20,14,11
11,4,0,0,4,0,4,20,125,11
11,4,19,1,6,1,4,20,125,11
11,4,20,1,0,0,4,20,125,11
11,4,20,1,1,0,4,20,75,11
11,4,23,0,4,0,4,20,86,11
11,4,17,1,4,0,4,20,75,11
11,4,13,1,5,1,4,20,65,11
11,4,9,1,6,1,4,20,125,11
12,1,15,1,1,0,4,20,125,11
12,1,17,1,2,0,4,20,125,9
12,1,22,0,3,0,4,20,75,11
12,1,22,0,6,1,4,20,94,11
12,1,7,1,6,1,4,20,94,11
12,1,16,1,0,0,4,20,94,11
12,1,11,1,1,0,4,20,86,11
12,1,17,1,3,0,4,20,125,11
12,1,21,0,3,0,4,20,125,11
12,1,20,1,4,0,4,20,23,11
12,1,14,1,6,1,4,20,65,11
12,1,17,1,0,0,4,20,125,11
12,1,10,1,0,0,4,20,125,11
12,1,17,1,1,0,4,20,89,11
12,1,21,0,1,0,4,20,125,11
12,1,10,1,2,0,4,20,98,11
12,1,16,1,4,0,4,20,75,11
12,1,21,0,6,1,4,20,125,11
12,1,16,1,0,0,4,20,125,11
12,1,0,0,3,0,4,20,125,11
12,1,14,1,3,0,4,20,19,11
12,1,19,1,3,0,4,20,39,11
1,1,16,1,2,0,1,20,75,8
2,1,5,0,3,0,1,20,125,11
2,1,13,1,0,0,1,20,98,11
2,1,21,0,0,0,1,20,98,11
3,2,12,1,1,0,1,20,98,11
4,2,17,1,1,0,2,20,39,11
4,2,14,1,6,1,2,20,98,11
4,2,11,1,6,1,2,20,98,11
5,2,15,1,6,1,2,20,86,9
7,3,15,1,6,1,3,20,19,8
7,3,13,1,2,0,3,20,98,11
7,3,20,1,2,0,3,20,98,11
1,1,18,1,6,1,1,20,75,11
1,1,20,1,2,0,1,20,94,11
1,1,18,1,3,0,1,20,75,11
1,1,13,1,3,0,1,20,75,11
1,1,18,1,4,0,1,20,65,11
1,1,18,1,6,1,1,20,94,11
1,1,1,0,0,0,1,20,98,11
1,1,8,1,1,0,1,20,94,11
1,1,15,1,1,0,1,20,94,11
1,1,21,0,2,0,1,20,94,11
1,1,15,1,2,0,1,20,89,11
1,1,20,1,3,0,1,20,98,11
1,1,19,1,3,0,1,20,94,11
1,1,16,1,4,0,1,20,89,11
1,1,14,1,4,0,1,20,98,11
1,1,19,1,4,0,1,20,94,11
1,1,17,1,5,1,1,20,39,11
1,1,18,1,5,1,1,20,125,11
1,1,4,0,5,1,1,20,94,11
1,1,14,1,6,1,1,20,98,11
1,1,15,1,1,0,1,20,94,11
1,1,19,1,1,0,1,20,89,11
1,1,16,1,3,0,1,20,94,11
1,1,17,1,3,0,1,20,65,11
1,1,16,1,4,0,1,20,98,11
1,1,12,1,5,1,1,20,98,11
1,1,18,1,6,1,1,20,89,11
1,1,13,1,6,1,1,20,94,11
1,1,13,1,2,0,1,20,42,11
1,1,13,1,2,0,1,20,42,11
1,1,13,1,3,0,1,20,89,11
1,1,21,0,5,1,1,20,94,11
1,1,1,0,6,1,1,20,94,11
1,1,19,1,6,1,1,20,64,11
2,1,16,1,6,1,1,20,65,11
2,1,14,1,0,0,1,20,13,11
2,1,14,1,5,1,1,20,98,11
2,1,9,1,5,1,1,20,65,11
2,1,14,1,6,1,1,20,89,11
2,1,14,1,5,1,1,20,94,11
2,1,17,1,5,1,1,20,94,11
2,1,16,1,0,0,1,20,98,11
2,1,12,1,2,0,1,20,94,11
2,1,11,1,2,0,1,20,1,11
2,1,23,0,3,0,1,20,65,11
2,1,15,1,5,1,1,20,98,11
2,1,16,1,6,1,1,20,98,11
2,1,1,0,1,0,1,20,94,11
2,1,15,1,1,0,1,20,89,11
2,1,14,1,1,0,1,20,89,11
2,1,16,1,2,0,1,20,89,11
2,1,16,1,2,0,1,20,89,11
2,1,15,1,3,0,1,20,86,11
2,1,20,1,5,1,1,20,86,11
2,1,15,1,5,1,1,20,86,11
2,1,19,1,5,1,1,20,86,11
3,2,20,1,6,1,1,20,94,11
3,2,13,1,1,0,1,20,86,11
3,2,19,1,1,0,1,20,94,11
3,2,21,0,1,0,1,20,94,11
3,2,11,1,1,0,1,20,13,11
3,2,10,1,5,1,1,20,19,9
3,2,22,0,6,1,1,20,94,11
3,2,16,1,2,0,1,20,94,11
3,2,23,0,5,1,1,20,86,11
3,2,0,0,0,0,1,20,19,11
3,2,11,1,1,0,1,20,98,9
3,2,21,0,4,0,1,20,39,11
3,2,11,1,0,0,1,20,75,11
4,2,19,1,6,1,2,20,94,11
4,2,21,0,2,0,2,20,39,11
4,2,21,0,2,0,2,20,94,11
4,2,19,1,2,0,2,20,98,11
4,2,9,1,4,0,2,20,94,11
4,2,22,0,0,0,2,20,39,11
5,2,10,1,6,1,2,20,75,11
5,2,10,1,0,0,2,20,98,11
5,2,21,0,0,0,2,20,89,11
5,2,11,1,0,0,2,20,98,11
6,3,1,0,2,0,2,20,14,9
6,3,19,1,3,0,2,20,1,11
6,3,15,1,4,0,2,20,89,11
6,3,20,1,4,0,2,20,98,11
6,3,15,1,5,1,2,20,98,11
6,3,21,0,6,1,2,20,98,11
6,3,15,1,0,0,2,20,14,11
6,3,11,1,0,0,2,20,75,9
6,3,17,1,6,1,2,20,89,11
6,3,12,1,1,0,2,20,89,11
7,3,13,1,2,0,3,20,86,11
7,3,15,1,2,0,3,20,98,11
7,3,11,1,1,0,3,20,98,11
7,3,14,1,1,0,3,20,98,9
7,3,17,1,4,0,3,20,89,11
7,3,3,0,1,0,3,20,86,11
7,3,18,1,3,0,3,20,98,11
7,3,17,1,3,0,3,20,23,11
7,3,19,1,4,0,3,20,86,11
8,3,16,1,5,1,3,20,86,11
8,3,13,1,6,1,3,20,79,11
8,3,20,1,4,0,3,20,89,11
8,3,12,1,5,1,3,20,98,11
8,3,9,1,6,1,3,20,72,11
9,4,16,1,1,0,3,20,98,11
9,4,18,1,4,0,3,20,89,11
9,4,20,1,5,1,3,20,98,11
9,4,3,0,4,0,3,20,76,11
9,4,18,1,5,1,3,20,98,11
9,4,20,1,5,1,3,20,98,11
9,4,23,0,2,0,3,20,89,11
9,4,13,1,4,0,3,20,56,11
9,4,2,0,5,1,3,20,65,11
9,4,17,1,5,1,3,20,98,11
9,4,21,0,1,0,3,20,89,11
10,4,17,1,3,0,4,20,89,11
10,4,18,1,6,1,4,20,98,11
10,4,21,0,6,1,4,20,65,11
10,4,18,1,6,1,4,20,94,11
10,4,16,1,6,1,4,20,98,11
10,4,19,1,4,0,4,20,94,11
11,4,14,1,2,0,4,20,89,11
11,4,18,1,4,0,4,20,98,11
11,4,17,1,6,1,4,20,98,11
11,4,19,1,0,0,4,20,98,11
11,4,10,1,1,0,4,20,94,11
11,4,22,0,1,0,4,20,94,11
11,4,18,1,5,1,4,20,39,11
11,4,15,1,0,0,4,20,98,11
11,4,20,1,1,0,4,20,65,11
11,4,20,1,6,1,4,20,94,11
11,4,19,1,2,0,4,20,94,11
11,4,15,1,4,0,4,20,98,11
11,4,13,1,4,0,4,20,89,11
11,4,14,1,5,1,4,20,3,11
11,4,13,1,6,1,4,20,94,11
11,4,16,1,6,1,4,20,14,11
12,1,11,1,1,0,4,20,65,9
12,1,1,0,1,0,4,20,94,11
12,1,17,1,5,1,4,20,94,11
12,1,9,1,6,1,4,20,75,11
12,1,14,1,0,0,4,20,98,11
12,1,15,1,1,0,4,20,14,11
12,1,20,1,3,0,4,20,65,11
12,1,19,1,6,1,4,20,94,11
12,1,22,0,6,1,4,20,94,11
12,1,11,1,6,1,4,20,75,11
12,1,18,1,0,0,4,20,94,11
12,1,19,1,4,0,4,20,65,11
12,1,20,1,0,0,4,20,86,11
12,1,22,0,1,0,4,20,94,11
12,1,14,1,3,0,4,20,94,11
12,1,10,1,4,0,4,20,94,11
1,1,20,1,3,0,1,20,94,11
2,1,19,1,0,0,1,20,75,11
3,2,14,1,2,0,1,20,72,11
3,2,10,1,0,0,1,20,98,11
4,2,23,0,6,1,2,20,89,11
4,2,14,1,3,0,2,20,75,11
8,3,7,1,5,1,3,20,86,11
8,3,18,1,5,1,3,20,98,11
9,4,16,1,3,0,3,20,98,11
9,4,14,1,0,0,3,20,98,11
9,4,18,1,6,1,3,20,98,11
10,4,17,1,4,0,4,20,14,9
11,4,9,1,3,0,4,20,89,11
11,4,18,1,3,0,4,20,39,8
12,1,17,1,2,0,4,20,75,11
2,1,9,1,1,0,1,20,75,11
3,2,15,1,0,0,1,20,98,11
4,2,9,1,0,0,2,20,75,11
4,2,15,1,5,1,2,20,98,11
4,2,15,1,5,1,2,20,98,11
4,2,22,0,3,0,2,20,75,9
7,3,11,1,3,0,3,20,86,11
7,3,20,1,0,0,3,20,1,11
7,3,15,1,3,0,3,20,89,11
9,4,19,1,0,0,3,20,98,11
1,1,11,1,3,0,1,20,23,9
1,1,18,1,0,0,1,20,45,9
1,1,14,1,4,0,1,20,89,11
2,1,17,1,5,1,1,20,75,11
3,2,15,1,5,1,1,20,89,11
4,2,15,1,1,0,2,20,98,11
4,2,19,1,4,0,2,20,91,11
4,2,14,1,0,0,2,20,23,9
6,3,17,1,3,0,2,20,98,11
9,4,19,1,1,0,3,20,89,11
11,4,17,1,6,1,4,20,125,11
12,1,14,1,4,0,4,20,8,11
1,1,16,1,3,0,1,20,89,11
2,1,11,1,5,1,1,20,67,11
2,1,13,1,5,1,1,20,75,11
1,1,17,1,5,1,1,18,86,11
1,1,14,1,0,0,1,18,86,11
1,1,2,0,2,0,1,18,86,11
1,1,8,1,2,0,1,18,86,11
1,1,14,1,3,0,1,18,86,11
1,1,17,1,4,0,1,18,98,11
1,1,20,1,0,0,1,18,86,11
1,1,8,1,4,0,1,18,98,11
1,1,15,1,2,0,1,18,75,11
1,1,17,1,4,0,1,18,98,11
2,1,16,1,0,0,1,18,86,11
2,1,10,1,1,0,1,18,86,11
2,1,15,1,5,1,1,18,86,11
2,1,11,1,5,1,1,18,86,11
2,1,20,1,2,0,1,18,53,11
2,1,19,1,3,0,1,18,65,11
2,1,10,1,3,0,1,18,3,11
2,1,11,1,5,1,1,18,89,11
2,1,16,1,5,1,1,18,86,11
2,1,13,1,6,1,1,18,75,11
2,1,15,1,3,0,1,18,98,11
3,2,13,1,0,0,1,18,86,11
3,2,15,1,0,0,1,18,86,11
3,2,14,1,4,0,1,18,65,11
3,2,16,1,6,1,1,18,86,11
3,2,19,1,0,0,1,18,98,11
3,2,7,1,1,0,1,18,89,11
3,2,9,1,2,0,1,18,98,11
3,2,16,1,5,1,1,18,98,11
4,2,17,1,3,0,2,18,86,11
4,2,21,0,4,0,2,18,65,11
4,2,8,1,1,0,2,18,89,11
4,2,13,1,2,0,2,18,89,11
4,2,11,1,3,0,2,18,89,11
4,2,20,1,4,0,2,18,89,11
4,2,14,1,0,0,2,18,98,11
4,2,18,1,1,0,2,18,98,11
4,2,13,1,0,0,2,18,98,11
4,2,19,1,1,0,2,18,89,11
5,2,15,1,2,0,2,18,98,11
5,2,11,1,6,1,2,18,19,11
5,2,4,0,0,0,2,18,125,11
5,2,17,1,3,0,2,18,98,11
5,2,13,1,4,0,2,18,89,11
5,2,8,1,5,1,2,18,61,11
6,3,20,1,4,0,2,18,89,11
6,3,22,0,0,0,2,18,98,11
6,3,11,1,5,1,2,18,89,11
6,3,13,1,4,0,2,18,98,11
7,3,22,0,4,0,3,18,99,11
7,3,21,0,6,1,3,18,98,11
7,3,22,0,2,0,3,18,98,11
8,3,18,1,5,1,3,18,106,11
8,3,14,1,0,0,3,18,55,11
8,3,16,1,2,0,3,18,89,11
8,3,6,0,5,1,3,18,89,11
8,3,1,0,6,1,3,18,89,11
8,3,18,1,3,0,3,18,89,11
9,4,12,1,4,0,3,18,98,11
9,4,18,1,5,1,3,18,98,11
9,4,3,0,3,0,3,18,47,11
9,4,23,0,4,0,3,18,47,11
10,4,15,1,6,1,4,18,98,11
10,4,17,1,2,0,4,18,98,11
11,4,17,1,1,0,4,18,98,11
11,4,0,0,3,0,4,18,89,11
11,4,18,1,3,0,4,18,98,11
11,4,16,1,6,1,4,18,98,11
11,4,18,1,1,0,4,18,27,11
11,4,11,1,6,1,4,18,98,11
11,4,12,1,5,1,4,18,98,11
11,4,1,0,6,1,4,18,98,11
11,4,9,1,6,1,4,18,98,11
12,1,15,1,3,0,4,18,125,11
12,1,17,1,3,0,4,18,125,11
12,1,12,1,6,1,4,18,98,11
12,1,10,1,6,1,4,18,65,11
12,1,18,1,1,0,4,18,106,11
12,1,14,1,2,0,4,18,23,11
1,1,12,1,2,0,1,18,78,11
1,1,12,1,6,1,1,18,98,11
1,1,16,1,2,0,1,18,98,11
1,1,10,1,6,1,1,18,98,11
1,1,13,1,0,0,1,18,89,11
1,1,13,1,5,1,1,18,75,11
2,1,11,1,1,0,1,18,75,9
2,1,14,1,3,0,1,18,86,11
3,2,12,1,6,1,1,18,75,11
3,2,21,0,2,0,1,18,75,11
3,2,17,1,1,0,1,18,98,11
3,2,19,1,5,1,1,18,75,11
3,2,14,1,3,0,1,18,89,11
4,2,13,1,0,0,2,18,98,11
4,2,13,1,6,1,2,18,89,11
4,2,17,1,3,0,2,18,86,11
5,2,12,1,6,1,2,18,89,11
6,3,19,1,6,1,2,18,72,11
6,3,7,1,2,0,2,18,19,9
6,3,19,1,2,0,2,18,98,11
7,3,17,1,3,0,3,18,98,11
7,3,13,1,3,0,3,18,75,11
8,3,18,1,5,1,3,18,89,11
8,3,22,0,5,1,3,18,106,11
8,3,22,0,0,0,3,18,72,11
8,3,1,0,4,0,3,18,106,11
9,4,12,1,3,0,3,18,89,11
9,4,9,1,6,1,3,18,98,11
10,4,16,1,5,1,4,18,89,11
11,4,15,1,0,0,4,18,98,11
1,1,19,1,6,1,1,18,75,11
2,1,18,1,3,0,1,18,75,11
2,1,15,1,2,0,1,18,86,11
2,1,21,0,2,0,1,18,3,11
3,2,17,1,3,0,1,18,14,11
3,2,12,1,5,1,1,18,98,11
3,2,17,1,1,0,1,18,86,11
4,2,12,1,4,0,2,18,98,11
4,2,18,1,0,0,2,18,89,11
4,2,17,1,1,0,2,18,98,11
4,2,19,1,3,0,2,18,89,11
4,2,9,1,6,1,2,18,98,11
4,2,22,0,4,0,2,18,98,11
4,2,16,1,1,0,2,18,13,11
4,2,23,0,3,0,2,18,98,11
5,2,8,1,0,0,2,18,98,11
5,2,17,1,0,0,2,18,98,11
5,2,14,1,5,1,2,18,98,11
6,3,8,1,2,0,2,18,89,11
6,3,21,0,3,0,2,18,89,11
6,3,19,1,2,0,2,18,98,11
6,3,14,1,2,0,2,18,98,11
7,3,19,1,2,0,3,18,98,11
8,3,20,1,4,0,3,18,89,11
9,4,12,1,6,1,3,18,19,11
9,4,11,1,6,1,3,18,106,11
10,4,19,1,4,0,4,18,89,11
10,4,10,1,2,0,4,18,98,11
11,4,19,1,6,1,4,18,98,11
11,4,9,1,5,1,4,18,98,11
12,1,11,1,4,0,4,18,65,11
1,1,4,0,3,0,1,4,72,11
1,1,13,1,3,0,1,4,75,11
1,1,15,1,3,0,1,4,65,11
1,1,19,1,3,0,1,4,75,11
1,1,12,1,4,0,1,4,75,8
1,1,9,1,4,0,1,4,94,11
1,1,21,0,5,1,1,4,98,11
1,1,18,1,0,0,1,4,96,11
1,1,13,1,1,0,1,4,98,11
1,1,15,1,1,0,1,4,91,9
1,1,19,1,2,0,1,4,39,11
1,1,20,1,2,0,1,4,98,11
1,1,19,1,3,0,1,4,65,8
1,1,18,1,3,0,1,4,98,11
1,1,17,1,4,0,1,4,98,11
1,1,6,0,5,1,1,4,105,11
1,1,12,1,0,0,1,4,89,11
1,1,17,1,1,0,1,4,98,11
1,1,15,1,2,0,1,4,94,11
1,1,13,1,2,0,1,4,98,11
1,1,23,0,5,1,1,4,98,11
1,1,17,1,5,1,1,4,75,9
1,1,21,0,6,1,1,4,98,11
1,1,20,1,6,1,1,4,39,11
1,1,16,1,0,0,1,4,89,11
1,1,14,1,0,0,1,4,94,11
1,1,14,1,1,0,1,4,98,11
1,1,12,1,2,0,1,4,94,11
1,1,15,1,2,0,1,4,98,11
1,1,2,0,3,0,1,4,75,9
1,1,12,1,3,0,1,4,98,11
1,1,13,1,3,0,1,4,72,11
1,1,19,1,3,0,1,4,39,11
1,1,20,1,3,0,1,4,89,11
1,1,10,1,4,0,1,4,89,11
1,1,11,1,4,0,1,4,98,11
1,1,21,0,5,1,1,4,98,11
1,1,20,1,5,1,1,4,98,11
1,1,10,1,5,1,1,4,75,11
1,1,15,1,6,1,1,4,98,11
1,1,17,1,6,1,1,4,98,11
1,1,18,1,0,0,1,4,75,11
1,1,3,0,4,0,1,4,94,11
2,1,19,1,5,1,1,4,98,11
2,1,11,1,5,1,1,4,39,11
2,1,10,1,5,1,1,4,94,11
2,1,14,1,6,1,1,4,94,11
2,1,9,1,3,0,1,4,39,8
2,1,15,1,3,0,1,4,98,11
2,1,19,1,4,0,1,4,98,11
2,1,10,1,5,1,1,4,75,11
2,1,21,0,5,1,1,4,98,11
2,1,17,1,0,0,1,4,98,11
2,1,17,1,0,0,1,4,98,11
2,1,15,1,2,0,1,4,98,11
2,1,20,1,3,0,1,4,89,11
2,1,0,0,4,0,1,4,75,11
2,1,1,0,4,0,1,4,72,11
2,1,18,1,0,0,1,4,75,11
2,1,19,1,1,0,1,4,98,11
2,1,11,1,3,0,1,4,72,11
2,1,18,1,4,0,1,4,65,11
2,1,16,1,6,1,1,4,98,11
2,1,19,1,6,1,1,4,89,11
2,1,17,1,0,0,1,4,98,11
2,1,13,1,0,0,1,4,98,11
2,1,7,1,0,0,1,4,98,9
2,1,1,0,1,0,1,4,98,11
2,1,8,1,1,0,1,4,75,11
2,1,14,1,1,0,1,4,98,11
2,1,19,1,1,0,1,4,72,11
2,1,20,1,2,0,1,4,65,11
2,1,0,0,3,0,1,4,98,11
2,1,15,1,3,0,1,4,98,11
2,1,23,0,5,1,1,4,98,11
2,1,22,0,5,1,1,4,94,11
2,1,21,0,5,1,1,4,94,11
3,2,20,1,3,0,1,4,75,11
3,2,2,0,2,0,1,4,72,11
3,2,2,0,2,0,1,4,94,11
3,2,18,1,3,0,1,4,89,11
3,2,19,1,3,0,1,4,98,11
3,2,14,1,0,0,1,4,98,11
3,2,0,0,1,0,1,4,105,8
3,2,8,1,1,0,1,4,94,11
3,2,13,1,2,0,1,4,98,11
3,2,23,0,2,0,1,4,98,11
3,2,14,1,2,0,1,4,98,11
3,2,16,1,3,0,1,4,98,11
3,2,18,1,3,0,1,4,65,11
3,2,19,1,3,0,1,4,98,11
3,2,15,1,5,1,1,4,98,11
3,2,21,0,2,0,1,4,65,11
3,2,2,0,4,0,1,4,72,9
3,2,17,1,6,1,1,4,98,11
3,2,13,1,0,0,1,4,75,11
3,2,15,1,0,0,1,4,98,11
3,2,20,1,1,0,1,4,98,11
4,2,21,0,2,0,2,4,39,11
4,2,13,1,2,0,2,4,39,11
4,2,18,1,1,0,2,4,89,11
4,2,16,1,4,0,2,4,98,11
4,2,15,1,4,0,2,4,98,11
4,2,12,1,0,0,2,4,98,11
4,2,12,1,2,0,2,4,68,11
4,2,21,0,3,0,2,4,98,11
4,2,16,1,4,0,2,4,98,11
4,2,9,1,5,1,2,4,13,9
4,2,19,1,1,0,2,4,98,11
4,2,23,0,2,0,2,4,89,11
5,2,23,0,5,1,2,4,98,11
5,2,4,0,5,1,2,4,94,11
5,2,16,1,5,1,2,4,98,11
5,2,15,1,6,1,2,4,98,11
5,2,10,1,5,1,2,4,94,11
5,2,14,1,0,0,2,4,86,11
5,2,15,1,2,0,2,4,98,11
5,2,21,0,4,0,2,4,89,11
5,2,15,1,5,1,2,4,98,11
6,3,0,0,4,0,2,4,98,11
6,3,19,1,5,1,2,4,98,11
6,3,16,1,3,0,2,4,98,11
6,3,21,0,4,0,2,4,98,11
6,3,15,1,6,1,2,4,98,11
6,3,13,1,0,0,2,4,98,11
6,3,12,1,2,0,2,4,98,11
6,3,8,1,3,0,2,4,98,11
6,3,11,1,5,1,2,4,94,11
6,3,21,0,4,0,2,4,86,11
6,3,13,1,6,1,2,4,65,11
7,3,14,1,2,0,3,4,75,11
7,3,20,1,3,0,3,4,98,11
7,3,22,0,4,0,3,4,98,11
7,3,17,1,5,1,3,4,94,11
7,3,20,1,0,0,3,4,96,11
7,3,15,1,0,0,3,4,89,11
7,3,9,1,2,0,3,4,72,11
7,3,18,1,2,0,3,4,98,11
7,3,23,0,3,0,3,4,98,11
7,3,17,1,4,0,3,4,86,11
7,3,12,1,4,0,3,4,89,11
7,3,22,0,6,1,3,4,98,11
7,3,1,0,0,0,3,4,98,11
7,3,11,1,0,0,3,4,98,11
7,3,16,1,4,0,3,4,98,11
7,3,21,0,1,0,3,4,98,11
7,3,16,1,2,0,3,4,89,11
7,3,18,1,4,0,3,4,98,11
8,3,20,1,0,0,3,4,98,11
8,3,9,1,1,0,3,4,98,11
8,3,6,0,3,0,3,4,72,11
8,3,8,1,0,0,3,4,89,11
8,3,3,0,0,0,3,4,39,11
8,3,12,1,2,0,3,4,98,11
8,3,18,1,3,0,3,4,98,11
8,3,4,0,4,0,3,4,94,11
8,3,20,1,4,0,3,4,89,11
8,3,1,0,0,0,3,4,94,11
8,3,19,1,2,0,3,4,98,11
8,3,5,0,4,0,3,4,98,11
8,3,14,1,5,1,3,4,19,11
8,3,19,1,6,1,3,4,89,11
8,3,14,1,0,0,3,4,98,11
9,4,1,0,1,0,3,4,94,11
9,4,19,1,5,1,3,4,89,11
9,4,20,1,0,0,3,4,89,11
9,4,1,0,1,0,3,4,98,11
9,4,20,1,3,0,3,4,89,11
9,4,20,1,3,0,3,4,89,11
9,4,7,1,4,0,3,4,89,11
9,4,11,1,1,0,3,4,98,11
9,4,18,1,2,0,3,4,89,11
9,4,19,1,3,0,3,4,98,11
9,4,17,1,3,0,3,4,98,11
9,4,10,1,5,1,3,4,98,11
9,4,5,0,6,1,3,4,94,11
9,4,10,1,0,0,3,4,86,11
9,4,7,1,0,0,3,4,75,11
9,4,4,0,1,0,3,4,98,11
9,4,22,0,1,0,3,4,39,9
9,4,11,1,2,0,3,4,89,11
10,4,9,1,5,1,4,4,75,11
10,4,12,1,5,1,4,4,72,11
10,4,15,1,5,1,4,4,98,11
10,4,17,1,6,1,4,4,94,11
10,4,2,0,2,0,4,4,94,11
10,4,17,1,4,0,4,4,72,11
10,4,23,0,5,1,4,4,65,11
10,4,14,1,5,1,4,4,98,11
11,4,8,1,4,0,4,4,89,11
11,4,22,0,4,0,4,4,89,11
11,4,10,1,6,1,4,4,98,11
11,4,11,1,6,1,4,4,94,11
11,4,14,1,2,0,4,4,98,11
11,4,17,1,2,0,4,4,98,11
11,4,21,0,3,0,4,4,39,11
11,4,20,1,4,0,4,4,75,11
11,4,19,1,0,0,4,4,98,11
11,4,16,1,1,0,4,4,75,11
11,4,12,1,3,0,4,4,98,11
11,4,16,1,4,0,4,4,98,11
11,4,20,1,4,0,4,4,98,11
11,4,20,1,4,0,4,4,98,11
11,4,11,1,5,1,4,4,25,11
11,4,23,0,6,1,4,4,98,11
11,4,18,1,6,1,4,4,14,8
11,4,21,0,3,0,4,4,89,11
11,4,11,1,3,0,4,4,98,11
11,4,10,1,3,0,4,4,72,11
11,4,12,1,4,0,4,4,89,11
11,4,17,1,5,1,4,4,3,11
11,4,11,1,5,1,4,4,3,11
11,4,10,1,6,1,4,4,98,11
12,1,15,1,1,0,4,4,98,11
12,1,17,1,2,0,4,4,98,11
12,1,20,1,3,0,4,4,94,11
12,1,19,1,4,0,4,4,65,11
12,1,21,0,5,1,4,4,98,11
12,1,10,1,6,1,4,4,89,11
12,1,2,0,4,0,4,4,75,11
12,1,16,1,6,1,4,4,65,11
12,1,12,1,2,0,4,4,39,11
12,1,15,1,3,0,4,4,94,11
12,1,15,1,4,0,4,4,94,11
12,1,15,1,5,1,4,4,94,11
12,1,13,1,6,1,4,4,94,11
12,1,22,0,6,1,4,4,39,11
12,1,19,1,2,0,4,4,94,11
2,1,13,1,5,1,1,4,75,11
3,2,14,1,1,0,1,4,72,11
4,2,12,1,4,0,2,4,98,11
8,3,7,1,2,0,3,4,13,11
11,4,17,1,5,1,4,4,75,11
1,1,16,1,4,0,1,4,39,11
1,1,15,1,0,0,1,4,98,11
1,1,10,1,3,0,1,4,98,11
3,2,20,1,6,1,1,4,65,11
3,2,20,1,1,0,1,4,75,11
3,2,12,1,6,1,1,4,75,11
4,2,11,1,6,1,2,4,13,11
7,3,15,1,4,0,3,4,89,11
9,4,15,1,1,0,3,4,75,11
1,1,18,1,2,0,1,40,98,11
1,1,22,0,2,0,1,40,65,11
1,1,16,1,3,0,1,40,89,11
1,1,17,1,3,0,1,40,94,11
1,1,18,1,1,0,1,40,98,11
1,1,20,1,1,0,1,40,65,11
1,1,18,1,2,0,1,40,106,11
1,1,19,1,4,0,1,40,39,11
1,1,12,1,6,1,1,40,89,11
1,1,16,1,0,0,1,40,98,11
1,1,1,0,1,0,1,40,94,11
1,1,11,1,2,0,1,40,98,11
1,1,17,1,2,0,1,40,98,11
1,1,21,0,3,0,1,40,94,11
1,1,11,1,1,0,1,40,98,11
1,1,15,1,4,0,1,40,94,11
1,1,17,1,4,0,1,40,39,11
1,1,6,0,5,1,1,40,106,11
1,1,19,1,2,0,1,40,89,11
2,1,17,1,0,0,1,40,98,11
2,1,19,1,2,0,1,40,19,11
2,1,20,1,5,1,1,40,98,11
2,1,21,0,3,0,1,40,94,11
2,1,20,1,6,1,1,40,94,11
3,2,8,1,6,1,1,40,94,11
3,2,17,1,1,0,1,40,83,11
3,2,18,1,5,1,1,40,98,11
3,2,20,1,0,0,1,40,65,8
3,2,18,1,2,0,1,40,89,11
3,2,12,1,3,0,1,40,98,9
3,2,16,1,4,0,1,40,98,11
4,2,13,1,3,0,2,40,98,11
4,2,1,0,6,1,2,40,51,11
4,2,13,1,4,0,2,40,65,8
5,2,14,1,0,0,2,40,98,11
6,3,13,1,4,0,2,40,27,11
6,3,22,0,5,1,2,40,89,11
6,3,22,0,2,0,2,40,89,11
6,3,8,1,5,1,2,40,75,11
6,3,5,0,0,0,2,40,125,11
6,3,10,1,0,0,2,40,98,11
6,3,14,1,1,0,2,40,89,11
7,3,19,1,3,0,3,40,86,11
8,3,20,1,0,0,3,40,19,11
8,3,7,1,5,1,3,40,19,11
8,3,21,0,6,1,3,40,98,11
8,3,14,1,6,1,3,40,14,11
8,3,21,0,0,0,3,40,98,11
9,4,10,1,0,0,3,40,75,9
9,4,20,1,3,0,3,40,89,11
9,4,10,1,5,1,3,40,19,11
9,4,12,1,6,1,3,40,86,11
9,4,17,1,3,0,3,40,106,11
9,4,15,1,6,1,3,40,98,11
10,4,14,1,4,0,4,40,98,11
10,4,11,1,2,0,4,40,75,11
10,4,0,0,3,0,4,40,75,8
10,4,16,1,3,0,4,40,1,11
10,4,19,1,5,1,4,40,86,11
11,4,5,0,2,0,4,40,71,8
11,4,14,1,5,1,4,40,98,11
11,4,13,1,0,0,4,40,98,11
11,4,12,1,2,0,4,40,98,11
11,4,12,1,3,0,4,40,98,11
11,4,13,1,5,1,4,40,86,11
11,4,12,1,6,1,4,40,86,11
11,4,10,1,0,0,4,40,3,11
11,4,20,1,3,0,4,40,39,11
11,4,13,1,3,0,4,40,98,11
11,4,13,1,3,0,4,40,98,11
11,4,16,1,5,1,4,40,98,11
12,1,21,0,6,1,4,40,86,11
12,1,20,1,0,0,4,40,1,11
12,1,17,1,0,0,4,40,1,11
1,1,16,1,4,0,1,40,98,11
1,1,15,1,1,0,1,40,98,11
1,1,17,1,2,0,1,40,98,11
1,1,17,1,2,0,1,40,98,11
1,1,14,1,3,0,1,40,98,11
1,1,17,1,1,0,1,40,75,9
1,1,14,1,1,0,1,40,98,11
1,1,16,1,1,0,1,40,98,11
1,1,22,0,5,1,1,40,98,11
1,1,16,1,1,0,1,40,125,11
2,1,18,1,6,1,1,40,98,11
2,1,16,1,0,0,1,40,98,11
2,1,19,1,3,0,1,40,98,11
2,1,14,1,1,0,1,40,98,11
2,1,11,1,6,1,1,40,98,11
2,1,13,1,6,1,1,40,98,11
2,1,18,1,2,0,1,40,98,11
2,1,18,1,4,0,1,40,98,11
3,2,13,1,1,0,1,40,125,11
3,2,18,1,1,0,1,40,98,11
3,2,17,1,1,0,1,40,75,11
3,2,20,1,0,0,1,40,98,11
3,2,20,1,2,0,1,40,75,11
3,2,10,1,4,0,1,40,98,11
3,2,19,1,4,0,1,40,98,11
3,2,15,1,5,1,1,40,98,11
3,2,11,1,5,1,1,40,98,11
3,2,12,1,4,0,1,40,106,11
3,2,13,1,0,0,1,40,20,11
3,2,9,1,1,0,1,40,98,11
4,2,12,1,3,0,2,40,98,11
4,2,8,1,4,0,2,40,75,11
4,2,20,1,5,1,2,40,89,11
4,2,19,1,4,0,2,40,39,11
4,2,19,1,0,0,2,40,98,11
4,2,16,1,2,0,2,40,98,11
5,2,16,1,4,0,2,40,98,11
5,2,13,1,0,0,2,40,98,11
5,2,12,1,3,0,2,40,98,11
5,2,19,1,0,0,2,40,98,11
5,2,20,1,0,0,2,40,98,11
5,2,0,0,1,0,2,40,105,11
5,2,17,1,2,0,2,40,98,11
5,2,11,1,2,0,2,40,98,11
5,2,15,1,0,0,2,40,98,11
6,3,19,1,3,0,2,40,98,11
6,3,10,1,4,0,2,40,98,11
6,3,15,1,4,0,2,40,98,9
6,3,22,0,6,1,2,40,86,11
6,3,19,1,3,0,2,40,89,11
6,3,11,1,4,0,2,40,98,11
6,3,18,1,4,0,2,40,98,11
6,3,12,1,4,0,2,40,98,11
6,3,12,1,2,0,2,40,98,11
7,3,18,1,5,1,3,40,89,11
7,3,18,1,4,0,3,40,98,11
7,3,12,1,0,0,3,40,98,11
7,3,7,1,2,0,3,40,98,11
7,3,17,1,6,1,3,40,13,9
7,3,2,0,3,0,3,40,98,11
7,3,9,1,2,0,3,40,98,11
8,3,22,0,6,1,3,40,98,11
8,3,12,1,0,0,3,40,98,11
8,3,20,1,2,0,3,40,98,11
8,3,19,1,5,1,3,40,86,8
8,3,9,1,6,1,3,40,98,11
8,3,12,1,0,0,3,40,98,11
9,4,9,1,3,0,3,40,19,11
9,4,15,1,1,0,3,40,86,11
9,4,16,1,6,1,3,40,98,11
9,4,0,0,2,0,3,40,98,11
9,4,8,1,3,0,3,40,98,11
9,4,19,1,0,0,3,40,98,11
10,4,19,1,5,1,4,40,98,11
10,4,11,1,6,1,4,40,98,11
10,4,17,1,6,1,4,40,98,11
10,4,2,0,1,0,4,40,98,11
10,4,14,1,1,0,4,40,98,11
10,4,19,1,1,0,4,40,98,11
10,4,13,1,4,0,4,40,19,11
11,4,17,1,5,1,4,40,98,11
11,4,13,1,0,0,4,40,98,11
11,4,23,0,3,0,4,40,98,11
11,4,13,1,6,1,4,40,75,11
11,4,18,1,1,0,4,40,125,11
11,4,17,1,5,1,4,40,98,11
11,4,18,1,6,1,4,40,98,11
11,4,13,1,6,1,4,40,98,11
11,4,17,1,0,0,4,40,75,11
11,4,15,1,1,0,4,40,98,11
11,4,11,1,1,0,4,40,98,11
12,1,18,1,5,1,4,40,98,11
1,1,18,1,3,0,1,40,3,11
1,1,16,1,4,0,1,40,98,11
2,1,15,1,2,0,1,40,98,11
2,1,5,0,3,0,1,40,75,8
2,1,18,1,2,0,1,40,98,11
3,2,9,1,3,0,1,40,75,11
3,2,13,1,1,0,1,40,125,11
3,2,16,1,1,0,1,40,98,11
3,2,14,1,5,1,1,40,98,11
4,2,23,0,0,0,2,40,98,11
5,2,14,1,0,0,2,40,75,11
11,4,16,1,6,1,4,40,14,9
11,4,14,1,4,0,4,40,98,11
11,4,11,1,1,0,4,40,98,11
11,4,15,1,2,0,4,40,98,11
2,1,15,1,3,0,1,40,86,11
2,1,15,1,3,0,1,40,3,11
2,1,18,1,5,1,1,40,86,9
2,1,18,1,5,1,1,40,86,11
2,1,13,1,1,0,1,40,86,11
3,2,12,1,0,0,1,40,89,9
3,2,12,1,2,0,1,40,98,11
3,2,13,1,3,0,1,40,98,11
3,2,13,1,5,1,1,40,75,8
4,2,16,1,3,0,2,40,98,11
4,2,15,1,2,0,2,40,98,11
5,2,9,1,6,1,2,40,98,11
6,3,10,1,1,0,2,40,98,11
7,3,10,1,2,0,3,40,19,9
7,3,19,1,1,0,3,40,89,11
7,3,3,0,4,0,3,40,98,11
7,3,13,1,6,1,3,40,98,11
7,3,22,0,1,0,3,40,98,11
7,3,15,1,3,0,3,40,98,11
8,3,21,0,2,0,3,40,98,11
8,3,6,0,5,1,3,40,98,11
9,4,12,1,3,0,3,40,89,11
9,4,12,1,5,1,3,40,98,11
10,4,19,1,5,1,4,40,13,11
11,4,14,1,6,1,4,40,98,11
11,4,14,1,5,1,4,40,98,11
11,4,17,1,5,1,4,40,98,11
11,4,13,1,5,1,4,40,98,11
11,4,17,1,2,0,4,40,86,11
12,1,16,1,5,1,4,40,75,8
4,2,14,1,6,1,2,31,96,11
4,2,14,1,5,1,2,31,89,11
4,2,20,1,5,1,2,31,103,11
8,3,14,1,5,1,3,31,76,11
9,4,19,1,3,0,3,31,89,11
9,4,13,1,4,0,3,31,106,11
9,4,23,0,4,0,3,31,106,11
9,4,21,0,1,0,3,31,83,8
10,4,19,1,6,1,4,31,19,11
10,4,18,1,0,0,4,31,89,11
10,4,15,1,4,0,4,31,72,9
11,4,22,0,3,0,4,31,47,8
11,4,17,1,5,1,4,31,19,9
11,4,21,0,5,1,4,31,75,8
12,1,13,1,4,0,4,31,125,11
12,1,8,1,1,0,4,31,121,9
1,1,5,0,3,0,1,31,98,11
1,1,20,1,4,0,1,31,86,11
1,1,11,1,6,1,1,31,86,11
1,1,14,1,3,0,1,31,89,11
1,1,23,0,5,1,1,31,98,11
1,1,15,1,5,1,1,31,86,11
1,1,18,1,4,0,1,31,89,11
2,1,12,1,6,1,1,31,89,11
2,1,19,1,1,0,1,31,98,11
2,1,19,1,4,0,1,31,98,11
2,1,8,1,3,0,1,31,58,8
3,2,18,1,6,1,1,31,98,11
3,2,12,1,1,0,1,31,89,11
3,2,22,0,1,0,1,31,86,11
3,2,14,1,4,0,1,31,89,11
3,2,13,1,4,0,1,31,98,11
3,2,14,1,1,0,1,31,86,11
5,2,20,1,6,1,2,31,125,11
5,2,20,1,0,0,2,31,125,11
5,2,12,1,6,1,2,31,105,8
5,2,17,1,1,0,2,31,89,11
5,2,12,1,3,0,2,31,13,8
5,2,7,1,1,0,2,31,14,11
6,3,13,1,2,0,2,31,89,11
6,3,20,1,4,0,2,31,89,11
6,3,11,1,4,0,2,31,89,11
6,3,23,0,6,1,2,31,89,11
6,3,1,0,2,0,2,31,89,9
6,3,8,1,3,0,2,31,89,11
6,3,18,1,3,0,2,31,89,11
6,3,12,1,4,0,2,31,3,11
6,3,14,1,4,0,2,31,89,11
6,3,22,0,5,1,2,31,27,11
6,3,20,1,0,0,2,31,86,11
6,3,6,0,3,0,2,31,98,11
6,3,21,0,4,0,2,31,98,11
6,3,23,0,3,0,2,31,94,11
6,3,10,1,1,0,2,31,75,11
7,3,21,0,5,1,3,31,79,11
7,3,11,1,5,1,3,31,75,11
7,3,15,1,0,0,3,31,125,11
7,3,10,1,1,0,3,31,14,11
7,3,22,0,1,0,3,31,89,11
7,3,23,0,1,0,3,31,98,11
7,3,23,0,2,0,3,31,89,11
7,3,14,1,4,0,3,31,125,11
9,4,10,1,2,0,3,31,98,11
9,4,21,0,3,0,3,31,89,11
9,4,20,1,3,0,3,31,86,11
10,4,22,0,4,0,4,31,86,11
10,4,18,1,1,0,4,31,3,11
10,4,23,0,6,1,4,31,86,11
10,4,11,1,2,0,4,31,63,11
10,4,0,0,0,0,4,31,86,11
10,4,9,1,0,0,4,31,56,11
10,4,16,1,1,0,4,31,86,11
7,3,19,1,3,0,3,31,19,11
1,1,10,1,3,0,1,31,3,11
1,1,19,1,3,0,1,31,75,11
1,1,22,0,4,0,1,31,72,11
1,1,15,1,5,1,1,31,65,11
1,1,17,1,5,1,1,31,94,11
1,1,15,1,5,1,1,31,65,11
1,1,23,0,5,1,1,31,67,11
1,1,16,1,6,1,1,31,65,11
1,1,12,1,6,1,1,31,39,11
1,1,22,0,6,1,1,31,94,11
1,1,18,1,0,0,1,31,94,11
1,1,22,0,0,0,1,31,94,11
1,1,12,1,0,0,1,31,94,11
1,1,14,1,0,0,1,31,94,11
1,1,21,0,0,0,1,31,94,11
1,1,20,1,1,0,1,31,94,11
1,1,20,1,2,0,1,31,94,11
1,1,20,1,5,1,1,31,65,11
1,1,19,1,5,1,1,31,89,11
1,1,2,0,5,1,1,31,94,11
1,1,3,0,5,1,1,31,94,11
1,1,19,1,6,1,1,31,98,11
1,1,16,1,6,1,1,31,94,11
1,1,16,1,6,1,1,31,39,11
1,1,17,1,3,0,1,31,94,11
1,1,19,1,5,1,1,31,86,11
1,1,4,0,6,1,1,31,14,11
1,1,6,0,6,1,1,31,45,11
1,1,19,1,0,0,1,31,75,11
1,1,21,0,0,0,1,31,65,11
1,1,10,1,3,0,1,31,65,11
1,1,20,1,3,0,1,31,98,9
1,1,21,0,4,0,1,31,86,11
1,1,9,1,5,1,1,31,75,11
1,1,18,1,6,1,1,31,98,11
1,1,3,0,6,1,1,31,14,8
1,1,21,0,0,0,1,31,89,11
1,1,19,1,1,0,1,31,27,11
1,1,18,1,1,0,1,31,27,11
1,1,16,1,2,0,1,31,14,8
1,1,5,0,3,0,1,31,94,11
1,1,17,1,3,0,1,31,75,11
1,1,5,0,3,0,1,31,98,11
1,1,15,1,3,0,1,31,3,11
1,1,15,1,3,0,1,31,3,11
1,1,15,1,3,0,1,31,86,11
2,1,1,0,5,1,1,31,94,11
2,1,22,0,2,0,1,31,94,11
2,1,19,1,2,0,1,31,75,11
2,1,21,0,3,0,1,31,86,11
2,1,22,0,4,0,1,31,94,11
2,1,20,1,4,0,1,31,94,11
2,1,15,1,4,0,1,31,39,11
2,1,11,1,4,0,1,31,94,11
2,1,15,1,6,1,1,31,94,11
2,1,8,1,6,1,1,31,94,11
2,1,15,1,6,1,1,31,27,11
2,1,21,0,0,0,1,31,94,11
2,1,20,1,0,0,1,31,86,11
2,1,20,1,0,0,1,31,86,11
2,1,13,1,1,0,1,31,98,11
2,1,1,0,1,0,1,31,86,11
2,1,21,0,2,0,1,31,94,11
2,1,11,1,3,0,1,31,89,11
2,1,6,0,5,1,1,31,75,11
2,1,21,0,0,0,1,31,94,11
2,1,13,1,2,0,1,31,98,11
2,1,19,1,2,0,1,31,94,11
2,1,20,1,2,0,1,31,94,11
2,1,21,0,2,0,1,31,86,11
2,1,1,0,5,1,1,31,94,11
2,1,1,0,1,0,1,31,89,11
2,1,19,1,2,0,1,31,89,11
2,1,16,1,2,0,1,31,63,11
2,1,14,1,3,0,1,31,94,11
2,1,14,1,4,0,1,31,65,11
2,1,20,1,5,1,1,31,89,11
2,1,0,0,5,1,1,31,86,11
3,2,18,1,0,0,1,31,89,11
3,2,15,1,1,0,1,31,23,11
3,2,18,1,2,0,1,31,94,11
3,2,14,1,5,1,1,31,89,11
3,2,13,1,0,0,1,31,23,11
3,2,18,1,0,0,1,31,65,11
3,2,20,1,2,0,1,31,98,11
3,2,23,0,5,1,1,31,98,11
3,2,20,1,1,0,1,31,86,11
3,2,1,0,1,0,1,31,23,8
3,2,20,1,1,0,1,31,94,11
3,2,12,1,1,0,1,31,24,11
3,2,10,1,2,0,1,31,89,11
3,2,22,0,3,0,1,31,3,11
3,2,10,1,4,0,1,31,89,11
3,2,18,1,5,1,1,31,3,11
3,2,19,1,5,1,1,31,3,11
3,2,12,1,2,0,1,31,94,11
3,2,12,1,2,0,1,31,94,11
3,2,15,1,3,0,1,31,86,11
3,2,22,0,6,1,1,31,86,11
4,2,7,1,2,0,2,31,39,11
4,2,22,0,3,0,2,31,94,11
4,2,10,1,3,0,2,31,94,11
4,2,4,0,5,1,2,31,39,11
4,2,23,0,0,0,2,31,89,11
4,2,21,0,0,0,2,31,89,11
4,2,22,0,1,0,2,31,96,11
4,2,18,1,3,0,2,31,89,11
4,2,5,0,6,1,2,31,65,11
4,2,19,1,6,1,2,31,23,11
4,2,2,0,1,0,2,31,86,11
4,2,11,1,6,1,2,31,89,11
4,2,2,0,0,0,2,31,96,11
4,2,9,1,2,0,2,31,89,11
4,2,13,1,2,0,2,31,86,11
5,2,22,0,4,0,2,31,86,11
5,2,18,1,4,0,2,31,94,11
5,2,21,0,1,0,2,31,89,11
5,2,19,1,6,1,2,31,87,11
5,2,21,0,0,0,2,31,89,11
5,2,14,1,3,0,2,31,89,11
5,2,12,1,4,0,2,31,98,11
5,2,18,1,4,0,2,31,86,11
5,2,22,0,5,1,2,31,3,11
5,2,19,1,6,1,2,31,89,11
5,2,3,0,0,0,2,31,86,11
5,2,18,1,0,0,2,31,86,11
5,2,3,0,1,0,2,31,86,11
5,2,16,1,3,0,2,31,13,11
5,2,23,0,4,0,2,31,86,11
5,2,8,1,1,0,2,31,86,11
5,2,14,1,3,0,2,31,65,11
5,2,0,0,4,0,2,31,9,11
5,2,13,1,6,1,2,31,89,11
6,3,10,1,0,0,2,31,89,11
6,3,19,1,0,0,2,31,98,11
6,3,22,0,4,0,2,31,89,11
6,3,16,1,4,0,2,31,89,11
6,3,16,1,6,1,2,31,19,11
6,3,23,0,0,0,2,31,89,11
6,3,23,0,0,0,2,31,98,11
6,3,4,0,4,0,2,31,65,11
6,3,4,0,4,0,2,31,65,11
6,3,10,1,6,1,2,31,13,8
6,3,19,1,0,0,2,31,3,11
6,3,10,1,1,0,2,31,23,11
6,3,17,1,1,0,2,31,98,11
6,3,15,1,5,1,2,31,13,8
6,3,0,0,6,1,2,31,65,11
6,3,7,1,6,1,2,31,94,11
6,3,13,1,0,0,2,31,89,9
6,3,14,1,1,0,2,31,113,11
6,3,15,1,2,0,2,31,3,11
6,3,22,0,4,0,2,31,75,11
6,3,1,0,4,0,2,31,113,8
6,3,13,1,1,0,2,31,89,11
7,3,13,1,2,0,3,31,65,11
7,3,19,1,2,0,3,31,86,11
7,3,15,1,3,0,3,31,89,11
7,3,19,1,3,0,3,31,89,11
7,3,10,1,4,0,3,31,86,11
7,3,16,1,5,1,3,31,89,11
7,3,19,1,6,1,3,31,106,11
7,3,6,0,0,0,3,31,106,11
7,3,9,1,2,0,3,31,86,11
7,3,13,1,2,0,3,31,66,11
7,3,14,1,2,0,3,31,94,11
7,3,2,0,2,0,3,31,89,11
7,3,0,0,3,0,3,31,19,11
7,3,1,0,4,0,3,31,13,9
7,3,23,0,5,1,3,31,89,11
7,3,13,1,0,0,3,31,19,11
7,3,18,1,1,0,3,31,65,11
7,3,1,0,2,0,3,31,89,11
7,3,18,1,1,0,3,31,89,11
7,3,23,0,2,0,3,31,3,11
7,3,20,1,4,0,3,31,98,11
7,3,23,0,4,0,3,31,98,11
7,3,21,0,1,0,3,31,89,11
7,3,15,1,2,0,3,31,65,11
7,3,15,1,4,0,3,31,89,11
8,3,21,0,5,1,3,31,94,11
8,3,16,1,5,1,3,31,94,11
8,3,19,1,5,1,3,31,94,11
8,3,21,0,6,1,3,31,19,11
8,3,8,1,6,1,3,31,94,11
8,3,5,0,6,1,3,31,19,11
8,3,12,1,1,0,3,31,75,11
8,3,14,1,5,1,3,31,63,11
8,3,20,1,6,1,3,31,89,11
8,3,17,1,0,0,3,31,63,11
8,3,19,1,1,0,3,31,65,9
8,3,23,0,4,0,3,31,75,11
8,3,11,1,5,1,3,31,19,11
8,3,15,1,3,0,3,31,86,11
8,3,17,1,3,0,3,31,75,11
8,3,14,1,4,0,3,31,87,11
8,3,13,1,4,0,3,31,98,11
8,3,17,1,5,1,3,31,78,11
8,3,23,0,5,1,3,31,75,11
9,4,23,0,2,0,3,31,14,11
9,4,5,0,2,0,3,31,14,9
9,4,17,1,3,0,3,31,14,11
9,4,13,1,4,0,3,31,89,9
9,4,3,0,5,1,3,31,3,11
9,4,23,0,6,1,3,31,98,11
9,4,2,0,6,1,3,31,65,11
9,4,20,1,0,0,3,31,89,11
9,4,23,0,0,0,3,31,113,11
9,4,10,1,5,1,3,31,89,11
9,4,19,1,6,1,3,31,89,11
9,4,15,1,6,1,3,31,98,11
9,4,16,1,0,0,3,31,98,11
9,4,20,1,0,0,3,31,66,9
9,4,0,0,0,0,3,31,89,9
9,4,3,0,1,0,3,31,98,11
9,4,20,1,3,0,3,31,98,11
9,4,19,1,5,1,3,31,89,11
9,4,14,1,6,1,3,31,89,11
9,4,23,0,0,0,3,31,19,11
9,4,2,0,0,0,3,31,86,11
9,4,3,0,0,0,3,31,86,11
9,4,15,1,0,0,3,31,19,11
9,4,21,0,1,0,3,31,86,11
9,4,19,1,2,0,3,31,106,11
9,4,14,1,2,0,3,31,65,11
9,4,1,0,3,0,3,31,83,11
9,4,12,1,4,0,3,31,65,11
9,4,9,1,5,1,3,31,75,11
9,4,10,1,6,1,3,31,65,11
9,4,6,0,6,1,3,31,89,11
9,4,17,1,0,0,3,31,3,11
10,4,14,1,2,0,4,31,65,11
10,4,20,1,3,0,4,31,55,11
10,4,21,0,4,0,4,31,3,11
10,4,14,1,5,1,4,31,98,9
10,4,12,1,5,1,4,31,89,11
10,4,21,0,5,1,4,31,89,11
10,4,14,1,6,1,4,31,66,11
10,4,14,1,0,0,4,31,23,11
10,4,16,1,1,0,4,31,45,9
10,4,19,1,2,0,4,31,65,11
10,4,20,1,2,0,4,31,65,9
10,4,2,0,6,1,4,31,89,11
10,4,3,0,0,0,4,31,45,11
10,4,22,0,0,0,4,31,45,9
10,4,18,1,1,0,4,31,45,9
10,4,9,1,3,0,4,31,72,9
10,4,15,1,4,0,4,31,65,11
10,4,3,0,5,1,4,31,98,11
10,4,4,0,5,1,4,31,94,11
10,4,19,1,5,1,4,31,65,11
11,4,1,0,0,0,4,31,86,11
11,4,21,0,2,0,4,31,65,11
11,4,19,1,2,0,4,31,65,11
11,4,2,0,4,0,4,31,72,11
11,4,14,1,5,1,4,31,89,11
11,4,10,1,5,1,4,31,39,11
11,4,13,1,6,1,4,31,87,11
11,4,10,1,1,0,4,31,65,11
11,4,17,1,1,0,4,31,65,11
11,4,19,1,0,0,4,31,86,11
11,4,19,1,0,0,4,31,86,11
11,4,20,1,0,0,4,31,86,11
11,4,19,1,0,0,4,31,86,11
11,4,18,1,1,0,4,31,98,11
11,4,19,1,1,0,4,31,86,11
11,4,19,1,2,0,4,31,86,11
11,4,11,1,3,0,4,31,65,11
11,4,20,1,4,0,4,31,89,11
11,4,20,1,5,1,4,31,94,11
11,4,16,1,5,1,4,31,65,11
11,4,17,1,5,1,4,31,98,11
11,4,18,1,5,1,4,31,75,11
11,4,19,1,6,1,4,31,94,11
11,4,6,0,0,0,4,31,94,11
11,4,17,1,0,0,4,31,1,11
11,4,19,1,1,0,4,31,65,11
11,4,9,1,2,0,4,31,45,11
11,4,19,1,4,0,4,31,39,11
11,4,21,0,5,1,4,31,65,8
11,4,11,1,6,1,4,31,75,11
11,4,20,1,6,1,4,31,94,11
11,4,20,1,6,1,4,31,86,11
11,4,14,1,6,1,4,31,89,11
11,4,8,1,0,0,4,31,86,11
12,1,17,1,1,0,4,31,75,11
12,1,21,0,3,0,4,31,75,11
12,1,22,0,4,0,4,31,39,11
12,1,17,1,3,0,4,31,39,11
12,1,8,1,3,0,4,31,87,11
12,1,18,1,6,1,4,31,125,11
12,1,19,1,3,0,4,31,39,11
12,1,15,1,3,0,4,31,125,11
12,1,18,1,3,0,4,31,75,11
12,1,18,1,3,0,4,31,96,11
1,1,15,1,4,0,1,31,75,11
1,1,13,1,5,1,1,31,125,11
1,1,15,1,2,0,1,31,14,11
1,1,17,1,6,1,1,31,98,11
1,1,16,1,1,0,1,31,105,8
1,1,15,1,4,0,1,31,98,11
2,1,14,1,1,0,1,31,86,11
2,1,12,1,3,0,1,31,89,11
2,1,11,1,5,1,1,31,86,11
2,1,17,1,6,1,1,31,75,11
2,1,6,0,0,0,1,31,75,11
2,1,20,1,3,0,1,31,86,11
3,2,19,1,0,0,1,31,125,11
3,2,21,0,1,0,1,31,96,11
3,2,16,1,3,0,1,31,86,11
3,2,15,1,3,0,1,31,98,11
3,2,9,1,6,1,1,31,55,11
3,2,13,1,5,1,1,31,98,11
4,2,23,0,0,0,2,31,14,11
7,3,21,0,2,0,3,31,45,11
8,3,15,1,5,1,3,31,23,11
8,3,13,1,4,0,3,31,23,11
8,3,11,1,6,1,3,31,63,11
8,3,23,0,1,0,3,31,89,11
8,3,21,0,5,1,3,31,49,11
8,3,15,1,4,0,3,31,45,11
8,3,19,1,4,0,3,31,45,8
8,3,21,0,3,0,3,31,98,11
8,3,15,1,4,0,3,31,19,11
9,4,10,1,4,0,3,31,23,11
9,4,14,1,3,0,3,31,72,11
9,4,23,0,3,0,3,31,19,11
9,4,15,1,4,0,3,31,122,9
10,4,18,1,2,0,4,31,23,11
10,4,15,1,2,0,4,31,89,11
10,4,7,1,4,0,4,31,3,11
10,4,15,1,4,0,4,31,3,11
10,4,13,1,2,0,4,31,98,11
10,4,19,1,3,0,4,31,125,11
11,4,19,1,3,0,4,31,65,11
11,4,7,1,1,0,4,31,103,8
11,4,9,1,0,0,4,31,65,11
12,1,11,1,6,1,4,31,75,8
12,1,17,1,3,0,4,31,75,8
12,1,14,1,6,1,4,31,94,11
12,1,14,1,1,0,4,31,75,11
12,1,10,1,2,0,4,31,89,11
12,1,16,1,0,0,4,31,19,11
1,1,19,1,3,0,1,31,39,11
1,1,16,1,5,1,1,31,75,11
1,1,21,0,5,1,1,31,75,11
1,1,18,1,1,0,1,31,86,11
1,1,19,1,2,0,1,31,65,11
2,1,13,1,6,1,1,31,13,8
2,1,20,1,3,0,1,31,89,11
2,1,14,1,5,1,1,31,98,11
3,2,14,1,4,0,1,31,39,11
3,2,0,0,0,0,1,31,86,11
3,2,19,1,0,0,1,31,13,8
3,2,17,1,1,0,1,31,19,11
3,2,16,1,2,0,1,31,13,9
3,2,19,1,4,0,1,31,98,11
4,2,21,0,3,0,2,31,65,11
5,2,20,1,4,0,2,31,65,11
5,2,17,1,5,1,2,31,89,11
6,3,2,0,3,0,2,31,96,11
6,3,21,0,1,0,2,31,98,11
6,3,20,1,2,0,2,31,89,11
7,3,21,0,4,0,3,31,106,11
7,3,17,1,5,1,3,31,106,11
7,3,11,1,4,0,3,31,25,11
7,3,23,0,5,1,3,31,19,11
8,3,14,1,3,0,3,31,106,11
8,3,9,1,3,0,3,31,98,11
9,4,17,1,6,1,3,31,89,11
10,4,16,1,5,1,4,31,72,11
11,4,20,1,1,0,4,31,65,11
11,4,7,1,2,0,4,31,106,11
11,4,11,1,2,0,4,31,39,9
11,4,15,1,4,0,4,31,39,11
12,1,18,1,2,0,4,31,19,11
12,1,18,1,4,0,4,31,75,11
1,1,13,1,2,0,1,35,94,11
1,1,18,1,2,0,1,35,94,11
1,1,6,0,4,0,1,35,94,11
1,1,12,1,6,1,1,35,125,11
1,1,19,1,0,0,1,35,72,11
1,1,0,0,1,0,1,35,126,11
1,1,16,1,1,0,1,35,94,11
1,1,18,1,1,0,1,35,94,11
1,1,15,1,2,0,1,35,94,11
1,1,16,1,2,0,1,35,94,11
1,1,6,0,3,0,1,35,47,11
1,1,19,1,3,0,1,35,75,11
1,1,21,0,4,0,1,35,65,11
1,1,23,0,4,0,1,35,86,11
1,1,11,1,5,1,1,35,94,11
1,1,9,1,0,0,1,35,125,11
1,1,20,1,0,0,1,35,65,11
1,1,1,0,1,0,1,35,94,11
1,1,1,0,1,0,1,35,94,11
1,1,5,0,1,0,1,35,94,11
1,1,15,1,1,0,1,35,94,11
1,1,21,0,3,0,1,35,98,11
1,1,17,1,5,1,1,35,39,11
1,1,14,1,5,1,1,35,94,11
1,1,12,1,6,1,1,35,94,11
1,1,6,0,0,0,1,35,72,9
1,1,20,1,0,0,1,35,75,11
1,1,23,0,0,0,1,35,86,11
1,1,18,1,3,0,1,35,65,8
1,1,12,1,5,1,1,35,89,9
1,1,11,1,3,0,1,35,86,11
2,1,3,0,5,1,1,35,65,9
2,1,11,1,5,1,1,35,3,11
2,1,17,1,6,1,1,35,98,11
2,1,12,1,0,0,1,35,64,9
2,1,19,1,0,0,1,35,98,11
2,1,23,0,0,0,1,35,98,9
2,1,11,1,3,0,1,35,13,11
2,1,19,1,5,1,1,35,65,11
2,1,22,0,5,1,1,35,94,11
2,1,15,1,6,1,1,35,94,11
2,1,0,0,0,0,1,35,94,11
2,1,22,0,2,0,1,35,94,11
2,1,11,1,3,0,1,35,56,11
2,1,18,1,6,1,1,35,19,11
2,1,22,0,6,1,1,35,75,11
2,1,1,0,1,0,1,35,94,11
2,1,23,0,5,1,1,35,96,11
2,1,14,1,0,0,1,35,94,11
2,1,11,1,2,0,1,35,65,11
2,1,16,1,2,0,1,35,98,11
2,1,16,1,2,0,1,35,98,11
2,1,19,1,4,0,1,35,3,11
3,2,1,0,6,1,1,35,65,11
3,2,12,1,6,1,1,35,72,11
3,2,17,1,6,1,1,35,94,11
3,2,18,1,6,1,1,35,89,11
3,2,16,1,0,0,1,35,94,11
3,2,18,1,5,1,1,35,89,11
3,2,15,1,2,0,1,35,94,11
3,2,12,1,4,0,1,35,45,11
3,2,4,0,5,1,1,35,67,9
3,2,15,1,1,0,1,35,94,11
3,2,17,1,1,0,1,35,94,11
3,2,14,1,4,0,1,35,71,11
3,2,19,1,4,0,1,35,39,11
3,2,15,1,0,0,1,35,98,11
4,2,19,1,2,0,2,35,75,11
4,2,23,0,1,0,2,35,72,11
4,2,10,1,1,0,2,35,86,11
4,2,21,0,3,0,2,35,98,11
4,2,3,0,6,1,2,35,98,11
4,2,21,0,0,0,2,35,94,11
4,2,6,0,1,0,2,35,94,11
4,2,16,1,1,0,2,35,89,11
4,2,12,1,6,1,2,35,72,11
4,2,18,1,6,1,2,35,3,11
4,2,12,1,0,0,2,35,89,11
4,2,13,1,0,0,2,35,98,11
4,2,14,1,0,0,2,35,19,11
4,2,20,1,0,0,2,35,98,8
4,2,11,1,1,0,2,35,89,11
4,2,18,1,3,0,2,35,98,11
5,2,20,1,4,0,2,35,89,11
5,2,9,1,4,0,2,35,98,11
5,2,14,1,6,1,2,35,75,11
5,2,14,1,1,0,2,35,89,11
5,2,18,1,3,0,2,35,65,11
5,2,0,0,6,1,2,35,94,11
5,2,22,0,6,1,2,35,98,11
5,2,0,0,1,0,2,35,98,11
5,2,2,0,3,0,2,35,76,11
5,2,20,1,3,0,2,35,98,11
5,2,20,1,3,0,2,35,89,11
5,2,2,0,6,1,2,35,98,11
5,2,2,0,6,1,2,35,94,11
5,2,13,1,2,0,2,35,98,11
5,2,21,0,3,0,2,35,89,11
5,2,23,0,5,1,2,35,72,11
5,2,2,0,1,0,2,35,94,11
5,2,2,0,1,0,2,35,94,11
5,2,16,1,3,0,2,35,72,11
5,2,15,1,4,0,2,35,98,11
5,2,19,1,5,1,2,35,89,11
5,2,21,0,5,1,2,35,19,11
5,2,9,1,6,1,2,35,76,11
5,2,10,1,6,1,2,35,89,11
5,2,19,1,6,1,2,35,89,11
5,2,21,0,6,1,2,35,98,11
6,3,21,0,1,0,2,35,89,11
6,3,10,1,0,0,2,35,89,11
6,3,21,0,3,0,2,35,98,11
6,3,11,1,3,0,2,35,75,11
6,3,21,0,5,1,2,35,94,11
6,3,21,0,6,1,2,35,76,11
6,3,0,0,0,0,2,35,8,11
6,3,1,0,1,0,2,35,65,11
6,3,21,0,2,0,2,35,98,11
6,3,10,1,3,0,2,35,57,11
6,3,17,1,3,0,2,35,45,8
6,3,19,1,5,1,2,35,86,11
6,3,10,1,2,0,2,35,56,11
6,3,21,0,3,0,2,35,56,11
6,3,10,1,5,1,2,35,98,11
6,3,14,1,5,1,2,35,98,11
6,3,13,1,6,1,2,35,89,11
6,3,12,1,0,0,2,35,89,8
6,3,18,1,0,0,2,35,89,11
6,3,20,1,0,0,2,35,89,11
6,3,1,0,1,0,2,35,98,11
7,3,13,1,2,0,3,35,98,11
7,3,15,1,2,0,3,35,89,11
7,3,12,1,4,0,3,35,38,11
7,3,22,0,4,0,3,35,44,11
7,3,17,1,5,1,3,35,84,11
7,3,14,1,5,1,3,35,89,11
7,3,5,0,4,0,3,35,125,11
7,3,14,1,4,0,3,35,98,11
7,3,21,0,5,1,3,35,125,11
7,3,5,0,0,0,3,35,125,11
7,3,1,0,1,0,3,35,94,11
7,3,16,1,2,0,3,35,38,11
7,3,2,0,4,0,3,35,94,11
7,3,2,0,4,0,3,35,29,11
7,3,15,1,4,0,3,35,19,11
7,3,13,1,0,0,3,35,86,11
7,3,6,0,1,0,3,35,65,11
7,3,18,1,1,0,3,35,47,11
7,3,9,1,2,0,3,35,89,11
7,3,4,0,3,0,3,35,86,11
7,3,21,0,3,0,3,35,98,11
7,3,7,1,4,0,3,35,72,11
8,3,7,1,5,1,3,35,86,11
8,3,20,1,2,0,3,35,98,11
8,3,12,1,3,0,3,35,86,11
8,3,9,1,4,0,3,35,89,11
8,3,2,0,6,1,3,35,98,11
8,3,8,1,6,1,3,35,89,11
8,3,20,1,6,1,3,35,89,11
8,3,14,1,0,0,3,35,98,11
8,3,3,0,4,0,3,35,89,11
8,3,9,1,5,1,3,35,89,11
8,3,14,1,0,0,3,35,3,11
8,3,3,0,4,0,3,35,98,11
8,3,4,0,5,1,3,35,3,11
8,3,12,1,5,1,3,35,98,11
8,3,19,1,5,1,3,35,89,11
8,3,18,1,5,1,3,35,89,11
8,3,9,1,2,0,3,35,89,11
8,3,18,1,3,0,3,35,89,11
8,3,11,1,5,1,3,35,89,8
8,3,16,1,6,1,3,35,89,11
8,3,16,1,0,0,3,35,98,11
9,4,14,1,3,0,3,35,98,11
9,4,1,0,6,1,3,35,89,11
9,4,20,1,2,0,3,35,89,11
9,4,13,1,3,0,3,35,9,11
9,4,17,1,5,1,3,35,89,11
9,4,15,1,6,1,3,35,94,11
9,4,15,1,1,0,3,35,89,11
9,4,0,0,2,0,3,35,94,11
9,4,0,0,2,0,3,35,94,11
9,4,0,0,2,0,3,35,94,11
9,4,19,1,4,0,3,35,86,11
9,4,10,1,5,1,3,35,13,11
9,4,0,0,1,0,3,35,86,11
9,4,19,1,3,0,3,35,98,11
9,4,22,0,0,0,3,35,75,11
9,4,21,0,2,0,3,35,101,11
10,4,23,0,1,0,4,35,94,11
10,4,19,1,4,0,4,35,86,11
10,4,2,0,5,1,4,35,94,11
10,4,2,0,5,1,4,35,94,11
10,4,19,1,5,1,4,35,89,11
10,4,20,1,5,1,4,35,89,11
10,4,18,1,1,0,4,35,8,11
10,4,4,0,2,0,4,35,94,11
10,4,10,1,3,0,4,35,89,11
10,4,15,1,3,0,4,35,19,11
10,4,17,1,3,0,4,35,89,11
10,4,19,1,3,0,4,35,89,11
10,4,23,0,5,1,4,35,65,11
10,4,1,0,6,1,4,35,94,11
10,4,18,1,6,1,4,35,75,11
10,4,16,1,0,0,4,35,89,11
10,4,17,1,3,0,4,35,50,11
10,4,10,1,5,1,4,35,94,11
10,4,17,1,6,1,4,35,98,11
10,4,11,1,0,0,4,35,98,11
10,4,18,1,0,0,4,35,98,11
10,4,21,0,3,0,4,35,94,11
11,4,20,1,1,0,4,35,96,11
11,4,9,1,5,1,4,35,86,11
11,4,21,0,5,1,4,35,86,11
11,4,16,1,4,0,4,35,94,11
11,4,1,0,1,0,4,35,86,11
11,4,1,0,1,0,4,35,94,11
11,4,1,0,1,0,4,35,94,11
11,4,2,0,1,0,4,35,94,11
11,4,2,0,1,0,4,35,94,11
11,4,3,0,1,0,4,35,94,11
11,4,3,0,1,0,4,35,94,11
11,4,11,1,6,1,4,35,65,11
11,4,14,1,6,1,4,35,94,11
11,4,19,1,6,1,4,35,98,11
11,4,23,0,0,0,4,35,98,11
11,4,19,1,1,0,4,35,86,11
11,4,13,1,2,0,4,35,39,11
11,4,14,1,2,0,4,35,94,11
11,4,19,1,2,0,4,35,94,11
11,4,10,1,3,0,4,35,94,11
11,4,17,1,3,0,4,35,89,11
11,4,6,0,6,1,4,35,86,11
11,4,12,1,6,1,4,35,39,11
11,4,17,1,6,1,4,35,89,11
11,4,22,0,6,1,4,35,94,11
11,4,14,1,0,0,4,35,94,11
12,1,16,1,1,0,4,35,3,11
12,1,6,0,2,0,4,35,96,11
12,1,17,1,2,0,4,35,89,11
12,1,8,1,5,1,4,35,94,11
12,1,0,0,3,0,4,35,65,11
12,1,19,1,5,1,4,35,86,11
12,1,19,1,0,0,4,35,89,11
12,1,11,1,2,0,4,35,98,11
12,1,6,0,0,0,4,35,86,11
12,1,20,1,0,0,4,35,19,11
12,1,18,1,3,0,4,35,94,11
12,1,4,0,4,0,4,35,14,11
12,1,18,1,1,0,4,35,75,11
12,1,23,0,1,0,4,35,96,11
12,1,13,1,1,0,4,35,98,11
12,1,7,1,2,0,4,35,94,11
1,1,15,1,3,0,1,35,98,11
1,1,11,1,5,1,1,35,72,11
1,1,9,1,5,1,1,35,89,11
2,1,13,1,1,0,1,35,98,11
2,1,16,1,3,0,1,35,98,11
3,2,11,1,1,0,1,35,98,11
3,2,13,1,1,0,1,35,86,11
4,2,16,1,6,1,2,35,63,8
4,2,20,1,2,0,2,35,98,11
5,2,17,1,6,1,2,35,98,11
5,2,2,0,5,1,2,35,22,11
5,2,10,1,0,0,2,35,98,11
6,3,21,0,4,0,2,35,89,11
6,3,10,1,1,0,2,35,89,11
6,3,12,1,5,1,2,35,89,11
7,3,12,1,5,1,3,35,89,11
7,3,3,0,0,0,3,35,89,11
8,3,18,1,5,1,3,35,98,11
8,3,6,0,5,1,3,35,86,11
9,4,8,1,6,1,3,35,86,11
10,4,19,1,6,1,4,35,89,11
10,4,19,1,6,1,4,35,72,11
10,4,12,1,0,0,4,35,98,11
11,4,19,1,6,1,4,35,86,11
11,4,16,1,4,0,4,35,86,11
11,4,11,1,5,1,4,35,19,11
12,1,23,0,0,0,4,35,39,11
2,1,6,0,5,1,1,35,125,11
2,1,19,1,6,1,1,35,89,11
2,1,19,1,0,0,1,35,94,11
3,2,12,1,6,1,1,35,3,11
5,2,22,0,1,0,2,35,66,11
9,4,11,1,4,0,3,35,98,11
9,4,9,1,4,0,3,35,3,11
9,4,11,1,0,0,3,35,86,11
9,4,12,1,0,0,3,35,89,11
9,4,13,1,1,0,3,35,94,11
10,4,21,0,1,0,4,35,75,11
10,4,17,1,6,1,4,35,75,8
11,4,8,1,0,0,4,35,86,11
11,4,15,1,2,0,4,35,82,11
2,1,22,0,2,0,1,35,3,11
2,1,21,0,4,0,1,35,3,11
4,2,16,1,3,0,2,35,125,11
4,2,14,1,1,0,2,35,3,11
5,2,18,1,6,1,2,35,89,11
7,3,23,0,2,0,3,35,75,11
8,3,14,1,6,1,3,35,98,11
8,3,0,0,3,0,3,35,86,11
8,3,23,0,1,0,3,35,86,11
9,4,15,1,4,0,3,35,19,11
9,4,23,0,4,0,3,35,94,11
11,4,13,1,6,1,4,35,98,11
12,1,11,1,0,0,4,35,89,9
4,2,11,1,4,0,2,35,89,11
6,3,5,0,0,0,2,35,75,11
6,3,20,1,1,0,2,35,86,11
7,3,14,1,2,0,3,35,72,11
8,3,16,1,3,0,3,35,19,11
8,3,1,0,6,1,3,35,106,11
9,4,14,1,6,1,3,35,94,11
11,4,9,1,3,0,4,35,89,11
2,1,18,1,5,1,1,35,75,11
2,1,10,1,4,0,1,35,75,11
3,2,14,1,1,0,1,35,98,11
4,2,14,1,5,1,2,35,98,11
4,2,13,1,2,0,2,35,98,11
11,4,11,1,6,1,4,35,98,11
1,1,21,0,4,0,1,35,75,11
2,1,11,1,3,0,1,35,98,11
2,1,1,0,5,1,1,35,98,11
2,1,22,0,0,0,1,35,89,11
3,2,9,1,1,0,1,35,57,11
5,2,6,0,2,0,2,35,89,11
5,2,13,1,2,0,2,35,45,9
5,2,14,1,1,0,2,35,89,11
5,2,21,0,2,0,2,35,89,11
5,2,19,1,6,1,2,35,98,11
5,2,17,1,3,0,2,35,106,11
6,3,17,1,3,0,2,35,45,9
6,3,18,1,6,1,2,35,3,11
7,3,15,1,4,0,3,35,125,11
7,3,13,1,2,0,3,35,19,11
7,3,9,1,3,0,3,35,89,11
7,3,15,1,4,0,3,35,98,11
8,3,20,1,5,1,3,35,98,11
8,3,19,1,5,1,3,35,89,11
8,3,13,1,2,0,3,35,98,11
8,3,10,1,2,0,3,35,98,11
8,3,13,1,5,1,3,35,98,11
8,3,21,0,6,1,3,35,98,11
9,4,10,1,5,1,3,35,89,11
9,4,13,1,2,0,3,35,98,11
9,4,13,1,4,0,3,35,106,11
9,4,10,1,4,0,3,35,14,11
10,4,12,1,5,1,4,35,98,11
10,4,9,1,3,0,4,35,106,11
11,4,17,1,2,0,4,35,106,11
12,1,18,1,4,0,4,35,75,11
12,1,20,1,5,1,4,35,98,11
1,1,12,1,2,0,1,45,65,11
1,1,19,1,4,0,1,45,75,11
1,1,15,1,0,0,1,45,86,11
1,1,6,0,1,0,1,45,86,11
1,1,23,0,2,0,1,45,86,11
1,1,21,0,4,0,1,45,56,11
1,1,15,1,6,1,1,45,86,11
1,1,19,1,1,0,1,45,65,11
1,1,21,0,3,0,1,45,75,8
1,1,5,0,4,0,1,45,50,11
1,1,16,1,2,0,1,45,86,11
1,1,6,0,4,0,1,45,39,8
1,1,3,0,5,1,1,45,86,11
1,1,13,1,6,1,1,45,65,11
1,1,1,0,1,0,1,45,86,11
1,1,2,0,3,0,1,45,86,11
1,1,2,0,3,0,1,45,86,11
1,1,2,0,3,0,1,45,86,11
2,1,19,1,3,0,1,45,67,11
2,1,16,1,5,1,1,45,75,9
2,1,0,0,2,0,1,45,86,11
2,1,9,1,4,0,1,45,89,11
2,1,22,0,5,1,1,45,75,11
2,1,0,0,6,1,1,45,65,11
2,1,1,0,2,0,1,45,86,11
2,1,14,1,2,0,1,45,86,11
2,1,14,1,2,0,1,45,98,11
2,1,8,1,4,0,1,45,86,11
3,2,4,0,5,1,1,45,72,11
3,2,4,0,5,1,1,45,86,11
3,2,5,0,5,1,1,45,86,11
3,2,8,1,3,0,1,45,39,9
3,2,14,1,5,1,1,45,39,11
3,2,16,1,1,0,1,45,89,11
4,2,15,1,2,0,2,45,39,11
4,2,11,1,2,0,2,45,98,11
4,2,8,1,6,1,2,45,65,8
4,2,18,1,0,0,2,45,65,11
5,2,12,1,1,0,2,45,75,9
6,3,11,1,3,0,2,45,3,11
6,3,23,0,3,0,2,45,89,11
6,3,4,0,0,0,2,45,94,11
6,3,16,1,1,0,2,45,86,11
6,3,21,0,6,1,2,45,19,11
6,3,14,1,1,0,2,45,19,8
6,3,23,0,2,0,2,45,100,11
6,3,15,1,4,0,2,45,98,11
6,3,18,1,5,1,2,45,13,9
6,3,9,1,4,0,2,45,72,11
6,3,20,1,6,1,2,45,19,11
7,3,14,1,2,0,3,45,13,8
7,3,21,0,5,1,3,45,72,11
7,3,18,1,5,1,3,45,98,11
7,3,16,1,0,0,3,45,98,11
7,3,3,0,1,0,3,45,86,11
8,3,23,0,6,1,3,45,94,11
8,3,0,0,6,1,3,45,1,11
9,4,3,0,4,0,3,45,39,11
9,4,7,1,5,1,3,45,98,11
9,4,16,1,6,1,3,45,125,8
9,4,7,1,0,0,3,45,86,11
10,4,21,0,4,0,4,45,86,11
10,4,17,1,5,1,4,45,75,11
10,4,15,1,5,1,4,45,65,11
10,4,4,0,5,1,4,45,45,11
10,4,22,0,3,0,4,45,65,11
10,4,21,0,6,1,4,45,19,11
10,4,22,0,1,0,4,45,14,11
11,4,22,0,1,0,4,45,72,11
11,4,3,0,1,0,4,45,86,11
11,4,11,1,6,1,4,45,39,11
12,1,19,1,2,0,4,45,19,11
12,1,13,1,2,0,4,45,105,11
12,1,10,1,3,0,4,45,75,11
12,1,16,1,1,0,4,45,75,11
12,1,18,1,1,0,4,45,94,11
3,2,6,0,3,0,1,45,86,11
7,3,14,1,4,0,3,45,43,11
9,4,22,0,1,0,3,45,86,11
10,4,21,0,1,0,4,45,25,8
10,4,14,1,3,0,4,45,25,11
1,1,1,0,6,1,1,45,83,11
1,1,17,1,0,0,1,45,75,11
1,1,23,0,6,1,1,45,75,11
12,1,21,0,6,1,4,45,75,9
12,1,12,1,6,1,4,45,86,11
1,1,16,1,6,1,1,45,98,11
1,1,22,0,3,0,1,45,98,11
1,1,18,1,4,0,1,45,98,11
1,1,11,1,1,0,1,45,125,11
1,1,18,1,2,0,1,45,86,11
1,1,15,1,3,0,1,45,98,11
1,1,16,1,5,1,1,45,98,11
1,1,13,1,3,0,1,45,98,11
2,1,18,1,6,1,1,45,19,11
2,1,14,1,0,0,1,45,98,11
2,1,15,1,1,0,1,45,98,11
2,1,2,0,2,0,1,45,19,9
2,1,15,1,3,0,1,45,125,11
2,1,15,1,3,0,1,45,98,11
2,1,16,1,6,1,1,45,98,11
2,1,21,0,0,0,1,45,98,11
2,1,18,1,3,0,1,45,75,11
2,1,17,1,3,0,1,45,98,11
2,1,18,1,5,1,1,45,98,11
2,1,15,1,5,1,1,45,98,11
3,2,19,1,3,0,1,45,98,11
3,2,15,1,6,1,1,45,98,11
3,2,20,1,2,0,1,45,98,11
3,2,19,1,4,0,1,45,98,11
3,2,9,1,5,1,1,45,39,11
3,2,16,1,6,1,1,45,98,11
4,2,19,1,4,0,2,45,98,11
4,2,15,1,6,1,2,45,98,11
5,2,21,0,2,0,2,45,98,11
5,2,12,1,2,0,2,45,39,11
5,2,13,1,3,0,2,45,98,11
6,3,16,1,1,0,2,45,89,11
6,3,13,1,2,0,2,45,98,11
6,3,12,1,4,0,2,45,89,11
7,3,20,1,4,0,3,45,98,11
7,3,21,0,6,1,3,45,19,11
8,3,1,0,1,0,3,45,98,11
8,3,16,1,4,0,3,45,98,11
9,4,12,1,2,0,3,45,89,11
10,4,19,1,5,1,4,45,27,11
10,4,17,1,6,1,4,45,98,11
10,4,18,1,6,1,4,45,98,11
10,4,15,1,0,0,4,45,19,11
10,4,2,0,5,1,4,45,75,11
10,4,18,1,6,1,4,45,98,11
10,4,2,0,3,0,4,45,19,11
11,4,18,1,6,1,4,45,98,11
12,1,23,0,4,0,4,45,39,11
12,1,22,0,3,0,4,45,78,9
1,1,8,1,2,0,1,22,75,11
1,1,11,1,2,0,1,22,75,11
1,1,13,1,4,0,1,22,19,11
1,1,20,1,6,1,1,22,86,11
1,1,14,1,1,0,1,22,39,8
1,1,16,1,5,1,1,22,75,9
1,1,15,1,4,0,1,22,86,11
2,1,13,1,0,0,1,22,7,11
2,1,17,1,0,0,1,22,65,11
2,1,21,0,5,1,1,22,75,11
2,1,0,0,0,0,1,22,65,11
2,1,23,0,0,0,1,22,39,11
2,1,0,0,3,0,1,22,15,11
2,1,0,0,0,0,1,22,86,11
3,2,14,1,0,0,1,22,86,11
3,2,20,1,5,1,1,22,14,8
3,2,6,0,3,0,1,22,86,11
3,2,14,1,1,0,1,22,13,9
4,2,12,1,3,0,2,22,86,11
4,2,21,0,5,1,2,22,75,11
4,2,7,1,0,0,2,22,65,11
4,2,21,0,1,0,2,22,65,11
4,2,5,0,2,0,2,22,75,9
4,2,11,1,6,1,2,22,75,8
5,2,10,1,2,0,2,22,19,9
5,2,20,1,3,0,2,22,86,11
5,2,23,0,3,0,2,22,86,11
5,2,21,0,5,1,2,22,86,11
5,2,14,1,6,1,2,22,75,9
5,2,14,1,0,0,2,22,122,11
5,2,8,1,6,1,2,22,19,11
5,2,19,1,2,0,2,22,89,11
5,2,10,1,5,1,2,22,19,11
6,3,13,1,2,0,2,22,89,11
6,3,17,1,1,0,2,22,89,11
6,3,19,1,4,0,2,22,98,11
6,3,17,1,0,0,2,22,89,11
6,3,17,1,1,0,2,22,12,9
7,3,16,1,2,0,3,22,13,9
7,3,0,0,3,0,3,22,3,9
7,3,16,1,6,1,3,22,122,9
7,3,8,1,0,0,3,22,39,11
7,3,18,1,1,0,3,22,39,11
7,3,21,0,2,0,3,22,89,9
7,3,20,1,1,0,3,22,98,11
7,3,11,1,6,1,3,22,89,11
7,3,8,1,0,0,3,22,14,11
8,3,8,1,2,0,3,22,122,11
8,3,16,1,2,0,3,22,89,11
8,3,7,1,0,0,3,22,19,11
8,3,12,1,5,1,3,22,19,11
8,3,21,0,0,0,3,22,106,11
9,4,11,1,4,0,3,22,75,9
9,4,21,0,4,0,3,22,19,11
9,4,16,1,5,1,3,22,19,11
9,4,19,1,1,0,3,22,78,11
9,4,14,1,6,1,3,22,86,11
9,4,22,0,0,0,3,22,122,11
9,4,14,1,2,0,3,22,122,11
9,4,4,0,6,1,3,22,75,9
9,4,23,0,6,1,3,22,19,11
9,4,4,0,6,1,3,22,75,8
9,4,15,1,1,0,3,22,41,11
9,4,13,1,2,0,3,22,106,11
9,4,0,0,4,0,3,22,124,11
10,4,21,0,5,1,4,22,14,11
10,4,22,0,2,0,4,22,19,11
10,4,23,0,4,0,4,22,125,11
10,4,13,1,5,1,4,22,65,9
10,4,1,0,6,1,4,22,125,11
10,4,1,0,2,0,4,22,3,9
10,4,20,1,4,0,4,22,3,11
10,4,15,1,5,1,4,22,3,11
10,4,11,1,3,0,4,22,19,11
11,4,1,0,6,1,4,22,75,11
11,4,13,1,0,0,4,22,75,11
11,4,8,1,5,1,4,22,75,11
11,4,12,1,1,0,4,22,75,9
11,4,6,0,1,0,4,22,86,11
11,4,9,1,5,1,4,22,3,11
11,4,5,0,4,0,4,22,109,9
12,1,20,1,0,0,4,22,86,11
12,1,19,1,0,0,4,22,86,11
12,1,9,1,1,0,4,22,19,11
12,1,11,1,1,0,4,22,19,11
12,1,22,0,1,0,4,22,125,11
12,1,12,1,3,0,4,22,29,11
12,1,21,0,2,0,4,22,125,11
12,1,19,1,3,0,4,22,125,11
12,1,19,1,0,0,4,22,86,11
12,1,17,1,5,1,4,22,19,11
12,1,11,1,2,0,4,22,125,11
1,1,10,1,2,0,1,22,75,11
1,1,13,1,4,0,1,22,125,11
1,1,14,1,4,0,1,22,125,11
1,1,3,0,6,1,1,22,75,11
1,1,13,1,1,0,1,22,75,11
1,1,6,0,4,0,1,22,75,11
2,1,8,1,0,0,1,22,98,11
3,2,19,1,0,0,1,22,75,11
3,2,16,1,1,0,1,22,86,11
3,2,18,1,1,0,1,22,89,11
3,2,6,0,4,0,1,22,50,11
4,2,18,1,3,0,2,22,89,11
4,2,17,1,5,1,2,22,125,11
5,2,2,0,2,0,2,22,39,11
5,2,19,1,6,1,2,22,125,11
6,3,12,1,0,0,2,22,89,11
6,3,12,1,0,0,2,22,89,11
6,3,19,1,0,0,2,22,89,11
6,3,19,1,3,0,2,22,98,11
6,3,14,1,6,1,2,22,89,11
6,3,16,1,5,1,2,22,98,11
7,3,18,1,6,1,3,22,106,11
7,3,18,1,0,0,3,22,75,11
7,3,4,0,3,0,3,22,98,11
7,3,11,1,3,0,3,22,89,11
8,3,16,1,0,0,3,22,89,11
8,3,16,1,3,0,3,22,106,11
8,3,21,0,4,0,3,22,106,11
8,3,18,1,2,0,3,22,98,11
9,4,11,1,6,1,3,22,98,11
9,4,10,1,3,0,3,22,89,11
9,4,17,1,2,0,3,22,89,11
9,4,12,1,3,0,3,22,98,11
9,4,15,1,3,0,3,22,98,11
9,4,16,1,3,0,3,22,98,11
10,4,13,1,6,1,4,22,3,11
10,4,16,1,1,0,4,22,98,11
10,4,15,1,4,0,4,22,3,11
10,4,14,1,6,1,4,22,3,11
10,4,21,0,6,1,4,22,25,11
10,4,15,1,0,0,4,22,25,11
10,4,21,0,3,0,4,22,3,11
10,4,16,1,4,0,4,22,25,11
10,4,21,0,0,0,4,22,64,11
11,4,10,1,3,0,4,22,25,11
12,1,17,1,6,1,4,22,106,11
12,1,20,1,2,0,4,22,125,11
1,1,22,0,5,1,1,22,39,8
1,1,21,0,5,1,1,22,75,11
1,1,21,0,2,0,1,22,125,11
2,1,18,1,2,0,1,22,39,11
2,1,12,1,4,0,1,22,39,11
3,2,12,1,6,1,1,22,75,11
3,2,13,1,1,0,1,22,75,11
4,2,21,0,3,0,2,22,39,11
4,2,9,1,1,0,2,22,75,11
9,4,13,1,1,0,3,22,19,11
10,4,6,0,6,1,4,22,72,11
11,4,18,1,6,1,4,22,94,11
11,4,12,1,1,0,4,22,75,9
11,4,19,1,3,0,4,22,19,11
1,1,18,1,2,0,1,22,75,11
1,1,23,0,2,0,1,22,75,11
1,1,18,1,4,0,1,22,98,11
1,1,14,1,3,0,1,22,98,11
2,1,15,1,0,0,1,22,75,11
2,1,18,1,3,0,1,22,98,11
2,1,18,1,2,0,1,22,98,11
2,1,16,1,0,0,1,22,33,11
2,1,4,0,6,1,1,22,14,11
2,1,20,1,6,1,1,22,75,11
3,2,18,1,1,0,1,22,98,11
3,2,18,1,2,0,1,22,86,11
3,2,19,1,5,1,1,22,75,11
3,2,21,0,3,0,1,22,98,11
4,2,5,0,0,0,2,22,75,11
4,2,21,0,6,1,2,22,98,11
4,2,11,1,6,1,2,22,89,11
5,2,15,1,1,0,2,22,89,11
5,2,18,1,1,0,2,22,98,11
6,3,12,1,1,0,2,22,89,11
6,3,15,1,6,1,2,22,98,11
6,3,12,1,1,0,2,22,14,11
6,3,9,1,2,0,2,22,98,11
6,3,12,1,2,0,2,22,75,11
6,3,13,1,4,0,2,22,25,9
6,3,18,1,5,1,2,22,64,11
6,3,23,0,6,1,2,22,106,11
7,3,17,1,5,1,3,22,98,11
7,3,15,1,6,1,3,22,98,11
7,3,16,1,6,1,3,22,98,11
7,3,16,1,6,1,3,22,98,11
7,3,17,1,6,1,3,22,98,11
7,3,17,1,6,1,3,22,98,11
7,3,7,1,0,0,3,22,86,11
7,3,10,1,0,0,3,22,98,11
7,3,11,1,3,0,3,22,75,9
7,3,21,0,4,0,3,22,125,11
7,3,18,1,4,0,3,22,89,11
7,3,18,1,4,0,3,22,13,9
7,3,19,1,4,0,3,22,63,9
8,3,19,1,5,1,3,22,86,11
8,3,16,1,5,1,3,22,86,11
8,3,6,0,0,0,3,22,89,11
8,3,18,1,2,0,3,22,86,11
9,4,19,1,1,0,3,22,98,11
9,4,16,1,3,0,3,22,89,11
9,4,18,1,3,0,3,22,86,11
9,4,20,1,4,0,3,22,98,11
9,4,20,1,2,0,3,22,98,11
9,4,18,1,6,1,3,22,86,11
9,4,7,1,0,0,3,22,86,11
9,4,15,1,3,0,3,22,98,11
9,4,19,1,4,0,3,22,14,11
10,4,18,1,4,0,4,22,98,11
10,4,21,0,4,0,4,22,45,11
10,4,18,1,3,0,4,22,45,8
10,4,13,1,1,0,4,22,98,11
10,4,17,1,3,0,4,22,25,11
10,4,8,1,4,0,4,22,45,9
10,4,12,1,6,1,4,22,45,9
10,4,23,0,1,0,4,22,25,11
11,4,19,1,5,1,4,22,98,11
12,1,7,1,0,0,4,22,86,11
12,1,16,1,1,0,4,22,14,11
1,1,18,1,2,0,1,6,75,11
1,1,13,1,4,0,1,6,94,11
1,1,12,1,4,0,1,6,94,11
1,1,22,0,5,1,1,6,13,9
1,1,17,1,6,1,1,6,75,11
2,1,13,1,2,0,1,6,94,11
2,1,9,1,4,0,1,6,75,11
3,2,17,1,2,0,1,6,75,11
4,2,14,1,1,0,2,6,94,11
4,2,19,1,1,0,2,6,14,9
6,3,8,1,6,1,2,6,19,11
8,3,17,1,3,0,3,6,89,9
9,4,19,1,2,0,3,6,98,11
11,4,14,1,4,0,4,6,27,11
11,4,17,1,5,1,4,6,27,11
11,4,19,1,5,1,4,6,98,11
12,1,18,1,5,1,4,6,19,11
1,1,16,1,2,0,1,6,89,11
1,1,23,0,2,0,1,6,65,11
1,1,16,1,3,0,1,6,14,11
1,1,11,1,3,0,1,6,39,11
1,1,23,0,3,0,1,6,94,11
1,1,7,1,3,0,1,6,94,11
1,1,16,1,3,0,1,6,86,11
1,1,10,1,3,0,1,6,86,11
1,1,12,1,4,0,1,6,65,11
1,1,12,1,4,0,1,6,65,11
1,1,13,1,6,1,1,6,39,11
1,1,9,1,6,1,1,6,86,11
1,1,18,1,6,1,1,6,94,11
1,1,14,1,0,0,1,6,86,11
1,1,13,1,0,0,1,6,75,11
1,1,11,1,1,0,1,6,89,11
1,1,10,1,1,0,1,6,94,11
1,1,18,1,2,0,1,6,89,11
1,1,16,1,2,0,1,6,94,11
1,1,10,1,2,0,1,6,94,11
1,1,12,1,2,0,1,6,89,9
1,1,18,1,2,0,1,6,89,11
1,1,16,1,3,0,1,6,86,11
1,1,0,0,3,0,1,6,94,11
1,1,12,1,4,0,1,6,86,11
1,1,20,1,5,1,1,6,94,11
1,1,21,0,6,1,1,6,86,11
1,1,20,1,6,1,1,6,98,11
1,1,21,0,0,0,1,6,39,11
1,1,15,1,1,0,1,6,39,11
1,1,18,1,2,0,1,6,86,11
1,1,2,0,3,0,1,6,86,11
1,1,9,1,4,0,1,6,86,11
1,1,14,1,4,0,1,6,89,11
1,1,11,1,5,1,1,6,65,11
1,1,21,0,5,1,1,6,86,11
1,1,11,1,5,1,1,6,89,11
1,1,18,1,6,1,1,6,94,11
1,1,21,0,1,0,1,6,86,11
1,1,7,1,1,0,1,6,94,11
1,1,19,1,1,0,1,6,89,11
1,1,18,1,1,0,1,6,89,11
1,1,6,0,1,0,1,6,94,11
1,1,5,0,1,0,1,6,94,11
1,1,0,0,1,0,1,6,86,11
1,1,1,0,1,0,1,6,86,11
1,1,22,0,1,0,1,6,86,11
1,1,19,1,2,0,1,6,65,11
1,1,17,1,3,0,1,6,86,11
1,1,2,0,3,0,1,6,103,11
1,1,0,0,3,0,1,6,94,11
1,1,7,1,3,0,1,6,86,11
1,1,18,1,3,0,1,6,98,11
1,1,19,1,3,0,1,6,94,11
1,1,20,1,4,0,1,6,76,11
1,1,10,1,4,0,1,6,89,11
1,1,11,1,4,0,1,6,89,11
1,1,22,0,4,0,1,6,86,11
1,1,23,0,4,0,1,6,94,11
1,1,12,1,5,1,1,6,39,11
1,1,16,1,5,1,1,6,65,11
1,1,10,1,5,1,1,6,94,11
1,1,15,1,6,1,1,6,98,11
1,1,0,0,6,1,1,6,75,11
1,1,10,1,6,1,1,6,89,11
1,1,12,1,0,0,1,6,75,11
1,1,20,1,0,0,1,6,86,11
1,1,21,0,1,0,1,6,94,11
1,1,17,1,4,0,1,6,86,11
1,1,21,0,4,0,1,6,86,11
2,1,3,0,6,1,1,6,94,11
2,1,12,1,6,1,1,6,86,11
2,1,8,1,6,1,1,6,89,11
2,1,18,1,1,0,1,6,89,11
2,1,22,0,1,0,1,6,86,11
2,1,16,1,2,0,1,6,86,11
2,1,22,0,3,0,1,6,94,11
2,1,20,1,3,0,1,6,64,11
2,1,19,1,3,0,1,6,65,11
2,1,18,1,4,0,1,6,94,11
2,1,11,1,4,0,1,6,94,11
2,1,22,0,5,1,1,6,65,11
2,1,1,0,5,1,1,6,86,11
2,1,20,1,5,1,1,6,89,11
2,1,15,1,6,1,1,6,94,11
2,1,7,1,6,1,1,6,94,11
2,1,10,1,6,1,1,6,94,11
2,1,21,0,6,1,1,6,94,11
2,1,21,0,6,1,1,6,94,11
2,1,20,1,6,1,1,6,86,11
2,1,12,1,6,1,1,6,94,11
2,1,1,0,3,0,1,6,94,11
2,1,13,1,4,0,1,6,86,11
2,1,23,0,6,1,1,6,98,11
2,1,17,1,6,1,1,6,94,11
2,1,13,1,6,1,1,6,94,11
2,1,19,1,1,0,1,6,89,11
2,1,17,1,1,0,1,6,98,11
2,1,20,1,2,0,1,6,75,11
2,1,1,0,4,0,1,6,94,11
2,1,22,0,5,1,1,6,86,11
2,1,4,0,6,1,1,6,19,11
2,1,4,0,6,1,1,6,76,11
2,1,17,1,1,0,1,6,94,11
2,1,21,0,1,0,1,6,94,11
2,1,0,0,1,0,1,6,89,11
2,1,12,1,2,0,1,6,86,11
2,1,15,1,3,0,1,6,85,11
2,1,11,1,4,0,1,6,89,11
2,1,20,1,5,1,1,6,94,11
3,2,23,0,6,1,1,6,96,11
3,2,19,1,6,1,1,6,65,11
3,2,14,1,0,0,1,6,94,11
3,2,13,1,1,0,1,6,39,11
3,2,14,1,3,0,1,6,8,11
3,2,13,1,4,0,1,6,89,11
3,2,18,1,4,0,1,6,94,11
3,2,18,1,5,1,1,6,98,11
3,2,18,1,2,0,1,6,65,11
3,2,23,0,2,0,1,6,19,11
3,2,2,0,4,0,1,6,94,11
3,2,13,1,5,1,1,6,94,11
3,2,12,1,0,0,1,6,99,11
3,2,19,1,1,0,1,6,98,11
3,2,21,0,3,0,1,6,86,11
3,2,0,0,4,0,1,6,89,11
3,2,20,1,5,1,1,6,89,11
3,2,11,1,1,0,1,6,39,11
3,2,15,1,1,0,1,6,96,11
3,2,16,1,2,0,1,6,86,11
3,2,20,1,3,0,1,6,86,11
3,2,9,1,5,1,1,6,14,11
3,2,15,1,5,1,1,6,19,11
3,2,21,0,6,1,1,6,39,11
3,2,22,0,6,1,1,6,86,11
3,2,15,1,0,0,1,6,86,11
3,2,11,1,1,0,1,6,86,11
4,2,13,1,2,0,2,6,39,11
4,2,3,0,3,0,2,6,94,11
4,2,7,1,3,0,2,6,94,11
4,2,20,1,6,1,2,6,94,11
4,2,23,0,0,0,2,6,94,11
4,2,23,0,0,0,2,6,94,11
4,2,5,0,0,0,2,6,94,11
4,2,5,0,0,0,2,6,94,11
4,2,5,0,0,0,2,6,94,11
4,2,5,0,1,0,2,6,19,11
4,2,1,0,1,0,2,6,94,11
4,2,0,0,1,0,2,6,94,11
4,2,13,1,1,0,2,6,94,11
4,2,20,1,2,0,2,6,96,11
4,2,20,1,2,0,2,6,39,11
4,2,11,1,2,0,2,6,65,11
4,2,2,0,3,0,2,6,94,11
4,2,20,1,4,0,2,6,14,11
4,2,4,0,4,0,2,6,94,11
4,2,13,1,5,1,2,6,98,11
4,2,23,0,2,0,2,6,19,11
4,2,4,0,4,0,2,6,94,11
4,2,0,0,6,1,2,6,86,11
4,2,22,0,6,1,2,6,97,11
4,2,6,0,0,0,2,6,86,11
4,2,6,0,0,0,2,6,86,11
4,2,7,1,0,0,2,6,86,11
4,2,0,0,1,0,2,6,89,11
4,2,5,0,2,0,2,6,89,11
4,2,11,1,2,0,2,6,19,11
4,2,5,0,3,0,2,6,86,11
4,2,21,0,3,0,2,6,89,11
4,2,13,1,3,0,2,6,19,11
4,2,9,1,3,0,2,6,75,11
4,2,16,1,0,0,2,6,98,11
4,2,21,0,0,0,2,6,89,11
4,2,21,0,2,0,2,6,98,11
4,2,0,0,2,0,2,6,89,11
4,2,21,0,2,0,2,6,89,11
5,2,22,0,4,0,2,6,89,11
5,2,22,0,6,1,2,6,65,11
5,2,2,0,6,1,2,6,94,11
5,2,6,0,6,1,2,6,94,11
5,2,2,0,0,0,2,6,89,11
5,2,21,0,3,0,2,6,19,11
5,2,9,1,4,0,2,6,89,11
5,2,11,1,3,0,2,6,89,11
5,2,19,1,5,1,2,6,89,11
5,2,2,0,5,1,2,6,89,11
5,2,21,0,6,1,2,6,86,11
5,2,21,0,0,0,2,6,75,11
5,2,15,1,2,0,2,6,19,9
5,2,20,1,3,0,2,6,89,11
5,2,5,0,3,0,2,6,89,11
5,2,22,0,3,0,2,6,94,11
5,2,21,0,5,1,2,6,79,11
5,2,21,0,6,1,2,6,65,11
5,2,14,1,2,0,2,6,65,11
5,2,17,1,3,0,2,6,89,11
5,2,14,1,4,0,2,6,89,11
5,2,12,1,5,1,2,6,72,11
5,2,23,0,6,1,2,6,78,11
6,3,15,1,0,0,2,6,65,11
6,3,3,0,0,0,2,6,94,11
6,3,10,1,2,0,2,6,94,11
6,3,2,0,3,0,2,6,86,11
6,3,13,1,4,0,2,6,89,11
6,3,14,1,4,0,2,6,89,11
6,3,13,1,4,0,2,6,89,9
6,3,14,1,5,1,2,6,89,11
6,3,1,0,5,1,2,6,98,11
6,3,14,1,6,1,2,6,72,9
6,3,12,1,0,0,2,6,98,11
6,3,12,1,3,0,2,6,94,11
6,3,22,0,6,1,2,6,89,11
6,3,15,1,6,1,2,6,89,11
6,3,16,1,4,0,2,6,89,11
6,3,11,1,5,1,2,6,98,11
6,3,20,1,6,1,2,6,94,11
6,3,17,1,6,1,2,6,89,11
6,3,1,0,2,0,2,6,75,11
6,3,8,1,4,0,2,6,14,11
6,3,3,0,4,0,2,6,86,11
7,3,11,1,2,0,3,6,19,11
7,3,19,1,4,0,3,6,75,11
7,3,19,1,6,1,3,6,98,11
7,3,22,0,1,0,3,6,65,11
7,3,15,1,1,0,3,6,85,11
7,3,21,0,3,0,3,6,65,11
7,3,6,0,4,0,3,6,39,11
7,3,22,0,4,0,3,6,89,11
7,3,9,1,5,1,3,6,65,11
7,3,9,1,0,0,3,6,98,11
7,3,21,0,0,0,3,6,89,11
7,3,1,0,1,0,3,6,89,11
7,3,23,0,1,0,3,6,98,11
7,3,10,1,2,0,3,6,89,11
7,3,16,1,0,0,3,6,75,11
7,3,21,0,0,0,3,6,94,11
7,3,8,1,2,0,3,6,98,11
7,3,1,0,4,0,3,6,94,11
7,3,2,0,4,0,3,6,19,11
7,3,4,0,5,1,3,6,94,11
7,3,22,0,6,1,3,6,39,11
7,3,0,0,6,1,3,6,86,11
7,3,12,1,0,0,3,6,89,11
7,3,22,0,1,0,3,6,98,11
7,3,16,1,1,0,3,6,89,11
7,3,15,1,2,0,3,6,89,11
7,3,18,1,2,0,3,6,65,11
7,3,23,0,2,0,3,6,89,11
7,3,14,1,2,0,3,6,89,11
7,3,15,1,3,0,3,6,89,11
7,3,8,1,3,0,3,6,86,11
7,3,16,1,3,0,3,6,89,8
8,3,12,1,2,0,3,6,89,11
8,3,5,0,6,1,3,6,86,11
8,3,23,0,0,0,3,6,89,11
8,3,18,1,1,0,3,6,109,11
8,3,0,0,3,0,3,6,72,11
8,3,11,1,3,0,3,6,89,11
8,3,22,0,4,0,3,6,89,11
8,3,18,1,4,0,3,6,89,11
8,3,22,0,4,0,3,6,89,11
8,3,19,1,2,0,3,6,89,11
8,3,13,1,4,0,3,6,89,11
8,3,8,1,5,1,3,6,89,11
8,3,20,1,4,0,3,6,94,11
9,4,22,0,1,0,3,6,65,9
9,4,19,1,2,0,3,6,89,11
9,4,15,1,3,0,3,6,72,11
9,4,3,0,4,0,3,6,86,11
9,4,19,1,5,1,3,6,98,11
9,4,5,0,6,1,3,6,86,11
9,4,4,0,6,1,3,6,86,11
9,4,5,0,6,1,3,6,86,11
9,4,17,1,0,0,3,6,94,11
9,4,2,0,0,0,3,6,86,11
9,4,2,0,0,0,3,6,86,11
9,4,9,1,2,0,3,6,98,11
9,4,17,1,3,0,3,6,86,11
9,4,16,1,6,1,3,6,89,11
9,4,9,1,0,0,3,6,39,11
9,4,18,1,1,0,3,6,94,11
9,4,18,1,2,0,3,6,89,11
9,4,13,1,3,0,3,6,94,11
9,4,19,1,3,0,3,6,86,11
9,4,14,1,4,0,3,6,72,11
9,4,8,1,5,1,3,6,86,11
9,4,19,1,0,0,3,6,94,11
9,4,10,1,1,0,3,6,86,11
9,4,10,1,2,0,3,6,89,11
9,4,8,1,3,0,3,6,98,11
9,4,12,1,3,0,3,6,98,11
9,4,15,1,4,0,3,6,89,11
9,4,20,1,5,1,3,6,86,11
9,4,11,1,0,0,3,6,89,11
9,4,12,1,0,0,3,6,89,9
9,4,13,1,2,0,3,6,98,11
9,4,10,1,2,0,3,6,98,11
9,4,22,0,2,0,3,6,23,11
10,4,19,1,6,1,4,6,89,11
10,4,23,0,0,0,4,6,89,11
10,4,13,1,0,0,4,6,75,11
10,4,13,1,1,0,4,6,89,11
10,4,20,1,4,0,4,6,86,11
10,4,16,1,4,0,4,6,65,11
10,4,21,0,4,0,4,6,86,11
10,4,21,0,5,1,4,6,86,11
10,4,23,0,5,1,4,6,94,11
10,4,22,0,0,0,4,6,94,11
10,4,12,1,0,0,4,6,89,11
10,4,23,0,0,0,4,6,94,11
10,4,20,1,0,0,4,6,89,11
10,4,0,0,1,0,4,6,19,11
10,4,19,1,1,0,4,6,64,11
10,4,10,1,2,0,4,6,98,11
10,4,9,1,4,0,4,6,86,11
10,4,21,0,6,1,4,6,86,11
10,4,23,0,0,0,4,6,86,11
10,4,15,1,2,0,4,6,89,11
10,4,23,0,2,0,4,6,86,11
10,4,12,1,3,0,4,6,98,11
10,4,13,1,4,0,4,6,89,11
10,4,18,1,5,1,4,6,86,11
11,4,18,1,6,1,4,6,14,11
11,4,5,0,6,1,4,6,65,8
11,4,18,1,0,0,4,6,19,11
11,4,11,1,0,0,4,6,86,11
11,4,14,1,1,0,4,6,89,11
11,4,20,1,2,0,4,6,94,11
11,4,14,1,4,0,4,6,47,8
11,4,21,0,4,0,4,6,86,11
11,4,18,1,4,0,4,6,89,11
11,4,10,1,5,1,4,6,89,11
11,4,9,1,6,1,4,6,98,11
11,4,17,1,3,0,4,6,89,11
11,4,22,0,4,0,4,6,75,11
11,4,15,1,4,0,4,6,94,11
11,4,18,1,6,1,4,6,86,11
11,4,17,1,0,0,4,6,89,11
11,4,10,1,1,0,4,6,98,9
11,4,14,1,1,0,4,6,86,11
11,4,16,1,2,0,4,6,89,11
11,4,12,1,2,0,4,6,98,11
11,4,16,1,5,1,4,6,98,11
11,4,10,1,0,0,4,6,65,9
11,4,21,0,0,0,4,6,94,11
11,4,23,0,0,0,4,6,94,11
11,4,14,1,0,0,4,6,65,11
11,4,21,0,1,0,4,6,94,11
11,4,20,1,1,0,4,6,94,11
11,4,17,1,2,0,4,6,94,11
11,4,2,0,3,0,4,6,94,11
11,4,13,1,4,0,4,6,89,11
11,4,18,1,4,0,4,6,89,11
11,4,8,1,4,0,4,6,89,11
11,4,15,1,4,0,4,6,86,11
11,4,15,1,5,1,4,6,89,11
11,4,19,1,5,1,4,6,65,11
11,4,9,1,6,1,4,6,94,11
11,4,14,1,6,1,4,6,89,11
11,4,16,1,6,1,4,6,39,11
11,4,18,1,0,0,4,6,86,11
11,4,15,1,0,0,4,6,86,11
11,4,23,0,0,0,4,6,86,11
11,4,13,1,0,0,4,6,86,11
11,4,14,1,0,0,4,6,29,11
12,1,15,1,1,0,4,6,89,11
12,1,18,1,1,0,4,6,94,11
12,1,21,0,1,0,4,6,86,11
12,1,14,1,1,0,4,6,86,11
12,1,3,0,3,0,4,6,101,11
12,1,10,1,3,0,4,6,89,11
12,1,8,1,4,0,4,6,106,11
12,1,10,1,5,1,4,6,65,9
12,1,10,1,6,1,4,6,89,11
12,1,21,0,1,0,4,6,94,11
12,1,10,1,1,0,4,6,86,11
12,1,8,1,2,0,4,6,19,11
12,1,13,1,3,0,4,6,39,11
12,1,13,1,5,1,4,6,86,11
12,1,22,0,5,1,4,6,75,11
12,1,19,1,0,0,4,6,94,11
12,1,7,1,4,0,4,6,39,11
12,1,14,1,5,1,4,6,65,11
12,1,23,0,5,1,4,6,86,11
12,1,16,1,5,1,4,6,86,11
12,1,18,1,5,1,4,6,89,11
12,1,1,0,5,1,4,6,86,11
12,1,21,0,5,1,4,6,89,11
12,1,1,0,6,1,4,6,98,11
12,1,20,1,1,0,4,6,86,11
12,1,0,0,1,0,4,6,86,11
12,1,14,1,2,0,4,6,94,11
12,1,11,1,3,0,4,6,39,11
12,1,23,0,3,0,4,6,86,11
12,1,20,1,3,0,4,6,75,9
12,1,12,1,5,1,4,6,94,11
12,1,23,0,5,1,4,6,94,11
12,1,10,1,5,1,4,6,94,11
12,1,19,1,5,1,4,6,65,11
12,1,19,1,6,1,4,6,65,11
12,1,10,1,1,0,4,6,72,11
12,1,11,1,1,0,4,6,89,11
1,1,14,1,3,0,1,6,125,11
1,1,18,1,6,1,1,6,75,11
1,1,11,1,4,0,1,6,23,11
2,1,3,0,4,0,1,6,39,11
2,1,3,0,4,0,1,6,39,11
2,1,17,1,0,0,1,6,75,11
2,1,19,1,2,0,1,6,89,11
2,1,18,1,2,0,1,6,98,11
2,1,18,1,3,0,1,6,65,11
3,2,18,1,3,0,1,6,1,11
3,2,19,1,4,0,1,6,89,11
3,2,15,1,6,1,1,6,75,11
3,2,17,1,0,0,1,6,86,11
3,2,21,0,5,1,1,6,86,11
4,2,18,1,2,0,2,6,39,11
4,2,21,0,4,0,2,6,39,11
4,2,21,0,4,0,2,6,39,11
4,2,10,1,6,1,2,6,45,11
4,2,14,1,0,0,2,6,116,11
5,2,10,1,4,0,2,6,1,11
6,3,12,1,3,0,2,6,89,11
6,3,9,1,5,1,2,6,75,11
6,3,19,1,5,1,2,6,89,11
7,3,20,1,6,1,3,6,89,11
7,3,15,1,2,0,3,6,75,11
7,3,15,1,0,0,3,6,98,11
7,3,21,0,2,0,3,6,89,11
7,3,12,1,5,1,3,6,106,11
7,3,20,1,1,0,3,6,89,11
7,3,11,1,0,0,3,6,96,11
8,3,2,0,6,1,3,6,89,11
8,3,12,1,1,0,3,6,89,11
8,3,22,0,4,0,3,6,89,11
8,3,20,1,4,0,3,6,89,11
8,3,12,1,0,0,3,6,89,11
8,3,1,0,1,0,3,6,89,11
9,4,21,0,0,0,3,6,89,11
9,4,16,1,4,0,3,6,39,11
10,4,16,1,4,0,4,6,13,11
10,4,19,1,5,1,4,6,86,11
10,4,15,1,1,0,4,6,19,11
10,4,3,0,6,1,4,6,85,11
10,4,12,1,2,0,4,6,86,11
10,4,20,1,5,1,4,6,86,11
10,4,19,1,2,0,4,6,72,11
11,4,12,1,3,0,4,6,98,11
11,4,20,1,4,0,4,6,98,11
11,4,23,0,6,1,4,6,89,11
11,4,9,1,0,0,4,6,89,11
11,4,19,1,3,0,4,6,89,11
11,4,13,1,3,0,4,6,89,11
11,4,19,1,3,0,4,6,89,11
11,4,18,1,6,1,4,6,89,11
11,4,20,1,4,0,4,6,39,11
11,4,17,1,6,1,4,6,86,11
11,4,20,1,1,0,4,6,39,11
11,4,15,1,1,0,4,6,86,11
11,4,10,1,3,0,4,6,86,11
11,4,15,1,3,0,4,6,86,11
12,1,21,0,5,1,4,6,86,11
12,1,11,1,2,0,4,6,89,11
12,1,14,1,0,0,4,6,125,11
11,4,8,1,4,0,4,6,97,8
1,1,14,1,2,0,1,6,89,11
1,1,10,1,3,0,1,6,125,11
1,1,12,1,3,0,1,6,125,11
1,1,17,1,3,0,1,6,125,11
1,1,18,1,3,0,1,6,75,11
1,1,21,0,5,1,1,6,125,11
1,1,12,1,6,1,1,6,1,11
1,1,16,1,6,1,1,6,89,11
1,1,15,1,1,0,1,6,14,11
1,1,11,1,2,0,1,6,98,11
1,1,19,1,5,1,1,6,125,11
1,1,10,1,6,1,1,6,98,11
1,1,14,1,6,1,1,6,98,11
1,1,19,1,0,0,1,6,98,11
1,1,20,1,0,0,1,6,19,11
1,1,12,1,1,0,1,6,125,11
1,1,17,1,1,0,1,6,39,11
1,1,17,1,4,0,1,6,125,11
1,1,19,1,4,0,1,6,125,11
1,1,6,0,1,0,1,6,14,11
1,1,18,1,2,0,1,6,98,11
2,1,14,1,6,1,1,6,89,11
2,1,1,0,5,1,1,6,39,11
2,1,8,1,3,0,1,6,125,11
2,1,17,1,3,0,1,6,79,11
2,1,12,1,5,1,1,6,89,8
2,1,21,0,6,1,1,6,75,11
2,1,15,1,6,1,1,6,125,11
2,1,18,1,0,0,1,6,72,11
2,1,13,1,1,0,1,6,89,11
2,1,18,1,4,0,1,6,89,11
2,1,20,1,5,1,1,6,39,11
3,2,13,1,6,1,1,6,89,8
3,2,1,0,0,0,1,6,64,11
3,2,8,1,1,0,1,6,125,11
3,2,19,1,1,0,1,6,98,11
3,2,13,1,1,0,1,6,45,11
3,2,13,1,2,0,1,6,125,11
3,2,9,1,3,0,1,6,89,11
3,2,7,1,4,0,1,6,125,11
3,2,12,1,3,0,1,6,125,11
3,2,13,1,5,1,1,6,125,11
3,2,11,1,6,1,1,6,89,9
3,2,21,0,2,0,1,6,75,11
3,2,17,1,6,1,1,6,125,11
4,2,18,1,3,0,2,6,89,11
4,2,19,1,3,0,2,6,98,11
4,2,14,1,6,1,2,6,89,11
4,2,10,1,3,0,2,6,89,11
4,2,11,1,3,0,2,6,75,11
4,2,13,1,0,0,2,6,89,11
4,2,19,1,5,1,2,6,98,11
5,2,17,1,4,0,2,6,89,11
5,2,16,1,5,1,2,6,89,11
5,2,16,1,6,1,2,6,39,11
5,2,1,0,2,0,2,6,94,11
5,2,18,1,4,0,2,6,89,11
5,2,13,1,0,0,2,6,86,11
5,2,21,0,3,0,2,6,98,11
6,3,19,1,0,0,2,6,89,11
6,3,18,1,4,0,2,6,77,8
6,3,18,1,0,0,2,6,98,11
6,3,5,0,2,0,2,6,89,11
6,3,0,0,3,0,2,6,98,11
6,3,21,0,6,1,2,6,75,11
6,3,17,1,0,0,2,6,89,11
6,3,22,0,0,0,2,6,98,11
6,3,2,0,2,0,2,6,125,11
6,3,3,0,0,0,2,6,98,11
6,3,3,0,2,0,2,6,89,11
6,3,14,1,2,0,2,6,89,11
6,3,12,1,4,0,2,6,86,11
6,3,14,1,5,1,2,6,98,11
6,3,16,1,6,1,2,6,89,11
6,3,15,1,0,0,2,6,98,11
6,3,14,1,1,0,2,6,89,11
7,3,3,0,1,0,3,6,125,11
7,3,16,1,5,1,3,6,89,11
7,3,19,1,4,0,3,6,39,11
7,3,10,1,3,0,3,6,39,11
8,3,19,1,5,1,3,6,86,11
8,3,18,1,3,0,3,6,86,11
8,3,10,1,4,0,3,6,89,11
8,3,16,1,6,1,3,6,19,11
8,3,20,1,0,0,3,6,98,11
8,3,2,0,1,0,3,6,75,9
8,3,6,0,1,0,3,6,89,11
8,3,16,1,3,0,3,6,89,11
8,3,22,0,6,1,3,6,86,11
8,3,18,1,0,0,3,6,86,11
9,4,5,0,4,0,3,6,125,8
9,4,19,1,0,0,3,6,39,11
9,4,15,1,1,0,3,6,14,11
9,4,15,1,2,0,3,6,86,11
10,4,17,1,5,1,4,6,98,11
10,4,6,0,2,0,4,6,86,11
10,4,12,1,2,0,4,6,89,11
10,4,14,1,2,0,4,6,89,11
10,4,17,1,4,0,4,6,86,11
10,4,19,1,4,0,4,6,86,11
10,4,16,1,4,0,4,6,89,11
10,4,12,1,5,1,4,6,98,11
10,4,22,0,1,0,4,6,86,11
10,4,13,1,4,0,4,6,98,11
10,4,14,1,5,1,4,6,86,11
10,4,15,1,6,1,4,6,86,11
10,4,18,1,3,0,4,6,89,11
10,4,9,1,5,1,4,6,98,11
11,4,14,1,0,0,4,6,98,11
11,4,10,1,1,0,4,6,98,11
11,4,12,1,1,0,4,6,86,11
11,4,11,1,6,1,4,6,89,11
11,4,23,0,6,1,4,6,86,11
11,4,17,1,6,1,4,6,89,11
11,4,17,1,2,0,4,6,98,11
11,4,14,1,3,0,4,6,98,11
11,4,11,1,4,0,4,6,89,11
11,4,19,1,5,1,4,6,98,11
11,4,9,1,6,1,4,6,89,11
11,4,17,1,1,0,4,6,98,11
11,4,8,1,2,0,4,6,125,11
11,4,18,1,4,0,4,6,86,11
11,4,14,1,4,0,4,6,89,11
11,4,18,1,5,1,4,6,89,11
11,4,18,1,6,1,4,6,98,11
11,4,10,1,0,0,4,6,98,11
12,1,15,1,2,0,4,6,89,11
12,1,13,1,2,0,4,6,89,11
12,1,18,1,3,0,4,6,98,11
12,1,19,1,3,0,4,6,89,11
12,1,12,1,4,0,4,6,3,11
12,1,14,1,6,1,4,6,89,11
12,1,19,1,6,1,4,6,75,11
12,1,17,1,6,1,4,6,125,11
12,1,12,1,0,0,4,6,39,11
12,1,14,1,4,0,4,6,89,11
12,1,21,0,5,1,4,6,39,11
12,1,7,1,0,0,4,6,56,11
12,1,10,1,3,0,4,6,125,11
12,1,1,0,4,0,4,6,89,11
1,1,9,1,6,1,1,6,125,11
1,1,20,1,3,0,1,6,65,11
1,1,1,0,4,0,1,6,98,11
2,1,18,1,5,1,1,6,72,11
4,2,20,1,3,0,2,6,75,11
5,2,15,1,4,0,2,6,89,11
7,3,6,0,4,0,3,6,125,11
8,3,15,1,5,1,3,6,39,11
9,4,16,1,3,0,3,6,89,11
9,4,20,1,3,0,3,6,105,8
10,4,13,1,6,1,4,6,86,11
10,4,19,1,0,0,4,6,89,11
11,4,11,1,0,0,4,6,89,11
11,4,13,1,4,0,4,6,98,11
11,4,3,0,3,0,4,6,86,11
11,4,21,0,5,1,4,6,98,11
12,1,1,0,4,0,4,6,80,11
1,1,16,1,5,1,1,6,86,11
1,1,7,1,6,1,1,6,86,11
1,1,20,1,0,0,1,6,75,11
1,1,18,1,1,0,1,6,86,11
3,2,15,1,5,1,1,6,125,11
3,2,20,1,6,1,1,6,75,11
4,2,9,1,2,0,2,6,125,11
4,2,15,1,4,0,2,6,86,11
4,2,10,1,5,1,2,6,13,9
7,3,16,1,6,1,3,6,89,9
8,3,10,1,0,0,3,6,89,11
9,4,11,1,5,1,3,6,86,11
9,4,15,1,1,0,3,6,89,11
10,4,22,0,0,0,4,6,34,11
10,4,21,0,3,0,4,6,98,11
11,4,14,1,2,0,4,6,98,11
11,4,9,1,3,0,4,6,86,11
11,4,12,1,5,1,4,6,98,11
11,4,10,1,5,1,4,6,86,11
12,1,20,1,1,0,4,6,98,11
12,1,21,0,3,0,4,6,65,11
1,1,15,1,3,0,1,1,65,11
1,1,18,1,5,1,1,1,55,11
1,1,10,1,2,0,1,1,125,9
1,1,0,0,5,1,1,1,125,11
1,1,17,1,0,0,1,1,55,11
1,1,11,1,3,0,1,1,75,11
2,1,21,0,1,0,1,1,125,11
2,1,20,1,3,0,1,1,125,11
2,1,13,1,3,0,1,1,39,11
2,1,22,0,3,0,1,1,125,11
2,1,12,1,6,1,1,1,89,11
2,1,14,1,1,0,1,1,39,11
3,2,2,0,6,1,1,1,19,11
3,2,15,1,0,0,1,1,98,11
3,2,15,1,1,0,1,1,89,11
3,2,17,1,1,0,1,1,106,11
3,2,22,0,1,0,1,1,125,11
3,2,22,0,6,1,1,1,39,11
4,2,19,1,2,0,2,1,106,11
4,2,19,1,2,0,2,1,75,11
4,2,16,1,0,0,2,1,89,11
4,2,21,0,4,0,2,1,89,11
4,2,6,0,5,1,2,1,125,11
4,2,19,1,6,1,2,1,55,11
4,2,15,1,6,1,2,1,89,11
5,2,15,1,4,0,2,1,55,11
5,2,13,1,0,0,2,1,39,11
5,2,14,1,0,0,2,1,89,11
5,2,19,1,0,0,2,1,89,11
5,2,1,0,1,0,2,1,125,11
5,2,11,1,4,0,2,1,75,9
5,2,12,1,5,1,2,1,98,11
5,2,22,0,5,1,2,1,89,11
5,2,12,1,1,0,2,1,98,11
5,2,16,1,1,0,2,1,125,11
5,2,23,0,2,0,2,1,89,11
5,2,9,1,3,0,2,1,89,11
5,2,12,1,5,1,2,1,65,11
5,2,12,1,2,0,2,1,89,11
5,2,12,1,3,0,2,1,123,11
5,2,0,0,5,1,2,1,19,11
6,3,13,1,0,0,2,1,89,11
6,3,15,1,1,0,2,1,89,11
6,3,17,1,1,0,2,1,89,11
6,3,23,0,1,0,2,1,89,11
6,3,14,1,3,0,2,1,89,11
6,3,15,1,2,0,2,1,98,11
6,3,13,1,4,0,2,1,89,11
6,3,7,1,0,0,2,1,39,11
6,3,2,0,3,0,2,1,98,11
7,3,3,0,2,0,3,1,19,11
7,3,12,1,2,0,3,1,19,11
7,3,14,1,3,0,3,1,72,11
7,3,23,0,3,0,3,1,98,11
7,3,18,1,4,0,3,1,98,11
7,3,0,0,5,1,3,1,98,11
7,3,20,1,0,0,3,1,39,11
7,3,13,1,3,0,3,1,19,11
7,3,16,1,3,0,3,1,89,11
7,3,12,1,4,0,3,1,65,11
7,3,15,1,4,0,3,1,89,11
7,3,15,1,5,1,3,1,89,11
7,3,15,1,5,1,3,1,89,11
7,3,23,0,1,0,3,1,98,11
7,3,1,0,1,0,3,1,89,11
7,3,11,1,4,0,3,1,19,11
7,3,14,1,4,0,3,1,98,11
7,3,17,1,4,0,3,1,98,11
7,3,19,1,4,0,3,1,98,11
7,3,13,1,0,0,3,1,89,11
7,3,17,1,0,0,3,1,89,11
7,3,13,1,4,0,3,1,65,11
8,3,20,1,5,1,3,1,98,11
8,3,19,1,1,0,3,1,75,11
8,3,13,1,2,0,3,1,89,11
8,3,19,1,2,0,3,1,19,11
8,3,0,0,6,1,3,1,98,11
8,3,15,1,6,1,3,1,89,11
8,3,19,1,1,0,3,1,65,9
8,3,8,1,5,1,3,1,19,11
8,3,1,0,0,0,3,1,19,11
8,3,10,1,0,0,3,1,19,11
8,3,23,0,1,0,3,1,98,11
8,3,1,0,2,0,3,1,98,11
8,3,14,1,3,0,3,1,89,11
8,3,13,1,4,0,3,1,19,11
8,3,14,1,4,0,3,1,89,11
8,3,19,1,4,0,3,1,75,11
9,4,20,1,3,0,3,1,89,11
9,4,17,1,6,1,3,1,89,11
9,4,23,0,2,0,3,1,98,11
9,4,0,0,0,0,3,1,89,11
9,4,19,1,6,1,3,1,98,11
10,4,19,1,4,0,4,1,125,11
10,4,20,1,4,0,4,1,125,11
10,4,22,0,4,0,4,1,125,11
10,4,17,1,5,1,4,1,75,11
10,4,11,1,6,1,4,1,125,11
10,4,18,1,0,0,4,1,98,11
10,4,18,1,4,0,4,1,19,11
10,4,9,1,6,1,4,1,98,11
10,4,21,0,2,0,4,1,98,11
11,4,19,1,0,0,4,1,65,11
11,4,14,1,0,0,4,1,98,11
11,4,21,0,3,0,4,1,125,11
11,4,18,1,4,0,4,1,19,11
11,4,20,1,5,1,4,1,65,11
11,4,12,1,1,0,4,1,125,11
11,4,18,1,1,0,4,1,75,11
11,4,18,1,2,0,4,1,98,11
11,4,18,1,3,0,4,1,89,11
11,4,11,1,4,0,4,1,98,11
11,4,17,1,4,0,4,1,89,11
11,4,13,1,5,1,4,1,98,11
11,4,15,1,5,1,4,1,125,11
11,4,0,0,6,1,4,1,125,11
11,4,6,0,6,1,4,1,125,11
11,4,10,1,6,1,4,1,125,11
11,4,19,1,6,1,4,1,125,11
12,1,19,1,5,1,4,1,75,9
12,1,13,1,4,0,4,1,39,11
1,1,18,1,2,0,1,1,98,11
1,1,18,1,2,0,1,1,98,11
1,1,5,0,3,0,1,1,64,11
1,1,12,1,3,0,1,1,98,11
1,1,16,1,3,0,1,1,98,11
1,1,18,1,3,0,1,1,98,11
1,1,19,1,3,0,1,1,86,11
1,1,22,0,3,0,1,1,86,11
1,1,17,1,4,0,1,1,86,11
1,1,14,1,6,1,1,1,98,11
1,1,18,1,6,1,1,1,89,11
1,1,18,1,6,1,1,1,75,11
1,1,22,0,6,1,1,1,98,11
1,1,12,1,0,0,1,1,65,11
1,1,14,1,0,0,1,1,98,11
1,1,15,1,0,0,1,1,75,11
1,1,16,1,0,0,1,1,75,11
1,1,16,1,0,0,1,1,98,11
1,1,19,1,1,0,1,1,86,11
1,1,20,1,1,0,1,1,65,11
1,1,12,1,2,0,1,1,98,11
1,1,13,1,2,0,1,1,75,11
1,1,14,1,2,0,1,1,98,11
1,1,16,1,2,0,1,1,98,11
1,1,18,1,2,0,1,1,98,11
1,1,19,1,2,0,1,1,19,11
1,1,19,1,2,0,1,1,98,11
1,1,16,1,3,0,1,1,75,11
1,1,10,1,4,0,1,1,86,11
1,1,13,1,4,0,1,1,98,11
1,1,15,1,4,0,1,1,86,11
1,1,20,1,4,0,1,1,65,11
1,1,13,1,5,1,1,1,86,11
1,1,14,1,5,1,1,1,86,11
1,1,14,1,5,1,1,1,86,11
1,1,11,1,6,1,1,1,86,11
1,1,13,1,6,1,1,1,86,11
1,1,17,1,6,1,1,1,98,11
1,1,18,1,6,1,1,1,86,11
1,1,18,1,0,0,1,1,98,11
1,1,15,1,2,0,1,1,98,11
1,1,16,1,2,0,1,1,98,11
1,1,18,1,3,0,1,1,98,11
1,1,19,1,3,0,1,1,86,11
1,1,22,0,3,0,1,1,65,11
1,1,19,1,4,0,1,1,86,11
1,1,19,1,4,0,1,1,75,11
1,1,12,1,5,1,1,1,98,11
1,1,17,1,5,1,1,1,86,11
1,1,19,1,5,1,1,1,65,11
1,1,12,1,6,1,1,1,86,11
1,1,18,1,6,1,1,1,98,11
1,1,17,1,0,0,1,1,98,11
1,1,19,1,0,0,1,1,39,11
1,1,13,1,1,0,1,1,98,11
1,1,15,1,1,0,1,1,98,11
1,1,17,1,2,0,1,1,98,11
1,1,10,1,3,0,1,1,64,11
1,1,18,1,4,0,1,1,86,11
1,1,18,1,4,0,1,1,98,11
1,1,16,1,5,1,1,1,98,11
1,1,18,1,6,1,1,1,98,11
1,1,10,1,1,0,1,1,86,11
1,1,16,1,3,0,1,1,98,11
1,1,17,1,4,0,1,1,39,11
2,1,14,1,5,1,1,1,98,11
2,1,17,1,5,1,1,1,86,11
2,1,22,0,5,1,1,1,86,11
2,1,11,1,6,1,1,1,86,11
2,1,12,1,6,1,1,1,98,11
2,1,16,1,6,1,1,1,98,11
2,1,23,0,6,1,1,1,89,11
2,1,11,1,0,0,1,1,98,11
2,1,17,1,0,0,1,1,86,11
2,1,19,1,0,0,1,1,86,11
2,1,20,1,0,0,1,1,98,11
2,1,22,0,0,0,1,1,86,11
2,1,20,1,1,0,1,1,75,11
2,1,21,0,1,0,1,1,75,11
2,1,7,1,3,0,1,1,86,11
2,1,15,1,4,0,1,1,98,11
2,1,21,0,4,0,1,1,86,11
2,1,19,1,5,1,1,1,86,11
2,1,20,1,5,1,1,1,86,11
2,1,11,1,0,0,1,1,86,11
2,1,17,1,1,0,1,1,98,11
2,1,17,1,2,0,1,1,98,11
2,1,18,1,2,0,1,1,98,11
2,1,21,0,2,0,1,1,75,11
2,1,17,1,3,0,1,1,27,11
2,1,18,1,3,0,1,1,86,11
2,1,20,1,6,1,1,1,75,11
2,1,14,1,0,0,1,1,98,11
2,1,20,1,0,0,1,1,98,11
2,1,13,1,2,0,1,1,98,11
2,1,15,1,3,0,1,1,65,11
2,1,11,1,5,1,1,1,98,11
2,1,17,1,5,1,1,1,65,11
2,1,19,1,5,1,1,1,65,11
2,1,2,0,6,1,1,1,86,11
2,1,7,1,6,1,1,1,75,8
2,1,18,1,6,1,1,1,86,11
2,1,19,1,6,1,1,1,98,11
2,1,20,1,6,1,1,1,98,11
2,1,21,0,0,0,1,1,86,11
2,1,17,1,2,0,1,1,98,11
2,1,17,1,2,0,1,1,65,11
2,1,10,1,3,0,1,1,19,11
2,1,13,1,4,0,1,1,86,11
2,1,16,1,4,0,1,1,65,11
3,2,0,0,6,1,1,1,86,11
3,2,14,1,6,1,1,1,98,11
3,2,18,1,6,1,1,1,13,11
3,2,19,1,6,1,1,1,98,11
3,2,20,1,0,0,1,1,98,11
3,2,2,0,1,0,1,1,86,11
3,2,12,1,1,0,1,1,98,11
3,2,12,1,1,0,1,1,86,11
3,2,0,0,2,0,1,1,98,11
3,2,21,0,3,0,1,1,64,11
3,2,17,1,4,0,1,1,98,11
3,2,19,1,4,0,1,1,55,11
3,2,12,1,5,1,1,1,13,11
3,2,19,1,5,1,1,1,86,11
3,2,20,1,6,1,1,1,86,11
3,2,11,1,0,0,1,1,86,11
3,2,13,1,0,0,1,1,86,11
3,2,1,0,1,0,1,1,86,11
3,2,10,1,1,0,1,1,86,11
3,2,11,1,2,0,1,1,98,11
3,2,20,1,2,0,1,1,86,11
3,2,18,1,3,0,1,1,86,11
3,2,7,1,4,0,1,1,98,11
3,2,18,1,4,0,1,1,75,11
3,2,16,1,6,1,1,1,89,11
3,2,17,1,6,1,1,1,98,11
3,2,19,1,6,1,1,1,98,11
3,2,19,1,6,1,1,1,55,11
3,2,20,1,1,0,1,1,98,11
3,2,22,0,1,0,1,1,98,11
3,2,8,1,2,0,1,1,98,11
3,2,0,0,3,0,1,1,98,11
3,2,4,0,3,0,1,1,98,11
3,2,22,0,3,0,1,1,89,11
3,2,12,1,4,0,1,1,98,11
3,2,22,0,4,0,1,1,75,11
3,2,14,1,5,1,1,1,98,11
3,2,16,1,5,1,1,1,98,11
3,2,19,1,5,1,1,1,98,11
3,2,12,1,6,1,1,1,98,11
3,2,13,1,6,1,1,1,98,11
3,2,19,1,6,1,1,1,98,11
3,2,15,1,2,0,1,1,98,11
3,2,12,1,3,0,1,1,75,11
3,2,20,1,6,1,1,1,75,11
3,2,22,0,6,1,1,1,75,11
3,2,1,0,0,0,1,1,86,11
3,2,3,0,0,0,1,1,86,11
3,2,1,0,1,0,1,1,86,11
4,2,20,1,2,0,2,1,65,11
4,2,23,0,3,0,2,1,86,11
4,2,4,0,4,0,2,1,86,11
4,2,5,0,4,0,2,1,86,11
4,2,13,1,0,0,2,1,98,11
4,2,17,1,1,0,2,1,65,11
4,2,15,1,2,0,2,1,89,11
4,2,19,1,2,0,2,1,98,11
4,2,21,0,2,0,2,1,98,11
4,2,21,0,2,0,2,1,86,11
4,2,23,0,2,0,2,1,98,11
4,2,1,0,3,0,2,1,86,11
4,2,15,1,3,0,2,1,89,11
4,2,2,0,4,0,2,1,72,11
4,2,13,1,4,0,2,1,98,11
4,2,16,1,4,0,2,1,27,11
4,2,20,1,5,1,2,1,64,11
4,2,12,1,6,1,2,1,98,11
4,2,15,1,0,0,2,1,89,11
4,2,23,0,0,0,2,1,98,11
4,2,13,1,1,0,2,1,98,11
4,2,11,1,3,0,2,1,19,11
4,2,16,1,3,0,2,1,98,11
4,2,19,1,3,0,2,1,98,11
4,2,23,0,3,0,2,1,98,11
4,2,13,1,4,0,2,1,65,11
4,2,17,1,4,0,2,1,98,11
4,2,19,1,4,0,2,1,98,11
4,2,4,0,0,0,2,1,96,11
4,2,17,1,2,0,2,1,86,11
4,2,16,1,4,0,2,1,98,11
4,2,8,1,6,1,2,1,98,11
4,2,14,1,6,1,2,1,98,11
4,2,20,1,0,0,2,1,98,11
4,2,21,0,0,0,2,1,98,11
4,2,13,1,1,0,2,1,98,11
4,2,21,0,3,0,2,1,98,11
5,2,22,0,5,1,2,1,55,11
5,2,19,1,1,0,2,1,98,11
5,2,21,0,3,0,2,1,98,11
5,2,21,0,3,0,2,1,98,11
5,2,8,1,4,0,2,1,98,11
5,2,9,1,4,0,2,1,36,11
5,2,10,1,4,0,2,1,98,11
5,2,11,1,4,0,2,1,98,11
5,2,13,1,4,0,2,1,98,11
5,2,14,1,4,0,2,1,98,11
5,2,17,1,4,0,2,1,98,11
5,2,17,1,4,0,2,1,56,11
5,2,20,1,4,0,2,1,98,11
5,2,23,0,4,0,2,1,98,11
5,2,13,1,5,1,2,1,98,11
5,2,18,1,5,1,2,1,98,11
5,2,18,1,5,1,2,1,98,11
5,2,17,1,6,1,2,1,98,11
5,2,23,0,0,0,2,1,98,11
5,2,14,1,1,0,2,1,89,11
5,2,4,0,2,0,2,1,65,11
5,2,18,1,2,0,2,1,98,11
5,2,14,1,4,0,2,1,98,11
5,2,17,1,4,0,2,1,4,11
5,2,1,0,5,1,2,1,89,11
5,2,5,0,5,1,2,1,86,11
5,2,15,1,5,1,2,1,89,11
5,2,17,1,5,1,2,1,98,11
5,2,23,0,5,1,2,1,98,11
5,2,1,0,6,1,2,1,98,11
5,2,3,0,6,1,2,1,98,11
5,2,18,1,6,1,2,1,98,11
5,2,15,1,0,0,2,1,89,11
5,2,11,1,2,0,2,1,98,11
5,2,14,1,2,0,2,1,89,11
5,2,15,1,2,0,2,1,98,11
5,2,19,1,2,0,2,1,98,11
5,2,14,1,2,0,2,1,98,11
5,2,23,0,3,0,2,1,98,11
5,2,14,1,5,1,2,1,98,11
5,2,11,1,0,0,2,1,86,11
5,2,20,1,0,0,2,1,98,11
5,2,15,1,1,0,2,1,106,11
5,2,23,0,3,0,2,1,19,11
5,2,15,1,4,0,2,1,98,11
5,2,14,1,5,1,2,1,86,11
5,2,3,0,6,1,2,1,86,11
6,3,19,1,1,0,2,1,98,11
6,3,13,1,2,0,2,1,98,11
6,3,16,1,2,0,2,1,98,11
6,3,19,1,2,0,2,1,98,11
6,3,21,0,3,0,2,1,98,11
6,3,8,1,5,1,2,1,106,11
6,3,16,1,5,1,2,1,98,11
6,3,17,1,5,1,2,1,98,11
6,3,17,1,1,0,2,1,89,11
6,3,17,1,1,0,2,1,98,11
6,3,19,1,1,0,2,1,89,11
6,3,21,0,1,0,2,1,98,11
6,3,12,1,2,0,2,1,89,11
6,3,21,0,2,0,2,1,89,11
6,3,22,0,2,0,2,1,89,11
6,3,12,1,3,0,2,1,89,11
6,3,13,1,3,0,2,1,98,11
6,3,22,0,4,0,2,1,98,11
6,3,14,1,5,1,2,1,39,11
6,3,21,0,5,1,2,1,98,11
6,3,10,1,6,1,2,1,98,11
6,3,12,1,6,1,2,1,98,11
6,3,16,1,6,1,2,1,98,11
6,3,17,1,0,0,2,1,98,11
6,3,20,1,0,0,2,1,89,11
6,3,18,1,1,0,2,1,98,11
6,3,7,1,2,0,2,1,77,11
6,3,10,1,3,0,2,1,72,11
6,3,11,1,3,0,2,1,98,11
6,3,13,1,3,0,2,1,89,11
6,3,16,1,3,0,2,1,98,11
6,3,20,1,3,0,2,1,98,11
6,3,8,1,4,0,2,1,98,11
6,3,15,1,4,0,2,1,98,11
6,3,16,1,4,0,2,1,98,11
6,3,5,0,5,1,2,1,89,11
6,3,10,1,5,1,2,1,98,11
6,3,12,1,5,1,2,1,98,11
6,3,18,1,5,1,2,1,89,11
6,3,20,1,5,1,2,1,89,11
6,3,22,0,5,1,2,1,89,11
6,3,17,1,6,1,2,1,98,11
6,3,17,1,6,1,2,1,98,11
6,3,21,0,6,1,2,1,89,11
6,3,12,1,0,0,2,1,89,11
6,3,13,1,0,0,2,1,125,11
6,3,17,1,0,0,2,1,98,11
6,3,1,0,2,0,2,1,76,11
6,3,11,1,3,0,2,1,98,11
6,3,14,1,4,0,2,1,4,11
6,3,19,1,4,0,2,1,98,11
6,3,13,1,5,1,2,1,98,11
6,3,19,1,5,1,2,1,89,11
6,3,18,1,0,0,2,1,98,11
6,3,4,0,1,0,2,1,86,11
7,3,12,1,2,0,3,1,89,11
7,3,19,1,3,0,3,1,4,11
7,3,23,0,3,0,3,1,4,11
7,3,13,1,4,0,3,1,98,11
7,3,9,1,5,1,3,1,98,11
7,3,21,0,5,1,3,1,98,11
7,3,17,1,1,0,3,1,89,11
7,3,13,1,3,0,3,1,98,11
7,3,21,0,5,1,3,1,89,11
7,3,19,1,6,1,3,1,89,11
7,3,0,0,0,0,3,1,98,11
7,3,7,1,0,0,3,1,19,11
7,3,21,0,0,0,3,1,98,11
7,3,2,0,1,0,3,1,98,11
7,3,13,1,1,0,3,1,98,11
7,3,13,1,1,0,3,1,27,11
7,3,21,0,1,0,3,1,98,11
7,3,22,0,1,0,3,1,98,11
7,3,10,1,2,0,3,1,98,11
7,3,21,0,5,1,3,1,98,11
7,3,18,1,6,1,3,1,89,11
7,3,19,1,0,0,3,1,98,11
7,3,20,1,0,0,3,1,89,11
7,3,23,0,0,0,3,1,98,11
7,3,20,1,1,0,3,1,98,11
7,3,18,1,2,0,3,1,98,11
7,3,20,1,3,0,3,1,98,11
7,3,13,1,5,1,3,1,98,11
7,3,15,1,5,1,3,1,89,11
7,3,21,0,5,1,3,1,98,11
7,3,14,1,6,1,3,1,98,11
7,3,20,1,6,1,3,1,98,11
7,3,21,0,0,0,3,1,98,11
7,3,12,1,1,0,3,1,98,11
7,3,17,1,1,0,3,1,98,11
7,3,21,0,2,0,3,1,89,11
7,3,22,0,2,0,3,1,98,11
7,3,10,1,3,0,3,1,98,11
7,3,12,1,3,0,3,1,98,11
7,3,21,0,3,0,3,1,89,11
7,3,15,1,4,0,3,1,98,11
7,3,16,1,4,0,3,1,98,11
7,3,23,0,4,0,3,1,98,11
8,3,0,0,0,0,3,1,89,11
8,3,16,1,0,0,3,1,98,11
8,3,17,1,0,0,3,1,98,11
8,3,18,1,0,0,3,1,98,11
8,3,19,1,0,0,3,1,98,11
8,3,11,1,1,0,3,1,98,11
8,3,12,1,1,0,3,1,98,11
8,3,14,1,1,0,3,1,98,11
8,3,15,1,2,0,3,1,98,11
8,3,2,0,3,0,3,1,98,11
8,3,7,1,3,0,3,1,98,11
8,3,15,1,3,0,3,1,98,11
8,3,22,0,3,0,3,1,86,11
8,3,2,0,4,0,3,1,98,11
8,3,14,1,5,1,3,1,98,11
8,3,14,1,5,1,3,1,27,11
8,3,19,1,6,1,3,1,89,11
8,3,21,0,6,1,3,1,98,11
8,3,19,1,1,0,3,1,98,11
8,3,19,1,1,0,3,1,98,11
8,3,13,1,3,0,3,1,98,11
8,3,14,1,3,0,3,1,98,11
8,3,17,1,3,0,3,1,98,11
8,3,12,1,4,0,3,1,98,11
8,3,17,1,5,1,3,1,65,11
8,3,15,1,5,1,3,1,98,11
8,3,15,1,6,1,3,1,98,11
8,3,19,1,0,0,3,1,98,11
8,3,6,0,1,0,3,1,86,11
8,3,19,1,1,0,3,1,98,11
8,3,4,0,2,0,3,1,98,11
8,3,3,0,2,0,3,1,86,11
8,3,13,1,2,0,3,1,98,11
8,3,18,1,3,0,3,1,98,11
8,3,16,1,4,0,3,1,39,11
8,3,17,1,6,1,3,1,98,11
8,3,0,0,0,0,3,1,98,11
8,3,10,1,0,0,3,1,98,11
8,3,19,1,0,0,3,1,98,11
8,3,17,1,1,0,3,1,98,11
8,3,20,1,5,1,3,1,98,11
8,3,20,1,5,1,3,1,98,11
8,3,9,1,6,1,3,1,98,11
9,4,12,1,1,0,3,1,98,11
9,4,11,1,2,0,3,1,98,11
9,4,14,1,2,0,3,1,19,11
9,4,19,1,2,0,3,1,98,11
9,4,10,1,3,0,3,1,27,11
9,4,16,1,3,0,3,1,98,11
9,4,17,1,3,0,3,1,98,11
9,4,18,1,3,0,3,1,98,11
9,4,9,1,3,0,3,1,89,11
9,4,0,0,4,0,3,1,98,11
9,4,13,1,4,0,3,1,98,11
9,4,14,1,4,0,3,1,98,11
9,4,17,1,4,0,3,1,98,11
9,4,11,1,4,0,3,1,19,11
9,4,9,1,5,1,3,1,98,11
9,4,11,1,5,1,3,1,98,11
9,4,13,1,5,1,3,1,98,11
9,4,16,1,5,1,3,1,98,11
9,4,17,1,5,1,3,1,98,11
9,4,19,1,5,1,3,1,98,11
9,4,9,1,6,1,3,1,98,11
9,4,14,1,1,0,3,1,19,11
9,4,14,1,1,0,3,1,98,11
9,4,17,1,1,0,3,1,98,11
9,4,18,1,3,0,3,1,4,11
9,4,18,1,3,0,3,1,98,11
9,4,20,1,3,0,3,1,106,11
9,4,11,1,4,0,3,1,64,11
9,4,20,1,4,0,3,1,98,11
9,4,20,1,4,0,3,1,98,11
9,4,21,0,4,0,3,1,98,11
9,4,12,1,5,1,3,1,98,11
9,4,16,1,5,1,3,1,98,11
9,4,14,1,6,1,3,1,98,11
9,4,16,1,6,1,3,1,98,11
9,4,19,1,6,1,3,1,98,11
9,4,22,0,6,1,3,1,98,11
9,4,1,0,0,0,3,1,98,11
9,4,11,1,0,0,3,1,98,11
9,4,19,1,0,0,3,1,98,11
9,4,0,0,1,0,3,1,89,11
9,4,8,1,1,0,3,1,89,11
9,4,10,1,1,0,3,1,19,11
9,4,15,1,1,0,3,1,98,11
9,4,23,0,1,0,3,1,98,11
9,4,1,0,3,0,3,1,98,11
9,4,4,0,3,0,3,1,64,11
9,4,9,1,3,0,3,1,98,11
9,4,12,1,3,0,3,1,98,11
9,4,13,1,3,0,3,1,98,11
9,4,14,1,3,0,3,1,98,11
9,4,14,1,0,0,3,1,98,11
9,4,7,1,1,0,3,1,47,11
9,4,18,1,1,0,3,1,98,11
9,4,23,0,1,0,3,1,98,8
9,4,12,1,2,0,3,1,98,11
9,4,12,1,2,0,3,1,98,11
9,4,13,1,2,0,3,1,98,11
9,4,17,1,2,0,3,1,98,11
9,4,18,1,2,0,3,1,98,11
9,4,18,1,4,0,3,1,98,11
9,4,17,1,6,1,3,1,98,11
10,4,14,1,2,0,4,1,98,11
10,4,23,0,2,0,4,1,98,11
10,4,17,1,4,0,4,1,98,11
10,4,21,0,4,0,4,1,86,11
10,4,12,1,5,1,4,1,98,11
10,4,18,1,5,1,4,1,98,11
10,4,22,0,5,1,4,1,86,11
10,4,14,1,0,0,4,1,65,11
10,4,20,1,0,0,4,1,98,11
10,4,20,1,1,0,4,1,86,11
10,4,18,1,2,0,4,1,98,11
10,4,18,1,6,1,4,1,98,11
10,4,12,1,1,0,4,1,98,11
10,4,15,1,1,0,4,1,98,11
10,4,15,1,2,0,4,1,98,11
10,4,13,1,6,1,4,1,65,11
10,4,15,1,0,0,4,1,98,11
10,4,17,1,0,0,4,1,98,11
10,4,15,1,1,0,4,1,98,11
10,4,14,1,3,0,4,1,86,11
11,4,4,0,6,1,4,1,86,11
11,4,6,0,6,1,4,1,86,11
11,4,17,1,0,0,4,1,89,11
11,4,12,1,3,0,4,1,98,11
11,4,13,1,5,1,4,1,79,11
11,4,18,1,5,1,4,1,86,11
11,4,20,1,6,1,4,1,96,11
11,4,20,1,0,0,4,1,86,11
11,4,17,1,1,0,4,1,98,11
11,4,18,1,1,0,4,1,98,11
11,4,1,0,3,0,4,1,86,11
11,4,3,0,3,0,4,1,86,11
11,4,12,1,3,0,4,1,98,11
11,4,16,1,4,0,4,1,98,11
11,4,0,0,5,1,4,1,86,11
11,4,0,0,5,1,4,1,86,11
11,4,8,1,5,1,4,1,86,11
11,4,5,0,6,1,4,1,86,11
11,4,14,1,6,1,4,1,98,11
11,4,23,0,6,1,4,1,86,11
11,4,3,0,0,0,4,1,86,11
11,4,17,1,0,0,4,1,86,11
11,4,19,1,0,0,4,1,86,11
11,4,23,0,0,0,4,1,86,11
11,4,14,1,2,0,4,1,3,11
11,4,17,1,2,0,4,1,98,11
11,4,19,1,2,0,4,1,19,11
11,4,21,0,2,0,4,1,86,11
11,4,22,0,2,0,4,1,86,11
11,4,0,0,3,0,4,1,86,11
11,4,17,1,3,0,4,1,98,11
11,4,19,1,3,0,4,1,86,11
11,4,18,1,4,0,4,1,55,11
11,4,20,1,4,0,4,1,98,11
11,4,22,0,4,0,4,1,86,11
11,4,0,0,5,1,4,1,86,11
11,4,16,1,5,1,4,1,65,11
11,4,12,1,6,1,4,1,98,11
11,4,20,1,6,1,4,1,98,11
11,4,21,0,6,1,4,1,86,11
11,4,19,1,0,0,4,1,98,11
11,4,20,1,1,0,4,1,86,11
11,4,16,1,2,0,4,1,98,11
11,4,17,1,2,0,4,1,98,11
11,4,18,1,2,0,4,1,98,11
11,4,2,0,3,0,4,1,86,11
11,4,12,1,3,0,4,1,79,11
11,4,18,1,3,0,4,1,98,11
11,4,17,1,4,0,4,1,98,11
11,4,12,1,5,1,4,1,86,11
11,4,3,0,6,1,4,1,98,11
11,4,19,1,6,1,4,1,103,11
12,1,18,1,1,0,4,1,86,11
12,1,21,0,1,0,4,1,65,11
12,1,0,0,4,0,4,1,86,11
12,1,18,1,4,0,4,1,19,11
12,1,18,1,4,0,4,1,65,11
12,1,9,1,0,0,4,1,65,11
12,1,21,0,2,0,4,1,65,11
12,1,12,1,3,0,4,1,65,11
12,1,10,1,4,0,4,1,14,11
12,1,18,1,0,0,4,1,86,11
12,1,5,0,1,0,4,1,86,11
12,1,15,1,1,0,4,1,86,11
12,1,0,0,2,0,4,1,86,11
12,1,12,1,3,0,4,1,65,11
12,1,20,1,4,0,4,1,75,11
12,1,16,1,0,0,4,1,86,11
12,1,18,1,0,0,4,1,98,11
12,1,19,1,0,0,4,1,86,11
12,1,1,0,1,0,4,1,86,11
12,1,19,1,1,0,4,1,75,11
12,1,17,1,2,0,4,1,65,11
12,1,10,1,4,0,4,1,86,11
12,1,12,1,6,1,4,1,65,11
12,1,18,1,1,0,4,1,65,11
12,1,20,1,1,0,4,1,86,11
12,1,12,1,2,0,4,1,65,11
12,1,19,1,2,0,4,1,65,11
12,1,20,1,3,0,4,1,75,11
12,1,21,0,3,0,4,1,65,11
12,1,23,0,3,0,4,1,65,11
1,1,17,1,5,1,1,1,89,11
1,1,13,1,2,0,1,1,98,11
1,1,21,0,2,0,1,1,75,11
2,1,17,1,0,0,1,1,75,11
4,2,19,1,2,0,2,1,75,11
4,2,16,1,1,0,2,1,98,11
4,2,10,1,6,1,2,1,75,11
4,2,12,1,6,1,2,1,98,11
5,2,7,1,0,0,2,1,98,11
8,3,11,1,5,1,3,1,27,11
11,4,22,0,3,0,4,1,13,11
11,4,17,1,0,0,4,1,98,11
11,4,14,1,3,0,4,1,98,11
11,4,0,0,4,0,4,1,13,11
1,1,11,1,5,1,1,1,13,9
1,1,15,1,0,0,1,1,98,11
1,1,16,1,0,0,1,1,98,11
1,1,16,1,2,0,1,1,98,11
1,1,16,1,3,0,1,1,98,11
1,1,13,1,4,0,1,1,98,11
1,1,18,1,4,0,1,1,75,11
2,1,14,1,5,1,1,1,98,11
2,1,6,0,4,0,1,1,98,11
2,1,18,1,3,0,1,1,27,11
2,1,19,1,2,0,1,1,98,11
3,2,17,1,1,0,1,1,98,11
3,2,18,1,5,1,1,1,98,11
3,2,17,1,5,1,1,1,98,11
3,2,12,1,1,0,1,1,98,11
4,2,21,0,1,0,2,1,98,11
4,2,13,1,6,1,2,1,98,11
5,2,10,1,1,0,2,1,98,11
7,3,12,1,2,0,3,1,98,11
7,3,10,1,0,0,3,1,98,11
7,3,18,1,3,0,3,1,98,11
8,3,0,0,2,0,3,1,98,11
9,4,12,1,1,0,3,1,98,11
9,4,0,0,4,0,3,1,98,11
9,4,12,1,4,0,3,1,98,11
10,4,17,1,5,1,4,1,98,11
10,4,22,0,6,1,4,1,13,11
11,4,18,1,6,1,4,1,98,11
3,2,10,1,6,1,1,1,98,11
4,2,18,1,4,0,2,1,98,11
4,2,15,1,2,0,2,1,55,11
6,3,10,1,4,0,2,1,75,11
7,3,16,1,0,0,3,1,27,11
8,3,9,1,2,0,3,1,27,11
8,3,4,0,1,0,3,1,19,11
1,1,1,0,3,0,1,1,98,11
1,1,7,1,6,1,1,1,19,11
1,1,14,1,5,1,1,1,125,11
1,1,9,1,0,0,1,1,39,8
1,1,23,0,0,0,1,1,98,11
1,1,23,0,3,0,1,1,98,11
2,1,22,0,6,1,1,1,125,11
2,1,19,1,2,0,1,1,89,11
3,2,10,1,3,0,1,1,75,9
3,2,14,1,4,0,1,1,13,8
3,2,12,1,3,0,1,1,13,11
3,2,17,1,3,0,1,1,25,11
4,2,7,1,5,1,2,1,125,11
4,2,9,1,3,0,2,1,39,8
5,2,5,0,4,0,2,1,56,11
6,3,0,0,5,1,2,1,89,11
6,3,16,1,2,0,2,1,98,11
8,3,10,1,5,1,3,1,89,11
8,3,20,1,5,1,3,1,75,11
8,3,7,1,6,1,3,1,19,11
8,3,21,0,0,0,3,1,98,11
8,3,20,1,4,0,3,1,19,11
8,3,14,1,0,0,3,1,19,9
9,4,17,1,0,0,3,1,39,9
10,4,13,1,5,1,4,1,39,9
11,4,12,1,6,1,4,1,89,11
11,4,22,0,0,0,4,1,125,11
11,4,23,0,0,0,4,1,125,11
11,4,15,1,2,0,4,1,89,11
11,4,23,0,2,0,4,1,125,11
11,4,12,1,4,0,4,1,98,11
11,4,13,1,2,0,4,1,125,11
11,4,20,1,4,0,4,1,65,11
11,4,3,0,5,1,4,1,125,11
11,4,18,1,5,1,4,1,98,11
11,4,14,1,6,1,4,1,125,11
11,4,10,1,3,0,4,1,23,9
11,4,16,1,4,0,4,1,98,11
12,1,14,1,1,0,4,1,125,11
12,1,0,0,5,1,4,1,75,9
12,1,1,0,0,0,4,1,19,11
12,1,15,1,2,0,4,1,125,11
1,1,7,1,4,0,1,1,14,9
1,1,11,1,5,1,1,1,98,11
1,1,13,1,1,0,1,1,98,11
2,1,15,1,2,0,1,1,98,11
2,1,22,0,5,1,1,1,65,11
2,1,19,1,1,0,1,1,79,11
3,2,10,1,2,0,1,1,125,11
3,2,18,1,0,0,1,1,39,11
3,2,10,1,4,0,1,1,98,11
3,2,14,1,5,1,1,1,98,11
4,2,12,1,3,0,2,1,3,11
4,2,22,0,6,1,2,1,65,11
4,2,18,1,5,1,2,1,98,11
4,2,11,1,2,0,2,1,98,11
5,2,16,1,6,1,2,1,75,11
5,2,14,1,6,1,2,1,98,11
5,2,13,1,1,0,2,1,98,11
5,2,8,1,3,0,2,1,98,11
5,2,19,1,3,0,2,1,106,11
5,2,19,1,4,0,2,1,19,11
5,2,16,1,6,1,2,1,98,11
6,3,12,1,4,0,2,1,89,11
6,3,16,1,6,1,2,1,98,11
6,3,17,1,4,0,2,1,98,11
7,3,20,1,4,0,3,1,98,11
7,3,23,0,4,0,3,1,98,11
7,3,4,0,6,1,3,1,19,11
7,3,23,0,3,0,3,1,98,11
7,3,18,1,6,1,3,1,98,11
7,3,23,0,0,0,3,1,98,11
7,3,23,0,1,0,3,1,98,11
7,3,23,0,4,0,3,1,98,11
7,3,20,1,5,1,3,1,98,11
7,3,18,1,0,0,3,1,98,11
8,3,9,1,5,1,3,1,11,11
8,3,19,1,5,1,3,1,19,11
8,3,17,1,2,0,3,1,98,11
8,3,6,0,6,1,3,1,47,11
9,4,10,1,5,1,3,1,125,11
9,4,16,1,5,1,3,1,98,11
9,4,14,1,6,1,3,1,24,11
9,4,7,1,1,0,3,1,3,11
9,4,19,1,6,1,3,1,98,11
9,4,15,1,4,0,3,1,72,11
10,4,17,1,4,0,4,1,98,11
10,4,18,1,6,1,4,1,98,11
10,4,14,1,3,0,4,1,98,11
11,4,14,1,3,0,4,1,13,11
11,4,11,1,5,1,4,1,98,11
11,4,12,1,6,1,4,1,98,11
11,4,10,1,0,0,4,1,98,11
11,4,14,1,4,0,4,1,98,11
11,4,12,1,4,0,4,1,98,11
11,4,20,1,4,0,4,1,98,11
11,4,18,1,5,1,4,1,98,11
11,4,18,1,0,0,4,1,75,11
12,1,15,1,5,1,4,1,98,11
12,1,15,1,4,0,4,1,75,11
1,1,9,1,3,0,1,15,75,11
1,1,10,1,4,0,1,15,125,11
1,1,10,1,5,1,1,15,96,11
1,1,19,1,5,1,1,15,86,11
1,1,12,1,1,0,1,15,75,11
1,1,22,0,0,0,1,15,125,11
1,1,16,1,1,0,1,15,125,11
1,1,19,1,6,1,1,15,125,11
1,1,17,1,4,0,1,15,89,11
2,1,13,1,5,1,1,15,75,11
2,1,12,1,3,0,1,15,64,11
2,1,19,1,4,0,1,15,125,11
2,1,17,1,6,1,1,15,125,11
2,1,19,1,0,0,1,15,75,11
3,2,20,1,0,0,1,15,75,11
3,2,0,0,1,0,1,15,75,11
3,2,14,1,6,1,1,15,125,11
3,2,14,1,0,0,1,15,14,9
4,2,10,1,1,0,2,15,125,11
4,2,18,1,4,0,2,15,89,11
4,2,7,1,5,1,2,15,8,11
4,2,18,1,4,0,2,15,13,11
4,2,12,1,3,0,2,15,75,11
5,2,7,1,6,1,2,15,75,11
5,2,17,1,0,0,2,15,125,11
5,2,15,1,2,0,2,15,125,11
6,3,21,0,6,1,2,15,125,11
6,3,21,0,6,1,2,15,89,11
6,3,2,0,0,0,2,15,89,11
6,3,2,0,0,0,2,15,89,11
6,3,9,1,2,0,2,15,19,11
6,3,9,1,2,0,2,15,19,11
6,3,15,1,6,1,2,15,39,11
6,3,22,0,1,0,2,15,14,9
7,3,17,1,6,1,3,15,125,11
7,3,21,0,6,1,3,15,98,11
7,3,19,1,0,0,3,15,75,11
7,3,7,1,0,0,3,15,106,11
8,3,16,1,5,1,3,15,19,11
8,3,4,0,0,0,3,15,125,11
8,3,12,1,2,0,3,15,89,11
8,3,13,1,3,0,3,15,89,11
8,3,12,1,5,1,3,15,89,11
8,3,18,1,0,0,3,15,19,11
8,3,13,1,5,1,3,15,89,11
9,4,3,0,4,0,3,15,56,11
9,4,21,0,2,0,3,15,39,8
9,4,21,0,2,0,3,15,65,11
9,4,18,1,6,1,3,15,98,11
9,4,23,0,0,0,3,15,89,11
9,4,3,0,3,0,3,15,75,11
9,4,17,1,5,1,3,15,89,11
9,4,14,1,0,0,3,15,55,11
9,4,17,1,0,0,3,15,56,8
9,4,18,1,2,0,3,15,55,11
10,4,20,1,3,0,4,15,55,11
10,4,7,1,3,0,4,15,13,9
10,4,9,1,4,0,4,15,55,11
10,4,19,1,4,0,4,15,39,8
10,4,14,1,5,1,4,15,19,11
10,4,23,0,6,1,4,15,125,11
10,4,16,1,0,0,4,15,98,11
10,4,19,1,4,0,4,15,86,11
10,4,20,1,4,0,4,15,86,11
10,4,10,1,6,1,4,15,55,11
10,4,19,1,6,1,4,15,1,11
10,4,9,1,0,0,4,15,55,11
10,4,9,1,3,0,4,15,57,11
10,4,23,0,3,0,4,15,75,8
11,4,11,1,6,1,4,15,98,11
11,4,18,1,0,0,4,15,75,11
11,4,19,1,5,1,4,15,98,11
11,4,17,1,1,0,4,15,13,8
12,1,7,1,1,0,4,15,75,11
12,1,0,0,6,1,4,15,89,11
12,1,19,1,0,0,4,15,65,11
12,1,11,1,1,0,4,15,65,11
12,1,20,1,3,0,4,15,75,11
12,1,10,1,6,1,4,15,65,11
12,1,19,1,0,0,4,15,125,11
1,1,1,0,4,0,1,15,13,8
1,1,6,0,0,0,1,15,125,11
1,1,6,0,0,0,1,15,125,11
1,1,6,0,0,0,1,15,125,11
1,1,21,0,4,0,1,15,89,11
1,1,17,1,1,0,1,15,75,11
2,1,13,1,0,0,1,15,75,11
4,2,20,1,2,0,2,15,125,11
4,2,23,0,2,0,2,15,106,11
5,2,1,0,1,0,2,15,89,11
5,2,22,0,1,0,2,15,75,11
5,2,6,0,1,0,2,15,105,8
7,3,14,1,1,0,3,15,105,8
8,3,0,0,3,0,3,15,98,11
10,4,16,1,4,0,4,15,98,11
10,4,23,0,0,0,4,15,55,11
12,1,23,0,5,1,4,15,98,11
12,1,5,0,6,1,4,15,14,11
1,1,22,0,3,0,1,15,39,11
1,1,23,0,0,0,1,15,39,11
3,2,15,1,5,1,1,15,89,11
4,2,14,1,6,1,2,15,125,11
5,2,12,1,4,0,2,15,39,11
6,3,23,0,4,0,2,15,125,11
6,3,13,1,5,1,2,15,75,8
8,3,2,0,2,0,3,15,89,11
9,4,9,1,6,1,3,15,75,11
10,4,15,1,6,1,4,15,55,11
11,4,17,1,4,0,4,15,89,11
11,4,15,1,0,0,4,15,98,11
11,4,12,1,5,1,4,15,125,11
1,1,22,0,4,0,1,15,39,8
1,1,17,1,4,0,1,15,19,11
1,1,18,1,2,0,1,15,65,11
2,1,0,0,5,1,1,15,125,8
2,1,18,1,5,1,1,15,19,11
2,1,19,1,5,1,1,15,75,11
2,1,12,1,1,0,1,15,41,11
2,1,0,0,2,0,1,15,77,11
2,1,19,1,3,0,1,15,125,11
3,2,14,1,1,0,1,15,125,11
3,2,15,1,5,1,1,15,89,11
4,2,22,0,3,0,2,15,98,11
4,2,21,0,5,1,2,15,98,11
4,2,13,1,6,1,2,15,89,11
4,2,16,1,0,0,2,15,89,11
4,2,12,1,3,0,2,15,75,11
4,2,14,1,5,1,2,15,8,9
4,2,21,0,5,1,2,15,75,11
5,2,21,0,0,0,2,15,13,11
5,2,21,0,1,0,2,15,19,11
5,2,16,1,2,0,2,15,75,11
5,2,21,0,5,1,2,15,105,8
5,2,9,1,3,0,2,15,125,11
5,2,3,0,6,1,2,15,125,11
6,3,18,1,4,0,2,15,89,11
6,3,14,1,6,1,2,15,56,11
6,3,9,1,3,0,2,15,125,11
6,3,17,1,6,1,2,15,89,11
6,3,13,1,1,0,2,15,89,11
6,3,16,1,6,1,2,15,89,11
7,3,16,1,0,0,3,15,125,11
7,3,3,0,6,1,3,15,75,11
7,3,16,1,0,0,3,15,89,11
7,3,15,1,0,0,3,15,89,11
7,3,8,1,4,0,3,15,89,11
7,3,21,0,1,0,3,15,89,11
7,3,20,1,1,0,3,15,89,11
7,3,23,0,3,0,3,15,19,11
8,3,20,1,1,0,3,15,89,11
8,3,15,1,4,0,3,15,19,11
8,3,21,0,2,0,3,15,125,11
8,3,17,1,4,0,3,15,15,11
8,3,17,1,4,0,3,15,56,11
9,4,5,0,1,0,3,15,125,11
9,4,4,0,3,0,3,15,39,11
9,4,4,0,5,1,3,15,125,11
9,4,2,0,5,1,3,15,125,11
9,4,0,0,1,0,3,15,125,11
10,4,15,1,4,0,4,15,125,11
10,4,23,0,4,0,4,15,98,11
10,4,13,1,0,0,4,15,56,11
10,4,14,1,2,0,4,15,39,11
10,4,16,1,3,0,4,15,105,9
11,4,10,1,6,1,4,15,75,11
11,4,17,1,2,0,4,15,86,8
11,4,12,1,1,0,4,15,125,11
11,4,23,0,2,0,4,15,23,8
12,1,8,1,1,0,4,15,51,11
12,1,10,1,3,0,4,15,105,8
12,1,14,1,2,0,4,15,75,11
12,1,3,0,1,0,4,15,19,11
12,1,21,0,2,0,4,15,86,11
1,1,9,1,2,0,1,15,39,11
1,1,10,1,4,0,1,15,89,11
1,1,17,1,6,1,1,15,75,11
1,1,17,1,1,0,1,15,86,11
1,1,9,1,4,0,1,15,39,11
2,1,7,1,4,0,1,15,75,11
2,1,19,1,0,0,1,15,39,11
3,2,1,0,2,0,1,15,86,11
3,2,20,1,1,0,1,15,75,11
4,2,2,0,3,0,2,15,112,11
4,2,8,1,2,0,2,15,56,9
5,2,13,1,4,0,2,15,109,11
5,2,1,0,5,1,2,15,125,11
6,3,1,0,3,0,2,15,75,11
6,3,8,1,3,0,2,15,19,11
7,3,21,0,4,0,3,15,39,11
7,3,0,0,2,0,3,15,125,11
7,3,18,1,5,1,3,15,19,11
7,3,21,0,0,0,3,15,11,11
7,3,3,0,2,0,3,15,125,11
8,3,1,0,2,0,3,15,89,11
8,3,16,1,2,0,3,15,89,11
8,3,21,0,3,0,3,15,123,11
8,3,14,1,5,1,3,15,19,11
9,4,13,1,4,0,3,15,14,11
9,4,22,0,3,0,3,15,98,11
10,4,10,1,3,0,4,15,14,11
10,4,10,1,2,0,4,15,72,11
11,4,11,1,5,1,4,15,75,11
11,4,13,1,6,1,4,15,39,11
11,4,17,1,2,0,4,15,39,11
11,4,23,0,3,0,4,15,64,11
11,4,1,0,0,0,4,15,43,11
12,1,20,1,1,0,4,15,55,11
12,1,13,1,4,0,4,6,75,11
12,1,15,1,3,0,4,15,89,11
12,1,14,1,3,0,4,15,100,11
1,1,4,0,0,0,1,3,94,11
1,1,17,1,0,0,1,3,94,11
1,1,16,1,0,0,1,3,65,11
1,1,19,1,1,0,1,3,94,11
1,1,9,1,5,1,1,3,94,11
1,1,13,1,2,0,1,3,94,11
1,1,2,0,3,0,1,3,94,11
1,1,16,1,5,1,1,3,98,11
1,1,20,1,6,1,1,3,98,11
1,1,20,1,6,1,1,3,98,11
1,1,14,1,0,0,1,3,89,11
1,1,21,0,1,0,1,3,65,11
1,1,14,1,3,0,1,3,27,11
1,1,7,1,4,0,1,3,89,11
1,1,20,1,3,0,1,3,19,11
1,1,15,1,4,0,1,3,119,11
2,1,16,1,6,1,1,3,75,11
2,1,20,1,6,1,1,3,98,11
2,1,11,1,2,0,1,3,94,11
2,1,10,1,5,1,1,3,94,11
2,1,11,1,5,1,1,3,94,11
2,1,21,0,6,1,1,3,65,11
2,1,17,1,3,0,1,3,94,11
2,1,12,1,0,0,1,3,98,11
2,1,1,0,0,0,1,3,94,11
2,1,15,1,2,0,1,3,89,11
3,2,11,1,6,1,1,3,94,11
3,2,16,1,1,0,1,3,65,11
3,2,17,1,1,0,1,3,94,11
3,2,1,0,2,0,1,3,94,11
3,2,1,0,5,1,1,3,89,11
3,2,14,1,5,1,1,3,98,11
3,2,14,1,0,0,1,3,89,11
3,2,18,1,1,0,1,3,94,11
3,2,10,1,0,0,1,3,75,9
3,2,22,0,6,1,1,3,94,11
3,2,20,1,1,0,1,3,75,11
3,2,15,1,4,0,1,3,125,11
3,2,16,1,0,0,1,3,98,11
4,2,0,0,4,0,2,3,9,11
4,2,18,1,6,1,2,3,98,11
4,2,11,1,2,0,2,3,89,11
4,2,1,0,3,0,2,3,98,11
4,2,12,1,1,0,2,3,89,11
4,2,17,1,4,0,2,3,89,11
4,2,13,1,2,0,2,3,94,11
4,2,11,1,6,1,2,3,89,11
5,2,19,1,5,1,2,3,79,11
5,2,11,1,1,0,2,3,72,11
5,2,13,1,4,0,2,3,45,11
6,3,19,1,5,1,2,3,94,11
6,3,22,0,6,1,2,3,94,11
6,3,15,1,2,0,2,3,94,11
6,3,21,0,5,1,2,3,89,11
7,3,17,1,5,1,3,3,65,11
7,3,18,1,6,1,3,3,94,11
7,3,16,1,1,0,3,3,89,11
7,3,8,1,2,0,3,3,94,11
7,3,16,1,4,0,3,3,65,11
7,3,12,1,4,0,3,3,104,9
8,3,17,1,3,0,3,3,94,11
8,3,20,1,5,1,3,3,94,11
8,3,15,1,5,1,3,3,8,11
8,3,14,1,0,0,3,3,94,11
8,3,16,1,6,1,3,3,105,11
8,3,0,0,2,0,3,3,94,11
9,4,18,1,1,0,3,3,105,9
9,4,13,1,4,0,3,3,65,11
9,4,20,1,3,0,3,3,89,11
9,4,20,1,5,1,3,3,89,11
10,4,9,1,5,1,4,3,89,11
10,4,14,1,5,1,4,3,65,11
10,4,20,1,5,1,4,3,98,11
10,4,16,1,4,0,4,3,47,11
10,4,15,1,4,0,4,3,98,11
11,4,18,1,5,1,4,3,98,11
11,4,14,1,1,0,4,3,98,11
11,4,14,1,5,1,4,3,75,11
11,4,15,1,0,0,4,3,98,11
11,4,17,1,1,0,4,3,65,11
11,4,18,1,2,0,4,3,65,11
11,4,18,1,2,0,4,3,19,11
11,4,23,0,5,1,4,3,89,11
11,4,22,0,2,0,4,3,89,11
11,4,23,0,3,0,4,3,89,11
11,4,17,1,4,0,4,3,89,11
11,4,18,1,5,1,4,3,98,11
11,4,10,1,0,0,4,3,94,11
12,1,18,1,5,1,4,3,98,11
12,1,17,1,0,0,4,3,75,11
12,1,7,1,6,1,4,3,94,11
12,1,20,1,0,0,4,3,65,11
12,1,23,0,6,1,4,3,94,11
12,1,5,0,6,1,4,3,94,11
12,1,8,1,0,0,4,3,19,11
12,1,19,1,1,0,4,3,98,11
1,1,12,1,3,0,1,3,94,11
3,2,9,1,3,0,1,3,19,11
4,2,12,1,1,0,2,3,89,11
4,2,15,1,1,0,2,3,86,11
7,3,20,1,3,0,3,3,125,11
8,3,21,0,2,0,3,3,94,11
8,3,21,0,2,0,3,3,94,11
9,4,9,1,0,0,3,3,106,11
10,4,22,0,4,0,4,3,86,11
10,4,15,1,2,0,4,3,89,11
11,4,10,1,2,0,4,3,106,11
11,4,16,1,4,0,4,3,94,11
1,1,7,1,2,0,1,3,96,11
1,1,1,0,1,0,1,3,14,11
1,1,22,0,2,0,1,3,39,11
1,1,11,1,4,0,1,3,67,11
1,1,4,0,5,1,1,3,83,11
2,1,17,1,0,0,1,3,98,11
2,1,18,1,5,1,1,3,75,9
7,3,14,1,5,1,3,3,78,11
10,4,11,1,6,1,4,3,94,11
1,1,10,1,2,0,1,3,94,11
2,1,9,1,3,0,1,3,98,11
2,1,23,0,4,0,1,3,98,11
2,1,2,0,4,0,1,3,94,11
4,2,22,0,6,1,2,3,94,11
6,3,10,1,6,1,2,3,75,11
7,3,17,1,0,0,3,3,106,11
9,4,22,0,1,0,3,3,123,11
9,4,21,0,4,0,3,3,106,11
10,4,4,0,1,0,4,3,106,11
1,1,21,0,3,0,1,3,125,11
1,1,22,0,3,0,1,3,123,11
1,1,22,0,5,1,1,3,89,11
1,1,9,1,6,1,1,3,125,11
4,2,19,1,5,1,2,3,75,11
4,2,22,0,0,0,2,3,89,11
5,2,0,0,4,0,2,3,125,11
8,3,16,1,5,1,3,3,89,11
8,3,17,1,5,1,3,3,89,11
9,4,23,0,1,0,3,3,125,11
9,4,23,0,2,0,3,3,125,11
9,4,14,1,2,0,3,3,19,11
9,4,14,1,3,0,3,3,19,11
12,1,22,0,6,1,4,3,14,11
12,1,20,1,4,0,4,3,86,11
4,2,21,0,2,0,2,3,19,11
6,3,15,1,0,0,2,3,75,11
8,3,14,1,5,1,3,3,75,11
9,4,7,1,5,1,3,3,89,11
11,4,14,1,1,0,4,3,89,11
1,1,13,1,2,0,1,36,65,11
1,1,17,1,2,0,1,36,65,11
1,1,22,0,2,0,1,36,98,11
1,1,1,0,3,0,1,36,98,11
1,1,1,0,3,0,1,36,98,11
1,1,6,0,5,1,1,36,98,11
1,1,18,1,5,1,1,36,98,11
1,1,10,1,6,1,1,36,19,11
1,1,11,1,6,1,1,36,98,11
1,1,19,1,6,1,1,36,98,11
1,1,20,1,1,0,1,36,113,11
1,1,18,1,3,0,1,36,98,11
1,1,15,1,4,0,1,36,94,11
1,1,15,1,5,1,1,36,94,11
1,1,22,0,5,1,1,36,94,11
1,1,5,0,6,1,1,36,19,11
1,1,21,0,3,0,1,36,32,11
1,1,21,0,4,0,1,36,26,11
1,1,20,1,1,0,1,36,39,11
1,1,13,1,3,0,1,36,98,11
1,1,17,1,3,0,1,36,94,11
1,1,18,1,3,0,1,36,45,11
1,1,0,0,4,0,1,36,98,11
1,1,3,0,5,1,1,36,94,11
1,1,4,0,6,1,1,36,94,11
1,1,18,1,6,1,1,36,75,11
1,1,10,1,6,1,1,36,94,11
1,1,0,0,2,0,1,36,94,11
1,1,0,0,2,0,1,36,94,11
1,1,0,0,2,0,1,36,94,11
1,1,0,0,2,0,1,36,72,11
1,1,1,0,2,0,1,36,94,11
1,1,1,0,4,0,1,36,75,11
2,1,16,1,6,1,1,36,13,9
2,1,21,0,6,1,1,36,15,8
2,1,12,1,6,1,1,36,20,11
2,1,14,1,4,0,1,36,94,11
2,1,18,1,4,0,1,36,94,11
2,1,20,1,2,0,1,36,98,11
2,1,17,1,4,0,1,36,98,11
2,1,20,1,4,0,1,36,98,11
2,1,23,0,6,1,1,36,98,11
2,1,0,0,3,0,1,36,98,11
2,1,16,1,3,0,1,36,98,11
2,1,16,1,0,0,1,36,94,11
2,1,22,0,3,0,1,36,3,11
2,1,16,1,4,0,1,36,98,11
2,1,15,1,5,1,1,36,75,11
3,2,15,1,6,1,1,36,39,11
3,2,20,1,0,0,1,36,106,11
3,2,22,0,0,0,1,36,98,11
3,2,3,0,4,0,1,36,72,11
3,2,1,0,0,0,1,36,106,11
3,2,8,1,3,0,1,36,94,11
3,2,19,1,5,1,1,36,39,11
3,2,20,1,2,0,1,36,75,11
3,2,20,1,2,0,1,36,94,11
3,2,15,1,3,0,1,36,72,11
3,2,22,0,4,0,1,36,115,11
3,2,7,1,5,1,1,36,75,11
3,2,14,1,5,1,1,36,94,11
3,2,17,1,5,1,1,36,94,11
3,2,4,0,5,1,1,36,94,11
3,2,19,1,6,1,1,36,39,11
4,2,15,1,3,0,2,36,98,11
4,2,1,0,3,0,2,36,98,11
4,2,17,1,4,0,2,36,89,11
4,2,13,1,5,1,2,36,86,11
4,2,19,1,1,0,2,36,65,8
4,2,14,1,1,0,2,36,65,11
4,2,8,1,3,0,2,36,72,11
4,2,7,1,5,1,2,36,56,11
5,2,16,1,1,0,2,36,39,11
5,2,21,0,0,0,2,36,86,11
5,2,16,1,2,0,2,36,75,11
5,2,9,1,1,0,2,36,39,11
5,2,14,1,2,0,2,36,72,11
5,2,14,1,2,0,2,36,23,11
5,2,19,1,6,1,2,36,25,11
5,2,7,1,5,1,2,36,76,11
6,3,4,0,5,1,2,36,72,11
6,3,13,1,5,1,2,36,89,11
6,3,15,1,2,0,2,36,72,11
6,3,22,0,2,0,2,36,65,11
6,3,19,1,5,1,2,36,72,11
7,3,18,1,4,0,3,36,72,11
7,3,0,0,5,1,3,36,58,11
7,3,22,0,6,1,3,36,89,11
7,3,19,1,0,0,3,36,98,11
7,3,18,1,4,0,3,36,98,11
7,3,11,1,0,0,3,36,65,11
7,3,13,1,1,0,3,36,65,11
8,3,20,1,6,1,3,36,86,11
8,3,11,1,0,0,3,36,98,11
8,3,9,1,4,0,3,36,65,11
8,3,15,1,0,0,3,36,89,11
8,3,0,0,1,0,3,36,75,11
8,3,11,1,2,0,3,36,75,11
8,3,18,1,6,1,3,36,72,11
8,3,5,0,5,1,3,36,89,11
8,3,15,1,6,1,3,36,75,11
8,3,23,0,6,1,3,36,14,11
9,4,18,1,3,0,3,36,75,11
9,4,19,1,0,0,3,36,72,11
9,4,10,1,3,0,3,36,39,11
9,4,10,1,5,1,3,36,75,11
9,4,19,1,6,1,3,36,89,11
9,4,20,1,6,1,3,36,23,11
9,4,1,0,5,1,3,36,89,9
9,4,7,1,2,0,3,36,89,11
10,4,17,1,5,1,4,36,65,11
10,4,13,1,3,0,4,36,86,11
10,4,13,1,4,0,4,36,72,11
10,4,19,1,4,0,4,36,98,11
10,4,13,1,5,1,4,36,86,11
10,4,10,1,6,1,4,36,19,11
10,4,12,1,1,0,4,36,65,11
10,4,5,0,2,0,4,36,56,11
10,4,13,1,3,0,4,36,89,11
10,4,14,1,1,0,4,36,19,11
10,4,12,1,3,0,4,36,75,11
10,4,6,0,4,0,4,36,17,11
10,4,19,1,5,1,4,36,98,11
10,4,11,1,4,0,4,36,19,11
10,4,22,0,5,1,4,36,125,11
11,4,1,0,6,1,4,36,94,11
11,4,12,1,0,0,4,36,19,9
11,4,22,0,3,0,4,36,56,11
11,4,7,1,3,0,4,36,96,11
11,4,17,1,4,0,4,36,25,9
11,4,13,1,4,0,4,36,125,11
11,4,12,1,6,1,4,36,19,9
11,4,3,0,5,1,4,36,29,11
11,4,13,1,1,0,4,36,75,11
11,4,15,1,2,0,4,36,8,11
11,4,7,1,2,0,4,36,125,11
11,4,20,1,4,0,4,36,125,11
11,4,19,1,4,0,4,36,65,11
11,4,22,0,5,1,4,36,65,11
11,4,19,1,1,0,4,36,65,11
11,4,17,1,6,1,4,36,113,11
11,4,15,1,6,1,4,36,98,11
12,1,19,1,2,0,4,36,75,8
12,1,19,1,3,0,4,36,125,11
12,1,8,1,6,1,4,36,125,11
12,1,0,0,1,0,4,36,75,11
12,1,19,1,1,0,4,36,125,11
12,1,7,1,3,0,4,36,65,11
12,1,18,1,5,1,4,36,125,11
12,1,17,1,6,1,4,36,125,11
12,1,21,0,2,0,4,36,65,9
12,1,9,1,6,1,4,36,125,11
12,1,17,1,0,0,4,36,98,11
12,1,19,1,0,0,4,36,106,11
12,1,19,1,0,0,4,36,125,11
12,1,13,1,2,0,4,36,89,11
12,1,17,1,2,0,4,36,75,11
12,1,13,1,2,0,4,36,98,11
12,1,19,1,2,0,4,36,39,11
12,1,15,1,5,1,4,36,89,11
12,1,18,1,3,0,4,36,106,11
1,1,22,0,2,0,1,36,75,9
1,1,8,1,6,1,1,36,39,11
1,1,17,1,1,0,1,36,75,11
1,1,22,0,6,1,1,36,94,11
2,1,9,1,1,0,1,36,98,11
2,1,18,1,1,0,1,36,72,9
2,1,15,1,0,0,1,36,75,11
7,3,4,0,1,0,3,36,14,11
7,3,17,1,2,0,3,36,89,11
9,4,12,1,3,0,3,36,89,11
9,4,1,0,6,1,3,36,89,11
9,4,16,1,3,0,3,36,98,11
10,4,18,1,2,0,4,36,1,11
11,4,15,1,5,1,4,36,75,11
11,4,17,1,0,0,4,36,75,11
1,1,7,1,3,0,1,36,125,11
1,1,15,1,5,1,1,36,125,11
1,1,11,1,4,0,1,36,72,11
1,1,18,1,5,1,1,36,89,11
2,1,2,0,0,0,1,36,72,11
2,1,14,1,6,1,1,36,125,11
3,2,11,1,4,0,1,36,14,11
3,2,12,1,4,0,1,36,98,9
4,2,15,1,2,0,2,36,98,11
5,2,20,1,4,0,2,36,47,11
6,3,8,1,1,0,2,36,75,11
6,3,11,1,2,0,2,36,89,11
7,3,8,1,6,1,3,36,125,11
7,3,8,1,0,0,3,36,86,11
7,3,20,1,0,0,3,36,78,11
7,3,16,1,0,0,3,36,89,11
7,3,21,0,2,0,3,36,89,11
7,3,12,1,5,1,3,36,98,11
8,3,13,1,0,0,3,36,19,11
9,4,16,1,3,0,3,36,106,11
9,4,19,1,3,0,3,36,106,11
9,4,12,1,1,0,3,36,86,11
9,4,4,0,3,0,3,36,106,11
9,4,21,0,6,1,3,36,125,11
9,4,19,1,0,0,3,36,39,11
11,4,11,1,0,0,4,36,125,11
11,4,17,1,3,0,4,36,19,11
11,4,16,1,3,0,4,36,86,11
11,4,13,1,4,0,4,36,89,11
1,1,20,1,2,0,1,36,125,11
2,1,20,1,2,0,1,36,47,11
3,2,19,1,1,0,1,36,75,11
3,2,19,1,1,0,1,36,75,11
3,2,21,0,1,0,1,36,14,11
5,2,12,1,3,0,2,36,89,11
6,3,14,1,5,1,2,36,126,11
6,3,17,1,3,0,2,36,106,11
6,3,16,1,0,0,2,36,89,11
6,3,13,1,0,0,2,36,89,11
7,3,13,1,4,0,3,36,98,11
8,3,9,1,6,1,3,36,75,11
8,3,9,1,6,1,3,36,75,11
9,4,19,1,3,0,3,36,106,11
9,4,12,1,2,0,3,36,19,11
11,4,20,1,2,0,4,36,39,11
11,4,11,1,0,0,4,36,98,11
11,4,9,1,2,0,4,36,89,11
11,4,7,1,6,1,4,36,125,11
12,1,12,1,1,0,4,36,98,11
12,1,12,1,1,0,4,36,98,11
1,1,18,1,3,0,1,36,125,11
1,1,20,1,5,1,1,36,106,11
1,1,10,1,0,0,1,36,106,11
1,1,19,1,1,0,1,36,86,11
2,1,19,1,5,1,1,36,86,11
2,1,9,1,3,0,1,36,125,11
5,2,0,0,1,0,2,36,56,8
6,3,1,0,2,0,2,36,19,11
6,3,1,0,0,0,2,36,106,11
8,3,17,1,4,0,3,36,14,11
9,4,0,0,1,0,3,36,11,11
10,4,11,1,3,0,4,36,82,11
10,4,12,1,0,0,4,36,106,11
11,4,6,0,2,0,4,36,72,11
12,1,7,1,3,0,4,36,75,9
1,1,7,1,2,0,1,30,98,11
1,1,17,1,0,0,1,30,86,11
1,1,17,1,3,0,1,30,39,11
1,1,10,1,0,0,1,30,39,11
1,1,18,1,4,0,1,30,65,11
1,1,11,1,6,1,1,30,86,11
2,1,21,0,6,1,1,30,86,11
2,1,5,0,0,0,1,30,75,11
2,1,11,1,1,0,1,30,89,11
2,1,20,1,3,0,1,30,86,11
2,1,5,0,4,0,1,30,75,11
4,2,15,1,6,1,2,30,75,11
4,2,11,1,5,1,2,30,75,11
5,2,21,0,6,1,2,30,86,11
5,2,11,1,5,1,2,30,41,8
5,2,17,1,5,1,2,30,98,11
5,2,9,1,0,0,2,30,13,11
5,2,21,0,2,0,2,30,78,11
5,2,10,1,4,0,2,30,89,11
6,3,22,0,1,0,2,30,106,11
7,3,0,0,5,1,3,30,75,11
7,3,10,1,5,1,3,30,89,11
7,3,11,1,1,0,3,30,89,11
8,3,20,1,5,1,3,30,23,11
8,3,13,1,0,0,3,30,14,11
8,3,15,1,1,0,3,30,98,11
9,4,14,1,6,1,3,30,89,11
10,4,18,1,4,0,4,30,86,11
10,4,13,1,0,0,4,30,89,11
10,4,17,1,0,0,4,30,72,11
11,4,19,1,3,0,4,30,86,11
11,4,22,0,5,1,4,30,89,11
12,1,18,1,6,1,4,30,19,11
12,1,17,1,1,0,4,30,75,11
3,2,20,1,3,0,1,30,75,11
4,2,23,0,5,1,2,30,8,11
5,2,2,0,4,0,2,30,85,11
5,2,13,1,0,0,2,30,75,11
6,3,11,1,2,0,2,30,89,11
7,3,21,0,3,0,3,30,125,11
11,4,14,1,5,1,4,30,8,11
11,4,13,1,4,0,4,30,27,11
1,1,14,1,0,0,1,5,19,11
1,1,2,0,4,0,1,5,14,11
5,2,23,0,4,0,2,5,75,11
5,2,2,0,2,0,2,5,89,11
1,1,16,1,5,1,1,30,13,11
2,1,17,1,6,1,1,30,125,11
3,2,13,1,6,1,1,30,89,11
4,2,21,0,5,1,2,30,125,11
4,2,18,1,1,0,2,30,86,11
8,3,4,0,1,0,3,30,75,11
9,4,18,1,4,0,3,30,98,11
11,4,16,1,3,0,4,30,89,11
10,4,14,1,6,1,4,30,98,11
1,1,6,0,0,0,1,30,89,11
1,1,16,1,3,0,1,30,125,11
1,1,19,1,0,0,1,30,98,11
2,1,18,1,3,0,1,30,13,9
2,1,20,1,5,1,1,30,106,11
3,2,13,1,0,0,1,30,19,8
6,3,23,0,2,0,2,30,106,11
7,3,20,1,3,0,3,30,75,11
9,4,1,0,4,0,3,30,106,11
9,4,20,1,5,1,3,30,8,11
9,4,5,0,1,0,3,30,106,11
11,4,15,1,6,1,4,30,13,9
11,4,11,1,5,1,4,30,89,11
11,4,11,1,4,0,4,30,19,11
11,4,8,1,0,0,4,30,39,11
11,4,21,0,2,0,4,30,89,11
11,4,11,1,3,0,4,30,125,11
12,1,18,1,0,0,4,30,125,11
12,1,19,1,1,0,4,30,14,8
1,1,17,1,1,0,1,30,106,11
4,2,6,0,1,0,2,30,106,11
5,2,2,0,3,0,2,30,106,11
11,4,7,1,3,0,4,30,97,8
1,1,20,1,3,0,1,30,75,11
1,1,23,0,5,1,1,30,75,11
3,2,14,1,3,0,1,30,19,11
8,3,2,0,5,1,3,30,106,11
9,4,20,1,0,0,3,30,106,11
11,4,16,1,4,0,4,30,89,11
11,4,20,1,0,0,4,30,14,11
12,1,10,1,2,0,4,30,75,9
1,1,15,1,2,0,1,2,75,11
1,1,0,0,2,0,1,2,65,11
1,1,18,1,4,0,1,2,75,11
1,1,15,1,1,0,1,2,25,11
1,1,13,1,2,0,1,2,89,11
1,1,11,1,2,0,1,2,19,11
2,1,3,0,0,0,1,2,19,11
2,1,20,1,1,0,1,2,75,11
2,1,0,0,4,0,1,2,65,11
2,1,13,1,2,0,1,2,98,11
2,1,20,1,3,0,1,2,13,9
2,1,7,1,1,0,1,2,65,11
2,1,23,0,1,0,1,2,75,11
3,2,14,1,3,0,1,2,89,11
3,2,9,1,3,0,1,2,39,11
4,2,17,1,2,0,2,2,75,11
4,2,22,0,4,0,2,2,55,11
5,2,21,0,3,0,2,2,19,11
5,2,12,1,0,0,2,2,39,11
5,2,10,1,5,1,2,2,75,11
6,3,9,1,0,0,2,2,78,11
7,3,13,1,5,1,3,2,106,11
7,3,15,1,5,1,3,2,108,11
7,3,1,0,1,0,3,2,125,11
7,3,12,1,0,0,3,2,106,11
8,3,18,1,1,0,3,2,125,11
8,3,15,1,1,0,3,2,75,11
8,3,3,0,6,1,3,2,23,11
9,4,21,0,3,0,3,2,98,11
9,4,15,1,2,0,3,2,86,11
10,4,19,1,4,0,4,2,75,11
10,4,0,0,6,1,4,2,86,11
10,4,2,0,6,1,4,2,86,11
11,4,2,0,2,0,4,2,76,11
11,4,14,1,2,0,4,2,39,11
11,4,19,1,2,0,4,2,75,11
12,1,20,1,3,0,4,2,94,11
12,1,17,1,3,0,4,2,125,11
1,1,5,0,4,0,1,2,65,11
1,1,11,1,6,1,1,2,89,11
1,1,21,0,2,0,1,2,3,11
2,1,16,1,4,0,1,2,27,11
5,2,8,1,1,0,2,2,106,11
6,3,17,1,0,0,2,2,75,11
6,3,14,1,4,0,2,2,86,11
8,3,20,1,0,0,3,2,104,11
8,3,7,1,1,0,3,2,19,11
11,4,18,1,4,0,4,2,86,11
11,4,11,1,6,1,4,2,86,11
11,4,22,0,5,1,4,2,75,9
11,4,17,1,5,1,4,2,75,11
11,4,8,1,1,0,4,2,19,11
11,4,19,1,4,0,4,2,98,11
11,4,10,1,5,1,4,2,21,8
12,1,23,0,3,0,4,2,75,9
2,1,22,0,5,1,1,5,39,11
3,2,11,1,0,0,1,5,39,11
3,2,14,1,5,1,1,5,89,11
3,2,21,0,6,1,1,5,19,9
6,3,14,1,4,0,2,5,86,11
7,3,1,0,0,0,3,5,125,11
8,3,6,0,0,0,3,5,72,11
9,4,14,1,3,0,3,5,125,11
9,4,15,1,4,0,3,5,89,11
9,4,2,0,4,0,3,5,86,11
9,4,2,0,4,0,3,5,125,11
10,4,21,0,6,1,4,5,106,11
12,1,12,1,0,0,4,5,39,11
1,1,13,1,2,0,1,5,86,11
1,1,0,0,3,0,1,5,86,11
1,1,14,1,3,0,1,5,86,11
2,1,0,0,2,0,1,5,86,11
3,2,19,1,4,0,1,5,75,11
3,2,22,0,0,0,1,5,75,9
9,4,18,1,4,0,3,5,97,8
1,1,13,1,2,0,1,2,86,11
1,1,15,1,2,0,1,2,98,11
1,1,17,1,2,0,1,2,86,11
1,1,14,1,1,0,1,2,125,11
1,1,11,1,2,0,1,2,98,11
1,1,18,1,2,0,1,2,98,11
1,1,3,0,3,0,1,2,75,8
1,1,8,1,6,1,1,2,98,11
1,1,21,0,0,0,1,2,51,11
2,1,14,1,5,1,1,2,125,11
2,1,17,1,5,1,1,2,55,11
2,1,11,1,0,0,1,2,75,11
2,1,12,1,1,0,1,2,89,11
2,1,15,1,2,0,1,2,98,11
2,1,17,1,3,0,1,2,98,11
2,1,17,1,4,0,1,2,75,11
2,1,1,0,6,1,1,2,75,11
2,1,17,1,6,1,1,2,14,11
2,1,13,1,0,0,1,2,89,11
2,1,21,0,1,0,1,2,98,11
2,1,10,1,2,0,1,2,39,11
2,1,20,1,5,1,1,2,125,11
2,1,18,1,0,0,1,2,98,11
2,1,1,0,4,0,1,2,86,11
3,2,14,1,3,0,1,2,98,11
3,2,10,1,4,0,1,2,25,11
3,2,14,1,4,0,1,2,98,11
3,2,15,1,2,0,1,2,89,11
3,2,19,1,3,0,1,2,98,11
3,2,14,1,4,0,1,2,75,11
4,2,17,1,6,1,2,2,98,11
4,2,16,1,4,0,2,2,89,11
4,2,13,1,5,1,2,2,75,11
4,2,19,1,0,0,2,2,98,11
4,2,14,1,1,0,2,2,89,11
4,2,10,1,6,1,2,2,98,11
5,2,6,0,4,0,2,2,39,11
5,2,12,1,4,0,2,2,65,11
5,2,11,1,5,1,2,2,98,11
5,2,23,0,6,1,2,2,72,11
5,2,11,1,1,0,2,2,72,11
5,2,15,1,2,0,2,2,98,11
5,2,18,1,6,1,2,2,89,11
5,2,21,0,6,1,2,2,98,11
5,2,16,1,1,0,2,2,98,11
5,2,21,0,2,0,2,2,98,11
5,2,19,1,1,0,2,2,89,8
5,2,22,0,2,0,2,2,39,11
5,2,8,1,3,0,2,2,75,11
5,2,14,1,3,0,2,2,89,11
5,2,13,1,4,0,2,2,89,11
5,2,13,1,4,0,2,2,89,11
5,2,14,1,4,0,2,2,89,11
5,2,18,1,2,0,2,2,75,8
6,3,15,1,3,0,2,2,25,11
6,3,17,1,3,0,2,2,106,11
6,3,7,1,4,0,2,2,86,11
6,3,10,1,2,0,2,2,89,11
6,3,21,0,4,0,2,2,89,11
6,3,10,1,6,1,2,2,98,11
6,3,14,1,0,0,2,2,98,11
6,3,14,1,1,0,2,2,56,9
6,3,22,0,4,0,2,2,65,11
6,3,0,0,6,1,2,2,89,11
6,3,11,1,6,1,2,2,75,11
6,3,22,0,1,0,2,2,89,11
7,3,20,1,4,0,3,2,98,11
7,3,23,0,5,1,3,2,75,11
7,3,15,1,0,0,3,2,98,11
7,3,23,0,0,0,3,2,98,11
7,3,0,0,1,0,3,2,98,8
7,3,14,1,4,0,3,2,89,11
7,3,15,1,4,0,3,2,89,11
7,3,16,1,4,0,3,2,89,11
7,3,10,1,5,1,3,2,55,11
7,3,12,1,6,1,3,2,98,11
7,3,13,1,1,0,3,2,98,11
7,3,23,0,4,0,3,2,13,11
7,3,12,1,0,0,3,2,125,11
7,3,21,0,0,0,3,2,98,11
7,3,13,1,3,0,3,2,98,11
7,3,15,1,6,1,3,2,89,11
7,3,17,1,6,1,3,2,89,11
7,3,18,1,0,0,3,2,89,11
7,3,19,1,2,0,3,2,89,11
8,3,11,1,4,0,3,2,72,11
8,3,20,1,0,0,3,2,89,11
8,3,0,0,0,0,3,2,8,11
8,3,13,1,1,0,3,2,72,11
8,3,18,1,1,0,3,2,98,11
8,3,16,1,3,0,3,2,89,11
8,3,17,1,5,1,3,2,52,11
8,3,17,1,4,0,3,2,49,11
8,3,22,0,4,0,3,2,98,11
8,3,16,1,6,1,3,2,98,11
8,3,12,1,0,0,3,2,96,11
9,4,5,0,1,0,3,2,14,11
9,4,19,1,1,0,3,2,72,11
9,4,12,1,3,0,3,2,98,11
9,4,7,1,2,0,3,2,98,11
9,4,18,1,3,0,3,2,75,11
9,4,12,1,5,1,3,2,98,11
9,4,16,1,6,1,3,2,98,11
9,4,21,0,0,0,3,2,89,11
9,4,12,1,6,1,3,2,89,11
9,4,19,1,4,0,3,2,89,11
10,4,19,1,1,0,4,2,105,8
10,4,9,1,5,1,4,2,105,11
10,4,12,1,5,1,4,2,89,11
10,4,15,1,5,1,4,2,89,11
10,4,1,0,6,1,4,2,19,9
10,4,15,1,6,1,4,2,98,11
10,4,20,1,6,1,4,2,89,11
10,4,16,1,0,0,4,2,98,11
10,4,21,0,4,0,4,2,19,11
10,4,19,1,6,1,4,2,98,11
10,4,14,1,1,0,4,2,75,11
11,4,21,0,3,0,4,2,98,11
11,4,17,1,5,1,4,2,13,11
11,4,12,1,5,1,4,2,89,11
11,4,18,1,2,0,4,2,125,11
11,4,13,1,5,1,4,2,86,11
11,4,2,0,0,0,4,2,65,11
11,4,10,1,0,0,4,2,72,11
11,4,18,1,0,0,4,2,125,11
12,1,0,0,2,0,4,2,125,11
12,1,17,1,2,0,4,2,14,11
12,1,22,0,2,0,4,2,75,11
12,1,14,1,5,1,4,2,39,11
12,1,14,1,5,1,4,2,86,11
12,1,13,1,6,1,4,2,65,11
12,1,11,1,1,0,4,2,86,11
12,1,15,1,1,0,4,2,23,8
12,1,5,0,6,1,4,2,86,11
12,1,15,1,1,0,4,2,86,11
12,1,9,1,2,0,4,2,86,11
12,1,18,1,1,0,4,2,65,11
12,1,19,1,1,0,4,2,125,11
12,1,18,1,3,0,4,2,98,11
1,1,22,0,2,0,1,28,77,11
1,1,13,1,4,0,1,28,125,11
1,1,14,1,5,1,1,28,125,11
1,1,19,1,6,1,1,28,75,11
1,1,16,1,0,0,1,28,98,11
1,1,19,1,0,0,1,28,19,11
1,1,4,0,1,0,1,28,125,8
1,1,15,1,2,0,1,28,1,11
1,1,11,1,3,0,1,28,89,11
1,1,7,1,5,1,1,28,106,11
1,1,20,1,1,0,1,28,98,11
1,1,13,1,2,0,1,28,98,11
1,1,4,0,4,0,1,28,14,11
1,1,21,0,5,1,1,28,89,11
1,1,22,0,4,0,1,28,40,11
2,1,20,1,5,1,1,28,98,11
2,1,9,1,1,0,1,28,19,11
2,1,3,0,4,0,1,28,125,11
2,1,19,1,5,1,1,28,98,11
2,1,11,1,0,0,1,28,98,11
2,1,15,1,1,0,1,28,8,9
2,1,10,1,3,0,1,28,86,11
2,1,11,1,3,0,1,28,45,9
2,1,18,1,4,0,1,28,65,11
2,1,16,1,5,1,1,28,23,11
2,1,11,1,6,1,1,28,23,11
2,1,15,1,1,0,1,28,23,11
2,1,23,0,1,0,1,28,86,11
2,1,0,0,3,0,1,28,86,11
2,1,20,1,4,0,1,28,89,11
2,1,11,1,5,1,1,28,89,11
3,2,13,1,0,0,1,28,65,11
3,2,20,1,0,0,1,28,72,11
3,2,17,1,1,0,1,28,13,11
3,2,23,0,3,0,1,28,89,11
3,2,16,1,6,1,1,28,105,9
3,2,11,1,3,0,1,28,86,11
3,2,5,0,1,0,1,28,72,11
3,2,8,1,1,0,1,28,86,11
3,2,10,1,1,0,1,28,89,11
3,2,0,0,3,0,1,28,106,11
3,2,23,0,4,0,1,28,75,11
4,2,19,1,3,0,2,28,86,11
4,2,21,0,6,1,2,28,72,9
4,2,18,1,0,0,2,28,86,11
4,2,16,1,1,0,2,28,89,11
4,2,12,1,2,0,2,28,89,11
4,2,18,1,3,0,2,28,75,9
4,2,17,1,3,0,2,28,98,11
4,2,19,1,4,0,2,28,86,11
4,2,3,0,5,1,2,28,98,11
4,2,11,1,6,1,2,28,75,11
4,2,8,1,1,0,2,28,106,11
4,2,0,0,2,0,2,28,72,11
4,2,15,1,0,0,2,28,98,11
4,2,14,1,2,0,2,28,98,11
4,2,5,0,3,0,2,28,72,9
4,2,18,1,3,0,2,28,98,11
4,2,21,0,3,0,2,28,39,11
5,2,12,1,5,1,2,28,39,11
5,2,12,1,3,0,2,28,89,11
5,2,17,1,4,0,2,28,23,8
5,2,17,1,5,1,2,28,89,11
5,2,15,1,6,1,2,28,98,11
5,2,13,1,2,0,2,28,89,11
5,2,14,1,2,0,2,28,75,11
5,2,16,1,2,0,2,28,89,11
5,2,21,0,1,0,2,28,89,11
5,2,23,0,2,0,2,28,98,11
5,2,17,1,3,0,2,28,98,11
5,2,12,1,4,0,2,28,106,11
5,2,23,0,4,0,2,28,98,11
5,2,21,0,6,1,2,28,98,11
5,2,1,0,2,0,2,28,39,11
6,3,15,1,0,0,2,28,98,11
6,3,13,1,1,0,2,28,98,11
6,3,23,0,6,1,2,28,98,11
6,3,11,1,0,0,2,28,89,11
6,3,17,1,0,0,2,28,89,11
6,3,17,1,0,0,2,28,89,11
6,3,9,1,3,0,2,28,89,11
6,3,12,1,3,0,2,28,89,11
6,3,18,1,3,0,2,28,98,11
6,3,16,1,4,0,2,28,45,11
6,3,15,1,6,1,2,28,89,11
6,3,11,1,2,0,2,28,89,11
6,3,15,1,2,0,2,28,89,11
6,3,0,0,6,1,2,28,89,11
6,3,21,0,1,0,2,28,89,11
7,3,11,1,2,0,3,28,89,11
7,3,14,1,3,0,3,28,65,11
7,3,15,1,4,0,3,28,98,11
7,3,21,0,4,0,3,28,98,11
7,3,23,0,1,0,3,28,98,11
7,3,20,1,2,0,3,28,98,11
7,3,21,0,4,0,3,28,19,11
7,3,16,1,5,1,3,28,89,11
7,3,14,1,6,1,3,28,89,11
7,3,17,1,6,1,3,28,98,11
7,3,13,1,0,0,3,28,98,11
7,3,11,1,1,0,3,28,125,11
7,3,18,1,2,0,3,28,89,11
7,3,12,1,6,1,3,28,125,11
7,3,8,1,3,0,3,28,89,9
7,3,21,0,4,0,3,28,98,11
7,3,11,1,5,1,3,28,98,11
7,3,16,1,0,0,3,28,89,11
7,3,3,0,3,0,3,28,71,11
7,3,17,1,3,0,3,28,27,11
7,3,1,0,4,0,3,28,89,11
7,3,7,1,4,0,3,28,89,11
7,3,12,1,4,0,3,28,98,11
8,3,13,1,6,1,3,28,3,11
8,3,14,1,1,0,3,28,19,11
8,3,22,0,4,0,3,28,75,11
8,3,16,1,6,1,3,28,19,11
8,3,22,0,3,0,3,28,75,11
8,3,17,1,6,1,3,28,98,11
8,3,8,1,2,0,3,28,89,11
8,3,23,0,2,0,3,28,19,11
9,4,15,1,1,0,3,28,98,11
9,4,14,1,2,0,3,28,108,11
9,4,17,1,4,0,3,28,98,11
9,4,11,1,5,1,3,28,14,11
9,4,13,1,5,1,3,28,98,11
9,4,15,1,6,1,3,28,89,11
9,4,15,1,6,1,3,28,89,11
9,4,17,1,0,0,3,28,27,11
9,4,6,0,3,0,3,28,65,11
9,4,11,1,3,0,3,28,27,11
9,4,1,0,1,0,3,28,98,11
9,4,11,1,1,0,3,28,23,11
9,4,15,1,2,0,3,28,89,11
9,4,18,1,2,0,3,28,98,11
9,4,17,1,3,0,3,28,14,11
9,4,20,1,3,0,3,28,89,11
9,4,11,1,4,0,3,28,19,11
9,4,20,1,6,1,3,28,98,11
9,4,13,1,0,0,3,28,98,11
9,4,13,1,0,0,3,28,98,11
9,4,21,0,3,0,3,28,98,11
9,4,22,0,5,1,3,28,89,11
9,4,5,0,2,0,3,28,45,11
10,4,8,1,5,1,4,28,98,11
10,4,20,1,0,0,4,28,19,11
10,4,15,1,1,0,4,28,89,11
10,4,9,1,5,1,4,28,98,11
10,4,14,1,1,0,4,28,103,11
10,4,4,0,3,0,4,28,19,11
10,4,16,1,6,1,4,28,23,11
10,4,19,1,0,0,4,28,123,11
10,4,19,1,3,0,4,28,75,11
10,4,8,1,5,1,4,28,125,11
10,4,6,0,5,1,4,28,14,11
10,4,13,1,1,0,4,28,89,11
10,4,13,1,2,0,4,28,120,11
11,4,12,1,3,0,4,28,98,11
11,4,22,0,3,0,4,28,19,9
11,4,7,1,4,0,4,28,19,11
11,4,7,1,5,1,4,28,76,11
11,4,13,1,6,1,4,28,89,9
11,4,15,1,0,0,4,28,56,11
11,4,18,1,0,0,4,28,89,11
11,4,19,1,2,0,4,28,98,11
11,4,10,1,3,0,4,28,98,11
11,4,16,1,5,1,4,28,98,11
11,4,14,1,6,1,4,28,13,11
11,4,6,0,2,0,4,28,89,11
11,4,1,0,6,1,4,28,106,11
11,4,3,0,6,1,4,28,125,11
11,4,10,1,6,1,4,28,125,11
11,4,13,1,6,1,4,28,89,11
11,4,11,1,0,0,4,28,79,11
11,4,15,1,0,0,4,28,89,11
11,4,18,1,0,0,4,28,75,11
11,4,21,0,0,0,4,28,125,11
11,4,9,1,1,0,4,28,125,11
11,4,9,1,1,0,4,28,98,11
11,4,1,0,2,0,4,28,125,11
11,4,3,0,4,0,4,28,125,11
11,4,5,0,4,0,4,28,98,11
12,1,12,1,3,0,4,28,125,11
12,1,20,1,4,0,4,28,72,9
12,1,17,1,5,1,4,28,89,11
12,1,0,0,6,1,4,28,125,11
12,1,4,0,0,0,4,28,19,11
12,1,7,1,2,0,4,28,64,11
12,1,13,1,2,0,4,28,39,11
12,1,12,1,3,0,4,28,19,11
12,1,18,1,0,0,4,28,89,11
1,1,17,1,4,0,1,28,19,11
1,1,13,1,1,0,1,28,65,11
1,1,17,1,0,0,1,28,89,11
1,1,17,1,1,0,1,28,125,11
2,1,13,1,1,0,1,28,75,11
2,1,12,1,1,0,1,28,89,11
3,2,21,0,1,0,1,28,75,11
3,2,1,0,1,0,1,28,125,11
3,2,13,1,0,0,1,28,86,11
4,2,14,1,2,0,2,28,125,11
4,2,10,1,6,1,2,28,89,11
4,2,13,1,0,0,2,28,89,11
4,2,11,1,1,0,2,28,89,11
4,2,15,1,1,0,2,28,125,11
4,2,11,1,2,0,2,28,123,11
5,2,17,1,5,1,2,28,89,11
5,2,21,0,6,1,2,28,89,11
5,2,18,1,1,0,2,28,106,11
6,3,18,1,4,0,2,28,89,11
6,3,17,1,1,0,2,28,23,11
6,3,7,1,0,0,2,28,89,11
7,3,18,1,5,1,3,28,19,11
8,3,13,1,4,0,3,28,98,11
9,4,10,1,5,1,3,28,125,11
9,4,18,1,5,1,3,28,75,11
11,4,20,1,6,1,4,28,65,11
11,4,12,1,3,0,4,28,89,11
11,4,12,1,4,0,4,28,89,11
11,4,12,1,2,0,4,28,27,11
11,4,16,1,3,0,4,28,27,11
11,4,11,1,4,0,4,28,27,11
11,4,13,1,5,1,4,28,27,11
11,4,13,1,5,1,4,28,27,11
12,1,22,0,3,0,4,28,1,11
12,1,19,1,3,0,4,28,89,11
12,1,0,0,1,0,4,28,75,11
1,1,4,0,5,1,1,28,98,11
1,1,16,1,6,1,1,28,75,11
1,1,19,1,2,0,1,28,75,8
2,1,1,0,6,1,1,28,94,11
2,1,17,1,6,1,1,28,19,11
2,1,19,1,5,1,1,28,98,11
2,1,13,1,3,0,1,28,94,11
2,1,14,1,3,0,1,28,89,11
2,1,19,1,6,1,1,28,89,11
2,1,13,1,3,0,1,28,75,11
3,2,18,1,0,0,1,28,94,11
3,2,13,1,6,1,1,28,94,11
3,2,23,0,2,0,1,28,19,11
4,2,13,1,3,0,2,28,94,11
4,2,20,1,3,0,2,28,75,11
5,2,10,1,0,0,2,28,106,11
5,2,19,1,0,0,2,28,98,11
5,2,15,1,4,0,2,28,89,11
5,2,20,1,3,0,2,28,98,11
5,2,22,0,3,0,2,28,89,11
6,3,13,1,5,1,2,28,72,11
6,3,14,1,0,0,2,28,19,11
7,3,11,1,2,0,3,28,19,11
7,3,9,1,5,1,3,28,19,11
7,3,21,0,6,1,3,28,98,11
7,3,11,1,2,0,3,28,98,11
7,3,21,0,6,1,3,28,98,11
7,3,11,1,5,1,3,28,19,9
7,3,12,1,5,1,3,28,98,11
8,3,23,0,6,1,3,28,19,11
8,3,21,0,1,0,3,28,89,11
8,3,15,1,0,0,3,28,89,11
8,3,20,1,3,0,3,28,89,11
8,3,7,1,0,0,3,28,98,11
8,3,21,0,2,0,3,28,89,11
8,3,14,1,3,0,3,28,13,11
8,3,20,1,5,1,3,28,89,11
8,3,11,1,0,0,3,28,19,11
9,4,19,1,1,0,3,28,89,11
9,4,8,1,4,0,3,28,89,11
9,4,21,0,5,1,3,28,98,11
9,4,20,1,1,0,3,28,89,11
9,4,20,1,1,0,3,28,89,11
9,4,16,1,4,0,3,28,65,11
10,4,11,1,6,1,4,28,98,11
10,4,15,1,2,0,4,28,98,11
10,4,17,1,4,0,4,28,86,11
10,4,19,1,5,1,4,28,98,11
10,4,7,1,6,1,4,28,89,11
10,4,18,1,0,0,4,28,106,11
10,4,7,1,1,0,4,28,19,11
10,4,14,1,4,0,4,28,89,11
10,4,16,1,4,0,4,28,105,11
10,4,11,1,6,1,4,28,89,11
11,4,11,1,0,0,4,28,98,11
11,4,17,1,2,0,4,28,89,11
11,4,8,1,3,0,4,28,106,11
11,4,0,0,4,0,4,28,94,11
11,4,14,1,6,1,4,28,13,11
11,4,6,0,3,0,4,28,23,8
11,4,23,0,5,1,4,28,89,11
12,1,10,1,1,0,4,28,14,11
12,1,18,1,2,0,4,28,14,11
12,1,15,1,5,1,4,28,13,11
12,1,21,0,0,0,4,28,94,11
12,1,13,1,3,0,4,28,8,11
12,1,20,1,4,0,4,28,89,11
1,1,16,1,4,0,1,28,14,11
11,4,10,1,2,0,4,28,75,11
12,1,9,1,6,1,4,28,19,8
1,1,22,0,1,0,1,46,39,11
1,1,22,0,5,1,1,46,89,11
1,1,16,1,6,1,1,46,86,11
1,1,9,1,2,0,1,46,65,11
1,1,14,1,3,0,1,46,98,11
1,1,16,1,3,0,1,46,27,11
1,1,3,0,4,0,1,46,75,11
1,1,16,1,5,1,1,46,55,11
1,1,1,0,6,1,1,46,86,11
1,1,18,1,2,0,1,46,98,11
2,1,1,0,5,1,1,46,86,11
2,1,21,0,2,0,1,46,86,11
2,1,10,1,5,1,1,46,100,11
2,1,15,1,6,1,1,46,89,11
2,1,9,1,6,1,1,46,89,11
2,1,20,1,0,0,1,46,89,11
2,1,15,1,1,0,1,46,47,11
3,2,17,1,1,0,1,46,89,11
3,2,18,1,5,1,1,46,98,11
3,2,19,1,5,1,1,46,75,11
3,2,17,1,0,0,1,46,75,11
3,2,11,1,4,0,1,46,89,11
4,2,6,0,6,1,2,46,78,11
4,2,15,1,6,1,2,46,45,11
4,2,12,1,1,0,2,46,56,11
4,2,10,1,3,0,2,46,39,11
5,2,13,1,4,0,2,46,98,11
5,2,23,0,4,0,2,46,13,11
5,2,23,0,6,1,2,46,89,11
5,2,11,1,6,1,2,46,98,11
5,2,20,1,0,0,2,46,87,11
5,2,14,1,1,0,2,46,125,11
5,2,18,1,1,0,2,46,98,11
5,2,9,1,1,0,2,46,19,11
5,2,13,1,2,0,2,46,87,11
5,2,19,1,4,0,2,46,100,11
5,2,13,1,0,0,2,46,89,11
5,2,9,1,4,0,2,46,19,11
6,3,13,1,3,0,2,46,98,11
6,3,15,1,4,0,2,46,98,11
6,3,16,1,2,0,2,46,86,11
6,3,11,1,5,1,2,46,89,11
6,3,15,1,0,0,2,46,65,11
6,3,6,0,3,0,2,46,89,11
6,3,21,0,5,1,2,46,122,11
6,3,19,1,2,0,2,46,89,11
6,3,8,1,3,0,2,46,19,8
6,3,21,0,5,1,2,46,98,11
6,3,13,1,5,1,2,46,89,11
7,3,9,1,5,1,3,46,13,9
7,3,16,1,5,1,3,46,9,11
7,3,6,0,0,0,3,46,125,11
7,3,3,0,1,0,3,46,39,11
7,3,20,1,6,1,3,46,3,11
7,3,10,1,0,0,3,46,19,11
7,3,5,0,0,0,3,46,89,11
7,3,7,1,1,0,3,46,3,11
7,3,22,0,4,0,3,46,65,11
7,3,13,1,3,0,3,46,98,11
8,3,16,1,4,0,3,46,89,11
8,3,10,1,3,0,3,46,89,11
8,3,22,0,0,0,3,46,19,11
8,3,15,1,1,0,3,46,89,11
9,4,6,0,4,0,3,46,89,11
9,4,19,1,0,0,3,46,98,11
9,4,12,1,1,0,3,46,75,11
9,4,9,1,1,0,3,46,19,11
9,4,9,1,1,0,3,46,19,11
9,4,7,1,4,0,3,46,89,11
9,4,21,0,4,0,3,46,89,11
9,4,14,1,1,0,3,46,19,11
10,4,12,1,2,0,4,46,89,11
10,4,19,1,4,0,4,46,125,11
10,4,1,0,5,1,4,46,19,11
10,4,14,1,6,1,4,46,86,11
10,4,2,0,4,0,4,46,115,11
10,4,2,0,4,0,4,46,115,11
11,4,16,1,3,0,4,46,39,11
11,4,9,1,3,0,4,46,125,11
11,4,11,1,5,1,4,46,19,11
11,4,14,1,3,0,4,46,19,9
11,4,9,1,6,1,4,46,86,11
11,4,11,1,6,1,4,46,86,11
11,4,16,1,6,1,4,46,65,11
12,1,12,1,1,0,4,46,65,11
12,1,11,1,6,1,4,46,75,11
12,1,1,0,5,1,4,46,19,11
12,1,19,1,3,0,4,46,14,8
12,1,5,0,4,0,4,46,19,11
12,1,17,1,5,1,4,46,75,11
12,1,12,1,6,1,4,46,125,11
12,1,22,0,0,0,4,46,75,11
12,1,16,1,3,0,4,46,86,11
12,1,11,1,6,1,4,46,27,11
12,1,15,1,0,0,4,46,39,11
1,1,23,0,4,0,1,46,86,11
1,1,10,1,6,1,1,46,86,11
2,1,17,1,0,0,1,46,98,11
2,1,18,1,0,0,1,46,98,11
2,1,17,1,2,0,1,46,86,11
3,2,0,0,3,0,1,46,72,11
3,2,11,1,0,0,1,46,89,11
4,2,10,1,3,0,2,46,89,11
4,2,18,1,4,0,2,46,89,11
4,2,21,0,4,0,2,46,89,11
4,2,15,1,5,1,2,46,89,11
4,2,14,1,3,0,2,46,3,11
5,2,2,0,4,0,2,46,125,11
5,2,1,0,4,0,2,46,125,11
6,3,14,1,4,0,2,46,98,11
6,3,6,0,5,1,2,46,89,11
6,3,5,0,0,0,2,46,14,11
7,3,4,0,6,1,3,46,98,11
7,3,4,0,6,1,3,46,89,11
7,3,21,0,3,0,3,46,39,11
8,3,18,1,2,0,3,46,19,11
8,3,22,0,0,0,3,46,19,9
8,3,19,1,0,0,3,46,98,11
9,4,21,0,4,0,3,46,98,11
9,4,14,1,2,0,3,46,75,11
10,4,17,1,3,0,4,46,89,11
10,4,9,1,3,0,4,46,89,11
10,4,21,0,0,0,4,46,89,11
11,4,13,1,4,0,4,46,57,11
11,4,12,1,5,1,4,46,19,11
11,4,9,1,0,0,4,46,98,11
2,1,14,1,1,0,1,46,75,11
2,1,19,1,2,0,1,46,89,11
2,1,17,1,2,0,1,46,3,11
5,2,15,1,0,0,2,46,20,11
6,3,11,1,6,1,2,46,13,9
6,3,15,1,0,0,2,46,31,11
7,3,2,0,1,0,3,46,25,11
10,4,11,1,2,0,4,46,75,11
4,2,22,0,6,1,2,46,105,11
1,1,10,1,1,0,1,46,39,8
2,1,15,1,4,0,1,46,125,11
3,2,17,1,6,1,1,46,89,11
3,2,15,1,6,1,1,46,86,11
3,2,19,1,1,0,1,46,89,11
4,2,20,1,5,1,2,46,89,11
4,2,2,0,2,0,2,46,86,11
4,2,21,0,6,1,2,46,65,11
6,3,14,1,6,1,2,46,122,11
6,3,11,1,6,1,2,46,27,11
6,3,3,0,5,1,2,46,72,11
6,3,11,1,0,0,2,46,8,11
7,3,14,1,2,0,3,46,89,11
8,3,8,1,5,1,3,46,19,11
1,1,7,1,0,0,1,46,19,11
3,2,5,0,3,0,1,46,75,8
4,2,0,0,5,1,2,46,103,11
5,2,16,1,0,0,2,46,98,11
6,3,23,0,1,0,2,46,82,9
7,3,12,1,5,1,3,46,89,11
10,4,4,0,1,0,4,46,19,8
12,1,0,0,0,0,4,46,104,11
12,1,18,1,6,1,4,46,39,11
1,1,13,1,3,0,1,46,86,11
10,4,14,1,4,0,4,46,25,11
9,4,14,1,1,0,3,46,89,8
1,1,7,1,6,1,1,46,98,11
1,1,16,1,1,0,1,46,86,11
1,1,14,1,2,0,1,46,98,11
2,1,20,1,5,1,1,46,75,11
2,1,12,1,0,0,1,46,98,11
2,1,16,1,1,0,1,46,98,11
2,1,13,1,1,0,1,46,98,11
2,1,11,1,2,0,1,46,106,11
2,1,18,1,0,0,1,46,98,11
2,1,20,1,2,0,1,46,75,11
3,2,19,1,5,1,1,46,98,11
3,2,17,1,5,1,1,46,98,11
3,2,19,1,5,1,1,46,98,11
3,2,21,0,6,1,1,46,75,11
4,2,8,1,6,1,2,46,86,11
4,2,21,0,6,1,2,46,89,11
8,3,11,1,3,0,3,46,89,11
8,3,10,1,1,0,3,46,89,11
9,4,14,1,4,0,3,46,98,11
9,4,16,1,6,1,3,46,26,11
10,4,12,1,3,0,4,46,89,11
12,1,16,1,4,0,4,46,125,11
12,1,17,1,5,1,4,46,27,11
1,1,15,1,0,0,1,13,125,11
1,1,17,1,2,0,1,13,89,11
1,1,18,1,4,0,1,13,89,11
1,1,9,1,0,0,1,13,75,8
1,1,15,1,3,0,1,13,89,11
1,1,8,1,2,0,1,13,65,11
2,1,18,1,4,0,1,13,27,11
2,1,12,1,1,0,1,13,27,11
2,1,0,0,3,0,1,13,26,11
2,1,8,1,5,1,1,13,3,9
2,1,15,1,3,0,1,13,65,11
3,2,1,0,2,0,1,13,125,11
3,2,2,0,3,0,1,13,86,11
3,2,13,1,5,1,1,13,98,11
3,2,21,0,1,0,1,13,125,11
3,2,10,1,5,1,1,13,65,11
4,2,13,1,5,1,2,13,89,11
4,2,12,1,6,1,2,13,125,11
4,2,14,1,0,0,2,13,105,9
4,2,16,1,1,0,2,13,89,11
5,2,0,0,4,0,2,13,89,11
5,2,10,1,3,0,2,13,14,11
5,2,18,1,3,0,2,13,89,11
8,3,15,1,2,0,3,13,19,11
9,4,22,0,4,0,3,13,127,11
10,4,7,1,6,1,4,13,75,11
10,4,12,1,0,0,4,13,89,11
10,4,8,1,3,0,4,13,125,11
11,4,13,1,0,0,4,13,65,11
11,4,12,1,6,1,4,13,86,11
11,4,11,1,2,0,4,13,35,11
11,4,10,1,0,0,4,13,78,11
12,1,12,1,1,0,4,13,86,11
12,1,16,1,1,0,4,13,86,11
12,1,13,1,1,0,4,13,125,11
1,1,7,1,5,1,1,13,75,8
1,1,21,0,3,0,1,13,75,11
3,2,16,1,2,0,1,13,89,11
11,4,4,0,1,0,4,13,75,11
1,1,13,1,6,1,1,48,14,11
1,1,19,1,6,1,1,48,75,11
1,1,11,1,2,0,1,48,98,11
1,1,10,1,4,0,1,48,98,11
2,1,12,1,3,0,1,48,65,11
2,1,23,0,4,0,1,48,65,11
2,1,11,1,4,0,1,48,1,11
4,2,0,0,4,0,2,48,125,11
4,2,13,1,2,0,2,48,89,11
4,2,15,1,2,0,2,48,20,8
4,2,20,1,2,0,2,48,98,11
5,2,23,0,6,1,2,48,86,11
6,3,21,0,5,1,2,48,98,11
6,3,10,1,3,0,2,48,103,11
6,3,19,1,4,0,2,48,125,11
7,3,19,1,3,0,3,48,98,11
8,3,13,1,2,0,3,48,98,11
8,3,20,1,2,0,3,48,89,11
8,3,21,0,3,0,3,48,89,11
8,3,21,0,0,0,3,48,125,11
8,3,20,1,1,0,3,48,98,11
9,4,14,1,3,0,3,48,89,11
9,4,2,0,5,1,3,48,13,11
10,4,21,0,3,0,4,48,72,11
11,4,19,1,1,0,4,48,96,11
12,1,21,0,1,0,4,48,94,11
12,1,21,0,6,1,4,48,89,11
12,1,9,1,2,0,4,48,81,11
12,1,1,0,2,0,4,48,98,11
12,1,14,1,4,0,4,48,1,11
12,1,19,1,4,0,4,48,98,11
12,1,19,1,6,1,4,48,94,11
12,1,13,1,0,0,4,48,98,11
1,1,13,1,2,0,1,48,65,11
1,1,17,1,0,0,1,48,1,11
1,1,19,1,1,0,1,48,1,11
1,1,18,1,5,1,1,48,39,8
7,3,5,0,0,0,3,48,89,11
8,3,11,1,4,0,3,48,75,11
9,4,20,1,2,0,3,48,75,11
1,1,17,1,5,1,1,48,98,11
1,1,12,1,0,0,1,48,98,11
2,1,18,1,5,1,1,48,19,11
2,1,14,1,3,0,1,48,1,11
3,2,14,1,4,0,1,48,1,11
3,2,10,1,2,0,1,48,89,11
3,2,17,1,3,0,1,48,86,11
4,2,18,1,2,0,2,48,89,11
4,2,17,1,1,0,2,48,3,11
6,3,5,0,0,0,2,48,89,11
8,3,16,1,3,0,3,48,86,11
9,4,6,0,1,0,3,48,89,11
9,4,10,1,4,0,3,48,89,11
11,4,7,1,1,0,4,48,75,11
11,4,14,1,6,1,4,48,98,11
1,1,6,0,5,1,1,7,14,8
1,1,4,0,0,0,1,7,75,11
1,1,2,0,2,0,1,7,39,11
1,1,4,0,5,1,1,7,86,11
1,1,12,1,2,0,1,7,75,11
1,1,16,1,3,0,1,7,98,11
1,1,12,1,2,0,1,7,86,11
2,1,2,0,6,1,1,7,82,11
2,1,0,0,0,0,1,7,14,11
2,1,11,1,4,0,1,7,57,11
2,1,8,1,0,0,1,7,98,11
2,1,2,0,2,0,1,7,86,11
2,1,19,1,2,0,1,7,86,11
2,1,14,1,3,0,1,7,98,11
2,1,18,1,3,0,1,7,106,11
2,1,12,1,5,1,1,7,86,11
3,2,12,1,0,0,1,7,55,11
3,2,16,1,0,0,1,7,13,11
3,2,15,1,1,0,1,7,19,11
3,2,19,1,4,0,1,7,98,11
3,2,11,1,6,1,1,7,123,11
3,2,10,1,4,0,1,7,89,11
4,2,17,1,6,1,2,7,86,11
4,2,21,0,0,0,2,7,86,11
5,2,12,1,5,1,2,7,89,11
5,2,14,1,6,1,2,7,23,8
5,2,9,1,0,0,2,7,14,11
5,2,16,1,5,1,2,7,25,11
6,3,16,1,0,0,2,7,89,11
6,3,15,1,3,0,2,7,89,11
6,3,16,1,5,1,2,7,89,11
6,3,12,1,3,0,2,7,89,11
6,3,0,0,5,1,2,7,86,11
7,3,20,1,3,0,3,7,86,11
8,3,19,1,4,0,3,7,89,11
8,3,8,1,4,0,3,7,72,11
9,4,0,0,0,0,3,7,63,11
9,4,14,1,0,0,3,7,25,9
9,4,19,1,2,0,3,7,75,11
9,4,0,0,6,1,3,7,89,11
10,4,11,1,3,0,4,7,19,11
10,4,21,0,4,0,4,7,86,11
10,4,13,1,1,0,4,7,86,11
10,4,20,1,5,1,4,7,19,11
10,4,4,0,5,1,4,7,75,11
12,1,0,0,2,0,4,7,89,11
1,1,14,1,2,0,1,7,39,8
1,1,0,0,3,0,1,7,86,11
1,1,10,1,5,1,1,7,14,11
1,1,17,1,5,1,1,7,3,11
1,1,21,0,6,1,1,7,3,11
1,1,14,1,3,0,1,7,125,11
1,1,10,1,3,0,1,7,75,11
1,1,17,1,5,1,1,7,125,11
1,1,15,1,1,0,1,7,75,11
1,1,20,1,2,0,1,7,39,11
1,1,15,1,5,1,1,7,39,11
1,1,21,0,3,0,1,7,86,11
1,1,20,1,3,0,1,7,3,11
1,1,9,1,1,0,1,7,125,11
1,1,17,1,2,0,1,7,55,11
2,1,10,1,6,1,1,7,75,9
2,1,15,1,0,0,1,7,89,9
2,1,12,1,1,0,1,7,55,11
2,1,10,1,3,0,1,7,63,11
2,1,15,1,3,0,1,7,19,11
2,1,10,1,5,1,1,7,89,11
2,1,16,1,5,1,1,7,75,9
2,1,22,0,1,0,1,7,89,11
2,1,12,1,3,0,1,7,98,11
2,1,19,1,1,0,1,7,72,9
2,1,20,1,2,0,1,7,63,9
2,1,17,1,2,0,1,7,98,11
2,1,1,0,5,1,1,7,86,11
3,2,18,1,3,0,1,7,89,11
3,2,7,1,5,1,1,7,39,11
4,2,10,1,2,0,2,7,13,11
4,2,21,0,3,0,2,7,89,11
4,2,8,1,4,0,2,7,86,11
4,2,9,1,2,0,2,7,86,11
4,2,21,0,4,0,2,7,89,11
5,2,20,1,6,1,2,7,89,11
5,2,17,1,5,1,2,7,125,11
5,2,17,1,5,1,2,7,89,11
5,2,12,1,0,0,2,7,39,11
5,2,22,0,4,0,2,7,125,11
5,2,10,1,1,0,2,7,106,11
5,2,19,1,4,0,2,7,106,11
5,2,19,1,4,0,2,7,98,11
5,2,19,1,5,1,2,7,27,11
5,2,17,1,6,1,2,7,89,11
6,3,14,1,0,0,2,7,98,11
6,3,15,1,5,1,2,7,98,11
6,3,19,1,5,1,2,7,98,11
6,3,15,1,1,0,2,7,89,11
6,3,11,1,1,0,2,7,89,11
6,3,17,1,1,0,2,7,98,11
6,3,12,1,2,0,2,7,122,11
6,3,17,1,2,0,2,7,86,11
6,3,10,1,3,0,2,7,27,11
6,3,19,1,6,1,2,7,98,11
6,3,15,1,4,0,2,7,75,11
6,3,13,1,0,0,2,7,14,11
6,3,12,1,2,0,2,7,98,11
6,3,14,1,3,0,2,7,19,11
6,3,3,0,4,0,2,7,19,11
6,3,13,1,0,0,2,7,89,11
6,3,22,0,0,0,2,7,98,11
7,3,19,1,4,0,3,7,98,11
7,3,21,0,5,1,3,7,98,11
7,3,19,1,6,1,3,7,13,11
7,3,13,1,2,0,3,7,125,11
7,3,16,1,2,0,3,7,125,11
7,3,12,1,4,0,3,7,75,11
7,3,22,0,5,1,3,7,98,11
7,3,22,0,5,1,3,7,98,11
7,3,12,1,6,1,3,7,66,11
7,3,19,1,1,0,3,7,89,11
7,3,22,0,1,0,3,7,98,11
7,3,15,1,2,0,3,7,99,11
7,3,20,1,4,0,3,7,98,11
7,3,14,1,0,0,3,7,89,11
7,3,19,1,0,0,3,7,89,11
7,3,9,1,3,0,3,7,122,11
7,3,18,1,3,0,3,7,89,11
7,3,19,1,4,0,3,7,125,11
8,3,23,0,5,1,3,7,8,11
8,3,21,0,6,1,3,7,98,11
8,3,22,0,6,1,3,7,106,11
8,3,11,1,1,0,3,7,24,11
8,3,17,1,3,0,3,7,89,11
8,3,21,0,4,0,3,7,89,11
8,3,11,1,5,1,3,7,98,11
8,3,5,0,6,1,3,7,14,9
8,3,8,1,0,0,3,7,19,11
8,3,16,1,2,0,3,7,89,11
8,3,15,1,4,0,3,7,125,11
8,3,0,0,0,0,3,7,89,11
8,3,12,1,1,0,3,7,89,11
8,3,21,0,2,0,3,7,1,11
8,3,19,1,3,0,3,7,89,11
8,3,18,1,4,0,3,7,89,11
8,3,23,0,4,0,3,7,89,11
8,3,16,1,5,1,3,7,89,11
8,3,13,1,0,0,3,7,14,11
9,4,12,1,1,0,3,7,75,11
9,4,15,1,1,0,3,7,19,11
9,4,2,0,3,0,3,7,89,11
9,4,15,1,1,0,3,7,27,11
9,4,18,1,2,0,3,7,98,11
9,4,9,1,2,0,3,7,89,11
9,4,11,1,0,0,3,7,98,11
9,4,15,1,2,0,3,7,89,11
9,4,16,1,2,0,3,7,65,11
10,4,14,1,1,0,4,7,122,11
10,4,16,1,2,0,4,7,86,11
10,4,0,0,5,1,4,7,86,11
10,4,14,1,6,1,4,7,86,11
10,4,17,1,4,0,4,7,98,11
10,4,15,1,0,0,4,7,98,11
10,4,18,1,0,0,4,7,98,11
10,4,9,1,1,0,4,7,19,11
10,4,18,1,1,0,4,7,3,11
10,4,20,1,1,0,4,7,19,11
10,4,16,1,0,0,4,7,47,11
10,4,17,1,1,0,4,7,8,11
10,4,16,1,5,1,4,7,89,11
11,4,0,0,2,0,4,7,45,8
11,4,15,1,3,0,4,7,25,11
11,4,9,1,0,0,4,7,89,11
11,4,15,1,6,1,4,7,125,11
11,4,15,1,1,0,4,7,67,11
11,4,21,0,2,0,4,7,89,11
11,4,21,0,5,1,4,7,19,9
11,4,10,1,6,1,4,7,125,11
12,1,14,1,1,0,4,7,86,11
12,1,21,0,4,0,4,7,98,11
12,1,9,1,1,0,4,7,39,11
12,1,11,1,1,0,4,7,75,11
12,1,14,1,3,0,4,7,125,11
12,1,23,0,3,0,4,7,125,11
12,1,11,1,6,1,4,7,122,11
12,1,9,1,6,1,4,7,86,11
12,1,22,0,0,0,4,7,75,11
1,1,14,1,6,1,1,7,45,11
1,1,7,1,0,0,1,7,89,11
1,1,13,1,2,0,1,7,89,11
1,1,2,0,5,1,1,7,75,11
1,1,21,0,5,1,1,7,75,11
1,1,0,0,6,1,1,7,86,11
2,1,19,1,6,1,1,7,72,11
2,1,23,0,0,0,1,7,125,11
2,1,13,1,3,0,1,7,39,11
3,2,20,1,1,0,1,7,89,11
3,2,18,1,5,1,1,7,27,11
3,2,3,0,5,1,1,7,20,8
3,2,12,1,6,1,1,7,14,11
3,2,18,1,6,1,1,7,85,11
3,2,17,1,0,0,1,7,89,11
3,2,22,0,4,0,1,7,89,11
3,2,14,1,5,1,1,7,89,11
3,2,19,1,0,0,1,7,39,11
3,2,19,1,1,0,1,7,75,11
3,2,21,0,4,0,1,7,89,11
3,2,11,1,5,1,1,7,75,8
4,2,5,0,3,0,2,7,75,8
4,2,21,0,3,0,2,7,108,11
4,2,13,1,1,0,2,7,75,9
4,2,20,1,3,0,2,7,108,11
4,2,15,1,3,0,2,7,89,11
4,2,5,0,5,1,2,7,72,11
4,2,7,1,0,0,2,7,72,8
4,2,15,1,0,0,2,7,125,11
4,2,14,1,3,0,2,7,19,11
4,2,18,1,3,0,2,7,98,11
5,2,11,1,1,0,2,7,89,11
5,2,22,0,1,0,2,7,108,11
5,2,15,1,2,0,2,7,98,11
5,2,9,1,3,0,2,7,3,11
5,2,15,1,2,0,2,7,106,11
5,2,12,1,4,0,2,7,72,11
5,2,14,1,6,1,2,7,89,11
5,2,15,1,0,0,2,7,89,11
5,2,20,1,1,0,2,7,125,11
5,2,8,1,3,0,2,7,19,11
5,2,14,1,6,1,2,7,89,11
6,3,17,1,3,0,2,7,98,11
6,3,15,1,1,0,2,7,19,11
6,3,19,1,1,0,2,7,108,11
6,3,13,1,2,0,2,7,108,11
6,3,13,1,5,1,2,7,75,11
6,3,13,1,6,1,2,7,89,11
6,3,16,1,0,0,2,7,108,11
6,3,16,1,3,0,2,7,125,11
6,3,17,1,3,0,2,7,89,11
6,3,7,1,5,1,2,7,89,11
7,3,15,1,5,1,3,7,98,11
7,3,16,1,3,0,3,7,1,11
7,3,3,0,0,0,3,7,45,11
7,3,18,1,0,0,3,7,98,11
7,3,14,1,2,0,3,7,89,8
7,3,17,1,2,0,3,7,89,8
7,3,12,1,3,0,3,7,89,11
7,3,9,1,4,0,3,7,19,11
7,3,18,1,4,0,3,7,98,11
7,3,17,1,6,1,3,7,45,9
7,3,19,1,3,0,3,7,125,11
7,3,14,1,4,0,3,7,89,11
8,3,21,0,5,1,3,7,89,11
8,3,16,1,0,0,3,7,100,8
8,3,18,1,2,0,3,7,125,11
8,3,10,1,6,1,3,7,106,11
8,3,6,0,6,1,3,7,106,11
8,3,22,0,1,0,3,7,72,11
8,3,16,1,1,0,3,7,89,9
8,3,13,1,3,0,3,7,89,11
8,3,13,1,4,0,3,7,14,8
8,3,22,0,6,1,3,7,19,11
8,3,15,1,0,0,3,7,89,11
8,3,2,0,3,0,3,7,89,11
9,4,13,1,0,0,3,7,89,11
9,4,0,0,0,0,3,7,108,11
9,4,12,1,1,0,3,7,89,11
9,4,22,0,4,0,3,7,89,11
9,4,9,1,4,0,3,7,89,11
9,4,21,0,4,0,3,7,89,11
9,4,14,1,5,1,3,7,89,11
9,4,13,1,1,0,3,7,75,8
10,4,16,1,3,0,4,7,89,11
10,4,18,1,2,0,4,7,89,11
10,4,16,1,3,0,4,7,98,11
10,4,0,0,1,0,4,7,89,11
10,4,19,1,4,0,4,7,75,11
10,4,12,1,1,0,4,7,98,11
11,4,8,1,3,0,4,7,89,11
11,4,13,1,3,0,4,7,98,11
11,4,19,1,3,0,4,7,89,11
11,4,8,1,4,0,4,7,72,11
11,4,15,1,4,0,4,7,89,11
11,4,21,0,6,1,4,7,98,11
11,4,12,1,0,0,4,7,98,11
11,4,13,1,0,0,4,7,14,9
12,1,6,0,0,0,4,7,105,9
12,1,16,1,6,1,4,7,59,9
12,1,10,1,1,0,4,7,23,9
4,2,17,1,2,0,2,7,106,11
4,2,1,0,3,0,2,7,106,11
5,2,13,1,5,1,2,7,75,11
6,3,17,1,6,1,2,7,56,11
10,4,9,1,5,1,4,7,19,11
10,4,17,1,6,1,4,7,89,11
11,4,11,1,0,0,4,7,75,11
12,1,15,1,1,0,4,7,23,9
1,1,13,1,2,0,1,12,86,11
1,1,16,1,5,1,1,12,39,11
1,1,18,1,5,1,1,12,86,11
1,1,12,1,6,1,1,12,39,11
1,1,21,0,2,0,1,12,86,11
1,1,23,0,2,0,1,12,19,11
1,1,22,0,3,0,1,12,75,11
1,1,20,1,1,0,1,12,19,11
1,1,11,1,3,0,1,12,86,11
1,1,12,1,6,1,1,12,86,11
1,1,22,0,4,0,1,12,89,11
1,1,14,1,6,1,1,12,65,11
1,1,17,1,6,1,1,12,39,11
1,1,14,1,3,0,1,12,86,11
1,1,3,0,4,0,1,12,89,11
2,1,14,1,6,1,1,12,89,11
2,1,17,1,6,1,1,12,98,11
2,1,17,1,1,0,1,12,123,11
2,1,16,1,5,1,1,12,89,11
2,1,14,1,4,0,1,12,19,11
2,1,23,0,5,1,1,12,19,11
2,1,18,1,3,0,1,12,86,11
2,1,8,1,3,0,1,12,39,11
2,1,22,0,5,1,1,12,86,11
2,1,6,0,4,0,1,12,65,11
2,1,7,1,4,0,1,12,65,11
2,1,10,1,5,1,1,12,89,11
2,1,4,0,5,1,1,12,76,11
3,2,18,1,0,0,1,12,98,11
3,2,0,0,2,0,1,12,75,11
3,2,17,1,4,0,1,12,89,11
3,2,20,1,5,1,1,12,65,11
3,2,4,0,6,1,1,12,98,11
3,2,9,1,6,1,1,12,19,11
3,2,14,1,6,1,1,12,47,11
3,2,13,1,2,0,1,12,65,11
3,2,17,1,2,0,1,12,89,11
3,2,19,1,2,0,1,12,89,11
3,2,20,1,2,0,1,12,75,11
3,2,8,1,5,1,1,12,45,11
3,2,15,1,5,1,1,12,39,11
3,2,23,0,5,1,1,12,89,11
3,2,13,1,6,1,1,12,89,11
3,2,9,1,2,0,1,12,86,11
3,2,18,1,2,0,1,12,39,11
3,2,1,0,3,0,1,12,106,11
3,2,20,1,5,1,1,12,65,11
4,2,19,1,2,0,2,12,39,11
4,2,20,1,2,0,2,12,98,11
4,2,19,1,3,0,2,12,39,11
4,2,12,1,4,0,2,12,89,11
4,2,17,1,0,0,2,12,65,11
4,2,8,1,5,1,2,12,89,11
4,2,21,0,6,1,2,12,98,11
4,2,18,1,0,0,2,12,76,11
4,2,11,1,2,0,2,12,123,11
4,2,22,0,3,0,2,12,115,11
5,2,21,0,6,1,2,12,14,11
5,2,22,0,6,1,2,12,89,11
5,2,12,1,5,1,2,12,89,11
5,2,15,1,0,0,2,12,23,11
5,2,16,1,5,1,2,12,98,11
5,2,12,1,5,1,2,12,39,11
5,2,17,1,3,0,2,12,45,11
6,3,19,1,1,0,2,12,98,11
6,3,13,1,6,1,2,12,19,11
6,3,12,1,0,0,2,12,89,11
6,3,13,1,0,0,2,12,89,11
6,3,11,1,2,0,2,12,89,11
6,3,18,1,2,0,2,12,89,11
6,3,16,1,4,0,2,12,124,11
6,3,17,1,4,0,2,12,98,11
6,3,18,1,5,1,2,12,89,11
6,3,18,1,6,1,2,12,125,9
6,3,18,1,0,0,2,12,89,11
6,3,20,1,4,0,2,12,47,11
6,3,7,1,6,1,2,12,89,11
6,3,16,1,0,0,2,12,39,11
6,3,4,0,3,0,2,12,72,9
6,3,14,1,5,1,2,12,39,11
6,3,11,1,6,1,2,12,89,11
6,3,16,1,0,0,2,12,89,11
7,3,21,0,2,0,3,12,98,11
7,3,12,1,3,0,3,12,89,11
7,3,11,1,6,1,3,12,125,11
7,3,10,1,1,0,3,12,98,11
7,3,13,1,5,1,3,12,89,11
7,3,11,1,1,0,3,12,89,11
7,3,0,0,3,0,3,12,89,11
7,3,11,1,0,0,3,12,65,11
7,3,10,1,2,0,3,12,98,11
7,3,20,1,2,0,3,12,89,11
7,3,19,1,5,1,3,12,72,11
7,3,10,1,1,0,3,12,13,9
8,3,4,0,6,1,3,12,106,11
8,3,18,1,0,0,3,12,98,11
8,3,0,0,4,0,3,12,19,11
8,3,0,0,6,1,3,12,89,11
8,3,1,0,6,1,3,12,96,11
8,3,10,1,0,0,3,12,89,11
8,3,6,0,4,0,3,12,89,11
8,3,17,1,4,0,3,12,19,11
8,3,22,0,5,1,3,12,14,11
8,3,14,1,0,0,3,12,75,11
8,3,18,1,4,0,3,12,19,11
8,3,12,1,5,1,3,12,106,11
8,3,18,1,0,0,3,12,98,11
8,3,10,1,1,0,3,12,89,11
8,3,4,0,3,0,3,12,39,11
8,3,20,1,3,0,3,12,19,11
8,3,14,1,4,0,3,12,65,11
9,4,20,1,1,0,3,12,19,11
9,4,7,1,5,1,3,12,89,9
9,4,20,1,0,0,3,12,91,11
9,4,8,1,3,0,3,12,89,11
9,4,15,1,5,1,3,12,98,11
9,4,8,1,6,1,3,12,106,11
9,4,21,0,6,1,3,12,86,11
9,4,3,0,0,0,3,12,72,11
9,4,19,1,3,0,3,12,72,11
9,4,0,0,3,0,3,12,89,11
9,4,8,1,6,1,3,12,89,11
9,4,15,1,6,1,3,12,64,11
9,4,15,1,6,1,3,12,89,11
9,4,18,1,0,0,3,12,106,11
10,4,21,0,6,1,4,12,39,11
10,4,13,1,3,0,4,12,19,11
10,4,11,1,5,1,4,12,19,11
10,4,6,0,1,0,4,12,106,11
10,4,17,1,5,1,4,12,19,11
10,4,8,1,5,1,4,12,19,11
10,4,7,1,6,1,4,12,89,11
10,4,22,0,6,1,4,12,89,11
10,4,10,1,1,0,4,12,19,11
10,4,15,1,3,0,4,12,14,11
11,4,11,1,0,0,4,12,89,11
11,4,5,0,1,0,4,12,86,11
11,4,19,1,4,0,4,12,89,11
11,4,21,0,4,0,4,12,86,11
11,4,11,1,2,0,4,12,89,11
11,4,13,1,2,0,4,12,89,11
11,4,14,1,2,0,4,12,89,11
11,4,2,0,5,1,4,12,86,11
11,4,19,1,6,1,4,12,115,11
11,4,1,0,3,0,4,12,39,11
11,4,22,0,3,0,4,12,19,11
11,4,23,0,3,0,4,12,19,11
11,4,23,0,5,1,4,12,86,11
12,1,9,1,3,0,4,12,89,11
12,1,16,1,3,0,4,12,65,11
12,1,1,0,4,0,4,12,19,11
12,1,19,1,6,1,4,12,39,11
12,1,20,1,4,0,4,12,89,11
12,1,16,1,0,0,4,12,72,11
12,1,13,1,1,0,4,12,56,11
12,1,11,1,2,0,4,12,19,11
12,1,20,1,3,0,4,12,19,11
1,1,18,1,2,0,1,12,64,11
1,1,21,0,5,1,1,12,75,11
2,1,15,1,3,0,1,12,75,11
6,3,14,1,0,0,2,12,25,11
8,3,16,1,0,0,3,12,47,11
9,4,4,0,5,1,3,12,89,11
1,1,13,1,3,0,1,12,86,11
1,1,9,1,6,1,1,12,86,11
2,1,10,1,2,0,1,12,75,11
3,2,17,1,3,0,1,12,89,11
3,2,23,0,4,0,1,12,39,11
5,2,5,0,0,0,2,12,75,11
5,2,13,1,6,1,2,12,75,11
6,3,20,1,0,0,2,12,65,11
7,3,2,0,1,0,3,12,13,11
7,3,17,1,5,1,3,12,98,11
7,3,0,0,2,0,3,12,39,11
8,3,11,1,0,0,3,12,39,11
10,4,16,1,1,0,4,12,75,11
11,4,0,0,4,0,4,12,86,11
11,4,1,0,4,0,4,12,86,11
11,4,1,0,4,0,4,12,86,11
11,4,11,1,0,0,4,12,89,11
12,1,19,1,5,1,4,12,98,11
1,1,16,1,2,0,1,12,86,11
1,1,18,1,2,0,1,12,86,11
1,1,15,1,5,1,1,12,86,11
1,1,1,0,3,0,1,12,106,11
3,2,11,1,6,1,1,12,75,11
3,2,8,1,4,0,1,12,89,11
4,2,15,1,6,1,2,12,75,11
6,3,19,1,1,0,2,12,98,11
6,3,21,0,3,0,2,12,98,11
7,3,11,1,4,0,3,12,89,11
8,3,5,0,6,1,3,12,106,11
9,4,7,1,6,1,3,12,106,11
9,4,18,1,5,1,3,12,14,9
11,4,16,1,0,0,4,12,89,11
11,4,19,1,3,0,4,12,89,11
11,4,17,1,1,0,4,12,98,11
12,1,18,1,5,1,4,12,98,11
1,1,18,1,6,1,1,12,75,11
3,2,6,0,0,0,1,12,86,11
3,2,9,1,4,0,1,12,89,11
9,4,9,1,6,1,3,12,106,11
9,4,18,1,4,0,3,12,19,11
1,1,10,1,4,0,1,12,75,11
1,1,20,1,5,1,1,12,89,11
2,1,23,0,2,0,1,12,86,11
4,2,13,1,3,0,2,12,49,11
8,3,0,0,0,0,3,12,75,8
8,3,15,1,4,0,3,12,89,11
8,3,16,1,2,0,3,12,13,11
8,3,21,0,0,0,3,12,39,11
9,4,17,1,0,0,3,12,98,11
9,4,21,0,3,0,3,12,49,11
9,4,15,1,6,1,3,12,77,11
10,4,11,1,6,1,4,12,39,11
11,4,8,1,0,0,4,12,19,9
11,4,5,0,3,0,4,12,106,11
11,4,13,1,1,0,4,12,39,11
3,2,21,0,6,1,1,12,86,11
5,2,18,1,1,0,2,12,47,11
9,4,5,0,5,1,3,12,106,11
10,4,7,1,2,0,4,12,106,11
11,4,18,1,0,0,4,12,125,11
4,2,14,1,6,1,2,12,39,9
7,3,6,0,6,1,3,12,75,11
7,3,13,1,5,1,3,12,98,11
1,1,10,1,1,0,1,29,89,11
2,1,4,0,0,0,1,29,89,11
2,1,5,0,3,0,1,29,106,11
2,1,11,1,0,0,1,29,98,11
2,1,0,0,5,1,1,29,89,11
2,1,15,1,5,1,1,29,39,11
3,2,19,1,5,1,1,29,89,11
4,2,9,1,4,0,2,29,89,11
5,2,16,1,2,0,2,29,98,11
5,2,1,0,1,0,2,29,125,11
6,3,0,0,5,1,2,29,98,11
6,3,20,1,1,0,2,29,98,11
6,3,12,1,6,1,2,29,75,8
7,3,16,1,5,1,3,29,39,11
7,3,12,1,3,0,3,29,4,11
7,3,14,1,3,0,3,29,89,11
7,3,12,1,0,0,3,29,98,11
7,3,5,0,2,0,3,29,89,11
8,3,10,1,3,0,3,29,19,11
8,3,13,1,0,0,3,29,71,8
8,3,4,0,5,1,3,29,14,11
9,4,12,1,3,0,3,29,19,11
9,4,15,1,4,0,3,29,125,11
9,4,18,1,5,1,3,29,98,11
9,4,11,1,0,0,3,29,75,11
9,4,22,0,1,0,3,29,19,11
9,4,9,1,1,0,3,29,125,11
9,4,3,0,2,0,3,29,19,11
9,4,12,1,2,0,3,29,89,11
9,4,18,1,2,0,3,29,98,11
10,4,9,1,5,1,4,29,89,11
10,4,18,1,0,0,4,29,89,11
10,4,18,1,0,0,4,29,98,11
10,4,22,0,1,0,4,29,89,11
10,4,10,1,4,0,4,29,19,11
10,4,10,1,4,0,4,29,86,11
10,4,8,1,6,1,4,29,89,11
10,4,14,1,0,0,4,29,89,11
10,4,23,0,2,0,4,29,75,9
10,4,19,1,4,0,4,29,98,11
10,4,8,1,5,1,4,29,19,11
11,4,14,1,6,1,4,29,89,11
11,4,9,1,6,1,4,29,86,11
11,4,19,1,3,0,4,29,89,11
11,4,15,1,4,0,4,29,98,11
11,4,16,1,6,1,4,29,89,11
11,4,13,1,0,0,4,29,89,11
12,1,21,0,6,1,4,29,98,11
12,1,21,0,6,1,4,29,98,11
12,1,15,1,0,0,4,29,19,11
12,1,13,1,3,0,4,29,89,11
12,1,14,1,2,0,4,29,72,11
1,1,15,1,2,0,1,29,75,11
1,1,2,0,0,0,1,29,75,8
3,2,14,1,6,1,1,29,67,9
4,2,19,1,1,0,2,29,125,11
6,3,12,1,4,0,2,29,89,11
7,3,22,0,4,0,3,29,75,11
7,3,15,1,6,1,3,29,75,11
8,3,12,1,3,0,3,29,19,11
8,3,19,1,6,1,3,29,14,11
8,3,10,1,0,0,3,29,89,11
8,3,10,1,0,0,3,29,89,11
8,3,10,1,3,0,3,29,13,8
8,3,10,1,3,0,3,29,98,11
10,4,19,1,0,0,4,29,89,11
1,1,15,1,5,1,1,29,125,11
6,3,14,1,2,0,2,29,72,11
7,3,18,1,4,0,3,29,96,11
8,3,14,1,0,0,3,29,89,11
8,3,3,0,0,0,3,29,14,11
9,4,14,1,3,0,3,29,86,11
10,4,4,0,6,1,4,29,89,11
10,4,15,1,3,0,4,29,98,11
10,4,23,0,3,0,4,29,106,11
11,4,16,1,5,1,4,29,89,11
11,4,7,1,5,1,4,29,106,11
11,4,0,0,3,0,4,29,19,11
11,4,0,0,3,0,4,29,19,11
12,1,12,1,6,1,4,29,86,11
12,1,15,1,6,1,4,29,86,11
12,1,18,1,5,1,4,29,89,11
1,1,11,1,1,0,1,29,86,11
1,1,15,1,5,1,1,29,39,11
2,1,9,1,5,1,1,29,19,11
2,1,16,1,0,0,1,29,89,11
6,3,9,1,3,0,2,29,98,11
7,3,21,0,5,1,3,29,19,11
9,4,0,0,2,0,3,29,75,11
9,4,20,1,0,0,3,29,46,9
10,4,18,1,1,0,4,29,98,11
11,4,21,0,3,0,4,29,75,11
12,1,22,0,0,0,4,29,98,11
3,2,23,0,5,1,1,29,72,9
3,2,12,1,5,1,1,29,96,11
3,2,19,1,6,1,1,29,89,11
4,2,10,1,4,0,2,29,98,11
4,2,22,0,1,0,2,29,89,11
4,2,8,1,3,0,2,29,89,11
4,2,16,1,6,1,2,29,78,11
4,2,17,1,6,1,2,29,98,11
4,2,21,0,1,0,2,29,14,11
4,2,5,0,3,0,2,29,98,11
5,2,21,0,1,0,2,29,89,11
6,3,1,0,3,0,2,29,3,11
7,3,15,1,5,1,3,29,89,11
7,3,23,0,1,0,3,29,19,11
7,3,18,1,5,1,3,29,89,11
7,3,14,1,6,1,3,29,89,9
7,3,17,1,0,0,3,29,125,11
7,3,7,1,4,0,3,29,89,11
8,3,19,1,5,1,3,29,89,11
8,3,11,1,5,1,3,29,98,11
9,4,20,1,0,0,3,29,89,11
10,4,18,1,0,0,4,29,89,11
11,4,11,1,5,1,4,29,89,11
11,4,16,1,6,1,4,29,125,11
11,4,8,1,4,0,4,29,82,11
11,4,13,1,6,1,4,29,89,11
1,1,21,0,3,0,1,29,98,11
3,2,14,1,6,1,1,29,98,11
3,2,16,1,5,1,1,29,125,11
7,3,19,1,5,1,3,29,75,11
7,3,9,1,5,1,3,29,98,11
7,3,14,1,6,1,3,29,125,9
10,4,16,1,5,1,4,29,89,11
10,4,13,1,5,1,4,29,89,11
11,4,12,1,5,1,4,29,125,11
11,4,10,1,6,1,4,29,125,11
12,1,17,1,3,0,4,29,98,11
12,1,18,1,2,0,4,29,98,11
12,1,18,1,2,0,4,29,98,11
12,1,18,1,6,1,4,29,39,11
12,1,7,1,0,0,4,29,125,11
1,1,0,0,2,0,1,10,125,11
1,1,14,1,2,0,1,10,125,11
1,1,18,1,4,0,1,10,75,11
1,1,16,1,1,0,1,10,89,9
1,1,14,1,1,0,1,10,89,11
1,1,17,1,0,0,1,10,89,11
1,1,11,1,2,0,1,10,72,11
1,1,19,1,5,1,1,10,89,11
1,1,1,0,0,0,1,10,72,11
1,1,16,1,2,0,1,10,89,9
2,1,21,0,5,1,1,10,89,9
2,1,20,1,0,0,1,10,89,11
2,1,17,1,3,0,1,10,65,11
2,1,10,1,3,0,1,10,81,11
2,1,20,1,4,0,1,10,71,8
2,1,21,0,5,1,1,10,98,11
2,1,12,1,6,1,1,10,89,11
2,1,14,1,0,0,1,10,89,8
2,1,15,1,3,0,1,10,81,11
2,1,15,1,5,1,1,10,94,11
2,1,15,1,5,1,1,10,89,11
2,1,18,1,6,1,1,10,89,11
2,1,23,0,0,0,1,10,98,11
2,1,11,1,3,0,1,10,89,11
2,1,14,1,4,0,1,10,89,11
3,2,16,1,6,1,1,10,125,11
3,2,17,1,0,0,1,10,89,9
3,2,18,1,1,0,1,10,65,11
3,2,14,1,6,1,1,10,68,11
3,2,10,1,1,0,1,10,89,11
3,2,17,1,2,0,1,10,89,9
3,2,1,0,4,0,1,10,47,11
3,2,18,1,5,1,1,10,89,11
3,2,9,1,5,1,1,10,89,11
3,2,18,1,0,0,1,10,89,11
3,2,20,1,1,0,1,10,39,11
3,2,16,1,1,0,1,10,89,11
3,2,22,0,4,0,1,10,89,11
3,2,19,1,0,0,1,10,89,9
3,2,10,1,1,0,1,10,89,11
4,2,18,1,4,0,2,10,89,11
4,2,10,1,5,1,2,10,39,11
4,2,0,0,6,1,2,10,46,11
4,2,18,1,0,0,2,10,89,11
4,2,23,0,4,0,2,10,89,11
4,2,19,1,5,1,2,10,123,11
4,2,12,1,5,1,2,10,89,11
4,2,17,1,1,0,2,10,98,11
4,2,17,1,3,0,2,10,65,11
4,2,21,0,5,1,2,10,89,11
4,2,18,1,5,1,2,10,86,11
4,2,19,1,3,0,2,10,89,11
4,2,16,1,4,0,2,10,89,11
4,2,16,1,3,0,2,10,89,11
4,2,20,1,3,0,2,10,89,11
5,2,14,1,4,0,2,10,89,11
5,2,19,1,5,1,2,10,89,11
5,2,13,1,0,0,2,10,89,11
5,2,14,1,5,1,2,10,89,11
5,2,23,0,5,1,2,10,89,11
5,2,16,1,5,1,2,10,89,11
5,2,20,1,4,0,2,10,89,11
5,2,12,1,5,1,2,10,89,11
5,2,19,1,6,1,2,10,89,11
5,2,12,1,2,0,2,10,65,11
5,2,20,1,2,0,2,10,89,11
5,2,20,1,3,0,2,10,89,11
5,2,16,1,3,0,2,10,89,11
5,2,8,1,4,0,2,10,94,11
5,2,13,1,5,1,2,10,89,11
5,2,13,1,0,0,2,10,89,9
5,2,17,1,0,0,2,10,89,11
5,2,10,1,0,0,2,10,89,8
5,2,10,1,3,0,2,10,89,11
5,2,3,0,5,1,2,10,89,11
5,2,17,1,5,1,2,10,89,11
6,3,22,0,3,0,2,10,56,11
6,3,12,1,5,1,2,10,89,9
6,3,11,1,1,0,2,10,89,11
6,3,1,0,2,0,2,10,89,11
6,3,13,1,6,1,2,10,89,11
6,3,18,1,3,0,2,10,89,9
6,3,13,1,6,1,2,10,124,9
6,3,21,0,1,0,2,10,89,11
6,3,18,1,3,0,2,10,89,11
6,3,10,1,6,1,2,10,123,11
6,3,19,1,0,0,2,10,8,11
6,3,8,1,0,0,2,10,72,11
7,3,22,0,3,0,3,10,55,11
7,3,13,1,3,0,3,10,72,11
7,3,13,1,4,0,3,10,89,11
7,3,18,1,3,0,3,10,89,11
7,3,13,1,4,0,3,10,98,11
7,3,23,0,0,0,3,10,49,11
7,3,1,0,2,0,3,10,89,11
7,3,17,1,6,1,3,10,65,11
7,3,18,1,3,0,3,10,47,11
7,3,15,1,3,0,3,10,65,11
7,3,12,1,3,0,3,10,98,11
8,3,9,1,1,0,3,10,98,11
8,3,11,1,2,0,3,10,38,11
8,3,7,1,2,0,3,10,89,11
8,3,3,0,3,0,3,10,72,9
8,3,16,1,4,0,3,10,89,11
8,3,21,0,4,0,3,10,89,11
8,3,16,1,5,1,3,10,89,11
8,3,17,1,6,1,3,10,98,11
8,3,11,1,6,1,3,10,125,8
8,3,21,0,4,0,3,10,14,11
8,3,2,0,6,1,3,10,72,11
8,3,20,1,1,0,3,10,89,11
8,3,23,0,1,0,3,10,89,11
8,3,23,0,3,0,3,10,72,9
8,3,8,1,3,0,3,10,125,9
8,3,19,1,4,0,3,10,125,9
8,3,0,0,5,1,3,10,89,11
8,3,22,0,6,1,3,10,89,11
8,3,0,0,1,0,3,10,125,11
8,3,13,1,4,0,3,10,89,11
9,4,8,1,1,0,3,10,89,11
9,4,22,0,1,0,3,10,89,11
9,4,8,1,4,0,3,10,46,11
9,4,5,0,4,0,3,10,89,8
9,4,12,1,5,1,3,10,89,11
9,4,16,1,1,0,3,10,89,11
9,4,17,1,1,0,3,10,125,11
9,4,22,0,2,0,3,10,72,11
9,4,13,1,1,0,3,10,89,11
9,4,20,1,2,0,3,10,89,11
9,4,21,0,3,0,3,10,89,11
9,4,17,1,2,0,3,10,89,11
9,4,12,1,3,0,3,10,89,11
10,4,17,1,6,1,4,10,72,11
10,4,17,1,2,0,4,10,89,11
10,4,23,0,2,0,4,10,70,11
10,4,16,1,3,0,4,10,89,11
10,4,19,1,4,0,4,10,89,11
10,4,13,1,5,1,4,10,65,11
10,4,15,1,0,0,4,10,89,11
10,4,17,1,2,0,4,10,72,11
10,4,0,0,3,0,4,10,71,8
10,4,12,1,3,0,4,10,72,11
10,4,0,0,4,0,4,10,89,11
10,4,16,1,4,0,4,10,89,11
10,4,21,0,5,1,4,10,89,11
10,4,14,1,6,1,4,10,98,11
10,4,15,1,1,0,4,10,86,11
10,4,9,1,1,0,4,10,89,11
10,4,19,1,2,0,4,10,71,8
10,4,2,0,3,0,4,10,71,8
10,4,12,1,3,0,4,10,89,11
10,4,18,1,4,0,4,10,89,11
10,4,0,0,6,1,4,10,71,9
10,4,20,1,1,0,4,10,89,11
10,4,11,1,1,0,4,10,89,11
11,4,20,1,6,1,4,10,89,11
11,4,19,1,0,0,4,10,98,11
11,4,0,0,1,0,4,10,89,11
11,4,21,0,5,1,4,10,89,8
11,4,8,1,6,1,4,10,39,11
11,4,14,1,6,1,4,10,89,11
11,4,14,1,0,0,4,10,89,11
11,4,15,1,0,0,4,10,89,11
11,4,13,1,0,0,4,10,89,11
11,4,20,1,6,1,4,10,89,11
11,4,17,1,6,1,4,10,89,11
11,4,18,1,1,0,4,10,125,11
11,4,17,1,2,0,4,10,89,11
11,4,18,1,3,0,4,10,75,11
11,4,16,1,4,0,4,10,89,11
11,4,21,0,4,0,4,10,98,11
11,4,14,1,5,1,4,10,98,11
12,1,22,0,1,0,4,10,89,11
12,1,22,0,2,0,4,10,39,11
12,1,21,0,4,0,4,10,110,11
12,1,21,0,4,0,4,10,75,11
12,1,16,1,2,0,4,10,39,11
12,1,12,1,4,0,4,10,8,11
12,1,17,1,6,1,4,10,89,11
12,1,12,1,6,1,4,10,39,11
12,1,10,1,0,0,4,10,89,11
12,1,19,1,1,0,4,10,89,11
12,1,5,0,3,0,4,10,65,11
12,1,19,1,3,0,4,10,89,11
12,1,23,0,4,0,4,10,19,11
12,1,16,1,3,0,4,10,89,11
1,1,18,1,0,0,1,10,89,11
1,1,17,1,0,0,1,10,89,11
1,1,10,1,0,0,1,10,98,11
1,1,0,0,2,0,1,10,86,11
1,1,0,0,2,0,1,10,86,11
2,1,14,1,5,1,1,10,3,11
3,2,12,1,3,0,1,10,89,11
3,2,14,1,4,0,1,10,75,11
4,2,14,1,6,1,2,10,89,11
4,2,10,1,1,0,2,10,89,11
4,2,17,1,5,1,2,10,89,11
4,2,13,1,1,0,2,10,98,11
5,2,12,1,2,0,2,10,46,11
5,2,9,1,0,0,2,10,89,11
6,3,8,1,3,0,2,10,75,11
7,3,19,1,4,0,3,10,75,11
7,3,12,1,6,1,3,10,86,11
8,3,13,1,3,0,3,10,89,11
8,3,13,1,0,0,3,10,89,11
9,4,13,1,3,0,3,10,75,11
9,4,15,1,1,0,3,10,98,11
11,4,17,1,3,0,4,10,125,11
11,4,15,1,0,0,4,10,98,11
11,4,19,1,1,0,4,10,89,11
11,4,19,1,5,1,4,10,89,11
12,1,10,1,0,0,4,10,89,11
2,1,13,1,5,1,1,10,72,11
2,1,2,0,5,1,1,10,72,11
5,2,21,0,3,0,2,10,89,11
5,2,22,0,3,0,2,10,89,11
7,3,10,1,2,0,3,10,93,11
8,3,18,1,1,0,3,10,56,11
8,3,1,0,3,0,3,10,89,11
9,4,19,1,2,0,3,10,89,11
9,4,12,1,3,0,3,10,89,9
9,4,10,1,4,0,3,10,98,11
9,4,19,1,2,0,3,10,98,11
10,4,17,1,0,0,4,10,89,11
10,4,14,1,1,0,4,10,15,11
11,4,16,1,4,0,4,10,27,11
12,1,18,1,2,0,4,10,98,11
1,1,14,1,4,0,1,10,98,11
2,1,20,1,2,0,1,10,39,11
2,1,15,1,6,1,1,10,89,11
2,1,15,1,1,0,1,10,89,11
2,1,20,1,3,0,1,10,39,11
3,2,13,1,1,0,1,10,89,11
3,2,11,1,4,0,1,10,89,11
3,2,18,1,5,1,1,10,89,11
3,2,19,1,4,0,1,10,39,11
4,2,10,1,5,1,2,10,89,11
4,2,16,1,0,0,2,10,89,11
4,2,20,1,0,0,2,10,89,11
4,2,12,1,0,0,2,10,89,9
4,2,8,1,3,0,2,10,89,11
6,3,13,1,5,1,2,10,89,11
8,3,6,0,6,1,3,10,106,11
8,3,3,0,6,1,3,10,72,11
8,3,14,1,0,0,3,10,89,11
9,4,6,0,3,0,3,10,106,11
9,4,16,1,4,0,3,10,89,11
9,4,5,0,3,0,3,10,98,11
10,4,10,1,3,0,4,10,89,11
10,4,9,1,0,0,4,10,89,11
10,4,11,1,5,1,4,10,89,11
11,4,19,1,1,0,4,10,75,11
11,4,13,1,2,0,4,10,89,11
11,4,17,1,6,1,4,10,89,11
11,4,15,1,6,1,4,10,89,11
11,4,14,1,0,0,4,10,89,11
11,4,12,1,1,0,4,10,89,11
12,1,14,1,4,0,4,10,39,8
1,1,17,1,1,0,1,10,115,8
1,1,16,1,6,1,1,10,75,11
1,1,10,1,4,0,1,10,89,11
1,1,13,1,0,0,1,10,65,11
1,1,21,0,2,0,1,10,89,11
1,1,10,1,3,0,1,10,75,11
1,1,23,0,4,0,1,10,47,8
2,1,3,0,3,0,1,10,56,11
2,1,14,1,1,0,1,10,72,11
2,1,12,1,2,0,1,10,89,11
2,1,19,1,5,1,1,10,89,11
3,2,17,1,2,0,1,10,3,11
3,2,21,0,2,0,1,10,86,11
3,2,12,1,3,0,1,10,3,11
3,2,16,1,6,1,1,10,89,11
4,2,11,1,3,0,2,10,89,11
4,2,19,1,5,1,2,10,89,11
4,2,20,1,6,1,2,10,98,11
4,2,14,1,3,0,2,10,89,11
4,2,14,1,5,1,2,10,89,11
4,2,14,1,5,1,2,10,98,11
4,2,15,1,2,0,2,10,98,11
4,2,15,1,0,0,2,10,89,11
4,2,10,1,6,1,2,10,89,11
4,2,11,1,6,1,2,10,89,11
5,2,20,1,6,1,2,10,89,11
5,2,9,1,6,1,2,10,65,11
5,2,21,0,4,0,2,10,96,11
5,2,20,1,2,0,2,10,72,11
5,2,19,1,6,1,2,10,8,11
5,2,19,1,2,0,2,10,122,11
6,3,22,0,0,0,2,10,94,11
6,3,8,1,5,1,2,10,89,11
6,3,13,1,5,1,2,10,98,11
6,3,19,1,6,1,2,10,86,11
6,3,13,1,2,0,2,10,96,11
6,3,12,1,1,0,2,10,89,11
7,3,14,1,2,0,3,10,65,11
7,3,14,1,6,1,3,10,65,11
7,3,17,1,2,0,3,10,89,11
7,3,13,1,3,0,3,10,3,11
7,3,19,1,0,0,3,10,89,11
7,3,14,1,3,0,3,10,98,11
8,3,15,1,2,0,3,10,89,11
8,3,19,1,5,1,3,10,72,11
8,3,13,1,2,0,3,10,89,11
8,3,21,0,5,1,3,10,62,11
8,3,18,1,1,0,3,10,89,11
8,3,16,1,0,0,3,10,3,11
9,4,20,1,4,0,3,10,65,11
9,4,15,1,3,0,3,10,98,11
9,4,16,1,5,1,3,10,98,11
9,4,11,1,1,0,3,10,98,11
9,4,23,0,4,0,3,10,86,11
9,4,4,0,6,1,3,10,71,11
10,4,11,1,4,0,4,10,65,11
10,4,17,1,3,0,4,10,77,11
10,4,21,0,5,1,4,10,72,11
10,4,16,1,6,1,4,10,98,11
10,4,19,1,4,0,4,10,13,11
11,4,4,0,3,0,4,10,86,11
11,4,1,0,4,0,4,10,125,11
11,4,1,0,0,0,4,10,77,11
11,4,11,1,0,0,4,10,89,11
11,4,17,1,3,0,4,10,8,11
11,4,9,1,4,0,4,10,89,11
11,4,10,1,4,0,4,10,89,11
12,1,0,0,2,0,4,10,47,11
12,1,21,0,3,0,4,10,3,11
12,1,21,0,1,0,4,10,98,11
12,1,19,1,4,0,4,10,65,11
12,1,12,1,5,1,4,10,89,11
12,1,10,1,3,0,4,10,19,11
1,1,4,0,3,0,1,10,86,11
5,2,0,0,2,0,2,10,19,11
7,3,15,1,3,0,3,10,72,11
8,3,17,1,0,0,3,10,75,11
8,3,17,1,2,0,3,10,98,11
8,3,21,0,3,0,3,10,125,11
8,3,9,1,0,0,3,10,72,11
9,4,2,0,1,0,3,10,122,11
9,4,9,1,2,0,3,10,89,11
9,4,20,1,6,1,3,10,75,11
10,4,11,1,6,1,4,10,75,11
11,4,11,1,0,0,4,10,89,11
1,1,14,1,2,0,1,33,75,11
1,1,15,1,2,0,1,33,75,11
1,1,13,1,2,0,1,33,86,11
1,1,18,1,2,0,1,33,37,11
1,1,9,1,3,0,1,33,75,9
1,1,11,1,4,0,1,33,86,11
1,1,18,1,4,0,1,33,75,11
1,1,19,1,5,1,1,33,27,11
1,1,8,1,0,0,1,33,75,11
1,1,16,1,1,0,1,33,86,11
1,1,23,0,1,0,1,33,86,11
1,1,20,1,3,0,1,33,75,11
1,1,17,1,6,1,1,33,98,11
1,1,18,1,2,0,1,33,98,11
1,1,21,0,3,0,1,33,75,11
1,1,15,1,3,0,1,33,89,11
1,1,12,1,4,0,1,33,75,11
1,1,22,0,4,0,1,33,98,11
1,1,17,1,6,1,1,33,3,11
1,1,21,0,1,0,1,33,125,11
1,1,13,1,2,0,1,33,3,11
2,1,18,1,0,0,1,33,89,11
2,1,17,1,1,0,1,33,89,11
2,1,23,0,1,0,1,33,75,11
2,1,8,1,2,0,1,33,19,11
2,1,20,1,4,0,1,33,75,11
2,1,11,1,4,0,1,33,89,11
2,1,16,1,2,0,1,33,75,11
2,1,14,1,0,0,1,33,75,11
2,1,12,1,0,0,1,33,19,11
2,1,18,1,1,0,1,33,27,11
2,1,18,1,3,0,1,33,98,11
2,1,22,0,6,1,1,33,75,11
2,1,12,1,6,1,1,33,49,11
2,1,22,0,1,0,1,33,75,11
2,1,23,0,4,0,1,33,125,11
3,2,11,1,0,0,1,33,125,11
3,2,19,1,5,1,1,33,70,8
3,2,0,0,4,0,1,33,98,11
3,2,0,0,4,0,1,33,98,11
3,2,18,1,4,0,1,33,19,11
3,2,13,1,0,0,1,33,83,8
3,2,18,1,5,1,1,33,86,11
3,2,19,1,5,1,1,33,75,11
3,2,20,1,6,1,1,33,65,11
3,2,16,1,5,1,1,33,125,11
3,2,16,1,6,1,1,33,125,11
3,2,20,1,0,0,1,33,106,11
3,2,15,1,0,0,1,33,75,11
3,2,18,1,0,0,1,33,70,8
4,2,13,1,3,0,2,33,75,11
4,2,10,1,4,0,2,33,65,11
4,2,22,0,2,0,2,33,14,11
4,2,23,0,6,1,2,33,98,11
4,2,21,0,3,0,2,33,106,11
4,2,19,1,3,0,2,33,70,9
4,2,20,1,5,1,2,33,89,11
4,2,19,1,5,1,2,33,86,11
4,2,0,0,0,0,2,33,89,11
5,2,14,1,2,0,2,33,98,11
5,2,18,1,2,0,2,33,13,11
5,2,14,1,0,0,2,33,98,11
5,2,0,0,3,0,2,33,125,11
5,2,15,1,6,1,2,33,86,11
5,2,8,1,4,0,2,33,89,11
6,3,6,0,2,0,2,33,98,11
6,3,16,1,6,1,2,33,25,9
6,3,19,1,6,1,2,33,89,11
6,3,10,1,2,0,2,33,89,11
6,3,12,1,0,0,2,33,98,11
6,3,22,0,0,0,2,33,125,11
6,3,22,0,3,0,2,33,89,11
6,3,10,1,3,0,2,33,49,11
6,3,12,1,6,1,2,33,98,11
6,3,15,1,0,0,2,33,19,11
7,3,13,1,2,0,3,33,89,11
7,3,20,1,2,0,3,33,65,11
7,3,4,0,6,1,3,33,14,8
7,3,14,1,3,0,3,33,98,11
7,3,3,0,5,1,3,33,65,11
7,3,15,1,6,1,3,33,98,11
7,3,15,1,1,0,3,33,115,8
7,3,0,0,3,0,3,33,64,11
7,3,3,0,4,0,3,33,89,11
7,3,9,1,0,0,3,33,19,8
7,3,9,1,0,0,3,33,65,11
7,3,8,1,2,0,3,33,125,11
8,3,13,1,2,0,3,33,13,11
8,3,18,1,2,0,3,33,19,11
8,3,22,0,2,0,3,33,89,11
8,3,3,0,3,0,3,33,89,11
8,3,12,1,6,1,3,33,9,11
8,3,22,0,1,0,3,33,89,11
8,3,1,0,2,0,3,33,100,11
8,3,23,0,3,0,3,33,19,11
8,3,7,1,3,0,3,33,75,8
8,3,9,1,5,1,3,33,62,11
8,3,23,0,1,0,3,33,75,11
8,3,6,0,0,0,3,33,98,11
8,3,15,1,0,0,3,33,19,11
8,3,23,0,1,0,3,33,89,11
8,3,10,1,2,0,3,33,89,11
8,3,4,0,4,0,3,33,27,11
8,3,19,1,5,1,3,33,125,11
9,4,21,0,6,1,3,33,89,11
9,4,23,0,1,0,3,33,3,8
9,4,11,1,2,0,3,33,13,8
9,4,0,0,4,0,3,33,125,11
9,4,14,1,5,1,3,33,86,11
9,4,7,1,0,0,3,33,117,11
9,4,16,1,1,0,3,33,89,11
10,4,0,0,3,0,4,33,89,11
10,4,11,1,3,0,4,33,3,11
10,4,15,1,4,0,4,33,72,11
10,4,11,1,4,0,4,33,98,11
10,4,23,0,5,1,4,33,75,8
10,4,10,1,6,1,4,33,89,11
10,4,10,1,6,1,4,33,100,11
10,4,14,1,4,0,4,33,45,11
10,4,22,0,5,1,4,33,86,11
11,4,22,0,2,0,4,33,65,11
11,4,17,1,5,1,4,33,75,11
11,4,13,1,1,0,4,33,89,11
11,4,21,0,2,0,4,33,123,9
11,4,18,1,1,0,4,33,89,11
11,4,8,1,0,0,4,33,86,11
11,4,11,1,0,0,4,33,86,11
12,1,13,1,1,0,4,33,3,11
12,1,10,1,4,0,4,33,75,11
12,1,5,0,0,0,4,33,19,9
12,1,2,0,3,0,4,33,98,11
12,1,13,1,2,0,4,33,89,11
12,1,20,1,2,0,4,33,98,11
12,1,9,1,5,1,4,33,100,11
12,1,17,1,3,0,4,33,75,11
1,1,13,1,5,1,1,33,125,11
1,1,2,0,6,1,1,33,68,11
2,1,11,1,6,1,1,33,75,11
2,1,13,1,0,0,1,33,125,11
3,2,19,1,6,1,1,33,83,11
3,2,7,1,1,0,1,33,14,11
3,2,11,1,5,1,1,33,75,11
4,2,4,0,1,0,2,33,75,11
5,2,1,0,3,0,2,33,39,11
7,3,15,1,4,0,3,33,98,11
7,3,21,0,5,1,3,33,75,11
7,3,18,1,3,0,3,33,73,11
8,3,0,0,1,0,3,33,89,11
8,3,21,0,1,0,3,33,78,11
8,3,10,1,0,0,3,33,75,11
10,4,10,1,3,0,4,33,13,8
10,4,22,0,2,0,4,33,13,8
10,4,14,1,3,0,4,33,89,11
10,4,18,1,6,1,4,33,89,11
10,4,19,1,6,1,4,33,87,11
10,4,17,1,1,0,4,33,112,8
10,4,14,1,0,0,4,33,89,11
10,4,22,0,5,1,4,33,63,8
11,4,10,1,5,1,4,33,75,11
11,4,6,0,1,0,4,33,75,11
1,1,15,1,0,0,1,33,75,9
1,1,13,1,0,0,1,33,89,11
6,3,14,1,5,1,2,33,98,11
7,3,4,0,6,1,3,33,39,11
7,3,13,1,0,0,3,33,64,11
8,3,16,1,4,0,3,33,89,11
11,4,17,1,1,0,4,33,75,9
11,4,17,1,0,0,4,33,103,11
12,1,23,0,6,1,4,33,75,11
2,1,5,0,6,1,1,33,75,11
2,1,7,1,0,0,1,33,118,11
2,1,22,0,1,0,1,33,89,11
2,1,7,1,4,0,1,33,67,9
2,1,10,1,5,1,1,33,75,11
2,1,18,1,2,0,1,33,98,11
3,2,22,0,0,0,1,33,39,11
3,2,19,1,1,0,1,33,75,11
3,2,13,1,0,0,1,33,125,11
5,2,20,1,2,0,2,33,98,11
6,3,12,1,1,0,2,33,75,11
6,3,23,0,6,1,2,33,98,11
7,3,21,0,2,0,3,33,75,11
8,3,12,1,6,1,3,33,89,11
8,3,21,0,5,1,3,33,89,11
8,3,17,1,6,1,3,33,89,11
9,4,4,0,6,1,3,33,19,11
10,4,13,1,5,1,4,33,98,11
11,4,14,1,6,1,4,33,75,9
11,4,6,0,2,0,4,33,75,11
11,4,19,1,6,1,4,33,89,11
1,1,22,0,3,0,1,33,125,11
1,1,14,1,5,1,1,33,125,11
1,1,11,1,0,0,1,33,125,11
2,1,18,1,2,0,1,33,125,11
3,2,15,1,1,0,1,33,67,11
4,2,9,1,3,0,2,33,86,11
4,2,17,1,3,0,2,33,125,11
5,2,1,0,1,0,2,33,89,11
6,3,7,1,0,0,2,33,106,11
8,3,23,0,0,0,3,33,49,11
8,3,21,0,2,0,3,33,82,11
8,3,21,0,6,1,3,33,39,11
8,3,17,1,1,0,3,33,125,11
10,4,7,1,5,1,4,33,65,9
10,4,11,1,5,1,4,33,98,11
10,4,15,1,0,0,4,33,89,11
10,4,8,1,5,1,4,33,13,8
1,1,9,1,5,1,1,51,13,9
1,1,9,1,6,1,1,51,125,11
1,1,5,0,0,0,1,51,106,11
1,1,19,1,1,0,1,51,67,11
1,1,15,1,4,0,1,51,19,11
1,1,5,0,5,1,1,51,125,11
1,1,12,1,2,0,1,51,125,11
1,1,20,1,2,0,1,51,11,11
1,1,10,1,2,0,1,51,47,11
1,1,16,1,3,0,1,51,125,11
1,1,9,1,2,0,1,51,65,11
1,1,17,1,2,0,1,51,125,11
1,1,15,1,3,0,1,51,125,11
1,1,19,1,0,0,1,51,106,11
1,1,18,1,0,0,1,51,2,11
1,1,9,1,2,0,1,51,125,11
2,1,11,1,0,0,1,51,65,11
2,1,10,1,1,0,1,51,108,11
2,1,19,1,2,0,1,51,98,11
2,1,21,0,3,0,1,51,115,11
2,1,12,1,6,1,1,51,98,11
2,1,10,1,4,0,1,51,65,11
2,1,18,1,4,0,1,51,75,11
2,1,23,0,4,0,1,51,65,9
2,1,0,0,5,1,1,51,65,11
3,2,21,0,6,1,1,51,67,11
3,2,11,1,6,1,1,51,72,11
3,2,20,1,4,0,1,51,27,11
3,2,11,1,3,0,1,51,27,11
3,2,18,1,4,0,1,51,75,11
3,2,11,1,5,1,1,51,13,11
3,2,22,0,2,0,1,51,65,11
4,2,20,1,2,0,2,51,86,11
4,2,6,0,6,1,2,51,94,11
4,2,21,0,5,1,2,51,89,8
4,2,17,1,6,1,2,51,125,11
4,2,11,1,0,0,2,51,86,11
5,2,14,1,4,0,2,51,72,11
5,2,18,1,6,1,2,51,122,11
5,2,18,1,6,1,2,51,75,11
5,2,20,1,4,0,2,51,125,11
5,2,0,0,4,0,2,51,89,11
5,2,20,1,1,0,2,51,27,11
5,2,18,1,1,0,2,51,27,11
5,2,22,0,3,0,2,51,72,11
5,2,11,1,3,0,2,51,86,11
5,2,12,1,6,1,2,51,125,11
5,2,18,1,6,1,2,51,125,11
6,3,20,1,0,0,2,51,3,11
6,3,21,0,2,0,2,51,3,11
6,3,18,1,3,0,2,51,3,11
6,3,6,0,4,0,2,51,122,11
6,3,21,0,4,0,2,51,89,11
6,3,20,1,6,1,2,51,27,11
6,3,23,0,0,0,2,51,86,11
6,3,1,0,1,0,2,51,39,11
6,3,18,1,3,0,2,51,86,11
6,3,20,1,6,1,2,51,86,11
6,3,12,1,6,1,2,51,39,11
6,3,22,0,0,0,2,51,86,11
6,3,17,1,2,0,2,51,86,11
6,3,16,1,2,0,2,51,86,11
6,3,19,1,6,1,2,51,3,11
6,3,14,1,6,1,2,51,3,11
6,3,20,1,1,0,2,51,83,11
6,3,21,0,2,0,2,51,86,11
6,3,14,1,4,0,2,51,89,11
6,3,10,1,4,0,2,51,86,11
6,3,21,0,5,1,2,51,89,11
6,3,15,1,6,1,2,51,89,11
6,3,5,0,0,0,2,51,89,11
6,3,12,1,1,0,2,51,3,11
7,3,17,1,2,0,3,51,94,11
7,3,0,0,3,0,3,51,13,8
7,3,17,1,4,0,3,51,27,11
7,3,23,0,4,0,3,51,86,11
7,3,19,1,1,0,3,51,89,11
7,3,18,1,3,0,3,51,89,11
7,3,14,1,4,0,3,51,89,11
7,3,8,1,5,1,3,51,19,11
7,3,5,0,1,0,3,51,89,11
7,3,16,1,2,0,3,51,75,11
7,3,10,1,2,0,3,51,89,11
7,3,20,1,3,0,3,51,89,11
7,3,1,0,3,0,3,51,89,11
7,3,11,1,4,0,3,51,89,11
7,3,20,1,1,0,3,51,89,11
7,3,17,1,1,0,3,51,19,11
7,3,8,1,1,0,3,51,89,11
7,3,13,1,1,0,3,51,3,11
7,3,3,0,4,0,3,51,89,11
7,3,22,0,5,1,3,51,89,11
7,3,15,1,6,1,3,51,89,11
7,3,14,1,6,1,3,51,89,11
7,3,13,1,6,1,3,51,89,11
7,3,12,1,6,1,3,51,89,11
7,3,19,1,1,0,3,51,89,11
7,3,12,1,1,0,3,51,89,11
7,3,17,1,1,0,3,51,89,11
7,3,18,1,3,0,3,51,89,11
7,3,17,1,3,0,3,51,89,11
7,3,3,0,3,0,3,51,89,11
7,3,12,1,4,0,3,51,86,11
8,3,23,0,6,1,3,51,89,11
8,3,18,1,2,0,3,51,89,11
8,3,21,0,4,0,3,51,86,11
8,3,14,1,4,0,3,51,86,11
8,3,8,1,5,1,3,51,86,11
8,3,11,1,5,1,3,51,86,11
8,3,20,1,5,1,3,51,86,11
8,3,20,1,5,1,3,51,86,11
8,3,20,1,0,0,3,51,86,11
8,3,12,1,2,0,3,51,89,11
8,3,5,0,3,0,3,51,98,11
8,3,12,1,4,0,3,51,98,11
9,4,17,1,2,0,3,51,98,11
9,4,20,1,4,0,3,51,75,11
9,4,14,1,1,0,3,51,89,11
9,4,20,1,2,0,3,51,98,11
9,4,8,1,2,0,3,51,75,11
9,4,12,1,2,0,3,51,98,11
9,4,13,1,2,0,3,51,98,11
9,4,18,1,2,0,3,51,89,11
9,4,12,1,4,0,3,51,98,11
9,4,14,1,4,0,3,51,98,11
9,4,2,0,4,0,3,51,86,11
9,4,20,1,5,1,3,51,98,11
9,4,20,1,2,0,3,51,98,11
9,4,9,1,4,0,3,51,125,11
9,4,18,1,5,1,3,51,89,11
9,4,18,1,2,0,3,51,89,11
9,4,0,0,6,1,3,51,89,11
9,4,3,0,1,0,3,51,125,11
10,4,13,1,3,0,4,51,89,11
10,4,12,1,1,0,4,51,26,11
10,4,10,1,0,0,4,51,75,11
10,4,19,1,0,0,4,51,19,11
10,4,12,1,3,0,4,51,89,11
10,4,1,0,4,0,4,51,89,11
10,4,22,0,4,0,4,51,86,11
10,4,18,1,5,1,4,51,89,11
10,4,0,0,5,1,4,51,86,11
10,4,17,1,1,0,4,51,19,11
10,4,7,1,3,0,4,51,13,11
10,4,13,1,6,1,4,51,86,11
11,4,20,1,6,1,4,51,89,11
11,4,18,1,6,1,4,51,75,11
11,4,21,0,1,0,4,51,89,11
11,4,7,1,2,0,4,51,89,11
11,4,11,1,4,0,4,51,89,11
11,4,3,0,5,1,4,51,19,11
11,4,21,0,0,0,4,51,86,11
11,4,19,1,0,0,4,51,89,11
11,4,19,1,1,0,4,51,89,11
11,4,10,1,2,0,4,51,14,11
11,4,22,0,2,0,4,51,75,11
11,4,16,1,2,0,4,51,78,11
11,4,8,1,5,1,4,51,86,11
11,4,15,1,5,1,4,51,86,11
11,4,3,0,6,1,4,51,89,11
12,1,19,1,3,0,4,51,98,11
12,1,15,1,3,0,4,51,86,11
12,1,9,1,4,0,4,51,72,11
12,1,12,1,4,0,4,51,19,11
12,1,8,1,5,1,4,51,86,11
12,1,17,1,6,1,4,51,98,11
12,1,17,1,6,1,4,51,98,11
12,1,22,0,6,1,4,51,89,11
12,1,19,1,0,0,4,51,89,11
12,1,8,1,2,0,4,51,89,11
12,1,10,1,2,0,4,51,39,11
12,1,20,1,0,0,4,51,86,11
1,1,20,1,1,0,1,51,13,11
7,3,12,1,0,0,3,51,86,11
7,3,12,1,0,0,3,51,65,11
11,4,11,1,0,0,4,51,89,11
12,1,14,1,6,1,4,51,86,9
12,1,11,1,3,0,4,51,89,11
2,1,13,1,3,0,1,51,98,11
4,2,18,1,5,1,2,51,89,11
11,4,17,1,1,0,4,51,89,11
12,1,13,1,1,0,4,51,75,11
1,1,15,1,3,0,1,43,86,11
1,1,17,1,5,1,1,43,39,11
1,1,12,1,6,1,1,43,89,11
1,1,16,1,6,1,1,43,125,11
1,1,17,1,6,1,1,43,86,11
2,1,14,1,4,0,1,43,3,11
2,1,11,1,1,0,1,43,75,9
3,2,20,1,6,1,1,43,19,11
3,2,7,1,6,1,1,43,55,11
3,2,14,1,5,1,1,43,86,11
3,2,21,0,1,0,1,43,89,11
3,2,12,1,0,0,1,43,3,11
3,2,17,1,0,0,1,43,98,11
3,2,9,1,2,0,1,43,122,11
4,2,19,1,5,1,2,43,98,11
4,2,10,1,6,1,2,43,75,11
4,2,6,0,1,0,2,43,19,11
4,2,1,0,4,0,2,43,125,11
4,2,10,1,4,0,2,43,56,11
4,2,12,1,5,1,2,43,75,11
4,2,18,1,0,0,2,43,98,11
4,2,14,1,3,0,2,43,98,11
4,2,18,1,6,1,2,43,98,11
4,2,23,0,6,1,2,43,86,11
4,2,13,1,4,0,2,43,122,9
4,2,18,1,5,1,2,43,8,11
4,2,11,1,0,0,2,43,14,9
5,2,17,1,0,0,2,43,3,11
5,2,23,0,6,1,2,43,98,11
5,2,18,1,4,0,2,43,98,11
5,2,0,0,5,1,2,43,89,11
5,2,18,1,0,0,2,43,98,11
7,3,19,1,2,0,3,43,89,11
8,3,13,1,6,1,3,43,89,11
9,4,20,1,6,1,3,43,1,9
9,4,19,1,1,0,3,43,108,11
9,4,2,0,0,0,3,43,65,11
10,4,14,1,4,0,4,43,47,11
11,4,4,0,0,0,4,43,100,9
11,4,10,1,2,0,4,43,75,11
11,4,8,1,2,0,4,43,83,11
12,1,16,1,3,0,4,43,106,11
12,1,19,1,1,0,4,43,89,11
1,1,12,1,2,0,1,43,65,11
1,1,16,1,2,0,1,43,89,11
10,4,16,1,6,1,4,43,125,11
11,4,17,1,6,1,4,43,39,11
12,1,18,1,1,0,4,43,14,11
1,1,17,1,6,1,1,43,27,11
2,1,12,1,2,0,1,43,109,9
3,2,14,1,1,0,1,43,75,11
4,2,14,1,6,1,2,43,1,11
6,3,19,1,1,0,2,43,98,11
3,2,10,1,6,1,1,43,46,11
4,2,15,1,2,0,2,43,125,11
12,1,7,1,3,0,4,43,106,11
9,4,14,1,4,0,3,43,65,11
1,1,2,0,0,0,1,17,86,11
1,1,21,0,4,0,1,17,75,11
1,1,18,1,6,1,1,17,98,11
1,1,1,0,1,0,1,17,86,11
2,1,1,0,5,1,1,17,86,11
2,1,9,1,4,0,1,17,75,11
2,1,20,1,5,1,1,17,86,11
2,1,7,1,3,0,1,17,89,11
2,1,12,1,4,0,1,17,75,11
2,1,15,1,4,0,1,17,47,11
3,2,15,1,2,0,1,17,75,11
3,2,15,1,6,1,1,17,64,11
3,2,4,0,0,0,1,17,96,11
4,2,0,0,4,0,2,17,98,11
4,2,20,1,4,0,2,17,64,11
4,2,18,1,5,1,2,17,89,11
4,2,0,0,1,0,2,17,106,11
4,2,2,0,1,0,2,17,23,11
4,2,7,1,3,0,2,17,14,8
5,2,17,1,0,0,2,17,98,11
5,2,11,1,0,0,2,17,98,11
5,2,6,0,1,0,2,17,98,11
6,3,11,1,1,0,2,17,98,11
6,3,22,0,1,0,2,17,98,11
6,3,13,1,1,0,2,17,98,11
6,3,15,1,2,0,2,17,89,11
6,3,3,0,5,1,2,17,86,11
6,3,12,1,5,1,2,17,89,11
6,3,0,0,1,0,2,17,125,11
7,3,14,1,2,0,3,17,98,11
7,3,15,1,4,0,3,17,98,11
7,3,22,0,6,1,3,17,86,11
8,3,21,0,6,1,3,17,98,11
8,3,1,0,0,0,3,17,39,8
8,3,22,0,3,0,3,17,89,11
8,3,17,1,4,0,3,17,89,11
9,4,17,1,2,0,3,17,98,11
9,4,12,1,2,0,3,17,98,11
9,4,13,1,4,0,3,17,75,11
9,4,19,1,3,0,3,17,89,11
9,4,17,1,6,1,3,17,89,11
10,4,11,1,3,0,4,17,89,11
11,4,19,1,1,0,4,17,98,11
11,4,16,1,4,0,4,17,98,11
11,4,13,1,6,1,4,17,98,11
11,4,18,1,3,0,4,17,98,11
11,4,17,1,4,0,4,17,98,11
12,1,12,1,2,0,4,17,98,11
12,1,6,0,3,0,4,17,105,11
12,1,11,1,4,0,4,17,39,11
12,1,20,1,6,1,4,17,86,11
12,1,12,1,0,0,4,17,105,11
1,1,0,0,4,0,1,17,86,11
1,1,19,1,2,0,1,17,82,11
2,1,23,0,3,0,1,17,89,11
2,1,13,1,4,0,1,17,75,11
3,2,12,1,0,0,1,17,19,11
4,2,4,0,2,0,2,17,89,11
4,2,13,1,2,0,2,17,3,11
5,2,9,1,2,0,2,17,89,11
5,2,21,0,2,0,2,17,15,8
5,2,0,0,0,0,2,17,89,11
5,2,10,1,1,0,2,17,89,11
5,2,16,1,4,0,2,17,89,11
6,3,15,1,1,0,2,17,98,11
6,3,12,1,6,1,2,17,89,11
6,3,10,1,4,0,2,17,86,11
6,3,9,1,0,0,2,17,65,11
7,3,11,1,0,0,3,17,65,11
7,3,12,1,2,0,3,17,98,11
7,3,17,1,1,0,3,17,89,11
7,3,18,1,2,0,3,17,75,11
7,3,14,1,4,0,3,17,89,11
8,3,20,1,2,0,3,17,89,11
8,3,3,0,5,1,3,17,86,11
8,3,13,1,6,1,3,17,86,11
9,4,16,1,3,0,3,17,86,11
9,4,18,1,5,1,3,17,98,11
9,4,17,1,5,1,3,17,79,11
9,4,12,1,4,0,3,17,65,11
9,4,9,1,4,0,3,17,86,11
10,4,12,1,5,1,4,17,98,11
10,4,17,1,1,0,4,17,89,11
11,4,18,1,4,0,4,17,89,11
11,4,15,1,5,1,4,17,75,11
11,4,20,1,1,0,4,17,89,11
11,4,17,1,1,0,4,17,19,11
11,4,19,1,3,0,4,17,65,11
11,4,10,1,6,1,4,17,75,11
11,4,12,1,0,0,4,17,56,11
12,1,14,1,1,0,4,17,98,11
12,1,18,1,6,1,4,17,89,11
1,1,12,1,2,0,1,17,13,11
2,1,17,1,1,0,1,17,86,11
5,2,4,0,1,0,2,17,86,11
5,2,2,0,2,0,2,17,86,11
6,3,15,1,2,0,2,17,98,11
6,3,14,1,0,0,2,17,89,11
6,3,2,0,6,1,2,17,86,11
8,3,0,0,6,1,3,17,13,9
8,3,8,1,6,1,3,17,3,11
8,3,16,1,1,0,3,17,98,11
8,3,23,0,2,0,3,17,89,11
8,3,11,1,3,0,3,17,98,11
9,4,11,1,3,0,3,17,98,9
9,4,17,1,4,0,3,17,98,11
9,4,13,1,1,0,3,17,98,11
9,4,17,1,3,0,3,17,125,11
9,4,16,1,3,0,3,17,125,11
9,4,17,1,1,0,3,17,75,8
10,4,12,1,3,0,4,17,98,11
10,4,10,1,6,1,4,17,125,11
11,4,5,0,2,0,4,17,86,11
11,4,7,1,2,0,4,17,89,11
11,4,15,1,3,0,4,17,125,11
11,4,15,1,4,0,4,17,106,11
11,4,9,1,5,1,4,17,89,11
12,1,10,1,6,1,4,17,19,11
3,2,11,1,4,0,1,17,98,11
4,2,12,1,3,0,2,17,3,11
4,2,21,0,2,0,2,17,89,11
7,3,12,1,1,0,3,17,98,11
8,3,13,1,6,1,3,17,75,11
10,4,10,1,6,1,4,17,98,11
9,4,11,1,1,0,3,17,63,11
9,4,12,1,1,0,3,17,125,11
10,4,8,1,0,0,4,17,3,11
10,4,10,1,0,0,4,17,3,11
10,4,9,1,3,0,4,17,3,11
1,1,17,1,0,0,1,17,39,11
1,1,20,1,2,0,1,17,75,11
1,1,10,1,2,0,1,17,75,11
1,1,17,1,2,0,1,17,86,11
1,1,10,1,3,0,1,17,39,11
1,1,19,1,3,0,1,17,86,11
1,1,16,1,3,0,1,17,65,11
1,1,17,1,4,0,1,17,86,11
1,1,15,1,5,1,1,17,65,11
1,1,12,1,6,1,1,17,86,11
1,1,0,0,2,0,1,17,86,11
1,1,9,1,2,0,1,17,75,9
1,1,12,1,4,0,1,17,75,11
1,1,8,1,5,1,1,17,86,11
1,1,22,0,6,1,1,17,89,11
1,1,5,0,6,1,1,17,86,11
2,1,17,1,1,0,1,17,89,11
2,1,3,0,0,0,1,17,86,11
2,1,19,1,0,0,1,17,23,11
2,1,17,1,2,0,1,17,89,11
2,1,9,1,3,0,1,17,98,11
2,1,21,0,6,1,1,17,75,11
2,1,13,1,3,0,1,17,89,11
2,1,19,1,4,0,1,17,86,11
2,1,14,1,0,0,1,17,86,11
2,1,3,0,0,0,1,17,86,11
2,1,12,1,2,0,1,17,3,11
3,2,19,1,1,0,1,17,75,8
3,2,22,0,2,0,1,17,105,11
3,2,4,0,2,0,1,17,114,11
3,2,14,1,5,1,1,17,125,11
3,2,19,1,1,0,1,17,125,11
3,2,9,1,2,0,1,17,19,11
3,2,15,1,6,1,1,17,125,11
3,2,20,1,1,0,1,17,39,11
3,2,6,0,2,0,1,17,65,11
3,2,14,1,4,0,1,17,65,11
3,2,19,1,6,1,1,17,75,11
3,2,8,1,3,0,1,17,123,11
4,2,8,1,2,0,2,17,86,11
4,2,13,1,4,0,2,17,39,11
4,2,20,1,0,0,2,17,75,11
4,2,19,1,3,0,2,17,65,11
4,2,16,1,3,0,2,17,75,11
4,2,11,1,4,0,2,17,86,11
4,2,19,1,4,0,2,17,89,11
4,2,14,1,6,1,2,17,13,9
4,2,3,0,6,1,2,17,86,11
4,2,15,1,6,1,2,17,89,11
4,2,10,1,0,0,2,17,86,11
4,2,13,1,0,0,2,17,86,11
4,2,22,0,2,0,2,17,86,11
4,2,15,1,2,0,2,17,86,11
4,2,12,1,4,0,2,17,86,11
4,2,11,1,6,1,2,17,65,11
4,2,2,0,6,1,2,17,96,11
4,2,1,0,6,1,2,17,86,11
4,2,11,1,1,0,2,17,3,11
4,2,17,1,6,1,2,17,15,11
4,2,11,1,2,0,2,17,98,11
4,2,20,1,2,0,2,17,3,11
5,2,16,1,4,0,2,17,98,11
5,2,0,0,0,0,2,17,98,11
5,2,23,0,1,0,2,17,86,11
5,2,17,1,2,0,2,17,86,11
5,2,7,1,4,0,2,17,86,11
5,2,4,0,4,0,2,17,86,11
5,2,17,1,5,1,2,17,23,8
5,2,11,1,6,1,2,17,89,11
5,2,23,0,0,0,2,17,125,11
5,2,14,1,2,0,2,17,75,11
5,2,14,1,5,1,2,17,56,11
5,2,10,1,6,1,2,17,65,11
5,2,4,0,1,0,2,17,81,11
5,2,12,1,2,0,2,17,89,11
5,2,16,1,2,0,2,17,86,11
5,2,16,1,6,1,2,17,86,11
5,2,9,1,0,0,2,17,65,11
5,2,12,1,0,0,2,17,89,11
5,2,0,0,1,0,2,17,47,11
5,2,21,0,1,0,2,17,96,11
5,2,0,0,2,0,2,17,86,11
6,3,21,0,0,0,2,17,39,11
6,3,12,1,0,0,2,17,56,11
6,3,9,1,0,0,2,17,86,11
6,3,14,1,1,0,2,17,89,11
6,3,12,1,2,0,2,17,86,11
6,3,17,1,4,0,2,17,86,11
6,3,18,1,1,0,2,17,86,11
6,3,12,1,1,0,2,17,98,11
6,3,3,0,2,0,2,17,89,11
6,3,0,0,4,0,2,17,98,11
6,3,8,1,6,1,2,17,65,11
6,3,1,0,6,1,2,17,56,8
6,3,4,0,5,1,2,17,86,11
6,3,4,0,5,1,2,17,86,11
7,3,12,1,2,0,3,17,98,11
7,3,16,1,2,0,3,17,89,11
7,3,9,1,2,0,3,17,125,11
7,3,14,1,3,0,3,17,65,11
7,3,22,0,3,0,3,17,86,11
7,3,13,1,3,0,3,17,89,11
7,3,19,1,0,0,3,17,65,11
7,3,17,1,0,0,3,17,86,11
7,3,19,1,2,0,3,17,86,11
7,3,7,1,0,0,3,17,3,11
7,3,13,1,4,0,3,17,65,11
7,3,12,1,2,0,3,17,86,11
8,3,9,1,5,1,3,17,89,11
8,3,0,0,6,1,3,17,89,11
8,3,6,0,1,0,3,17,17,11
8,3,13,1,2,0,3,17,89,11
8,3,20,1,3,0,3,17,86,11
8,3,14,1,4,0,3,17,89,11
8,3,14,1,4,0,3,17,79,11
8,3,18,1,1,0,3,17,75,11
8,3,15,1,2,0,3,17,3,11
8,3,11,1,3,0,3,17,39,11
8,3,1,0,3,0,3,17,89,11
8,3,9,1,4,0,3,17,86,11
8,3,13,1,1,0,3,17,89,11
8,3,21,0,4,0,3,17,86,11
8,3,15,1,5,1,3,17,86,11
8,3,15,1,5,1,3,17,86,11
8,3,17,1,0,0,3,17,56,11
8,3,0,0,3,0,3,17,86,11
8,3,16,1,4,0,3,17,98,11
8,3,10,1,6,1,3,17,65,11
8,3,22,0,6,1,3,17,14,11
8,3,22,0,6,1,3,17,14,11
8,3,20,1,0,0,3,17,125,11
9,4,10,1,5,1,3,17,98,11
9,4,2,0,6,1,3,17,56,11
9,4,13,1,6,1,3,17,89,11
9,4,17,1,0,0,3,17,89,11
9,4,17,1,0,0,3,17,98,11
9,4,7,1,0,0,3,17,86,11
9,4,14,1,1,0,3,17,79,11
9,4,8,1,3,0,3,17,89,11
9,4,22,0,0,0,3,17,89,11
9,4,18,1,3,0,3,17,86,11
9,4,12,1,4,0,3,17,39,11
9,4,15,1,6,1,3,17,39,11
9,4,12,1,2,0,3,17,3,11
9,4,17,1,3,0,3,17,89,11
9,4,13,1,5,1,3,17,89,11
9,4,14,1,5,1,3,17,23,8
9,4,10,1,1,0,3,17,99,11
9,4,17,1,2,0,3,17,89,11
10,4,4,0,6,1,4,17,14,11
10,4,11,1,6,1,4,17,39,11
10,4,2,0,2,0,4,17,86,11
10,4,12,1,3,0,4,17,86,11
10,4,17,1,3,0,4,17,57,11
10,4,23,0,6,1,4,17,98,11
10,4,23,0,6,1,4,17,86,11
10,4,19,1,0,0,4,17,89,11
10,4,3,0,1,0,4,17,47,11
10,4,23,0,1,0,4,17,65,11
10,4,16,1,1,0,4,17,75,11
10,4,11,1,2,0,4,17,78,11
10,4,7,1,2,0,4,17,89,11
10,4,23,0,4,0,4,17,86,11
10,4,18,1,4,0,4,17,23,11
10,4,11,1,4,0,4,17,89,11
11,4,11,1,6,1,4,17,3,11
11,4,17,1,6,1,4,17,3,11
11,4,11,1,0,0,4,17,75,11
11,4,18,1,1,0,4,17,79,11
11,4,3,0,2,0,4,17,13,8
11,4,18,1,2,0,4,17,89,11
11,4,17,1,2,0,4,17,89,11
11,4,21,0,6,1,4,17,86,11
11,4,22,0,2,0,4,17,86,11
11,4,8,1,2,0,4,17,60,11
11,4,22,0,4,0,4,17,75,8
11,4,14,1,6,1,4,17,75,11
11,4,11,1,2,0,4,17,65,11
11,4,17,1,2,0,4,17,105,11
11,4,18,1,3,0,4,17,75,11
11,4,19,1,5,1,4,17,89,11
11,4,19,1,5,1,4,17,86,11
11,4,18,1,6,1,4,17,124,11
11,4,4,0,6,1,4,17,86,11
12,1,23,0,1,0,4,17,86,11
12,1,14,1,3,0,4,17,86,11
12,1,20,1,4,0,4,17,75,11
12,1,12,1,4,0,4,17,56,11
12,1,21,0,5,1,4,17,65,11
12,1,16,1,0,0,4,17,39,11
12,1,14,1,1,0,4,17,86,11
12,1,20,1,1,0,4,17,55,11
12,1,10,1,1,0,4,17,65,8
12,1,22,0,2,0,4,17,39,11
12,1,14,1,6,1,4,17,79,11
12,1,13,1,2,0,4,17,86,11
12,1,20,1,3,0,4,17,39,11
2,1,19,1,6,1,1,17,86,11
2,1,18,1,0,0,1,17,89,11
2,1,12,1,0,0,1,17,89,11
2,1,18,1,2,0,1,17,98,11
2,1,8,1,5,1,1,17,125,11
2,1,19,1,1,0,1,17,39,11
2,1,20,1,2,0,1,17,98,11
3,2,5,0,3,0,1,17,14,11
4,2,12,1,2,0,2,17,75,11
4,2,5,0,3,0,2,17,72,11
4,2,0,0,6,1,2,17,89,11
4,2,1,0,5,1,2,17,89,11
4,2,21,0,0,0,2,17,89,11
5,2,18,1,6,1,2,17,89,11
5,2,20,1,1,0,2,17,89,11
5,2,20,1,0,0,2,17,89,11
5,2,12,1,3,0,2,17,72,11
5,2,14,1,6,1,2,17,89,11
5,2,1,0,1,0,2,17,76,11
6,3,13,1,4,0,2,17,89,9
6,3,19,1,4,0,2,17,89,11
6,3,21,0,0,0,2,17,89,11
6,3,16,1,6,1,2,17,89,11
6,3,16,1,0,0,2,17,89,11
6,3,21,0,0,0,2,17,89,11
7,3,22,0,3,0,3,17,89,11
7,3,16,1,3,0,3,17,98,11
7,3,23,0,5,1,3,17,98,11
7,3,20,1,2,0,3,17,89,11
7,3,16,1,1,0,3,17,89,11
7,3,18,1,3,0,3,17,89,11
7,3,15,1,3,0,3,17,89,11
7,3,21,0,4,0,3,17,89,11
8,3,12,1,6,1,3,17,86,11
8,3,15,1,1,0,3,17,98,11
8,3,17,1,3,0,3,17,98,11
8,3,0,0,2,0,3,17,89,11
9,4,20,1,1,0,3,17,8,11
9,4,9,1,0,0,3,17,72,11
10,4,19,1,5,1,4,17,89,11
10,4,22,0,3,0,4,17,125,11
10,4,8,1,4,0,4,17,89,11
10,4,0,0,6,1,4,17,19,11
10,4,12,1,0,0,4,17,19,11
10,4,21,0,5,1,4,17,89,9
11,4,19,1,1,0,4,17,89,11
11,4,16,1,1,0,4,17,82,11
12,1,10,1,0,0,4,17,72,9
12,1,23,0,0,0,4,17,125,11
12,1,10,1,1,0,4,17,19,11
12,1,11,1,1,0,4,17,19,11
8,3,14,1,5,1,3,17,98,11
1,1,5,0,2,0,1,50,19,9
1,1,12,1,5,1,1,50,3,11
1,1,14,1,0,0,1,50,98,11
1,1,16,1,3,0,1,50,27,11
2,1,16,1,5,1,1,50,19,11
3,2,7,1,6,1,1,50,98,11
3,2,16,1,3,0,1,50,89,11
4,2,16,1,3,0,2,50,98,11
4,2,12,1,0,0,2,50,55,11
5,2,22,0,0,0,2,50,98,11
5,2,13,1,0,0,2,50,13,11
5,2,20,1,5,1,2,50,22,11
6,3,17,1,1,0,2,50,89,11
6,3,21,0,0,0,2,50,98,11
8,3,16,1,5,1,3,50,27,11
8,3,18,1,4,0,3,50,98,11
8,3,20,1,2,0,3,50,98,11
8,3,18,1,3,0,3,50,19,11
8,3,13,1,3,0,3,50,75,11
9,4,13,1,2,0,3,50,27,11
11,4,11,1,0,0,4,50,75,11
2,1,15,1,2,0,1,50,19,9
6,3,16,1,0,0,2,50,89,11
1,1,0,0,2,0,1,50,75,9
1,1,18,1,2,0,1,50,86,11
1,1,20,1,5,1,1,50,65,11
1,1,4,0,6,1,1,50,77,11
1,1,13,1,0,0,1,50,39,11
1,1,1,0,0,0,1,50,105,11
1,1,9,1,3,0,1,50,86,11
1,1,21,0,0,0,1,50,75,11
1,1,7,1,1,0,1,50,94,11
1,1,19,1,6,1,1,50,65,11
1,1,9,1,6,1,1,50,122,11
1,1,6,0,0,0,1,50,95,11
1,1,10,1,2,0,1,50,72,11
1,1,23,0,6,1,1,50,55,11
1,1,21,0,2,0,1,50,75,11
2,1,17,1,5,1,1,50,86,11
2,1,11,1,6,1,1,50,85,11
2,1,19,1,6,1,1,50,75,11
2,1,19,1,6,1,1,50,89,11
2,1,21,0,6,1,1,50,94,11
2,1,15,1,2,0,1,50,98,11
2,1,17,1,6,1,1,50,94,11
2,1,8,1,0,0,1,50,19,11
2,1,18,1,1,0,1,50,89,11
2,1,9,1,0,0,1,50,19,11
2,1,21,0,0,0,1,50,51,11
2,1,1,0,1,0,1,50,14,11
3,2,8,1,0,0,1,50,75,9
3,2,18,1,0,0,1,50,75,8
3,2,19,1,1,0,1,50,98,11
3,2,17,1,1,0,1,50,39,11
3,2,11,1,3,0,1,50,89,9
3,2,17,1,5,1,1,50,89,11
3,2,19,1,5,1,1,50,89,11
3,2,15,1,0,0,1,50,89,11
3,2,18,1,4,0,1,50,65,11
3,2,10,1,6,1,1,50,55,11
3,2,14,1,6,1,1,50,89,11
3,2,10,1,3,0,1,50,89,11
3,2,2,0,4,0,1,50,86,11
3,2,5,0,0,0,1,50,86,11
3,2,14,1,4,0,1,50,39,11
4,2,20,1,2,0,2,50,101,11
4,2,10,1,1,0,2,50,89,11
4,2,19,1,1,0,2,50,39,11
4,2,17,1,2,0,2,50,89,11
4,2,20,1,2,0,2,50,39,11
4,2,7,1,3,0,2,50,86,11
4,2,19,1,6,1,2,50,65,11
4,2,7,1,2,0,2,50,98,11
4,2,12,1,3,0,2,50,89,11
4,2,20,1,3,0,2,50,101,11
4,2,17,1,5,1,2,50,89,11
4,2,0,0,0,0,2,50,86,11
4,2,20,1,1,0,2,50,89,11
4,2,18,1,0,0,2,50,89,11
4,2,23,0,0,0,2,50,89,11
4,2,19,1,3,0,2,50,123,11
4,2,20,1,3,0,2,50,108,11
5,2,18,1,5,1,2,50,10,11
5,2,12,1,2,0,2,50,19,11
5,2,20,1,0,0,2,50,89,11
5,2,20,1,0,0,2,50,89,11
5,2,16,1,1,0,2,50,89,11
5,2,15,1,6,1,2,50,98,11
5,2,9,1,3,0,2,50,89,11
6,3,13,1,1,0,2,50,89,11
6,3,11,1,5,1,2,50,14,8
6,3,14,1,5,1,2,50,19,8
6,3,11,1,6,1,2,50,89,11
6,3,9,1,4,0,2,50,89,11
6,3,19,1,6,1,2,50,19,11
6,3,1,0,5,1,2,50,75,11
6,3,1,0,6,1,2,50,105,11
6,3,2,0,5,1,2,50,89,11
6,3,12,1,5,1,2,50,86,9
6,3,13,1,1,0,2,50,89,11
7,3,3,0,2,0,3,50,98,11
7,3,20,1,6,1,3,50,89,11
7,3,8,1,3,0,3,50,89,11
7,3,13,1,4,0,3,50,89,11
7,3,20,1,5,1,3,50,65,11
7,3,10,1,6,1,3,50,72,11
7,3,1,0,4,0,3,50,89,11
8,3,14,1,2,0,3,50,89,11
8,3,21,0,5,1,3,50,86,11
8,3,11,1,1,0,3,50,86,9
8,3,10,1,6,1,3,50,86,11
8,3,12,1,6,1,3,50,86,11
8,3,2,0,1,0,3,50,89,8
8,3,7,1,3,0,3,50,86,9
8,3,12,1,3,0,3,50,86,11
8,3,23,0,4,0,3,50,89,11
8,3,17,1,1,0,3,50,14,8
9,4,19,1,2,0,3,50,39,11
9,4,23,0,3,0,3,50,65,11
9,4,18,1,1,0,3,50,89,11
9,4,21,0,2,0,3,50,89,11
9,4,23,0,2,0,3,50,89,11
9,4,1,0,2,0,3,50,64,11
9,4,12,1,5,1,3,50,89,11
9,4,17,1,5,1,3,50,78,11
10,4,1,0,2,0,4,50,75,9
10,4,19,1,4,0,4,50,39,8
10,4,6,0,6,1,4,50,89,11
10,4,16,1,0,0,4,50,103,11
10,4,23,0,2,0,4,50,106,11
10,4,14,1,4,0,4,50,89,11
11,4,1,0,1,0,4,50,86,11
11,4,5,0,0,0,4,50,89,11
11,4,14,1,2,0,4,50,94,11
11,4,1,0,3,0,4,50,94,11
11,4,12,1,6,1,4,50,75,11
11,4,16,1,3,0,4,50,65,9
11,4,11,1,0,0,4,50,89,11
12,1,19,1,6,1,4,50,65,11
12,1,19,1,6,1,4,50,65,9
12,1,22,0,0,0,4,50,56,11
12,1,19,1,0,0,4,50,65,11
12,1,22,0,0,0,4,50,65,11
12,1,21,0,2,0,4,50,15,8
12,1,17,1,5,1,4,50,13,11
12,1,17,1,6,1,4,50,47,11
12,1,15,1,0,0,4,50,23,9
12,1,4,0,2,0,4,50,65,11
12,1,12,1,2,0,4,50,98,11
12,1,17,1,3,0,4,50,65,8
12,1,20,1,3,0,4,50,98,11
12,1,23,0,3,0,4,50,103,11
1,1,20,1,1,0,1,50,75,11
1,1,23,0,2,0,1,50,67,11
2,1,13,1,0,0,1,50,14,11
2,1,16,1,1,0,1,50,125,11
2,1,19,1,3,0,1,50,125,11
2,1,19,1,4,0,1,50,125,11
3,2,19,1,1,0,1,50,125,11
3,2,11,1,0,0,1,50,89,11
4,2,10,1,6,1,2,50,45,11
4,2,21,0,2,0,2,50,98,11
4,2,5,0,4,0,2,50,67,11
5,2,19,1,3,0,2,50,125,11
5,2,20,1,2,0,2,50,89,11
5,2,17,1,6,1,2,50,125,11
6,3,20,1,4,0,2,50,125,11
6,3,20,1,0,0,2,50,125,11
7,3,20,1,2,0,3,50,125,11
7,3,12,1,5,1,3,50,125,11
7,3,10,1,3,0,3,50,106,11
7,3,10,1,5,1,3,50,19,11
7,3,23,0,4,0,3,50,98,11
7,3,13,1,0,0,3,50,98,11
8,3,18,1,6,1,3,50,89,11
8,3,20,1,0,0,3,50,19,11
8,3,19,1,0,0,3,50,82,11
8,3,17,1,0,0,3,50,82,11
8,3,15,1,4,0,3,50,125,11
8,3,21,0,5,1,3,50,98,11
9,4,2,0,3,0,3,50,98,11
9,4,14,1,0,0,3,50,89,11
9,4,19,1,3,0,3,50,98,11
10,4,15,1,4,0,4,50,98,11
10,4,19,1,3,0,4,50,89,11
10,4,12,1,4,0,4,50,89,11
10,4,11,1,5,1,4,50,75,11
11,4,19,1,2,0,4,50,89,11
11,4,13,1,4,0,4,50,56,11
11,4,13,1,4,0,4,50,98,11
12,1,11,1,2,0,4,50,106,11
12,1,11,1,3,0,4,50,75,11
12,1,15,1,3,0,4,50,14,11
4,2,22,0,5,1,2,50,19,11
6,3,20,1,0,0,2,50,14,11
11,4,6,0,4,0,4,50,106,11
12,1,23,0,4,0,4,50,50,11
1,1,16,1,6,1,1,41,65,11
1,1,23,0,0,0,1,41,39,11
1,1,19,1,5,1,1,41,125,11
1,1,14,1,0,0,1,41,125,11
1,1,21,0,2,0,1,41,75,11
1,1,8,1,3,0,1,41,72,11
1,1,16,1,5,1,1,41,125,11
2,1,12,1,4,0,1,41,14,11
2,1,1,0,5,1,1,41,89,11
2,1,19,1,1,0,1,41,64,11
2,1,18,1,0,0,1,41,125,11
2,1,12,1,2,0,1,41,75,11
3,2,21,0,2,0,1,41,65,11
3,2,9,1,4,0,1,41,89,11
3,2,20,1,4,0,1,41,64,11
3,2,12,1,5,1,1,41,65,11
3,2,8,1,0,0,1,41,65,11
3,2,19,1,5,1,1,41,39,11
3,2,19,1,3,0,1,41,75,11
3,2,19,1,4,0,1,41,89,11
3,2,11,1,6,1,1,41,89,11
3,2,15,1,0,0,1,41,75,11
4,2,17,1,4,0,2,41,89,11
4,2,13,1,6,1,2,41,19,11
4,2,8,1,3,0,2,41,65,11
4,2,21,0,1,0,2,41,89,11
4,2,18,1,3,0,2,41,75,11
4,2,16,1,5,1,2,41,89,11
4,2,0,0,0,0,2,41,125,11
4,2,21,0,1,0,2,41,89,11
4,2,4,0,1,0,2,41,125,11
4,2,17,1,0,0,2,41,89,11
4,2,10,1,1,0,2,41,39,11
5,2,1,0,1,0,2,41,72,11
5,2,12,1,2,0,2,41,98,11
5,2,18,1,5,1,2,41,89,11
5,2,21,0,6,1,2,41,89,11
5,2,8,1,4,0,2,41,29,11
5,2,19,1,1,0,2,41,89,11
6,3,10,1,0,0,2,41,23,11
6,3,9,1,1,0,2,41,89,11
6,3,19,1,2,0,2,41,39,11
6,3,7,1,3,0,2,41,89,11
6,3,15,1,3,0,2,41,65,11
6,3,17,1,4,0,2,41,125,11
7,3,23,0,2,0,3,41,86,11
7,3,15,1,5,1,3,41,75,11
7,3,0,0,0,0,3,41,89,11
7,3,8,1,1,0,3,41,89,11
7,3,12,1,3,0,3,41,72,11
7,3,15,1,4,0,3,41,75,11
7,3,17,1,3,0,3,41,14,11
8,3,13,1,5,1,3,41,19,11
8,3,12,1,0,0,3,41,86,11
8,3,0,0,4,0,3,41,125,11
8,3,20,1,6,1,3,41,65,11
9,4,8,1,2,0,3,41,122,8
9,4,9,1,3,0,3,41,55,11
9,4,11,1,4,0,3,41,39,11
9,4,13,1,6,1,3,41,98,11
9,4,3,0,2,0,3,41,65,11
9,4,9,1,4,0,3,41,98,11
9,4,9,1,4,0,3,41,98,11
9,4,18,1,0,0,3,41,86,11
9,4,20,1,4,0,3,41,65,11
9,4,9,1,5,1,3,41,98,11
9,4,17,1,0,0,3,41,122,11
9,4,17,1,0,0,3,41,122,11
9,4,18,1,1,0,3,41,35,11
9,4,15,1,0,0,3,41,65,11
9,4,16,1,2,0,3,41,39,11
10,4,4,0,3,0,4,41,65,11
10,4,4,0,3,0,4,41,65,11
10,4,12,1,4,0,4,41,125,11
10,4,12,1,5,1,4,41,65,11
10,4,14,1,0,0,4,41,98,11
10,4,14,1,2,0,4,41,39,11
11,4,18,1,3,0,4,41,65,11
11,4,11,1,5,1,4,41,39,9
11,4,9,1,1,0,4,41,89,11
11,4,19,1,3,0,4,41,39,11
11,4,6,0,0,0,4,41,98,11
12,1,18,1,1,0,4,41,86,11
12,1,19,1,2,0,4,41,98,11
12,1,2,0,4,0,4,41,19,11
12,1,11,1,6,1,4,41,75,11
12,1,6,0,0,0,4,41,125,11
12,1,13,1,1,0,4,41,39,11
12,1,22,0,2,0,4,41,75,11
3,2,2,0,4,0,1,41,75,11
5,2,15,1,4,0,2,41,89,11
5,2,9,1,4,0,2,41,110,11
6,3,13,1,3,0,2,41,39,11
6,3,13,1,0,0,2,41,82,11
7,3,1,0,3,0,3,41,56,11
7,3,21,0,4,0,3,41,106,11
8,3,17,1,2,0,3,41,98,11
9,4,12,1,2,0,3,41,39,9
2,1,14,1,6,1,1,41,26,11
3,2,9,1,0,0,1,41,86,11
5,2,14,1,5,1,2,41,89,11
8,3,12,1,4,0,3,41,125,11
10,4,19,1,2,0,4,41,75,11
11,4,4,0,1,0,4,41,39,11
1,1,21,0,6,1,1,41,72,11
3,2,12,1,4,0,1,41,15,11
3,2,8,1,0,0,1,41,106,11
3,2,22,0,4,0,1,41,89,11
3,2,23,0,5,1,1,41,125,11
3,2,9,1,6,1,1,41,125,11
4,2,21,0,1,0,2,41,27,11
5,2,5,0,2,0,2,41,89,11
5,2,12,1,4,0,2,41,98,11
6,3,21,0,5,1,2,41,19,11
6,3,7,1,2,0,2,41,19,11
7,3,9,1,6,1,3,41,106,11
7,3,18,1,6,1,3,41,39,11
8,3,10,1,5,1,3,41,86,8
10,4,1,0,6,1,4,41,13,8
11,4,21,0,4,0,4,41,75,11
12,1,18,1,6,1,4,41,43,8
3,2,17,1,3,0,1,41,122,11
6,3,8,1,5,1,2,41,75,11
8,3,3,0,2,0,3,41,122,11
8,3,18,1,0,0,3,41,27,11
8,3,11,1,0,0,3,41,122,11
8,3,20,1,0,0,3,41,98,11
9,4,9,1,2,0,3,41,27,11
9,4,6,0,5,1,3,41,106,11
2,1,15,1,5,1,1,41,75,11
3,2,23,0,3,0,1,41,89,11
5,2,0,0,5,1,2,41,72,11
8,3,2,0,0,0,3,41,125,11
8,3,19,1,0,0,3,41,27,11
9,4,9,1,5,1,3,41,39,11
9,4,9,1,5,1,3,41,98,11
9,4,9,1,5,1,3,41,98,11
9,4,9,1,5,1,3,41,89,11
9,4,13,1,0,0,3,41,125,11
9,4,13,1,0,0,3,41,13,11
10,4,18,1,4,0,4,41,98,11
10,4,12,1,4,0,4,41,98,11
10,4,10,1,4,0,4,41,89,11
11,4,22,0,4,0,4,41,98,11
1,1,15,1,6,1,1,41,47,11
2,1,0,0,1,0,1,41,96,11
3,2,11,1,5,1,1,41,75,11
5,2,20,1,2,0,2,41,98,11
7,3,19,1,4,0,3,41,98,11
7,3,20,1,4,0,3,41,98,11
8,3,20,1,5,1,3,41,98,11
8,3,16,1,2,0,3,41,125,11
8,3,9,1,5,1,3,41,98,11
1,1,11,1,5,1,1,32,112,11
1,1,23,0,3,0,1,32,89,11
1,1,12,1,3,0,1,32,89,11
1,1,2,0,5,1,1,32,19,11
1,1,11,1,4,0,1,32,47,11
2,1,18,1,2,0,1,32,125,11
3,2,11,1,1,0,1,32,89,11
3,2,19,1,2,0,1,32,65,11
3,2,18,1,3,0,1,32,89,11
3,2,19,1,3,0,1,32,106,11
4,2,0,0,6,1,2,32,89,11
4,2,20,1,4,0,2,32,89,11
5,2,7,1,5,1,2,32,19,11
5,2,19,1,5,1,2,32,89,11
5,2,8,1,0,0,2,32,75,11
5,2,19,1,6,1,2,32,89,11
5,2,16,1,0,0,2,32,125,11
5,2,23,0,5,1,2,32,72,8
5,2,15,1,5,1,2,32,98,11
6,3,0,0,1,0,2,32,89,11
6,3,2,0,6,1,2,32,125,11
6,3,17,1,0,0,2,32,125,11
7,3,0,0,0,0,3,32,14,11
8,3,13,1,6,1,3,32,72,11
8,3,21,0,6,1,3,32,75,11
8,3,9,1,4,0,3,32,89,11
8,3,13,1,0,0,3,32,89,11
8,3,0,0,4,0,3,32,89,11
9,4,16,1,4,0,3,32,89,11
9,4,17,1,4,0,3,32,65,11
10,4,10,1,6,1,4,32,125,11
10,4,1,0,6,1,4,32,71,9
10,4,20,1,0,0,4,32,65,11
10,4,8,1,6,1,4,32,79,9
11,4,12,1,5,1,4,32,65,11
11,4,16,1,3,0,4,32,19,11
12,1,18,1,5,1,4,32,75,11
12,1,8,1,3,0,4,32,89,11
1,1,2,0,3,0,1,32,39,9
1,1,11,1,1,0,1,32,65,11
1,1,17,1,1,0,1,32,65,9
2,1,11,1,6,1,1,32,19,9
2,1,11,1,1,0,1,32,14,9
4,2,14,1,1,0,2,32,89,11
5,2,4,0,6,1,2,32,75,11
6,3,11,1,0,0,2,32,65,11
7,3,8,1,5,1,3,32,31,8
7,3,21,0,5,1,3,32,86,11
8,3,22,0,4,0,3,32,72,11
8,3,14,1,5,1,3,32,13,11
9,4,21,0,3,0,3,32,13,11
10,4,15,1,0,0,4,32,72,11
11,4,19,1,3,0,4,32,75,11
12,1,20,1,3,0,4,32,39,11
3,2,16,1,1,0,1,32,65,11
4,2,19,1,5,1,2,32,65,11
4,2,12,1,2,0,2,32,86,11
5,2,1,0,6,1,2,32,86,11
5,2,2,0,0,0,2,32,72,11
5,2,3,0,1,0,2,32,86,11
8,3,12,1,6,1,3,32,75,9
8,3,11,1,6,1,3,32,65,11
8,3,3,0,1,0,3,32,72,11
8,3,15,1,5,1,3,32,98,11
9,4,22,0,1,0,3,32,89,11
10,4,18,1,5,1,4,32,89,11
10,4,18,1,3,0,4,32,72,11
11,4,18,1,4,0,4,32,86,11
11,4,21,0,2,0,4,32,98,11
12,1,5,0,5,1,4,32,86,11
12,1,10,1,3,0,4,32,86,9
1,1,2,0,2,0,1,24,75,11
1,1,9,1,5,1,1,24,75,11
1,1,18,1,0,0,1,24,75,11
1,1,11,1,2,0,1,24,75,11
2,1,7,1,2,0,1,24,106,11
3,2,9,1,5,1,1,24,75,11
4,2,20,1,0,0,2,24,75,11
4,2,21,0,2,0,2,24,125,11
7,3,20,1,0,0,3,24,39,9
8,3,2,0,6,1,3,24,106,11
9,4,13,1,4,0,3,24,106,11
10,4,0,0,6,1,4,24,125,11
11,4,8,1,4,0,4,24,89,11
12,1,2,0,4,0,4,24,106,11
12,1,17,1,3,0,4,24,75,11
1,1,21,0,1,0,1,24,75,11
2,1,16,1,2,0,1,24,75,11
2,1,15,1,6,1,1,24,125,11
2,1,15,1,6,1,1,24,125,11
3,2,17,1,2,0,1,24,125,11
4,2,20,1,4,0,2,24,75,11
5,2,20,1,6,1,2,24,89,11
8,3,19,1,5,1,3,24,14,11
8,3,18,1,2,0,3,24,89,11
9,4,19,1,6,1,3,24,106,11
9,4,3,0,6,1,3,24,125,11
11,4,17,1,3,0,4,24,125,11
5,2,19,1,0,0,2,24,125,11
5,2,11,1,2,0,2,24,82,11
7,3,11,1,2,0,3,24,20,9
9,4,4,0,3,0,3,24,125,11
1,1,13,1,2,0,1,24,39,11
1,1,1,0,3,0,1,24,75,11
1,1,19,1,5,1,1,24,39,11
1,1,6,0,6,1,1,24,99,8
1,1,19,1,2,0,1,24,75,8
1,1,20,1,0,0,1,24,89,11
1,1,21,0,1,0,1,24,75,9
1,1,20,1,4,0,1,24,65,11
1,1,21,0,6,1,1,24,125,11
1,1,21,0,2,0,1,24,125,11
1,1,10,1,4,0,1,24,15,11
1,1,15,1,5,1,1,24,75,11
1,1,10,1,1,0,1,24,125,11
2,1,18,1,1,0,1,24,125,11
2,1,11,1,5,1,1,24,125,11
2,1,12,1,5,1,1,24,75,11
2,1,2,0,0,0,1,24,103,11
2,1,18,1,4,0,1,24,75,11
2,1,17,1,1,0,1,24,65,11
3,2,15,1,0,0,1,24,75,11
3,2,2,0,2,0,1,24,50,11
3,2,20,1,5,1,1,24,125,11
3,2,7,1,0,0,1,24,19,9
3,2,21,0,0,0,1,24,75,11
3,2,18,1,6,1,1,24,125,11
3,2,12,1,1,0,1,24,89,11
3,2,9,1,2,0,1,24,125,11
3,2,9,1,2,0,1,24,89,11
3,2,9,1,1,0,1,24,39,11
4,2,23,0,2,0,2,24,75,8
4,2,20,1,0,0,2,24,125,11
4,2,17,1,2,0,2,24,65,11
4,2,21,0,5,1,2,24,19,11
4,2,0,0,6,1,2,24,65,11
5,2,3,0,5,1,2,24,125,11
5,2,18,1,2,0,2,24,39,11
5,2,2,0,3,0,2,24,56,11
6,3,15,1,4,0,2,24,72,11
7,3,14,1,3,0,3,24,115,9
7,3,22,0,4,0,3,24,89,11
7,3,12,1,6,1,3,24,39,11
7,3,20,1,2,0,3,24,14,11
7,3,11,1,4,0,3,24,65,11
7,3,20,1,0,0,3,24,71,8
7,3,11,1,4,0,3,24,39,11
7,3,23,0,1,0,3,24,19,11
8,3,11,1,2,0,3,24,86,11
8,3,10,1,3,0,3,24,125,11
8,3,15,1,5,1,3,24,14,9
8,3,5,0,5,1,3,24,65,11
8,3,10,1,3,0,3,24,125,11
9,4,16,1,5,1,3,24,19,11
9,4,22,0,1,0,3,24,82,11
9,4,22,0,1,0,3,24,86,11
9,4,10,1,4,0,3,24,89,11
9,4,23,0,6,1,3,24,105,11
9,4,3,0,3,0,3,24,86,11
10,4,18,1,3,0,4,24,65,11
10,4,23,0,3,0,4,24,125,11
10,4,22,0,4,0,4,24,125,11
10,4,19,1,4,0,4,24,125,11
10,4,19,1,3,0,4,24,106,11
10,4,0,0,6,1,4,24,125,11
10,4,1,0,3,0,4,24,42,11
10,4,7,1,6,1,4,24,106,11
10,4,20,1,3,0,4,24,39,11
11,4,15,1,6,1,4,24,72,8
11,4,21,0,6,1,4,24,3,11
11,4,15,1,3,0,4,24,75,11
11,4,20,1,5,1,4,24,89,11
11,4,2,0,6,1,4,24,89,11
11,4,21,0,3,0,4,24,65,11
11,4,17,1,5,1,4,24,125,11
11,4,19,1,0,0,4,24,75,9
11,4,20,1,0,0,4,24,75,9
12,1,10,1,2,0,4,24,120,11
12,1,10,1,4,0,4,24,125,11
12,1,8,1,2,0,4,24,75,9
12,1,15,1,2,0,4,24,125,11
12,1,18,1,4,0,4,24,75,11
12,1,21,0,5,1,4,24,125,11
1,1,14,1,2,0,1,34,94,11
1,1,18,1,2,0,1,1,56,11
1,1,0,0,4,0,1,34,94,11
1,1,13,1,5,1,1,34,125,11
1,1,20,1,0,0,1,1,98,11
1,1,14,1,1,0,1,34,94,11
1,1,19,1,1,0,1,34,94,11
1,1,14,1,3,0,1,34,39,11
1,1,8,1,4,0,1,34,94,11
1,1,22,0,0,0,1,34,98,11
2,1,23,0,3,0,1,34,39,8
2,1,4,0,6,1,1,34,65,11
2,1,19,1,0,0,1,34,94,11
2,1,20,1,0,0,1,34,94,11
2,1,19,1,1,0,1,34,94,11
3,2,19,1,1,0,1,1,98,11
3,2,17,1,1,0,1,34,98,11
3,2,11,1,4,0,1,34,89,11
3,2,18,1,5,1,1,34,89,11
3,2,13,1,3,0,1,34,89,11
4,2,8,1,1,0,2,34,89,11
4,2,20,1,4,0,2,34,75,11
4,2,0,0,6,1,2,34,89,9
4,2,1,0,6,1,2,34,94,11
4,2,21,0,4,0,2,1,3,11
4,2,19,1,3,0,2,34,89,11
5,2,16,1,5,1,2,34,89,11
5,2,21,0,2,0,2,34,94,11
5,2,23,0,3,0,2,34,89,11
5,2,12,1,6,1,2,34,106,11
6,3,16,1,0,0,2,34,27,11
6,3,18,1,4,0,2,34,98,11
6,3,18,1,5,1,2,34,19,11
6,3,12,1,5,1,2,34,94,11
7,3,20,1,2,0,3,34,20,11
7,3,11,1,0,0,3,34,86,11
7,3,11,1,6,1,3,34,89,11
8,3,21,0,5,1,3,34,65,11
8,3,15,1,0,0,3,34,38,11
9,4,11,1,5,1,3,34,89,11
9,4,20,1,5,1,3,1,89,11
9,4,14,1,6,1,3,1,97,9
9,4,10,1,5,1,3,34,19,11
9,4,20,1,1,0,3,1,98,11
9,4,11,1,3,0,3,34,3,11
9,4,19,1,3,0,3,1,106,11
9,4,18,1,3,0,3,1,106,11
10,4,15,1,0,0,4,1,19,11
10,4,16,1,4,0,4,1,89,11
10,4,0,0,2,0,4,1,98,11
11,4,1,0,2,0,4,1,89,9
11,4,12,1,1,0,4,34,98,11
11,4,11,1,3,0,4,34,98,11
11,4,19,1,2,0,4,34,94,11
11,4,9,1,3,0,4,34,94,11
11,4,17,1,3,0,4,1,98,11
11,4,10,1,5,1,4,1,89,11
11,4,12,1,5,1,4,34,89,11
11,4,8,1,2,0,4,34,89,11
11,4,16,1,2,0,4,34,89,9
11,4,16,1,4,0,4,34,94,11
12,1,10,1,6,1,4,34,98,11
12,1,18,1,4,0,4,34,75,11
12,1,19,1,1,0,4,34,98,11
12,1,6,0,2,0,4,34,98,11
1,1,13,1,6,1,1,34,106,11
2,1,16,1,6,1,1,34,98,11
3,2,18,1,6,1,1,34,3,11
4,2,13,1,4,0,2,34,89,11
7,3,19,1,3,0,3,34,47,11
1,1,0,0,4,0,1,25,75,11
1,1,18,1,3,0,1,25,89,11
1,1,13,1,0,0,1,25,19,9
2,1,19,1,4,0,1,25,67,9
2,1,15,1,6,1,1,25,86,11
2,1,10,1,0,0,1,25,75,11
2,1,17,1,1,0,1,25,86,11
3,2,18,1,5,1,1,25,23,11
3,2,18,1,0,0,1,25,75,11
3,2,20,1,5,1,1,25,39,11
3,2,16,1,0,0,1,25,89,11
3,2,18,1,4,0,1,25,75,11
4,2,15,1,4,0,2,25,89,11
4,2,11,1,4,0,2,25,75,11
5,2,20,1,3,0,2,25,89,11
5,2,10,1,3,0,2,25,89,11
5,2,9,1,3,0,2,25,89,11
5,2,11,1,6,1,2,25,98,11
5,2,18,1,0,0,2,25,19,11
5,2,13,1,1,0,2,25,19,11
6,3,1,0,4,0,2,25,86,11
6,3,3,0,2,0,2,25,19,11
6,3,10,1,0,0,2,25,98,11
6,3,18,1,2,0,2,25,89,11
6,3,0,0,2,0,2,25,30,11
6,3,23,0,3,0,2,25,14,11
7,3,14,1,3,0,3,25,75,11
8,3,15,1,2,0,3,25,106,11
8,3,15,1,4,0,3,25,65,11
8,3,20,1,4,0,3,25,9,11
8,3,11,1,5,1,3,25,125,11
8,3,9,1,3,0,3,25,125,11
8,3,13,1,6,1,3,25,125,11
9,4,8,1,3,0,3,25,106,11
9,4,11,1,3,0,3,25,1,11
9,4,8,1,4,0,3,25,125,11
10,4,21,0,5,1,4,25,125,11
11,4,16,1,6,1,4,25,115,11
11,4,15,1,1,0,4,25,19,11
11,4,16,1,6,1,4,25,75,11
11,4,18,1,6,1,4,25,75,11
11,4,12,1,4,0,4,25,125,11
12,1,11,1,6,1,4,25,89,11
12,1,18,1,3,0,4,25,39,11
1,1,13,1,1,0,1,25,86,11
4,2,21,0,2,0,2,25,19,11
7,3,13,1,2,0,3,25,49,11
8,3,20,1,5,1,3,25,106,11
8,3,20,1,5,1,3,25,106,11
9,4,19,1,1,0,3,25,86,11
9,4,14,1,2,0,3,25,86,11
9,4,15,1,0,0,3,25,125,11
10,4,20,1,3,0,4,25,86,11
11,4,17,1,6,1,4,25,9,11
11,4,19,1,3,0,4,25,86,11
12,1,0,0,4,0,4,25,86,11
3,2,18,1,2,0,1,25,86,11
4,2,4,0,3,0,2,25,106,11
7,3,12,1,1,0,3,25,106,11
9,4,16,1,3,0,3,25,106,11
2,1,3,0,0,0,1,25,78,8
3,2,20,1,4,0,1,25,75,11
3,2,14,1,6,1,1,25,86,11
6,3,17,1,3,0,2,25,89,11
6,3,16,1,6,1,2,25,8,11
7,3,11,1,3,0,3,25,89,11
10,4,16,1,5,1,4,25,86,11
10,4,13,1,3,0,4,25,98,11
1,1,15,1,3,0,1,14,89,11
1,1,12,1,4,0,1,14,3,11
1,1,15,1,1,0,1,14,98,11
1,1,16,1,2,0,1,14,125,11
1,1,9,1,3,0,1,14,3,11
1,1,11,1,3,0,1,14,125,11
1,1,13,1,3,0,1,14,125,11
1,1,15,1,4,0,1,14,89,11
1,1,18,1,4,0,1,14,67,11
1,1,19,1,4,0,1,14,89,11
2,1,22,0,4,0,1,14,75,11
2,1,5,0,6,1,1,14,75,11
2,1,5,0,2,0,1,14,12,11
2,1,18,1,3,0,1,14,89,11
2,1,17,1,1,0,1,14,86,11
2,1,12,1,2,0,1,14,89,11
2,1,10,1,4,0,1,14,79,11
3,2,5,0,6,1,1,14,98,11
3,2,23,0,1,0,1,14,122,11
3,2,16,1,3,0,1,14,89,11
3,2,10,1,3,0,1,14,98,11
3,2,13,1,6,1,1,14,89,11
3,2,13,1,0,0,1,14,89,11
3,2,20,1,4,0,1,14,98,11
3,2,0,0,6,1,1,14,75,11
3,2,11,1,1,0,1,14,125,11
4,2,10,1,2,0,2,14,75,11
4,2,15,1,0,0,2,14,125,11
4,2,17,1,0,0,2,14,55,11
4,2,18,1,0,0,2,14,98,11
4,2,20,1,0,0,2,14,75,11
4,2,14,1,1,0,2,14,55,11
4,2,20,1,2,0,2,14,75,11
5,2,12,1,5,1,2,14,89,11
5,2,18,1,5,1,2,14,89,11
5,2,20,1,6,1,2,14,98,11
5,2,14,1,0,0,2,14,98,11
5,2,20,1,1,0,2,14,89,11
5,2,12,1,2,0,2,14,89,11
5,2,20,1,2,0,2,14,89,11
5,2,8,1,2,0,2,14,89,11
5,2,20,1,4,0,2,14,75,11
5,2,20,1,5,1,2,14,89,11
5,2,21,0,6,1,2,14,98,11
5,2,18,1,4,0,2,14,89,11
5,2,18,1,5,1,2,14,89,11
5,2,14,1,6,1,2,14,98,11
5,2,21,0,2,0,2,14,89,11
5,2,13,1,4,0,2,14,75,11
5,2,11,1,4,0,2,14,89,11
5,2,11,1,6,1,2,14,89,11
6,3,8,1,2,0,2,14,89,11
6,3,23,0,6,1,2,14,125,11
6,3,12,1,0,0,2,14,125,11
6,3,18,1,0,0,2,14,89,11
6,3,21,0,0,0,2,14,3,11
6,3,18,1,1,0,2,14,89,11
6,3,8,1,2,0,2,14,89,11
6,3,1,0,6,1,2,14,125,11
6,3,13,1,0,0,2,14,98,11
6,3,23,0,0,0,2,14,89,11
6,3,12,1,0,0,2,14,89,11
6,3,10,1,1,0,2,14,89,11
6,3,20,1,2,0,2,14,89,11
6,3,21,0,2,0,2,14,89,11
6,3,19,1,3,0,2,14,89,11
6,3,6,0,5,1,2,14,89,11
6,3,17,1,5,1,2,14,89,11
7,3,13,1,3,0,3,14,98,11
7,3,0,0,5,1,3,14,98,11
7,3,7,1,6,1,3,14,89,11
7,3,20,1,6,1,3,14,89,11
7,3,3,0,1,0,3,14,125,11
7,3,5,0,2,0,3,14,98,11
7,3,9,1,5,1,3,14,89,11
7,3,23,0,6,1,3,14,98,11
7,3,16,1,0,0,3,14,69,11
7,3,21,0,3,0,3,14,14,11
7,3,12,1,5,1,3,14,87,11
7,3,9,1,5,1,3,14,89,11
7,3,12,1,6,1,3,14,47,11
7,3,22,0,1,0,3,14,98,11
7,3,13,1,1,0,3,14,13,11
7,3,19,1,2,0,3,14,26,11
8,3,15,1,5,1,3,14,89,11
8,3,11,1,6,1,3,14,75,11
8,3,23,0,3,0,3,14,106,11
8,3,16,1,6,1,3,14,89,11
8,3,9,1,0,0,3,14,89,11
8,3,11,1,1,0,3,14,89,11
8,3,21,0,1,0,3,14,89,11
8,3,10,1,2,0,3,14,89,11
8,3,17,1,2,0,3,14,86,11
8,3,1,0,4,0,3,14,75,8
8,3,23,0,5,1,3,14,82,11
8,3,17,1,1,0,3,14,68,11
8,3,8,1,2,0,3,14,89,11
8,3,16,1,2,0,3,14,98,11
8,3,8,1,3,0,3,14,98,11
8,3,16,1,6,1,3,14,98,11
8,3,20,1,3,0,3,14,125,11
9,4,15,1,5,1,3,14,86,11
9,4,9,1,2,0,3,14,98,11
9,4,19,1,1,0,3,14,89,11
9,4,18,1,1,0,3,14,89,11
9,4,20,1,3,0,3,14,86,11
9,4,22,0,3,0,3,14,86,11
9,4,15,1,3,0,3,14,86,11
9,4,22,0,4,0,3,14,3,11
9,4,14,1,5,1,3,14,89,11
9,4,17,1,5,1,3,14,27,11
9,4,10,1,5,1,3,14,89,11
9,4,11,1,6,1,3,14,3,11
9,4,14,1,6,1,3,14,3,11
9,4,16,1,6,1,3,14,27,11
9,4,9,1,0,0,3,14,98,11
9,4,1,0,1,0,3,14,86,11
9,4,21,0,1,0,3,14,98,11
9,4,18,1,6,1,3,14,89,11
10,4,19,1,3,0,4,14,19,11
10,4,19,1,3,0,4,14,89,11
10,4,11,1,5,1,4,14,89,11
10,4,21,0,0,0,4,14,89,11
10,4,18,1,5,1,4,14,89,11
10,4,14,1,6,1,4,14,89,11
10,4,10,1,6,1,4,14,89,11
10,4,23,0,1,0,4,14,89,11
10,4,12,1,2,0,4,14,89,11
10,4,12,1,3,0,4,14,89,11
10,4,5,0,3,0,4,14,125,11
10,4,10,1,5,1,4,14,89,11
10,4,10,1,6,1,4,14,89,11
10,4,16,1,0,0,4,14,89,11
10,4,16,1,5,1,4,14,89,11
11,4,19,1,6,1,4,14,3,11
11,4,18,1,6,1,4,14,89,11
11,4,13,1,3,0,4,14,89,11
11,4,15,1,6,1,4,14,89,11
11,4,15,1,6,1,4,14,89,11
11,4,0,0,0,0,4,14,89,11
11,4,2,0,1,0,4,14,89,11
11,4,20,1,1,0,4,14,125,11
11,4,20,1,3,0,4,14,89,11
11,4,9,1,5,1,4,14,98,11
11,4,14,1,5,1,4,14,89,11
11,4,17,1,5,1,4,14,3,11
11,4,15,1,6,1,4,14,89,11
11,4,20,1,6,1,4,14,27,11
11,4,14,1,0,0,4,14,89,11
11,4,13,1,5,1,4,14,89,11
11,4,12,1,6,1,4,14,89,11
11,4,17,1,6,1,4,14,98,11
11,4,19,1,1,0,4,14,75,11
11,4,14,1,2,0,4,14,55,11
11,4,2,0,3,0,4,14,75,11
11,4,19,1,4,0,4,14,75,11
11,4,16,1,5,1,4,14,125,11
12,1,10,1,3,0,4,14,98,11
12,1,11,1,4,0,4,14,82,11
12,1,21,0,4,0,4,14,106,11
12,1,11,1,2,0,4,14,89,11
2,1,14,1,6,1,1,14,125,11
3,2,12,1,1,0,1,14,125,11
3,2,11,1,4,0,1,14,98,11
4,2,12,1,0,0,2,14,98,11
7,3,12,1,3,0,3,14,86,11
9,4,20,1,1,0,3,14,106,11
