@Relation urban_new_2023_fold9_train

@ATTRIBUTE f1_minas          NUMERIC  % Μήνας (1-12)
@ATTRIBUTE f2_epochi         NUMERIC  % Εποχή (1=Χειμ 2=Άνοιξ 3=Καλοκ 4=Φθιν)
@ATTRIBUTE f3_ora            NUMERIC  % Ώρα ημέρας (0-23)
@ATTRIBUTE f4_mera_nyxta     NUMERIC  % Μέρα=1 Νύχτα=0
@ATTRIBUTE f5_imera_evdom    NUMERIC  % Ημέρα εβδομάδας (0=Δευτ 6=Κυρ)
@ATTRIBUTE f6_savvatokyriako NUMERIC  % Σαββ/κο=1 Καθημ=0
@ATTRIBUTE f7_trimino        NUMERIC  % Τρίμηνο (1-4)
@ATTRIBUTE f8_nomos          NUMERIC  % Κωδικός Νομού
@ATTRIBUTE f9_typos_xorou    NUMERIC  % Κωδικός τύπου χώρου
@ATTRIBUTE class             {8,9,11} % 8=Μεγάλη 9=Μεσαία 11=Μικρή

@DATA
1,1,14,1,6,1,1,5,124,9
1,1,20,1,3,0,1,5,103,11
1,1,0,0,0,0,1,5,103,11
1,1,15,1,3,0,1,5,103,11
1,1,9,1,6,1,1,5,93,11
1,1,22,0,0,0,1,5,79,11
2,1,18,1,6,1,1,5,93,11
2,1,22,0,6,1,1,5,66,9
3,2,19,1,0,0,1,5,93,11
3,2,17,1,2,0,1,5,93,11
3,2,0,0,3,0,1,5,93,11
3,2,12,1,6,1,1,5,93,11
3,2,10,1,0,0,1,5,111,11
3,2,12,1,3,0,1,5,93,11
4,2,12,1,2,0,2,5,103,11
4,2,12,1,3,0,2,5,93,11
4,2,11,1,3,0,2,5,103,11
4,2,2,0,6,1,2,5,103,11
4,2,1,0,4,0,2,5,93,11
4,2,12,1,4,0,2,5,103,11
4,2,11,1,1,0,2,5,93,11
4,2,22,0,1,0,2,5,90,11
4,2,13,1,4,0,2,5,90,11
4,2,14,1,5,1,2,5,93,11
4,2,10,1,5,1,2,5,93,11
4,2,20,1,6,1,2,5,93,11
4,2,19,1,2,0,2,5,35,11
4,2,13,1,6,1,2,5,127,11
5,2,15,1,2,0,2,5,127,11
5,2,9,1,3,0,2,5,79,11
5,2,22,0,4,0,2,5,35,11
6,3,7,1,4,0,2,5,103,11
6,3,0,0,3,0,2,5,67,8
7,3,17,1,1,0,3,5,90,11
8,3,23,0,5,1,3,5,112,11
8,3,9,1,5,1,3,5,103,11
8,3,20,1,2,0,3,5,90,11
8,3,14,1,3,0,3,5,63,11
9,4,12,1,5,1,3,5,93,11
9,4,12,1,5,1,3,5,4,11
11,4,11,1,5,1,4,5,93,11
11,4,16,1,4,0,4,5,93,11
11,4,12,1,5,1,4,5,103,11
11,4,18,1,0,0,4,5,103,11
11,4,6,0,3,0,4,5,93,11
11,4,14,1,4,0,4,5,93,11
11,4,18,1,4,0,4,5,93,11
11,4,10,1,0,0,4,5,93,11
12,1,17,1,3,0,4,5,93,11
12,1,16,1,5,1,4,5,103,11
3,2,9,1,1,0,1,5,21,11
3,2,18,1,4,0,1,5,8,11
7,3,15,1,2,0,3,5,5,11
8,3,17,1,2,0,3,5,109,11
9,4,4,0,3,0,3,5,109,11
10,4,9,1,3,0,4,5,8,11
10,4,14,1,2,0,4,5,109,11
11,4,15,1,3,0,4,5,15,11
12,1,0,0,0,0,4,5,21,11
12,1,17,1,0,0,4,5,21,11
12,1,13,1,6,1,4,5,8,11
1,1,21,0,6,1,1,5,90,11
1,1,10,1,6,1,1,5,38,8
1,1,16,1,0,0,1,5,67,11
1,1,4,0,0,0,1,5,98,11
1,1,3,0,0,0,1,5,90,11
1,1,17,1,0,0,1,5,90,11
1,1,14,1,0,0,1,5,35,11
1,1,2,0,0,0,1,5,90,11
1,1,1,0,0,0,1,5,98,11
1,1,2,0,0,0,1,5,90,11
1,1,16,1,1,0,1,5,90,11
1,1,3,0,2,0,1,5,90,11
1,1,23,0,3,0,1,5,67,11
1,1,6,0,3,0,1,5,90,11
1,1,20,1,6,1,1,5,21,11
1,1,5,0,0,0,1,5,67,11
1,1,1,0,0,0,1,5,93,11
1,1,13,1,0,0,1,5,48,11
1,1,10,1,3,0,1,5,90,11
1,1,23,0,5,1,1,5,90,11
1,1,19,1,5,1,1,5,90,11
1,1,19,1,6,1,1,5,90,11
1,1,22,0,6,1,1,5,76,11
1,1,5,0,1,0,1,5,67,11
1,1,20,1,1,0,1,5,90,11
1,1,15,1,1,0,1,5,67,11
1,1,13,1,3,0,1,5,67,11
1,1,0,0,4,0,1,5,67,11
1,1,11,1,4,0,1,5,66,11
1,1,21,0,5,1,1,5,90,11
1,1,11,1,5,1,1,5,90,11
1,1,2,0,0,0,1,5,55,11
1,1,2,0,1,0,1,5,90,11
1,1,10,1,2,0,1,5,67,11
1,1,20,1,3,0,1,5,67,11
1,1,18,1,4,0,1,5,67,11
1,1,18,1,5,1,1,5,67,11
1,1,16,1,5,1,1,5,80,11
1,1,7,1,1,0,1,5,90,11
2,1,9,1,2,0,1,5,93,11
2,1,0,0,3,0,1,5,90,11
2,1,21,0,3,0,1,5,76,11
2,1,19,1,3,0,1,5,67,11
2,1,14,1,3,0,1,5,98,9
2,1,20,1,4,0,1,5,32,11
2,1,22,0,5,1,1,5,98,11
2,1,16,1,1,0,1,5,11,11
2,1,16,1,2,0,1,5,67,11
2,1,0,0,2,0,1,5,90,11
2,1,22,0,4,0,1,5,67,11
2,1,20,1,5,1,1,5,90,11
2,1,14,1,5,1,1,5,98,11
2,1,12,1,6,1,1,5,67,11
2,1,23,0,0,0,1,5,11,11
2,1,20,1,1,0,1,5,93,11
2,1,0,0,2,0,1,5,98,11
2,1,5,0,2,0,1,5,90,11
2,1,21,0,3,0,1,5,67,11
2,1,3,0,4,0,1,5,90,11
2,1,4,0,6,1,1,5,90,11
2,1,17,1,6,1,1,5,90,11
2,1,20,1,1,0,1,5,90,11
2,1,2,0,1,0,1,5,98,11
2,1,16,1,1,0,1,5,21,11
2,1,20,1,5,1,1,5,90,11
2,1,12,1,5,1,1,5,98,11
2,1,2,0,6,1,1,5,90,11
2,1,9,1,6,1,1,5,90,11
2,1,2,0,0,0,1,5,90,11
2,1,20,1,0,0,1,5,67,11
2,1,6,0,0,0,1,5,90,11
3,2,18,1,2,0,1,5,90,11
3,2,19,1,2,0,1,5,90,11
3,2,19,1,2,0,1,5,90,11
3,2,19,1,2,0,1,5,90,11
3,2,4,0,3,0,1,5,90,11
3,2,10,1,3,0,1,5,90,11
3,2,19,1,4,0,1,5,98,11
3,2,23,0,5,1,1,5,90,11
3,2,20,1,6,1,1,5,90,11
3,2,18,1,2,0,1,5,101,11
3,2,18,1,2,0,1,5,90,11
3,2,5,0,2,0,1,5,15,8
3,2,16,1,2,0,1,5,10,11
3,2,22,0,4,0,1,5,67,11
3,2,4,0,4,0,1,5,67,11
3,2,2,0,4,0,1,5,90,11
3,2,3,0,4,0,1,5,90,11
3,2,11,1,4,0,1,5,90,11
3,2,19,1,4,0,1,5,10,11
3,2,4,0,5,1,1,5,90,11
3,2,23,0,5,1,1,5,90,11
3,2,13,1,6,1,1,5,48,11
3,2,6,0,6,1,1,5,90,11
3,2,6,0,6,1,1,5,90,11
3,2,12,1,6,1,1,5,90,11
3,2,15,1,2,0,1,5,10,11
3,2,16,1,3,0,1,5,98,11
3,2,22,0,3,0,1,5,11,11
3,2,13,1,3,0,1,5,90,11
3,2,13,1,3,0,1,5,90,11
3,2,13,1,3,0,1,5,90,11
3,2,6,0,3,0,1,5,60,8
3,2,1,0,4,0,1,5,21,11
3,2,15,1,5,1,1,5,90,11
3,2,3,0,6,1,1,5,98,11
3,2,0,0,3,0,1,5,11,11
3,2,22,0,3,0,1,5,90,11
3,2,2,0,4,0,1,5,67,11
3,2,22,0,5,1,1,5,90,11
3,2,11,1,6,1,1,5,90,11
3,2,10,1,6,1,1,5,90,11
3,2,10,1,6,1,1,5,90,11
3,2,10,1,6,1,1,5,90,11
3,2,10,1,0,0,1,5,67,11
3,2,2,0,2,0,1,5,67,11
3,2,10,1,3,0,1,5,67,11
3,2,21,0,3,0,1,5,90,11
3,2,1,0,3,0,1,5,21,8
3,2,1,0,4,0,1,5,90,11
4,2,14,1,5,1,2,5,67,11
4,2,22,0,5,1,2,5,11,11
4,2,13,1,5,1,2,5,48,11
4,2,20,1,5,1,2,5,125,11
4,2,3,0,5,1,2,5,21,11
4,2,0,0,0,0,2,5,90,11
4,2,3,0,0,0,2,5,90,11
4,2,13,1,0,0,2,5,90,11
4,2,4,0,1,0,2,5,90,11
4,2,22,0,2,0,2,5,90,11
4,2,15,1,2,0,2,5,90,11
4,2,17,1,5,1,2,5,93,11
4,2,21,0,6,1,2,5,90,11
4,2,2,0,6,1,2,5,90,11
4,2,21,0,0,0,2,5,79,11
4,2,21,0,0,0,2,5,10,11
4,2,0,0,2,0,2,5,98,11
4,2,19,1,4,0,2,5,58,11
4,2,4,0,4,0,2,5,90,11
4,2,20,1,5,1,2,5,67,11
4,2,8,1,6,1,2,5,90,11
4,2,6,0,0,0,2,5,10,8
4,2,16,1,3,0,2,5,67,11
4,2,21,0,4,0,2,5,67,11
4,2,3,0,6,1,2,5,90,11
4,2,1,0,6,1,2,5,90,11
5,2,22,0,0,0,2,5,98,11
5,2,4,0,5,1,2,5,90,11
5,2,23,0,5,1,2,5,90,11
5,2,5,0,5,1,2,5,10,11
5,2,6,0,6,1,2,5,10,11
5,2,4,0,6,1,2,5,90,11
5,2,3,0,6,1,2,5,90,11
5,2,0,0,6,1,2,5,90,11
5,2,17,1,0,0,2,5,67,11
5,2,14,1,1,0,2,5,58,11
5,2,14,1,2,0,2,5,90,11
5,2,5,0,3,0,2,5,67,11
5,2,5,0,6,1,2,5,90,11
5,2,5,0,0,0,2,5,21,11
5,2,23,0,4,0,2,5,90,11
5,2,23,0,6,1,2,5,90,11
5,2,16,1,0,0,2,5,90,11
5,2,11,1,0,0,2,5,48,11
5,2,2,0,5,1,2,5,90,11
5,2,23,0,6,1,2,5,90,11
5,2,1,0,0,0,2,5,90,11
5,2,1,0,1,0,2,5,58,11
5,2,22,0,1,0,2,5,90,11
6,3,3,0,6,1,2,5,90,11
6,3,21,0,6,1,2,5,10,11
6,3,9,1,6,1,2,5,21,11
6,3,12,1,0,0,2,5,90,11
6,3,20,1,0,0,2,5,10,11
6,3,3,0,1,0,2,5,21,11
6,3,20,1,2,0,2,5,90,11
6,3,7,1,5,1,2,5,87,11
6,3,2,0,6,1,2,5,90,11
6,3,18,1,0,0,2,5,126,11
6,3,4,0,0,0,2,5,67,11
6,3,9,1,1,0,2,5,21,11
6,3,21,0,3,0,2,5,90,11
6,3,2,0,3,0,2,5,21,11
6,3,13,1,4,0,2,5,67,11
6,3,22,0,4,0,2,5,90,11
6,3,13,1,5,1,2,5,19,11
6,3,12,1,5,1,2,5,21,11
6,3,17,1,6,1,2,5,90,11
6,3,10,1,0,0,2,5,19,11
6,3,3,0,0,0,2,5,21,11
6,3,0,0,1,0,2,5,90,11
6,3,2,0,4,0,2,5,90,11
6,3,21,0,5,1,2,5,90,11
6,3,22,0,5,1,2,5,90,11
6,3,12,1,0,0,2,5,38,11
6,3,0,0,2,0,2,5,90,11
6,3,19,1,2,0,2,5,67,8
6,3,5,0,4,0,2,5,90,11
6,3,15,1,4,0,2,5,67,11
7,3,10,1,1,0,3,5,33,11
7,3,13,1,2,0,3,5,90,11
7,3,3,0,2,0,3,5,90,11
7,3,17,1,4,0,3,5,90,11
7,3,7,1,5,1,3,5,48,11
7,3,14,1,5,1,3,5,67,11
7,3,22,0,1,0,3,5,83,11
7,3,5,0,3,0,3,5,67,11
7,3,16,1,4,0,3,5,21,11
7,3,17,1,5,1,3,5,90,11
7,3,23,0,6,1,3,5,90,11
7,3,3,0,1,0,3,5,67,11
7,3,9,1,2,0,3,5,59,11
7,3,21,0,5,1,3,5,90,11
7,3,23,0,6,1,3,5,67,11
7,3,5,0,4,0,3,5,90,11
7,3,19,1,5,1,3,5,90,11
7,3,13,1,6,1,3,5,90,11
8,3,4,0,4,0,3,5,10,11
8,3,4,0,4,0,3,5,90,11
8,3,20,1,6,1,3,5,21,11
8,3,21,0,3,0,3,5,90,11
8,3,16,1,4,0,3,5,90,11
8,3,23,0,5,1,3,5,90,11
8,3,5,0,6,1,3,5,10,8
8,3,21,0,6,1,3,5,67,11
8,3,18,1,0,0,3,5,79,11
8,3,7,1,2,0,3,5,10,11
8,3,21,0,4,0,3,5,90,11
8,3,16,1,4,0,3,5,90,11
8,3,15,1,0,0,3,5,10,11
8,3,14,1,1,0,3,5,90,11
8,3,20,1,3,0,3,5,11,9
8,3,21,0,3,0,3,5,80,11
8,3,21,0,5,1,3,5,67,11
8,3,15,1,6,1,3,5,90,11
8,3,14,1,0,0,3,5,32,11
9,4,11,1,4,0,3,5,90,11
9,4,6,0,6,1,3,5,90,11
9,4,19,1,0,0,3,5,21,11
9,4,19,1,0,0,3,5,90,11
9,4,19,1,3,0,3,5,90,11
9,4,2,0,5,1,3,5,90,11
9,4,6,0,0,0,3,5,15,11
9,4,14,1,0,0,3,5,67,11
9,4,4,0,0,0,3,5,76,11
9,4,19,1,1,0,3,5,21,11
9,4,19,1,1,0,3,5,67,11
9,4,20,1,4,0,3,5,21,11
9,4,10,1,5,1,3,5,67,11
9,4,19,1,1,0,3,5,67,11
9,4,12,1,3,0,3,5,67,11
9,4,2,0,4,0,3,5,90,11
9,4,10,1,5,1,3,5,67,11
9,4,13,1,5,1,3,5,67,11
9,4,1,0,6,1,3,5,117,11
9,4,0,0,2,0,3,5,109,11
9,4,7,1,2,0,3,5,21,11
9,4,2,0,5,1,3,5,90,8
9,4,22,0,5,1,3,5,90,11
10,4,3,0,6,1,4,5,90,11
10,4,0,0,0,0,4,5,90,11
10,4,14,1,1,0,4,5,98,11
10,4,19,1,3,0,4,5,67,11
10,4,3,0,4,0,4,5,90,11
10,4,20,1,4,0,4,5,67,11
10,4,14,1,5,1,4,5,90,11
10,4,22,0,6,1,4,5,90,11
10,4,16,1,6,1,4,5,67,11
10,4,3,0,0,0,4,5,67,11
10,4,5,0,5,1,4,5,90,11
10,4,20,1,6,1,4,5,93,11
10,4,10,1,6,1,4,5,67,11
10,4,5,0,1,0,4,5,90,11
10,4,20,1,1,0,4,5,93,11
10,4,20,1,2,0,4,5,67,11
10,4,18,1,5,1,4,5,67,11
10,4,7,1,5,1,4,5,90,11
10,4,1,0,5,1,4,5,90,11
10,4,1,0,6,1,4,5,21,11
10,4,1,0,6,1,4,5,90,11
10,4,9,1,1,0,4,5,67,11
10,4,16,1,3,0,4,5,79,11
10,4,6,0,3,0,4,5,90,11
10,4,9,1,3,0,4,5,48,11
10,4,3,0,6,1,4,5,90,11
10,4,19,1,6,1,4,5,67,11
10,4,0,0,0,0,4,5,90,11
10,4,23,0,1,0,4,5,90,11
11,4,1,0,2,0,4,5,90,11
11,4,2,0,2,0,4,5,90,11
11,4,13,1,3,0,4,5,67,11
11,4,2,0,3,0,4,5,127,11
11,4,19,1,5,1,4,5,79,11
11,4,4,0,5,1,4,5,90,11
11,4,23,0,5,1,4,5,67,11
11,4,10,1,6,1,4,5,48,11
11,4,7,1,0,0,4,5,90,11
11,4,16,1,1,0,4,5,67,11
11,4,3,0,3,0,4,5,10,11
11,4,23,0,4,0,4,5,67,11
11,4,22,0,4,0,4,5,90,11
11,4,15,1,5,1,4,5,19,11
11,4,23,0,6,1,4,5,90,11
11,4,15,1,6,1,4,5,67,11
11,4,18,1,6,1,4,5,67,11
11,4,12,1,1,0,4,5,67,11
11,4,5,0,4,0,4,5,103,11
11,4,2,0,4,0,4,5,90,11
11,4,21,0,5,1,4,5,48,11
11,4,20,1,5,1,4,5,67,11
11,4,5,0,6,1,4,5,90,11
11,4,18,1,6,1,4,5,126,11
11,4,12,1,1,0,4,5,21,11
11,4,12,1,1,0,4,5,90,11
11,4,3,0,1,0,4,5,90,11
11,4,21,0,1,0,4,5,126,11
11,4,14,1,2,0,4,5,32,11
11,4,11,1,3,0,4,5,90,11
11,4,16,1,4,0,4,5,90,11
11,4,16,1,4,0,4,5,90,11
11,4,3,0,5,1,4,5,90,11
12,1,8,1,4,0,4,5,67,8
12,1,6,0,4,0,4,5,30,9
12,1,2,0,4,0,4,5,21,11
12,1,4,0,5,1,4,5,90,11
12,1,21,0,6,1,4,5,67,11
12,1,21,0,1,0,4,5,10,11
12,1,0,0,1,0,4,5,90,11
12,1,2,0,3,0,4,5,90,11
12,1,19,1,4,0,4,5,79,11
12,1,2,0,5,1,4,5,67,11
12,1,2,0,6,1,4,5,90,11
12,1,7,1,1,0,4,5,67,11
12,1,18,1,1,0,4,5,67,11
12,1,12,1,1,0,4,5,16,11
12,1,0,0,4,0,4,5,21,11
12,1,12,1,6,1,4,5,67,11
12,1,2,0,1,0,4,5,90,11
12,1,0,0,1,0,4,5,10,11
12,1,15,1,5,1,4,5,91,11
12,1,16,1,6,1,4,5,38,11
1,1,0,0,6,1,1,5,101,11
1,1,0,0,6,1,1,5,98,11
1,1,5,0,6,1,1,5,90,11
1,1,21,0,1,0,1,5,127,11
1,1,9,1,2,0,1,5,83,11
1,1,22,0,2,0,1,5,90,11
1,1,20,1,2,0,1,5,67,11
1,1,12,1,2,0,1,5,79,11
1,1,3,0,3,0,1,5,90,11
1,1,7,1,3,0,1,5,90,11
1,1,22,0,3,0,1,5,90,11
1,1,18,1,3,0,1,5,90,11
1,1,20,1,5,1,1,5,90,11
1,1,8,1,5,1,1,5,38,9
1,1,23,0,6,1,1,5,90,11
1,1,20,1,6,1,1,5,85,11
1,1,15,1,0,0,1,5,76,11
1,1,6,0,0,0,1,5,76,11
1,1,8,1,0,0,1,5,1,11
1,1,15,1,2,0,1,5,67,11
1,1,20,1,2,0,1,5,79,9
1,1,14,1,2,0,1,5,90,11
1,1,8,1,2,0,1,5,48,11
1,1,0,0,3,0,1,5,98,11
1,1,18,1,4,0,1,5,48,11
1,1,0,0,4,0,1,5,58,9
1,1,0,0,5,1,1,5,90,11
1,1,13,1,5,1,1,5,90,11
1,1,23,0,6,1,1,5,10,9
1,1,20,1,6,1,1,5,10,11
1,1,7,1,1,0,1,5,67,9
1,1,23,0,4,0,1,5,127,11
1,1,1,0,6,1,1,5,90,11
1,1,5,0,0,0,1,5,93,11
1,1,2,0,2,0,1,5,79,11
1,1,19,1,2,0,1,5,79,11
1,1,2,0,3,0,1,5,98,11
1,1,1,0,5,1,1,5,90,11
1,1,20,1,5,1,1,5,90,11
1,1,22,0,5,1,1,5,90,11
1,1,4,0,6,1,1,5,58,11
1,1,18,1,6,1,1,5,90,11
1,1,8,1,0,0,1,5,76,11
1,1,19,1,1,0,1,5,90,11
1,1,20,1,1,0,1,5,90,11
2,1,1,0,2,0,1,5,90,11
2,1,9,1,2,0,1,5,93,11
2,1,17,1,2,0,1,5,103,11
2,1,22,0,2,0,1,5,127,11
2,1,15,1,3,0,1,5,103,11
2,1,22,0,3,0,1,5,103,11
2,1,17,1,4,0,1,5,67,11
2,1,8,1,4,0,1,5,67,9
2,1,14,1,5,1,1,5,38,11
2,1,9,1,5,1,1,5,103,11
2,1,4,0,5,1,1,5,67,9
2,1,21,0,5,1,1,5,67,8
2,1,19,1,0,0,1,5,103,11
2,1,18,1,0,0,1,5,67,11
2,1,14,1,0,0,1,5,127,11
2,1,1,0,1,0,1,5,79,11
2,1,5,0,1,0,1,5,21,11
2,1,17,1,2,0,1,5,90,11
2,1,4,0,3,0,1,5,127,11
2,1,18,1,3,0,1,5,38,11
2,1,16,1,3,0,1,5,10,11
2,1,23,0,4,0,1,5,93,11
2,1,11,1,5,1,1,5,90,11
2,1,0,0,6,1,1,5,47,11
2,1,3,0,6,1,1,5,67,9
2,1,4,0,6,1,1,5,10,9
2,1,15,1,0,0,1,5,127,11
2,1,20,1,0,0,1,5,38,11
2,1,14,1,0,0,1,5,38,11
2,1,18,1,0,0,1,5,10,8
2,1,2,0,1,0,1,5,21,11
2,1,11,1,1,0,1,5,31,11
2,1,15,1,1,0,1,5,67,11
2,1,17,1,1,0,1,5,32,11
2,1,22,0,1,0,1,5,90,11
2,1,11,1,1,0,1,5,67,11
2,1,4,0,2,0,1,5,76,11
2,1,8,1,2,0,1,5,32,11
2,1,10,1,2,0,1,5,90,11
2,1,15,1,2,0,1,5,10,11
2,1,16,1,2,0,1,5,90,11
2,1,18,1,3,0,1,5,127,11
2,1,17,1,3,0,1,5,10,11
2,1,7,1,4,0,1,5,58,8
2,1,4,0,4,0,1,5,76,9
2,1,1,0,4,0,1,5,76,9
2,1,20,1,5,1,1,5,90,11
2,1,0,0,5,1,1,5,10,11
2,1,19,1,0,0,1,5,90,11
2,1,21,0,0,0,1,5,90,11
2,1,21,0,0,0,1,5,90,11
2,1,10,1,1,0,1,5,10,9
2,1,3,0,2,0,1,5,90,11
2,1,22,0,3,0,1,5,79,11
2,1,13,1,3,0,1,5,90,11
2,1,9,1,3,0,1,5,30,11
2,1,0,0,5,1,1,5,90,11
2,1,20,1,5,1,1,5,67,11
2,1,0,0,6,1,1,5,67,11
2,1,0,0,6,1,1,5,90,11
2,1,11,1,6,1,1,5,90,11
2,1,21,0,6,1,1,5,90,11
2,1,23,0,6,1,1,5,90,11
3,2,2,0,2,0,1,5,90,11
3,2,6,0,3,0,1,5,10,11
3,2,16,1,3,0,1,5,90,11
3,2,23,0,4,0,1,5,90,11
3,2,2,0,5,1,1,5,76,11
3,2,16,1,5,1,1,5,67,11
3,2,17,1,5,1,1,5,103,11
3,2,21,0,5,1,1,5,67,11
3,2,22,0,5,1,1,5,79,11
3,2,2,0,5,1,1,5,59,11
3,2,0,0,6,1,1,5,90,11
3,2,21,0,6,1,1,5,90,11
3,2,12,1,0,0,1,5,79,11
3,2,10,1,0,0,1,5,67,11
3,2,8,1,0,0,1,5,67,11
3,2,2,0,1,0,1,5,90,11
3,2,17,1,4,0,1,5,90,11
3,2,21,0,6,1,1,5,67,11
3,2,15,1,6,1,1,5,15,9
3,2,1,0,6,1,1,5,67,8
3,2,0,0,6,1,1,5,58,11
3,2,21,0,1,0,1,5,90,11
3,2,13,1,1,0,1,5,114,11
3,2,23,0,1,0,1,5,21,11
3,2,16,1,2,0,1,5,59,11
3,2,3,0,2,0,1,5,21,11
3,2,16,1,3,0,1,5,67,9
3,2,8,1,5,1,1,5,90,11
3,2,19,1,5,1,1,5,103,11
3,2,16,1,5,1,1,5,67,11
3,2,11,1,6,1,1,5,90,11
3,2,16,1,6,1,1,5,11,11
3,2,18,1,6,1,1,5,90,11
3,2,1,0,6,1,1,5,76,11
3,2,0,0,0,0,1,5,90,11
3,2,13,1,0,0,1,5,67,11
3,2,10,1,0,0,1,5,10,11
3,2,20,1,0,0,1,5,10,11
3,2,2,0,1,0,1,5,90,11
3,2,7,1,1,0,1,5,24,11
3,2,9,1,1,0,1,5,38,11
3,2,14,1,1,0,1,5,76,11
3,2,19,1,2,0,1,5,98,11
3,2,12,1,3,0,1,5,67,11
3,2,18,1,3,0,1,5,38,11
3,2,2,0,4,0,1,5,79,11
3,2,17,1,5,1,1,5,11,11
3,2,14,1,1,0,1,5,90,11
3,2,22,0,2,0,1,5,90,11
3,2,12,1,3,0,1,5,21,11
3,2,0,0,4,0,1,5,98,11
3,2,21,0,4,0,1,5,98,11
4,2,9,1,5,1,2,5,67,11
4,2,17,1,5,1,2,5,93,11
4,2,14,1,0,0,2,5,67,11
4,2,2,0,1,0,2,5,21,9
4,2,7,1,1,0,2,5,67,9
4,2,13,1,1,0,2,5,67,11
4,2,1,0,2,0,2,5,127,11
4,2,1,0,2,0,2,5,127,11
4,2,20,1,2,0,2,5,127,11
4,2,10,1,2,0,2,5,67,11
4,2,8,1,3,0,2,5,90,11
4,2,20,1,4,0,2,5,67,11
4,2,7,1,4,0,2,5,90,11
4,2,17,1,6,1,2,5,21,11
4,2,5,0,6,1,2,5,127,11
4,2,3,0,6,1,2,5,127,11
4,2,5,0,0,0,2,5,93,11
4,2,21,0,0,0,2,5,21,11
4,2,11,1,1,0,2,5,79,11
4,2,22,0,2,0,2,5,10,11
4,2,21,0,2,0,2,5,67,11
4,2,2,0,3,0,2,5,90,11
4,2,0,0,3,0,2,5,93,11
4,2,21,0,3,0,2,5,67,11
4,2,22,0,3,0,2,5,67,11
4,2,0,0,4,0,2,5,90,11
4,2,3,0,4,0,2,5,90,11
4,2,17,1,4,0,2,5,90,11
4,2,23,0,4,0,2,5,93,11
4,2,0,0,5,1,2,5,10,11
4,2,18,1,5,1,2,5,10,11
4,2,20,1,5,1,2,5,90,11
4,2,23,0,5,1,2,5,90,11
4,2,0,0,6,1,2,5,90,9
4,2,3,0,6,1,2,5,90,11
4,2,6,0,6,1,2,5,67,11
4,2,8,1,6,1,2,5,38,11
4,2,9,1,6,1,2,5,90,11
4,2,10,1,6,1,2,5,76,11
4,2,13,1,6,1,2,5,103,11
4,2,13,1,6,1,2,5,67,11
4,2,13,1,6,1,2,5,90,11
4,2,1,0,1,0,2,5,90,11
4,2,16,1,1,0,2,5,90,11
4,2,17,1,1,0,2,5,38,11
4,2,21,0,1,0,2,5,90,11
4,2,22,0,1,0,2,5,90,11
4,2,22,0,1,0,2,5,90,11
4,2,2,0,2,0,2,5,10,11
4,2,4,0,2,0,2,5,11,11
4,2,2,0,4,0,2,5,90,11
4,2,19,1,4,0,2,5,76,11
4,2,14,1,5,1,2,5,38,11
4,2,10,1,6,1,2,5,38,11
4,2,12,1,6,1,2,5,67,11
4,2,21,0,6,1,2,5,126,11
4,2,14,1,0,0,2,5,48,11
4,2,22,0,0,0,2,5,67,11
4,2,3,0,1,0,2,5,38,11
4,2,5,0,1,0,2,5,79,11
4,2,16,1,1,0,2,5,82,11
4,2,16,1,1,0,2,5,90,11
4,2,22,0,1,0,2,5,67,11
4,2,12,1,2,0,2,5,93,11
4,2,23,0,2,0,2,5,90,11
4,2,23,0,2,0,2,5,90,11
4,2,0,0,3,0,2,5,38,11
4,2,22,0,4,0,2,5,10,8
4,2,14,1,5,1,2,5,90,11
4,2,5,0,6,1,2,5,60,9
4,2,14,1,6,1,2,5,90,11
4,2,5,0,6,1,2,5,90,11
5,2,1,0,0,0,2,5,90,11
5,2,2,0,0,0,2,5,10,9
5,2,4,0,1,0,2,5,76,11
5,2,3,0,2,0,2,5,58,11
5,2,15,1,5,1,2,5,11,11
5,2,17,1,5,1,2,5,76,11
5,2,23,0,5,1,2,5,90,11
5,2,23,0,5,1,2,5,90,11
5,2,23,0,5,1,2,5,90,11
5,2,23,0,5,1,2,5,90,11
5,2,4,0,5,1,2,5,38,9
5,2,2,0,6,1,2,5,76,9
5,2,1,0,1,0,2,5,90,11
5,2,7,1,1,0,2,5,10,11
5,2,17,1,2,0,2,5,10,11
5,2,17,1,3,0,2,5,24,11
5,2,21,0,3,0,2,5,90,11
5,2,19,1,4,0,2,5,76,11
5,2,21,0,4,0,2,5,66,11
5,2,9,1,5,1,2,5,67,11
5,2,9,1,6,1,2,5,93,11
5,2,13,1,6,1,2,5,67,11
5,2,22,0,0,0,2,5,67,11
5,2,14,1,0,0,2,5,90,11
5,2,16,1,0,0,2,5,67,11
5,2,4,0,0,0,2,5,38,11
5,2,10,1,1,0,2,5,38,11
5,2,0,0,1,0,2,5,67,9
5,2,6,0,2,0,2,5,67,9
5,2,3,0,2,0,2,5,67,9
5,2,19,1,2,0,2,5,93,11
5,2,13,1,2,0,2,5,76,11
5,2,16,1,2,0,2,5,67,11
5,2,19,1,3,0,2,5,90,11
5,2,2,0,4,0,2,5,90,11
5,2,5,0,4,0,2,5,76,11
5,2,15,1,4,0,2,5,90,11
5,2,14,1,5,1,2,5,67,11
5,2,12,1,5,1,2,5,67,11
5,2,13,1,6,1,2,5,10,11
5,2,18,1,3,0,2,5,67,11
5,2,8,1,3,0,2,5,98,11
5,2,12,1,4,0,2,5,98,11
5,2,19,1,4,0,2,5,10,11
5,2,14,1,5,1,2,5,90,11
5,2,20,1,5,1,2,5,10,11
5,2,21,0,5,1,2,5,93,11
5,2,14,1,6,1,2,5,90,11
5,2,23,0,0,0,2,5,101,11
5,2,20,1,0,0,2,5,67,11
5,2,20,1,0,0,2,5,90,11
5,2,2,0,1,0,2,5,67,11
5,2,22,0,2,0,2,5,67,11
6,3,0,0,3,0,2,5,103,11
6,3,13,1,3,0,2,5,10,11
6,3,0,0,4,0,2,5,67,11
6,3,8,1,6,1,2,5,79,11
6,3,7,1,6,1,2,5,21,11
6,3,22,0,0,0,2,5,38,11
6,3,12,1,0,0,2,5,58,11
6,3,3,0,2,0,2,5,67,11
6,3,18,1,2,0,2,5,90,11
6,3,14,1,3,0,2,5,67,11
6,3,9,1,4,0,2,5,90,11
6,3,22,0,4,0,2,5,38,11
6,3,13,1,5,1,2,5,67,9
6,3,19,1,5,1,2,5,116,11
6,3,22,0,5,1,2,5,98,11
6,3,13,1,0,0,2,5,127,11
6,3,18,1,2,0,2,5,127,11
6,3,21,0,2,0,2,5,90,11
6,3,10,1,3,0,2,5,67,11
6,3,13,1,3,0,2,5,38,11
6,3,17,1,3,0,2,5,96,11
6,3,20,1,3,0,2,5,103,11
6,3,19,1,4,0,2,5,76,11
6,3,6,0,5,1,2,5,90,11
6,3,9,1,5,1,2,5,67,11
6,3,22,0,5,1,2,5,90,11
6,3,11,1,6,1,2,5,10,11
6,3,19,1,6,1,2,5,93,11
6,3,20,1,6,1,2,5,93,11
6,3,2,0,6,1,2,5,30,11
6,3,4,0,0,0,2,5,10,11
6,3,5,0,0,0,2,5,10,8
6,3,22,0,0,0,2,5,90,11
6,3,11,1,0,0,2,5,90,11
6,3,16,1,0,0,2,5,90,11
6,3,3,0,2,0,2,5,58,11
6,3,4,0,2,0,2,5,67,9
6,3,19,1,2,0,2,5,46,11
6,3,19,1,3,0,2,5,79,11
6,3,9,1,3,0,2,5,76,11
6,3,18,1,3,0,2,5,38,11
6,3,10,1,4,0,2,5,67,11
6,3,13,1,4,0,2,5,67,9
6,3,17,1,4,0,2,5,90,11
6,3,23,0,4,0,2,5,90,11
6,3,4,0,4,0,2,5,67,11
6,3,7,1,5,1,2,5,67,11
6,3,14,1,5,1,2,5,67,11
6,3,20,1,5,1,2,5,93,11
6,3,0,0,6,1,2,5,90,11
6,3,12,1,6,1,2,5,93,11
6,3,14,1,6,1,2,5,79,9
6,3,0,0,0,0,2,5,76,11
6,3,8,1,1,0,2,5,58,9
6,3,19,1,1,0,2,5,93,11
6,3,2,0,2,0,2,5,93,11
6,3,15,1,2,0,2,5,15,11
6,3,1,0,3,0,2,5,90,11
6,3,4,0,3,0,2,5,90,11
6,3,17,1,3,0,2,5,67,11
6,3,2,0,3,0,2,5,93,9
6,3,4,0,3,0,2,5,90,11
6,3,3,0,4,0,2,5,90,11
6,3,3,0,4,0,2,5,90,11
6,3,18,1,4,0,2,5,76,11
7,3,22,0,6,1,3,5,38,11
7,3,10,1,0,0,3,5,90,11
7,3,17,1,0,0,3,5,98,11
7,3,23,0,0,0,3,5,82,9
7,3,11,1,1,0,3,5,90,11
7,3,1,0,2,0,3,5,90,11
7,3,11,1,2,0,3,5,67,9
7,3,0,0,4,0,3,5,90,11
7,3,1,0,4,0,3,5,67,11
7,3,2,0,4,0,3,5,90,11
7,3,9,1,4,0,3,5,90,11
7,3,11,1,4,0,3,5,58,9
7,3,14,1,4,0,3,5,10,11
7,3,21,0,4,0,3,5,67,9
7,3,8,1,5,1,3,5,10,11
7,3,14,1,5,1,3,5,67,11
7,3,15,1,5,1,3,5,79,11
7,3,22,0,5,1,3,5,67,11
7,3,8,1,6,1,3,5,10,11
7,3,15,1,6,1,3,5,93,11
7,3,16,1,6,1,3,5,93,11
7,3,20,1,6,1,3,5,93,11
7,3,0,0,0,0,3,5,67,9
7,3,11,1,0,0,3,5,67,11
7,3,11,1,0,0,3,5,67,9
7,3,13,1,0,0,3,5,10,11
7,3,2,0,1,0,3,5,90,11
7,3,17,1,1,0,3,5,85,11
7,3,22,0,1,0,3,5,90,11
7,3,22,0,1,0,3,5,30,11
7,3,15,1,1,0,3,5,93,11
7,3,23,0,1,0,3,5,127,11
7,3,15,1,2,0,3,5,90,11
7,3,2,0,3,0,3,5,90,11
7,3,9,1,3,0,3,5,10,11
7,3,11,1,3,0,3,5,84,11
7,3,15,1,4,0,3,5,76,11
7,3,5,0,5,1,3,5,90,11
7,3,12,1,5,1,3,5,90,11
7,3,21,0,6,1,3,5,76,11
7,3,13,1,6,1,3,5,38,11
7,3,23,0,0,0,3,5,101,11
7,3,2,0,0,0,3,5,38,8
7,3,7,1,2,0,3,5,67,11
7,3,18,1,2,0,3,5,67,11
7,3,18,1,2,0,3,5,93,11
7,3,6,0,4,0,3,5,90,11
7,3,1,0,5,1,3,5,76,11
7,3,3,0,5,1,3,5,10,11
7,3,4,0,6,1,3,5,98,11
7,3,16,1,6,1,3,5,90,11
7,3,18,1,6,1,3,5,90,11
7,3,12,1,0,0,3,5,76,11
7,3,18,1,0,0,3,5,90,11
7,3,21,0,0,0,3,5,90,11
7,3,6,0,1,0,3,5,103,11
7,3,7,1,2,0,3,5,76,11
7,3,9,1,2,0,3,5,93,11
7,3,10,1,2,0,3,5,93,11
7,3,11,1,2,0,3,5,90,11
7,3,14,1,2,0,3,5,93,11
7,3,17,1,2,0,3,5,98,11
7,3,0,0,3,0,3,5,58,11
7,3,5,0,3,0,3,5,98,11
7,3,5,0,4,0,3,5,127,9
7,3,14,1,4,0,3,5,67,11
7,3,21,0,4,0,3,5,38,11
7,3,1,0,6,1,3,5,90,11
7,3,9,1,0,0,3,5,76,11
8,3,14,1,2,0,3,5,60,11
8,3,20,1,2,0,3,5,93,11
8,3,15,1,3,0,3,5,67,11
8,3,6,0,4,0,3,5,76,11
8,3,16,1,4,0,3,5,90,11
8,3,9,1,5,1,3,5,67,9
8,3,14,1,6,1,3,5,76,11
8,3,16,1,6,1,3,5,76,11
8,3,19,1,6,1,3,5,127,11
8,3,7,1,0,0,3,5,90,11
8,3,19,1,0,0,3,5,93,9
8,3,11,1,2,0,3,5,79,11
8,3,12,1,2,0,3,5,76,11
8,3,15,1,2,0,3,5,67,11
8,3,17,1,2,0,3,5,10,11
8,3,21,0,2,0,3,5,90,11
8,3,0,0,3,0,3,5,90,11
8,3,17,1,3,0,3,5,90,11
8,3,17,1,3,0,3,5,90,11
8,3,17,1,3,0,3,5,90,11
8,3,0,0,4,0,3,5,76,11
8,3,4,0,5,1,3,5,90,11
8,3,14,1,5,1,3,5,10,11
8,3,19,1,5,1,3,5,10,9
8,3,8,1,6,1,3,5,67,11
8,3,15,1,6,1,3,5,58,11
8,3,20,1,6,1,3,5,90,11
8,3,22,0,6,1,3,5,10,11
8,3,1,0,0,0,3,5,93,11
8,3,2,0,0,0,3,5,98,11
8,3,19,1,0,0,3,5,10,11
8,3,22,0,0,0,3,5,93,11
8,3,19,1,1,0,3,5,90,11
8,3,20,1,1,0,3,5,90,11
8,3,23,0,1,0,3,5,67,11
8,3,23,0,1,0,3,5,76,11
8,3,2,0,4,0,3,5,90,11
8,3,21,0,4,0,3,5,90,11
8,3,1,0,6,1,3,5,90,11
8,3,11,1,6,1,3,5,103,11
8,3,12,1,6,1,3,5,67,11
8,3,18,1,6,1,3,5,10,11
8,3,14,1,0,0,3,5,67,9
8,3,23,0,0,0,3,5,90,11
8,3,7,1,1,0,3,5,90,11
8,3,15,1,1,0,3,5,90,11
8,3,20,1,1,0,3,5,90,11
8,3,12,1,2,0,3,5,10,11
8,3,7,1,2,0,3,5,90,11
8,3,10,1,2,0,3,5,90,11
8,3,19,1,2,0,3,5,93,11
8,3,20,1,2,0,3,5,90,11
8,3,9,1,4,0,3,5,67,11
8,3,18,1,4,0,3,5,48,11
8,3,0,0,4,0,3,5,90,11
8,3,1,0,4,0,3,5,90,11
8,3,4,0,5,1,3,5,76,11
8,3,6,0,5,1,3,5,10,11
8,3,20,1,5,1,3,5,101,11
8,3,6,0,6,1,3,5,90,11
8,3,9,1,6,1,3,5,76,11
8,3,15,1,6,1,3,5,90,11
8,3,16,1,6,1,3,5,90,11
8,3,16,1,6,1,3,5,90,11
8,3,1,0,0,0,3,5,10,11
8,3,5,0,0,0,3,5,10,11
8,3,11,1,0,0,3,5,10,11
8,3,14,1,0,0,3,5,76,11
8,3,14,1,1,0,3,5,76,9
8,3,23,0,1,0,3,5,93,11
8,3,2,0,3,0,3,5,90,11
8,3,19,1,3,0,3,5,90,11
8,3,21,0,3,0,3,5,10,11
9,4,13,1,4,0,3,5,10,11
9,4,10,1,5,1,3,5,127,11
9,4,10,1,5,1,3,5,127,11
9,4,18,1,6,1,3,5,90,11
9,4,2,0,0,0,3,5,90,11
9,4,2,0,0,0,3,5,90,11
9,4,4,0,2,0,3,5,10,9
9,4,18,1,3,0,3,5,67,11
9,4,5,0,4,0,3,5,67,11
9,4,4,0,6,1,3,5,90,11
9,4,0,0,6,1,3,5,90,11
9,4,13,1,1,0,3,5,90,11
9,4,5,0,1,0,3,5,10,11
9,4,23,0,1,0,3,5,67,11
9,4,2,0,2,0,3,5,10,8
9,4,21,0,2,0,3,5,30,9
9,4,18,1,2,0,3,5,90,11
9,4,5,0,3,0,3,5,30,11
9,4,2,0,4,0,3,5,76,11
9,4,5,0,6,1,3,5,80,11
9,4,13,1,6,1,3,5,127,11
9,4,16,1,6,1,3,5,127,11
9,4,14,1,0,0,3,5,103,11
9,4,23,0,0,0,3,5,90,11
9,4,12,1,0,0,3,5,67,11
9,4,21,0,0,0,3,5,67,11
9,4,3,0,1,0,3,5,76,11
9,4,23,0,1,0,3,5,90,11
9,4,3,0,2,0,3,5,90,11
9,4,9,1,3,0,3,5,38,11
9,4,19,1,5,1,3,5,67,11
9,4,9,1,6,1,3,5,101,11
9,4,1,0,6,1,3,5,10,11
9,4,0,0,0,0,3,5,90,11
9,4,8,1,0,0,3,5,67,11
9,4,5,0,1,0,3,5,67,11
9,4,12,1,2,0,3,5,24,11
9,4,13,1,2,0,3,5,10,11
9,4,0,0,4,0,3,5,90,11
9,4,7,1,4,0,3,5,38,9
9,4,14,1,4,0,3,5,90,11
10,4,18,1,0,0,4,5,10,11
10,4,0,0,2,0,4,5,10,11
10,4,12,1,2,0,4,5,76,9
10,4,1,0,3,0,4,5,58,8
10,4,8,1,3,0,4,5,90,11
10,4,17,1,3,0,4,5,90,11
10,4,21,0,4,0,4,5,90,11
10,4,12,1,4,0,4,5,67,11
10,4,21,0,5,1,4,5,90,11
10,4,18,1,5,1,4,5,127,11
10,4,21,0,5,1,4,5,90,11
10,4,17,1,6,1,4,5,10,11
10,4,19,1,0,0,4,5,10,11
10,4,21,0,0,0,4,5,103,11
10,4,2,0,0,0,4,5,46,8
10,4,15,1,2,0,4,5,10,11
10,4,16,1,3,0,4,5,90,11
10,4,18,1,3,0,4,5,90,11
10,4,21,0,3,0,4,5,90,11
10,4,12,1,4,0,4,5,90,11
10,4,15,1,4,0,4,5,90,11
10,4,17,1,4,0,4,5,79,11
10,4,21,0,4,0,4,5,90,11
10,4,21,0,4,0,4,5,90,11
10,4,12,1,5,1,4,5,76,11
10,4,20,1,5,1,4,5,90,11
10,4,23,0,5,1,4,5,76,11
10,4,6,0,6,1,4,5,76,11
10,4,20,1,6,1,4,5,90,11
10,4,1,0,0,0,4,5,90,11
10,4,14,1,0,0,4,5,93,11
10,4,14,1,0,0,4,5,38,11
10,4,19,1,0,0,4,5,38,11
10,4,9,1,1,0,4,5,10,11
10,4,19,1,2,0,4,5,93,11
10,4,22,0,2,0,4,5,10,11
10,4,5,0,3,0,4,5,10,11
10,4,5,0,4,0,4,5,93,11
10,4,13,1,4,0,4,5,38,9
10,4,21,0,4,0,4,5,90,11
10,4,12,1,5,1,4,5,67,11
10,4,11,1,5,1,4,5,93,11
10,4,21,0,6,1,4,5,103,11
10,4,10,1,6,1,4,5,90,11
10,4,9,1,0,0,4,5,38,11
10,4,10,1,4,0,4,5,67,11
10,4,20,1,4,0,4,5,10,11
10,4,17,1,5,1,4,5,67,11
10,4,18,1,5,1,4,5,10,9
10,4,20,1,5,1,4,5,66,11
10,4,21,0,5,1,4,5,10,11
10,4,1,0,6,1,4,5,67,9
10,4,12,1,0,0,4,5,32,11
10,4,1,0,1,0,4,5,66,11
11,4,0,0,4,0,4,5,90,11
11,4,2,0,4,0,4,5,90,11
11,4,4,0,4,0,4,5,58,11
11,4,6,0,6,1,4,5,10,11
11,4,13,1,0,0,4,5,90,11
11,4,5,0,3,0,4,5,67,9
11,4,15,1,3,0,4,5,76,11
11,4,18,1,3,0,4,5,10,11
11,4,21,0,3,0,4,5,67,9
11,4,15,1,4,0,4,5,103,11
11,4,22,0,4,0,4,5,10,11
11,4,3,0,5,1,4,5,103,11
11,4,4,0,5,1,4,5,98,11
11,4,7,1,5,1,4,5,76,11
11,4,19,1,5,1,4,5,67,11
11,4,20,1,5,1,4,5,10,11
11,4,7,1,6,1,4,5,76,9
11,4,17,1,6,1,4,5,90,11
11,4,20,1,6,1,4,5,24,11
11,4,0,0,1,0,4,5,90,11
11,4,13,1,2,0,4,5,67,11
11,4,3,0,3,0,4,5,90,9
11,4,9,1,3,0,4,5,76,11
11,4,3,0,4,0,4,5,76,11
11,4,7,1,4,0,4,5,93,11
11,4,23,0,4,0,4,5,10,11
11,4,18,1,5,1,4,5,10,11
11,4,22,0,5,1,4,5,90,11
11,4,21,0,5,1,4,5,90,11
11,4,18,1,0,0,4,5,90,11
11,4,15,1,0,0,4,5,103,11
11,4,5,0,0,0,4,5,90,11
11,4,19,1,1,0,4,5,10,11
11,4,23,0,2,0,4,5,127,11
11,4,0,0,4,0,4,5,90,11
11,4,23,0,5,1,4,5,22,11
11,4,22,0,5,1,4,5,127,11
11,4,10,1,5,1,4,5,38,11
11,4,20,1,6,1,4,5,87,11
11,4,13,1,6,1,4,5,93,11
11,4,2,0,0,0,4,5,90,9
11,4,17,1,0,0,4,5,90,11
11,4,20,1,0,0,4,5,103,11
11,4,15,1,1,0,4,5,103,11
11,4,20,1,1,0,4,5,67,11
11,4,11,1,2,0,4,5,38,11
11,4,4,0,3,0,4,5,90,11
12,1,7,1,4,0,4,5,67,11
12,1,12,1,5,1,4,5,98,11
12,1,5,0,6,1,4,5,90,11
12,1,18,1,6,1,4,5,67,11
12,1,22,0,6,1,4,5,62,11
12,1,3,0,0,0,4,5,10,11
12,1,23,0,0,0,4,5,90,11
12,1,0,0,1,0,4,5,90,11
12,1,1,0,1,0,4,5,67,9
12,1,20,1,1,0,4,5,67,9
12,1,17,1,2,0,4,5,59,11
12,1,1,0,2,0,4,5,90,11
12,1,13,1,3,0,4,5,10,11
12,1,13,1,3,0,4,5,67,11
12,1,17,1,3,0,4,5,67,11
12,1,0,0,4,0,4,5,127,11
12,1,3,0,4,0,4,5,21,9
12,1,13,1,4,0,4,5,90,11
12,1,20,1,4,0,4,5,10,9
12,1,19,1,5,1,4,5,67,11
12,1,22,0,5,1,4,5,90,11
12,1,23,0,5,1,4,5,90,11
12,1,23,0,5,1,4,5,90,11
12,1,23,0,5,1,4,5,90,11
12,1,14,1,5,1,4,5,90,11
12,1,12,1,5,1,4,5,90,11
12,1,23,0,6,1,4,5,90,11
12,1,3,0,6,1,4,5,67,8
12,1,14,1,6,1,4,5,90,11
12,1,23,0,0,0,4,5,90,11
12,1,19,1,0,0,4,5,79,11
12,1,21,0,1,0,4,5,79,11
12,1,19,1,2,0,4,5,15,9
12,1,3,0,3,0,4,5,21,11
12,1,20,1,3,0,4,5,93,11
12,1,16,1,5,1,4,5,67,11
12,1,21,0,6,1,4,5,10,11
12,1,6,0,0,0,4,5,10,11
12,1,19,1,0,0,4,5,90,11
12,1,17,1,0,0,4,5,90,11
12,1,20,1,1,0,4,5,46,11
12,1,0,0,2,0,4,5,90,11
12,1,15,1,2,0,4,5,90,11
12,1,18,1,2,0,4,5,67,11
12,1,19,1,3,0,4,5,67,11
12,1,16,1,3,0,4,5,79,11
12,1,5,0,4,0,4,5,67,11
12,1,16,1,4,0,4,5,38,11
12,1,18,1,5,1,4,5,98,11
12,1,14,1,5,1,4,5,67,11
12,1,15,1,5,1,4,5,67,11
12,1,21,0,0,0,4,5,127,11
12,1,20,1,0,0,4,5,67,11
12,1,21,0,0,0,4,5,127,11
12,1,21,0,0,0,4,5,10,11
12,1,0,0,1,0,4,5,58,11
12,1,19,1,2,0,4,5,67,11
12,1,11,1,2,0,4,5,67,9
12,1,22,0,2,0,4,5,38,11
12,1,17,1,3,0,4,5,127,11
12,1,2,0,4,0,4,5,127,11
12,1,19,1,4,0,4,5,101,11
12,1,23,0,4,0,4,5,38,11
1,1,14,1,0,0,1,5,76,11
1,1,7,1,6,1,1,5,90,11
1,1,10,1,6,1,1,5,1,11
1,1,21,0,6,1,1,5,79,11
1,1,9,1,6,1,1,5,99,11
1,1,12,1,0,0,1,5,67,11
1,1,16,1,1,0,1,5,66,11
1,1,1,0,2,0,1,5,90,11
1,1,7,1,2,0,1,5,66,11
1,1,15,1,3,0,1,5,21,11
1,1,11,1,5,1,1,5,90,11
1,1,21,0,3,0,1,5,67,11
1,1,20,1,3,0,1,5,80,11
1,1,17,1,0,0,1,5,90,11
1,1,23,0,0,0,1,5,90,11
1,1,9,1,6,1,1,5,79,11
1,1,23,0,6,1,1,5,67,11
2,1,22,0,5,1,1,5,90,11
2,1,18,1,5,1,1,5,67,11
2,1,15,1,6,1,1,5,90,11
2,1,14,1,6,1,1,5,67,11
2,1,20,1,2,0,1,5,15,11
2,1,14,1,3,0,1,5,79,11
2,1,2,0,4,0,1,5,67,11
2,1,20,1,5,1,1,5,67,11
2,1,13,1,5,1,1,5,98,11
2,1,20,1,5,1,1,5,90,11
2,1,18,1,6,1,1,5,90,11
2,1,5,0,6,1,1,5,38,11
2,1,16,1,6,1,1,5,67,11
2,1,8,1,1,0,1,5,90,11
2,1,3,0,2,0,1,5,67,11
2,1,17,1,3,0,1,5,66,11
2,1,0,0,3,0,1,5,11,11
2,1,10,1,4,0,1,5,48,11
2,1,19,1,4,0,1,5,79,11
2,1,10,1,5,1,1,5,82,11
2,1,19,1,6,1,1,5,67,11
2,1,15,1,6,1,1,5,67,11
2,1,2,0,4,0,1,5,67,11
2,1,10,1,4,0,1,5,67,11
2,1,2,0,5,1,1,5,90,11
2,1,15,1,0,0,1,5,67,11
3,2,15,1,0,0,1,5,1,11
3,2,12,1,5,1,1,5,90,11
3,2,17,1,6,1,1,5,67,11
3,2,23,0,0,0,1,5,90,11
3,2,18,1,0,0,1,5,90,11
3,2,21,0,3,0,1,5,10,11
3,2,4,0,5,1,1,5,98,11
3,2,9,1,2,0,1,5,67,11
3,2,14,1,3,0,1,5,67,11
3,2,14,1,0,0,1,5,67,11
3,2,21,0,1,0,1,5,67,11
3,2,21,0,1,0,1,5,67,11
3,2,0,0,3,0,1,5,82,11
4,2,0,0,1,0,2,5,90,11
4,2,7,1,5,1,2,5,21,11
4,2,18,1,0,0,2,5,67,11
4,2,2,0,0,0,2,5,67,11
4,2,13,1,2,0,2,5,98,11
4,2,19,1,3,0,2,5,11,11
4,2,14,1,3,0,2,5,1,11
4,2,0,0,3,0,2,5,90,11
4,2,5,0,4,0,2,5,67,11
4,2,8,1,6,1,2,5,67,11
4,2,3,0,6,1,2,5,90,11
4,2,1,0,6,1,2,5,1,11
4,2,21,0,3,0,2,5,67,11
4,2,18,1,3,0,2,5,90,11
4,2,16,1,1,0,2,5,67,11
4,2,15,1,2,0,2,5,90,11
4,2,22,0,5,1,2,5,90,11
4,2,17,1,6,1,2,5,90,11
4,2,18,1,6,1,2,5,90,11
5,2,23,0,0,0,2,5,98,11
5,2,1,0,0,0,2,5,90,11
5,2,4,0,0,0,2,5,67,11
5,2,5,0,0,0,2,5,90,11
5,2,5,0,0,0,2,5,90,11
5,2,5,0,3,0,2,5,90,11
5,2,14,1,5,1,2,5,1,11
5,2,3,0,2,0,2,5,58,9
5,2,19,1,3,0,2,5,67,11
5,2,12,1,4,0,2,5,9,11
5,2,11,1,4,0,2,5,9,11
5,2,21,0,4,0,2,5,90,11
5,2,4,0,5,1,2,5,90,11
5,2,2,0,6,1,2,5,103,11
5,2,22,0,5,1,2,5,67,11
5,2,2,0,6,1,2,5,90,11
5,2,5,0,6,1,2,5,90,11
5,2,15,1,2,0,2,5,78,11
5,2,13,1,2,0,2,5,67,11
5,2,23,0,0,0,2,5,90,11
6,3,23,0,3,0,2,5,90,11
6,3,16,1,2,0,2,5,67,11
6,3,22,0,3,0,2,5,30,11
6,3,12,1,1,0,2,5,67,11
6,3,18,1,2,0,2,5,67,9
6,3,5,0,3,0,2,5,1,11
6,3,5,0,1,0,2,5,90,11
6,3,23,0,3,0,2,5,101,11
6,3,5,0,3,0,2,5,98,11
6,3,23,0,4,0,2,5,98,11
6,3,23,0,6,1,2,5,67,11
6,3,17,1,0,0,2,5,67,9
7,3,3,0,6,1,3,5,90,11
7,3,9,1,5,1,3,5,67,11
7,3,0,0,6,1,3,5,90,11
7,3,8,1,1,0,3,5,90,11
7,3,13,1,2,0,3,5,90,11
7,3,15,1,2,0,3,5,67,11
7,3,14,1,5,1,3,5,67,11
7,3,14,1,0,0,3,5,32,11
7,3,18,1,1,0,3,5,38,11
7,3,20,1,4,0,3,5,80,11
7,3,1,0,0,0,3,5,67,11
7,3,17,1,1,0,3,5,90,11
7,3,3,0,2,0,3,5,67,11
7,3,16,1,2,0,3,5,90,11
7,3,0,0,4,0,3,5,107,11
8,3,18,1,4,0,3,5,8,11
8,3,20,1,5,1,3,5,1,11
8,3,2,0,2,0,3,5,15,11
8,3,5,0,4,0,3,5,127,11
8,3,11,1,2,0,3,5,21,11
8,3,23,0,0,0,3,5,112,11
8,3,0,0,3,0,3,5,90,11
8,3,2,0,1,0,3,5,66,11
8,3,5,0,2,0,3,5,67,11
9,4,3,0,4,0,3,5,58,11
9,4,16,1,6,1,3,5,98,11
9,4,20,1,2,0,3,5,67,11
9,4,9,1,0,0,3,5,1,11
9,4,22,0,0,0,3,5,90,11
9,4,17,1,0,0,3,5,67,11
9,4,13,1,1,0,3,5,67,11
9,4,1,0,1,0,3,5,1,11
9,4,10,1,1,0,3,5,103,11
9,4,11,1,3,0,3,5,109,11
9,4,21,0,3,0,3,5,90,11
9,4,3,0,5,1,3,5,90,11
1,1,8,1,5,1,1,5,127,11
1,1,19,1,3,0,1,5,93,11
1,1,11,1,0,0,1,5,79,11
2,1,15,1,4,0,1,5,79,11
2,1,16,1,4,0,1,5,90,11
2,1,19,1,6,1,1,5,79,11
2,1,16,1,1,0,1,5,67,11
2,1,17,1,5,1,1,5,66,11
2,1,16,1,6,1,1,5,66,11
3,2,21,0,3,0,1,5,79,11
3,2,10,1,6,1,1,5,98,11
4,2,14,1,1,0,2,5,38,11
4,2,1,0,0,0,2,5,90,11
4,2,15,1,5,1,2,5,93,11
6,3,19,1,2,0,2,5,67,11
7,3,15,1,5,1,3,5,93,9
7,3,13,1,5,1,3,5,93,11
7,3,18,1,6,1,3,5,21,11
9,4,0,0,3,0,3,5,21,11
10,4,21,0,3,0,4,5,79,11
10,4,11,1,4,0,4,5,21,11
10,4,9,1,6,1,4,5,98,11
11,4,16,1,5,1,4,5,79,11
12,1,19,1,2,0,4,5,90,11
12,1,11,1,6,1,4,5,90,11
12,1,17,1,4,0,4,5,79,11
1,1,6,0,6,1,1,5,98,11
1,1,3,0,1,0,1,5,90,11
1,1,16,1,1,0,1,5,67,11
1,1,16,1,3,0,1,5,108,11
1,1,0,0,6,1,1,5,98,11
1,1,4,0,0,0,1,5,90,11
1,1,14,1,2,0,1,5,93,11
1,1,20,1,4,0,1,5,98,11
1,1,6,0,0,0,1,5,67,11
1,1,22,0,1,0,1,5,67,11
1,1,23,0,5,1,1,5,103,11
1,1,18,1,0,0,1,5,67,11
2,1,0,0,4,0,1,5,67,9
2,1,18,1,6,1,1,5,67,11
2,1,9,1,2,0,1,5,67,11
2,1,12,1,3,0,1,5,15,9
2,1,16,1,5,1,1,5,67,11
2,1,23,0,6,1,1,5,98,11
2,1,18,1,6,1,1,5,67,11
2,1,13,1,6,1,1,5,98,11
2,1,3,0,6,1,1,5,21,11
2,1,17,1,3,0,1,5,109,11
2,1,10,1,4,0,1,5,67,11
2,1,12,1,5,1,1,5,67,11
2,1,0,0,1,0,1,5,98,11
2,1,0,0,1,0,1,5,103,11
2,1,0,0,2,0,1,5,98,11
2,1,0,0,3,0,1,5,99,11
2,1,23,0,3,0,1,5,79,11
2,1,18,1,5,1,1,5,90,11
2,1,19,1,5,1,1,5,125,11
2,1,16,1,6,1,1,5,67,11
3,2,19,1,2,0,1,5,67,11
3,2,9,1,4,0,1,5,67,11
3,2,12,1,5,1,1,5,79,11
3,2,22,0,1,0,1,5,82,11
3,2,1,0,2,0,1,5,90,11
3,2,10,1,6,1,1,5,98,11
3,2,21,0,6,1,1,5,67,11
3,2,1,0,5,1,1,5,67,9
3,2,10,1,0,0,1,5,67,11
3,2,23,0,1,0,1,5,98,11
3,2,4,0,4,0,1,5,48,8
3,2,15,1,3,0,1,5,67,11
4,2,23,0,0,0,2,5,21,11
4,2,22,0,6,1,2,5,90,11
4,2,13,1,5,1,2,5,93,11
4,2,0,0,6,1,2,5,67,11
4,2,20,1,4,0,2,5,41,11
4,2,11,1,0,0,2,5,67,11
4,2,21,0,2,0,2,5,79,11
4,2,19,1,4,0,2,5,98,11
4,2,5,0,6,1,2,5,90,11
5,2,10,1,3,0,2,5,67,11
5,2,14,1,4,0,2,5,15,11
5,2,13,1,5,1,2,5,67,11
5,2,22,0,5,1,2,5,90,11
5,2,19,1,5,1,2,5,67,8
5,2,4,0,1,0,2,5,1,11
5,2,16,1,4,0,2,5,67,11
5,2,1,0,0,0,2,5,90,11
5,2,1,0,0,0,2,5,90,11
5,2,1,0,0,0,2,5,98,11
5,2,1,0,0,0,2,5,98,11
5,2,23,0,2,0,2,5,67,11
5,2,23,0,2,0,2,5,67,11
5,2,12,1,2,0,2,5,67,11
5,2,22,0,6,1,2,5,90,11
5,2,21,0,0,0,2,5,48,11
5,2,11,1,2,0,2,5,90,11
5,2,18,1,5,1,2,5,67,11
5,2,11,1,5,1,2,5,67,8
5,2,19,1,6,1,2,5,67,11
5,2,13,1,0,0,2,5,98,11
5,2,19,1,1,0,2,5,98,11
5,2,21,0,1,0,2,5,98,11
6,3,18,1,4,0,2,5,67,8
6,3,22,0,6,1,2,5,98,11
6,3,3,0,1,0,2,5,80,11
6,3,15,1,1,0,2,5,98,11
6,3,21,0,2,0,2,5,50,11
6,3,19,1,6,1,2,5,93,11
6,3,4,0,4,0,2,5,90,11
6,3,3,0,5,1,2,5,90,11
6,3,8,1,0,0,2,5,90,11
6,3,19,1,2,0,2,5,93,11
6,3,12,1,3,0,2,5,76,11
6,3,0,0,2,0,2,5,90,11
6,3,13,1,2,0,2,5,15,11
6,3,21,0,4,0,2,5,127,11
7,3,21,0,6,1,3,5,21,11
7,3,16,1,4,0,3,5,67,11
7,3,0,0,5,1,3,5,67,11
7,3,16,1,5,1,3,5,98,11
7,3,4,0,6,1,3,5,79,11
7,3,23,0,6,1,3,5,127,11
7,3,13,1,2,0,3,5,67,11
7,3,15,1,5,1,3,5,67,11
7,3,3,0,3,0,3,5,127,11
7,3,17,1,5,1,3,5,1,11
7,3,1,0,5,1,3,5,98,11
7,3,13,1,0,0,3,5,104,11
7,3,9,1,1,0,3,5,127,11
7,3,9,1,3,0,3,5,98,11
7,3,16,1,3,0,3,5,67,11
8,3,23,0,2,0,3,5,66,11
8,3,17,1,3,0,3,5,90,11
8,3,13,1,4,0,3,5,98,11
8,3,4,0,6,1,3,5,48,8
8,3,3,0,0,0,3,5,98,11
8,3,2,0,0,0,3,5,98,11
8,3,10,1,0,0,3,5,127,11
8,3,3,0,1,0,3,5,98,11
8,3,1,0,5,1,3,5,98,11
8,3,13,1,5,1,3,5,98,11
8,3,13,1,5,1,3,5,98,11
8,3,22,0,0,0,3,5,98,11
8,3,14,1,4,0,3,5,98,11
8,3,5,0,6,1,3,5,127,11
8,3,10,1,0,0,3,5,90,11
8,3,13,1,0,0,3,5,67,11
8,3,21,0,2,0,3,5,67,11
8,3,12,1,3,0,3,5,67,11
8,3,2,0,6,1,3,5,67,11
8,3,12,1,6,1,3,5,127,11
8,3,22,0,0,0,3,5,1,11
8,3,14,1,2,0,3,5,98,11
9,4,10,1,4,0,3,5,98,11
9,4,21,0,2,0,3,5,98,11
9,4,20,1,2,0,3,5,67,11
9,4,10,1,2,0,3,5,112,11
9,4,19,1,3,0,3,5,101,11
9,4,21,0,0,0,3,5,98,11
9,4,21,0,3,0,3,5,67,11
9,4,6,0,5,1,3,5,67,11
9,4,11,1,0,0,3,5,48,11
9,4,23,0,1,0,3,5,98,11
9,4,10,1,1,0,3,5,67,11
9,4,23,0,3,0,3,5,93,11
9,4,12,1,3,0,3,5,90,11
10,4,10,1,6,1,4,5,67,11
10,4,11,1,4,0,4,5,67,11
10,4,22,0,2,0,4,5,67,11
10,4,3,0,3,0,4,5,44,11
10,4,18,1,5,1,4,5,67,11
10,4,12,1,5,1,4,5,48,11
10,4,11,1,0,0,4,5,67,11
10,4,8,1,1,0,4,5,67,11
10,4,21,0,1,0,4,5,38,11
11,4,2,0,2,0,4,5,98,11
11,4,2,0,2,0,4,5,98,11
11,4,4,0,5,1,4,5,98,11
11,4,0,0,5,1,4,5,98,11
11,4,19,1,2,0,4,5,67,11
11,4,10,1,2,0,4,5,67,8
11,4,13,1,3,0,4,5,67,11
11,4,21,0,5,1,4,5,124,11
11,4,16,1,6,1,4,5,67,11
11,4,3,0,6,1,4,5,90,11
11,4,14,1,5,1,4,5,67,8
11,4,12,1,6,1,4,5,110,11
11,4,10,1,0,0,4,5,67,11
11,4,15,1,6,1,4,5,67,11
11,4,3,0,3,0,4,5,127,11
11,4,20,1,3,0,4,5,67,11
12,1,16,1,5,1,4,5,109,11
12,1,2,0,0,0,4,5,103,11
12,1,16,1,2,0,4,5,67,11
12,1,0,0,3,0,4,5,76,11
12,1,19,1,5,1,4,5,127,11
12,1,22,0,3,0,4,5,21,11
12,1,13,1,4,0,4,5,67,11
12,1,23,0,6,1,4,5,101,11
12,1,1,0,2,0,4,5,67,11
12,1,23,0,2,0,4,5,67,11
12,1,1,0,3,0,4,5,76,11
12,1,15,1,5,1,4,5,21,11
12,1,22,0,6,1,4,5,67,11
1,1,19,1,6,1,1,5,127,11
1,1,2,0,0,0,1,5,76,11
1,1,13,1,0,0,1,5,93,11
1,1,14,1,0,0,1,5,38,11
1,1,12,1,0,0,1,5,93,11
1,1,14,1,1,0,1,5,93,11
1,1,15,1,1,0,1,5,93,11
1,1,21,0,2,0,1,5,76,11
1,1,6,0,2,0,1,5,93,11
1,1,2,0,2,0,1,5,79,11
1,1,21,0,3,0,1,5,103,11
1,1,12,1,3,0,1,5,76,11
1,1,0,0,3,0,1,5,38,11
1,1,17,1,4,0,1,5,67,11
1,1,11,1,4,0,1,5,93,11
1,1,5,0,5,1,1,5,79,11
1,1,22,0,5,1,1,5,90,11
1,1,23,0,0,0,1,5,10,11
1,1,1,0,0,0,1,5,90,11
1,1,12,1,0,0,1,5,93,11
1,1,0,0,1,0,1,5,76,11
1,1,23,0,3,0,1,5,76,11
1,1,16,1,3,0,1,5,93,11
1,1,14,1,4,0,1,5,93,11
1,1,16,1,4,0,1,5,93,11
1,1,12,1,4,0,1,5,93,11
1,1,15,1,4,0,1,5,90,11
1,1,16,1,0,0,1,5,79,11
1,1,13,1,2,0,1,5,93,11
1,1,17,1,2,0,1,5,67,8
1,1,13,1,2,0,1,5,93,11
1,1,13,1,2,0,1,5,93,11
1,1,18,1,5,1,1,5,93,11
1,1,23,0,6,1,1,5,103,11
1,1,8,1,0,0,1,5,103,11
1,1,7,1,1,0,1,5,90,11
1,1,9,1,3,0,1,5,10,11
1,1,16,1,5,1,1,5,79,11
1,1,17,1,5,1,1,5,79,11
1,1,19,1,5,1,1,5,79,11
1,1,14,1,6,1,1,5,82,11
1,1,20,1,1,0,1,5,67,11
1,1,19,1,1,0,1,5,66,11
1,1,14,1,1,0,1,5,93,11
1,1,7,1,1,0,1,5,79,11
2,1,2,0,3,0,1,5,93,11
2,1,17,1,5,1,1,5,79,11
2,1,1,0,6,1,1,5,76,11
2,1,15,1,4,0,1,5,90,11
2,1,16,1,6,1,1,5,90,11
2,1,12,1,6,1,1,5,79,11
2,1,21,0,0,0,1,5,38,11
2,1,11,1,1,0,1,5,76,11
2,1,13,1,1,0,1,5,93,11
2,1,14,1,1,0,1,5,93,11
2,1,1,0,2,0,1,5,76,11
2,1,0,0,2,0,1,5,79,11
2,1,11,1,2,0,1,5,4,11
2,1,20,1,2,0,1,5,76,11
2,1,21,0,2,0,1,5,1,11
2,1,12,1,2,0,1,5,38,11
2,1,1,0,3,0,1,5,38,8
2,1,11,1,5,1,1,5,4,11
2,1,6,0,5,1,1,5,38,11
2,1,0,0,6,1,1,5,4,11
2,1,19,1,2,0,1,5,93,11
2,1,0,0,2,0,1,5,90,11
2,1,19,1,2,0,1,5,103,11
2,1,19,1,4,0,1,5,127,11
2,1,13,1,4,0,1,5,93,11
2,1,16,1,6,1,1,5,93,11
2,1,1,0,0,0,1,5,21,11
2,1,11,1,0,0,1,5,93,11
3,2,17,1,5,1,1,5,38,11
3,2,15,1,6,1,1,5,93,11
3,2,14,1,0,0,1,5,41,11
3,2,18,1,2,0,1,5,93,11
3,2,8,1,3,0,1,5,10,11
3,2,16,1,3,0,1,5,24,11
3,2,12,1,4,0,1,5,79,11
3,2,17,1,5,1,1,5,93,11
3,2,18,1,5,1,1,5,93,11
3,2,21,0,5,1,1,5,93,11
3,2,21,0,6,1,1,5,93,11
3,2,14,1,0,0,1,5,93,11
3,2,14,1,1,0,1,5,93,11
3,2,23,0,1,0,1,5,76,11
3,2,20,1,2,0,1,5,93,8
3,2,12,1,3,0,1,5,93,11
3,2,0,0,0,0,1,5,93,11
3,2,12,1,0,0,1,5,93,11
3,2,23,0,0,0,1,5,93,11
3,2,22,0,2,0,1,5,79,11
3,2,11,1,3,0,1,5,93,11
3,2,19,1,3,0,1,5,93,11
3,2,21,0,4,0,1,5,79,11
3,2,20,1,4,0,1,5,93,11
3,2,15,1,4,0,1,5,127,11
3,2,19,1,5,1,1,5,93,11
3,2,20,1,6,1,1,5,93,11
3,2,1,0,6,1,1,5,93,11
3,2,17,1,3,0,1,5,93,11
3,2,16,1,4,0,1,5,93,11
4,2,3,0,6,1,2,5,103,11
4,2,12,1,0,0,2,5,67,11
4,2,18,1,3,0,2,5,93,11
4,2,10,1,4,0,2,5,76,11
4,2,18,1,5,1,2,5,10,11
4,2,5,0,5,1,2,5,93,11
4,2,8,1,5,1,2,5,90,11
4,2,0,0,6,1,2,5,38,11
4,2,16,1,0,0,2,5,38,11
4,2,22,0,1,0,2,5,15,11
4,2,0,0,1,0,2,5,76,11
4,2,18,1,2,0,2,5,21,11
4,2,17,1,3,0,2,5,46,11
4,2,22,0,5,1,2,5,127,11
4,2,18,1,5,1,2,5,93,11
4,2,20,1,5,1,2,5,79,11
4,2,12,1,5,1,2,5,90,11
4,2,19,1,6,1,2,5,79,11
4,2,16,1,6,1,2,5,93,11
4,2,19,1,1,0,2,5,67,11
4,2,20,1,2,0,2,5,21,11
4,2,17,1,2,0,2,5,93,11
4,2,22,0,0,0,2,5,93,11
4,2,13,1,1,0,2,5,24,11
4,2,18,1,2,0,2,5,10,11
4,2,15,1,3,0,2,5,10,11
4,2,23,0,4,0,2,5,93,11
4,2,0,0,5,1,2,5,21,11
4,2,10,1,5,1,2,5,93,11
4,2,12,1,6,1,2,5,93,11
5,2,23,0,0,0,2,5,76,11
5,2,12,1,0,0,2,5,93,11
5,2,16,1,2,0,2,5,93,11
5,2,18,1,3,0,2,5,67,11
5,2,9,1,5,1,2,5,103,11
5,2,2,0,5,1,2,5,127,11
5,2,21,0,5,1,2,5,93,11
5,2,12,1,6,1,2,5,10,11
5,2,1,0,6,1,2,5,76,11
5,2,21,0,0,0,2,5,93,11
5,2,19,1,1,0,2,5,93,11
5,2,18,1,2,0,2,5,127,11
5,2,13,1,4,0,2,5,93,11
5,2,1,0,4,0,2,5,103,11
5,2,12,1,5,1,2,5,93,11
5,2,20,1,5,1,2,5,10,11
5,2,0,0,0,0,2,5,21,11
5,2,20,1,1,0,2,5,79,11
5,2,18,1,1,0,2,5,93,11
5,2,14,1,1,0,2,5,93,11
5,2,3,0,2,0,2,5,76,11
5,2,12,1,4,0,2,5,93,11
5,2,11,1,4,0,2,5,127,11
5,2,12,1,4,0,2,5,38,11
5,2,19,1,0,0,2,5,127,11
5,2,11,1,0,0,2,5,103,11
5,2,2,0,1,0,2,5,103,11
5,2,17,1,1,0,2,5,79,11
5,2,23,0,2,0,2,5,103,11
5,2,13,1,2,0,2,5,93,11
5,2,13,1,2,0,2,5,93,11
5,2,6,0,2,0,2,5,90,11
5,2,1,0,2,0,2,5,93,11
5,2,22,0,3,0,2,5,93,11
5,2,13,1,3,0,2,5,10,11
5,2,3,0,4,0,2,5,93,11
5,2,21,0,5,1,2,5,93,11
5,2,22,0,5,1,2,5,93,11
5,2,16,1,6,1,2,5,1,11
5,2,18,1,6,1,2,5,103,11
5,2,22,0,6,1,2,5,76,11
5,2,11,1,1,0,2,5,93,11
6,3,15,1,3,0,2,5,15,11
6,3,20,1,3,0,2,5,127,11
6,3,19,1,5,1,2,5,103,11
6,3,19,1,5,1,2,5,90,11
6,3,0,0,0,0,2,5,93,11
6,3,20,1,0,0,2,5,93,11
6,3,23,0,2,0,2,5,76,11
6,3,1,0,2,0,2,5,93,11
6,3,22,0,4,0,2,5,93,11
6,3,19,1,5,1,2,5,93,11
6,3,17,1,5,1,2,5,93,11
6,3,14,1,1,0,2,5,93,11
6,3,6,0,2,0,2,5,103,11
6,3,16,1,3,0,2,5,93,11
6,3,22,0,4,0,2,5,91,11
6,3,1,0,5,1,2,5,127,11
6,3,22,0,5,1,2,5,90,11
6,3,9,1,5,1,2,5,90,11
6,3,20,1,6,1,2,5,93,11
6,3,15,1,6,1,2,5,103,11
6,3,19,1,0,0,2,5,93,11
6,3,14,1,0,0,2,5,93,11
6,3,1,0,0,0,2,5,76,11
6,3,8,1,0,0,2,5,93,11
6,3,11,1,1,0,2,5,103,11
6,3,20,1,1,0,2,5,4,11
6,3,23,0,1,0,2,5,93,11
7,3,16,1,5,1,3,5,91,11
7,3,13,1,5,1,3,5,91,11
7,3,0,0,6,1,3,5,90,11
7,3,18,1,0,0,3,5,93,11
7,3,2,0,0,0,3,5,103,11
7,3,16,1,0,0,3,5,76,11
7,3,21,0,2,0,3,5,93,11
7,3,21,0,5,1,3,5,90,11
7,3,23,0,6,1,3,5,103,11
7,3,16,1,0,0,3,5,57,11
7,3,13,1,0,0,3,5,93,11
7,3,8,1,0,0,3,5,93,11
7,3,19,1,1,0,3,5,93,11
7,3,0,0,1,0,3,5,93,11
7,3,2,0,1,0,3,5,93,11
7,3,17,1,1,0,3,5,93,11
7,3,19,1,2,0,3,5,93,11
7,3,20,1,2,0,3,5,93,11
7,3,22,0,2,0,3,5,103,11
7,3,22,0,2,0,3,5,90,11
7,3,9,1,2,0,3,5,93,11
7,3,11,1,3,0,3,5,93,11
7,3,17,1,3,0,3,5,93,11
7,3,1,0,3,0,3,5,93,11
7,3,21,0,4,0,3,5,93,11
7,3,1,0,4,0,3,5,103,11
7,3,17,1,4,0,3,5,93,11
7,3,0,0,4,0,3,5,93,11
7,3,3,0,4,0,3,5,93,11
7,3,22,0,4,0,3,5,93,11
7,3,1,0,4,0,3,5,93,11
7,3,21,0,5,1,3,5,93,11
7,3,16,1,0,0,3,5,103,11
7,3,2,0,0,0,3,5,93,11
7,3,23,0,0,0,3,5,93,11
7,3,2,0,1,0,3,5,93,11
7,3,22,0,1,0,3,5,93,11
7,3,16,1,3,0,3,5,38,11
7,3,17,1,3,0,3,5,93,11
7,3,0,0,0,0,3,5,93,11
7,3,14,1,0,0,3,5,93,11
7,3,10,1,1,0,3,5,93,11
7,3,2,0,2,0,3,5,93,11
7,3,0,0,2,0,3,5,93,11
7,3,16,1,2,0,3,5,93,11
7,3,0,0,2,0,3,5,91,9
7,3,14,1,3,0,3,5,93,11
7,3,17,1,6,1,3,5,112,11
7,3,0,0,0,0,3,5,93,11
7,3,22,0,0,0,3,5,93,11
8,3,21,0,1,0,3,5,66,11
8,3,4,0,1,0,3,5,127,11
8,3,22,0,2,0,3,5,93,11
8,3,1,0,3,0,3,5,93,11
8,3,7,1,3,0,3,5,93,11
8,3,16,1,6,1,3,5,93,11
8,3,3,0,0,0,3,5,67,8
8,3,0,0,0,0,3,5,93,11
8,3,22,0,0,0,3,5,93,11
8,3,13,1,1,0,3,5,103,11
8,3,0,0,2,0,3,5,103,11
8,3,17,1,2,0,3,5,103,11
8,3,0,0,3,0,3,5,93,11
8,3,15,1,3,0,3,5,48,11
8,3,21,0,3,0,3,5,93,11
8,3,5,0,4,0,3,5,21,11
8,3,20,1,4,0,3,5,93,11
8,3,21,0,4,0,3,5,93,11
8,3,23,0,4,0,3,5,93,11
8,3,9,1,5,1,3,5,103,11
8,3,10,1,5,1,3,5,93,11
8,3,22,0,1,0,3,5,93,11
8,3,23,0,1,0,3,5,93,11
8,3,12,1,3,0,3,5,24,11
8,3,19,1,3,0,3,5,76,11
8,3,3,0,4,0,3,5,93,11
8,3,19,1,5,1,3,5,93,8
8,3,11,1,6,1,3,5,93,11
8,3,19,1,0,0,3,5,93,11
8,3,17,1,0,0,3,5,79,11
8,3,21,0,0,0,3,5,93,11
8,3,22,0,0,0,3,5,93,11
8,3,2,0,1,0,3,5,93,11
8,3,11,1,1,0,3,5,93,11
8,3,13,1,1,0,3,5,93,11
8,3,23,0,1,0,3,5,93,11
8,3,23,0,1,0,3,5,79,8
8,3,11,1,2,0,3,5,93,11
8,3,12,1,2,0,3,5,28,11
8,3,12,1,2,0,3,5,79,11
8,3,22,0,4,0,3,5,91,11
8,3,23,0,1,0,3,5,93,11
8,3,10,1,2,0,3,5,103,11
9,4,12,1,4,0,3,5,93,11
9,4,11,1,6,1,3,5,67,11
9,4,18,1,6,1,3,5,93,11
9,4,19,1,0,0,3,5,127,11
9,4,13,1,1,0,3,5,93,11
9,4,0,0,3,0,3,5,67,9
9,4,21,0,5,1,3,5,91,11
9,4,18,1,0,0,3,5,93,11
9,4,21,0,0,0,3,5,93,11
9,4,1,0,0,0,3,5,76,11
9,4,11,1,3,0,3,5,93,11
9,4,15,1,3,0,3,5,67,11
9,4,19,1,5,1,3,5,103,11
9,4,0,0,0,0,3,5,93,11
9,4,15,1,0,0,3,5,103,11
9,4,17,1,1,0,3,5,103,11
9,4,21,0,1,0,3,5,103,11
9,4,19,1,1,0,3,5,93,11
9,4,9,1,4,0,3,5,93,11
9,4,18,1,6,1,3,5,103,11
9,4,19,1,0,0,3,5,103,11
9,4,7,1,0,0,3,5,48,8
9,4,7,1,0,0,3,5,47,11
9,4,1,0,4,0,3,5,76,11
9,4,20,1,4,0,3,5,93,11
9,4,20,1,5,1,3,5,15,11
10,4,14,1,0,0,4,5,90,11
10,4,2,0,6,1,4,5,103,11
10,4,6,0,6,1,4,5,93,11
10,4,3,0,1,0,4,5,93,11
10,4,12,1,1,0,4,5,93,11
10,4,0,0,6,1,4,5,127,11
10,4,12,1,0,0,4,5,1,11
10,4,8,1,5,1,4,5,79,8
10,4,4,0,2,0,4,5,1,11
10,4,18,1,3,0,4,5,1,11
10,4,13,1,3,0,4,5,10,8
10,4,23,0,4,0,4,5,93,11
10,4,22,0,4,0,4,5,103,11
10,4,1,0,6,1,4,5,93,11
10,4,20,1,6,1,4,5,10,11
10,4,23,0,0,0,4,5,79,11
11,4,15,1,2,0,4,5,10,11
11,4,21,0,3,0,4,5,93,11
11,4,0,0,3,0,4,5,93,11
11,4,11,1,5,1,4,5,93,11
11,4,21,0,6,1,4,5,93,11
11,4,23,0,6,1,4,5,1,8
11,4,1,0,6,1,4,5,21,8
11,4,11,1,6,1,4,5,93,11
11,4,23,0,0,0,4,5,93,11
11,4,8,1,0,0,4,5,103,11
11,4,11,1,1,0,4,5,93,11
11,4,18,1,1,0,4,5,93,11
11,4,16,1,2,0,4,5,93,11
11,4,0,0,4,0,4,5,103,11
11,4,1,0,4,0,4,5,93,11
11,4,11,1,6,1,4,5,103,11
11,4,14,1,6,1,4,5,103,11
11,4,1,0,1,0,4,5,103,11
11,4,23,0,2,0,4,5,90,11
11,4,23,0,2,0,4,5,103,11
11,4,20,1,3,0,4,5,4,11
11,4,10,1,4,0,4,5,103,11
11,4,13,1,4,0,4,5,93,11
11,4,18,1,4,0,4,5,103,11
11,4,23,0,4,0,4,5,93,11
11,4,13,1,5,1,4,5,93,11
11,4,23,0,5,1,4,5,46,8
11,4,17,1,6,1,4,5,93,11
11,4,11,1,6,1,4,5,103,11
11,4,7,1,0,0,4,5,10,11
11,4,23,0,1,0,4,5,103,11
11,4,0,0,1,0,4,5,103,11
11,4,16,1,3,0,4,5,93,11
12,1,23,0,4,0,4,5,93,11
12,1,8,1,5,1,4,5,76,8
12,1,11,1,5,1,4,5,93,11
12,1,22,0,5,1,4,5,76,11
12,1,17,1,6,1,4,5,93,11
12,1,23,0,6,1,4,5,93,11
12,1,20,1,2,0,4,5,10,11
12,1,16,1,2,0,4,5,93,11
12,1,2,0,3,0,4,5,32,11
12,1,17,1,1,0,4,5,58,11
12,1,7,1,2,0,4,5,67,11
12,1,21,0,2,0,4,5,21,11
12,1,7,1,3,0,4,5,76,11
12,1,17,1,0,0,4,5,93,11
12,1,13,1,2,0,4,5,103,11
12,1,15,1,2,0,4,5,93,11
12,1,1,0,5,1,4,5,90,11
1,1,21,0,6,1,1,5,90,11
1,1,6,0,6,1,1,5,90,11
1,1,21,0,6,1,1,5,79,11
1,1,21,0,6,1,1,5,90,11
1,1,20,1,1,0,1,5,38,11
1,1,20,1,2,0,1,5,90,11
1,1,22,0,4,0,1,5,79,11
1,1,3,0,0,0,1,5,90,11
1,1,20,1,0,0,1,5,67,11
1,1,16,1,1,0,1,5,90,11
1,1,18,1,2,0,1,5,67,11
1,1,20,1,2,0,1,5,67,11
1,1,18,1,2,0,1,5,90,11
1,1,21,0,3,0,1,5,66,11
1,1,18,1,3,0,1,5,98,11
1,1,18,1,6,1,1,5,67,11
1,1,13,1,0,0,1,5,79,11
1,1,14,1,0,0,1,5,67,9
1,1,20,1,0,0,1,5,90,11
1,1,21,0,3,0,1,5,80,11
1,1,19,1,4,0,1,5,67,11
1,1,16,1,4,0,1,5,90,11
1,1,6,0,6,1,1,5,90,11
1,1,17,1,6,1,1,5,79,11
1,1,8,1,0,0,1,5,67,11
2,1,22,0,3,0,1,5,90,11
2,1,4,0,3,0,1,5,90,11
2,1,0,0,3,0,1,5,90,11
2,1,22,0,4,0,1,5,67,11
2,1,20,1,0,0,1,5,67,11
2,1,19,1,3,0,1,5,67,11
2,1,8,1,4,0,1,5,21,11
2,1,21,0,4,0,1,5,48,11
2,1,18,1,4,0,1,5,67,11
2,1,20,1,5,1,1,5,38,11
2,1,21,0,5,1,1,5,90,11
2,1,22,0,5,1,1,5,90,11
2,1,19,1,5,1,1,5,67,11
2,1,14,1,5,1,1,5,67,11
2,1,21,0,5,1,1,5,21,11
2,1,22,0,5,1,1,5,67,11
2,1,9,1,6,1,1,5,67,11
2,1,16,1,0,0,1,5,67,9
2,1,12,1,1,0,1,5,79,11
2,1,20,1,2,0,1,5,58,11
2,1,8,1,2,0,1,5,67,11
2,1,15,1,3,0,1,5,90,11
2,1,20,1,4,0,1,5,21,11
2,1,15,1,5,1,1,5,67,11
2,1,12,1,6,1,1,5,90,11
2,1,18,1,0,0,1,5,67,11
2,1,21,0,2,0,1,5,98,11
2,1,1,0,6,1,1,5,90,11
2,1,7,1,0,0,1,5,90,11
3,2,12,1,6,1,1,5,101,11
3,2,22,0,1,0,1,5,38,11
3,2,20,1,2,0,1,5,66,11
3,2,11,1,5,1,1,5,38,11
3,2,1,0,6,1,1,5,90,11
3,2,19,1,1,0,1,5,67,8
3,2,6,0,3,0,1,5,80,11
3,2,22,0,5,1,1,5,67,11
3,2,12,1,5,1,1,5,90,11
3,2,13,1,6,1,1,5,90,11
3,2,13,1,2,0,1,5,67,11
3,2,20,1,1,0,1,5,21,11
3,2,10,1,2,0,1,5,67,11
4,2,11,1,5,1,2,5,21,11
4,2,6,0,0,0,2,5,127,11
4,2,15,1,2,0,2,5,67,11
4,2,16,1,5,1,2,5,67,11
4,2,9,1,6,1,2,5,58,8
4,2,0,0,2,0,2,5,67,11
4,2,14,1,2,0,2,5,67,11
4,2,14,1,3,0,2,5,79,11
4,2,3,0,3,0,2,5,90,11
4,2,23,0,5,1,2,5,85,11
4,2,4,0,6,1,2,5,67,11
4,2,16,1,6,1,2,5,90,11
4,2,13,1,0,0,2,5,90,11
4,2,1,0,3,0,2,5,127,11
4,2,17,1,3,0,2,5,48,11
4,2,23,0,3,0,2,5,90,11
4,2,15,1,3,0,2,5,21,11
4,2,1,0,3,0,2,5,90,11
4,2,22,0,6,1,2,5,90,11
4,2,23,0,0,0,2,5,90,11
4,2,10,1,3,0,2,5,67,11
4,2,21,0,6,1,2,5,127,11
5,2,19,1,0,0,2,5,41,11
5,2,10,1,5,1,2,5,67,11
5,2,21,0,5,1,2,5,67,11
5,2,0,0,6,1,2,5,67,8
5,2,16,1,2,0,2,5,90,11
5,2,18,1,3,0,2,5,90,11
5,2,17,1,4,0,2,5,67,11
5,2,22,0,5,1,2,5,93,8
5,2,23,0,2,0,2,5,41,11
5,2,3,0,4,0,2,5,41,11
5,2,16,1,5,1,2,5,127,11
5,2,21,0,5,1,2,5,66,11
5,2,19,1,5,1,2,5,98,11
5,2,3,0,6,1,2,5,67,11
5,2,2,0,6,1,2,5,90,11
5,2,23,0,0,0,2,5,98,11
5,2,17,1,1,0,2,5,98,11
6,3,22,0,3,0,2,5,76,11
6,3,14,1,4,0,2,5,98,11
6,3,23,0,4,0,2,5,66,11
6,3,7,1,6,1,2,5,67,11
6,3,23,0,6,1,2,5,101,11
6,3,0,0,1,0,2,5,90,11
6,3,13,1,1,0,2,5,67,11
6,3,8,1,1,0,2,5,90,11
6,3,12,1,2,0,2,5,103,11
6,3,23,0,2,0,2,5,66,11
6,3,22,0,2,0,2,5,66,11
6,3,16,1,3,0,2,5,103,11
6,3,5,0,6,1,2,5,67,11
6,3,0,0,6,1,2,5,79,11
6,3,18,1,4,0,2,5,79,11
6,3,18,1,4,0,2,5,76,11
6,3,0,0,5,1,2,5,103,11
6,3,1,0,6,1,2,5,67,11
6,3,2,0,2,0,2,5,98,11
6,3,0,0,5,1,2,5,90,11
6,3,19,1,1,0,2,5,90,11
6,3,1,0,1,0,2,5,90,11
6,3,1,0,1,0,2,5,90,11
6,3,7,1,3,0,2,5,21,11
6,3,14,1,4,0,2,5,90,11
7,3,3,0,1,0,3,5,90,11
7,3,12,1,2,0,3,5,38,11
7,3,1,0,3,0,3,5,76,11
7,3,10,1,6,1,3,5,99,11
7,3,19,1,0,0,3,5,75,11
7,3,5,0,6,1,3,5,67,11
7,3,0,0,2,0,3,5,38,11
7,3,4,0,6,1,3,5,90,11
7,3,19,1,6,1,3,5,67,11
7,3,18,1,1,0,3,5,67,11
7,3,7,1,0,0,3,5,21,11
8,3,13,1,1,0,3,5,90,11
8,3,1,0,3,0,3,5,90,11
8,3,23,0,3,0,3,5,67,11
8,3,3,0,6,1,3,5,67,11
8,3,2,0,6,1,3,5,90,11
8,3,20,1,2,0,3,5,90,11
8,3,1,0,3,0,3,5,90,11
8,3,5,0,0,0,3,5,66,11
8,3,1,0,2,0,3,5,38,11
8,3,2,0,6,1,3,5,103,11
8,3,12,1,6,1,3,5,90,11
8,3,21,0,0,0,3,5,58,11
8,3,2,0,1,0,3,5,67,11
8,3,3,0,2,0,3,5,90,11
8,3,12,1,2,0,3,5,80,11
8,3,9,1,3,0,3,5,101,11
8,3,4,0,3,0,3,5,90,11
8,3,1,0,6,1,3,5,98,11
8,3,15,1,3,0,3,5,67,11
9,4,0,0,4,0,3,5,90,11
9,4,13,1,6,1,3,5,90,11
9,4,17,1,2,0,3,5,90,11
9,4,21,0,4,0,3,5,90,11
9,4,10,1,1,0,3,5,21,11
9,4,3,0,3,0,3,5,103,11
9,4,2,0,3,0,3,5,103,11
9,4,2,0,6,1,3,5,90,11
9,4,14,1,0,0,3,5,67,11
9,4,5,0,2,0,3,5,80,11
10,4,3,0,0,0,4,5,21,11
10,4,19,1,2,0,4,5,67,11
10,4,2,0,3,0,4,5,90,11
10,4,1,0,3,0,4,5,90,11
10,4,1,0,3,0,4,5,90,11
10,4,21,0,0,0,4,5,90,11
10,4,22,0,2,0,4,5,127,11
10,4,1,0,6,1,4,5,67,11
10,4,17,1,2,0,4,5,58,11
10,4,12,1,4,0,4,5,67,11
10,4,15,1,5,1,4,5,21,11
10,4,9,1,1,0,4,5,67,11
10,4,21,0,3,0,4,5,67,11
10,4,4,0,6,1,4,5,67,11
10,4,18,1,1,0,4,5,127,11
11,4,20,1,6,1,4,5,67,11
11,4,10,1,2,0,4,5,67,11
11,4,14,1,0,0,4,5,67,11
11,4,21,0,6,1,4,5,67,8
11,4,9,1,1,0,4,5,21,11
11,4,23,0,2,0,4,5,67,11
12,1,16,1,3,0,4,5,67,11
12,1,0,0,1,0,4,5,103,11
12,1,12,1,2,0,4,5,90,11
12,1,0,0,4,0,4,5,90,11
12,1,6,0,4,0,4,5,90,11
12,1,0,0,6,1,4,5,90,11
12,1,11,1,6,1,4,5,76,11
12,1,2,0,0,0,4,5,76,9
12,1,23,0,0,0,4,5,67,11
12,1,18,1,1,0,4,5,93,11
12,1,16,1,2,0,4,5,15,8
12,1,4,0,3,0,4,5,15,11
12,1,11,1,3,0,4,5,1,11
12,1,15,1,2,0,4,5,90,11
12,1,6,0,3,0,4,5,90,11
12,1,8,1,5,1,4,5,38,8
12,1,1,0,6,1,4,5,67,11
12,1,12,1,6,1,4,5,90,11
1,1,19,1,6,1,1,5,127,11
1,1,22,0,0,0,1,5,21,11
1,1,13,1,3,0,1,5,67,11
1,1,12,1,4,0,1,5,84,11
1,1,1,0,5,1,1,5,127,11
1,1,20,1,0,0,1,5,103,11
1,1,1,0,1,0,1,5,10,11
1,1,15,1,2,0,1,5,127,11
1,1,19,1,3,0,1,5,38,11
1,1,11,1,3,0,1,5,10,11
1,1,0,0,5,1,1,5,127,11
1,1,14,1,5,1,1,5,90,11
1,1,17,1,0,0,1,5,21,11
1,1,1,0,1,0,1,5,127,11
1,1,0,0,1,0,1,5,127,11
1,1,20,1,1,0,1,5,67,11
1,1,18,1,4,0,1,5,127,11
1,1,18,1,4,0,1,5,21,11
1,1,16,1,5,1,1,5,127,11
1,1,2,0,6,1,1,5,127,11
1,1,23,0,0,0,1,5,67,11
1,1,20,1,1,0,1,5,79,11
1,1,21,0,1,0,1,5,66,11
1,1,3,0,1,0,1,5,67,11
1,1,20,1,4,0,1,5,127,11
1,1,11,1,4,0,1,5,127,11
1,1,13,1,5,1,1,5,79,11
1,1,20,1,0,0,1,5,38,11
1,1,22,0,0,0,1,5,67,11
2,1,1,0,3,0,1,5,127,11
2,1,11,1,3,0,1,5,73,11
2,1,23,0,4,0,1,5,80,11
2,1,19,1,0,0,1,5,67,11
2,1,15,1,0,0,1,5,127,11
2,1,21,0,1,0,1,5,127,11
2,1,9,1,1,0,1,5,67,11
2,1,20,1,2,0,1,5,103,11
2,1,21,0,2,0,1,5,33,9
2,1,18,1,2,0,1,5,67,11
2,1,18,1,4,0,1,5,67,11
2,1,20,1,5,1,1,5,38,11
2,1,10,1,6,1,1,5,127,11
2,1,13,1,0,0,1,5,67,11
2,1,21,0,0,0,1,5,38,11
2,1,17,1,1,0,1,5,67,11
2,1,15,1,1,0,1,5,38,11
2,1,11,1,2,0,1,5,21,11
2,1,20,1,3,0,1,5,48,11
2,1,15,1,5,1,1,5,69,11
2,1,10,1,5,1,1,5,58,11
2,1,20,1,2,0,1,5,127,11
2,1,21,0,6,1,1,5,67,11
2,1,15,1,6,1,1,5,127,11
2,1,16,1,6,1,1,5,21,11
2,1,16,1,0,0,1,5,79,11
2,1,9,1,1,0,1,5,127,11
2,1,18,1,1,0,1,5,67,11
2,1,0,0,1,0,1,5,67,11
3,2,9,1,3,0,1,5,107,11
3,2,21,0,4,0,1,5,127,11
3,2,23,0,4,0,1,5,127,11
3,2,5,0,2,0,1,5,89,11
3,2,16,1,4,0,1,5,38,11
3,2,1,0,5,1,1,5,112,11
3,2,6,0,5,1,1,5,21,11
3,2,11,1,1,0,1,5,127,11
3,2,15,1,1,0,1,5,67,11
3,2,17,1,1,0,1,5,10,11
3,2,10,1,4,0,1,5,38,11
3,2,9,1,5,1,1,5,127,11
3,2,16,1,5,1,1,5,127,11
3,2,23,0,5,1,1,5,103,11
3,2,10,1,6,1,1,5,127,11
3,2,22,0,0,0,1,5,67,11
3,2,4,0,1,0,1,5,21,11
3,2,13,1,5,1,1,5,79,11
3,2,4,0,6,1,1,5,50,11
3,2,21,0,1,0,1,5,112,11
3,2,21,0,2,0,1,5,67,11
3,2,11,1,3,0,1,5,84,11
4,2,18,1,5,1,2,5,127,11
4,2,11,1,5,1,2,5,103,11
4,2,14,1,0,0,2,5,21,11
4,2,19,1,1,0,2,5,67,11
4,2,1,0,2,0,2,5,93,11
4,2,5,0,3,0,2,5,67,11
4,2,12,1,4,0,2,5,127,11
4,2,18,1,6,1,2,5,66,11
4,2,4,0,6,1,2,5,67,11
4,2,13,1,0,0,2,5,127,11
4,2,12,1,5,1,2,5,38,11
4,2,4,0,5,1,2,5,127,11
4,2,5,0,5,1,2,5,21,11
4,2,22,0,6,1,2,5,67,11
4,2,1,0,0,0,2,5,127,11
4,2,20,1,0,0,2,5,76,11
4,2,12,1,2,0,2,5,127,11
4,2,12,1,2,0,2,5,127,11
4,2,22,0,5,1,2,5,127,11
5,2,2,0,3,0,2,5,21,11
5,2,4,0,1,0,2,5,127,11
5,2,5,0,1,0,2,5,127,11
5,2,4,0,1,0,2,5,127,11
5,2,5,0,1,0,2,5,127,11
5,2,1,0,1,0,2,5,127,11
5,2,2,0,1,0,2,5,127,11
5,2,4,0,1,0,2,5,127,11
5,2,12,1,3,0,2,5,93,11
5,2,20,1,5,1,2,5,79,11
5,2,16,1,5,1,2,5,21,11
5,2,4,0,6,1,2,5,103,11
5,2,21,0,0,0,2,5,127,11
6,3,22,0,5,1,2,5,93,11
6,3,15,1,6,1,2,5,103,11
6,3,15,1,0,0,2,5,90,11
6,3,13,1,1,0,2,5,93,11
6,3,6,0,1,0,2,5,90,11
6,3,2,0,5,1,2,5,93,11
6,3,12,1,0,0,2,5,103,11
6,3,22,0,2,0,2,5,67,8
6,3,22,0,4,0,2,5,103,11
6,3,2,0,1,0,2,5,58,11
7,3,2,0,5,1,3,5,67,11
7,3,18,1,5,1,3,5,90,11
7,3,21,0,5,1,3,5,98,11
7,3,1,0,1,0,3,5,67,11
7,3,10,1,5,1,3,5,90,11
7,3,9,1,5,1,3,5,48,11
7,3,13,1,1,0,3,5,1,11
7,3,18,1,2,0,3,5,48,11
7,3,22,0,3,0,3,5,79,11
7,3,6,0,3,0,3,5,38,11
7,3,16,1,3,0,3,5,91,11
7,3,17,1,5,1,3,5,67,8
7,3,3,0,0,0,3,5,79,8
7,3,0,0,2,0,3,5,93,11
7,3,23,0,3,0,3,5,90,11
7,3,22,0,4,0,3,5,98,11
7,3,17,1,6,1,3,5,93,11
7,3,2,0,2,0,3,5,58,8
7,3,16,1,0,0,3,5,67,11
8,3,19,1,2,0,3,5,10,11
8,3,8,1,4,0,3,5,21,11
8,3,19,1,0,0,3,5,70,8
8,3,20,1,3,0,3,5,47,11
8,3,15,1,3,0,3,5,103,11
8,3,12,1,3,0,3,5,112,11
8,3,18,1,4,0,3,5,93,11
8,3,3,0,5,1,3,5,127,11
8,3,11,1,6,1,3,5,21,11
8,3,4,0,0,0,3,5,93,8
8,3,3,0,1,0,3,5,21,11
8,3,20,1,1,0,3,5,127,11
8,3,15,1,2,0,3,5,112,11
8,3,14,1,5,1,3,5,58,11
8,3,21,0,6,1,3,5,126,11
8,3,0,0,0,0,3,5,93,11
9,4,21,0,0,0,3,5,67,8
9,4,23,0,1,0,3,5,127,11
9,4,16,1,4,0,3,5,79,11
9,4,17,1,5,1,3,5,37,11
9,4,13,1,6,1,3,5,21,11
10,4,3,0,6,1,4,5,76,11
10,4,22,0,2,0,4,5,67,11
10,4,17,1,3,0,4,5,10,11
10,4,15,1,3,0,4,5,93,11
10,4,16,1,2,0,4,5,93,11
10,4,2,0,2,0,4,5,21,11
10,4,17,1,1,0,4,5,21,11
10,4,7,1,3,0,4,5,67,11
10,4,21,0,4,0,4,5,21,11
10,4,5,0,0,0,4,5,127,11
10,4,17,1,0,0,4,5,21,11
10,4,3,0,1,0,4,5,21,9
10,4,2,0,5,1,4,5,67,11
10,4,20,1,5,1,4,5,21,11
11,4,19,1,0,0,4,5,93,11
11,4,7,1,2,0,4,5,90,11
11,4,2,0,3,0,4,5,90,11
11,4,14,1,5,1,4,5,67,11
11,4,19,1,6,1,4,5,67,11
11,4,14,1,6,1,4,5,103,11
11,4,8,1,0,0,4,5,76,11
11,4,16,1,1,0,4,5,67,11
12,1,17,1,4,0,4,5,38,11
12,1,17,1,1,0,4,5,93,11
12,1,22,0,4,0,4,5,93,11
12,1,1,0,4,0,4,5,93,11
12,1,23,0,2,0,4,5,67,11
12,1,7,1,0,0,4,5,93,11
12,1,11,1,0,0,4,5,93,11
12,1,19,1,1,0,4,5,38,11
12,1,16,1,5,1,4,5,93,11
1,1,20,1,6,1,1,5,38,11
1,1,4,0,6,1,1,5,67,11
1,1,15,1,0,0,1,5,103,11
1,1,19,1,0,0,1,5,21,11
1,1,18,1,0,0,1,5,38,11
1,1,0,0,1,0,1,5,47,9
1,1,22,0,1,0,1,5,90,11
1,1,2,0,2,0,1,5,90,11
1,1,22,0,2,0,1,5,38,11
1,1,4,0,3,0,1,5,127,11
1,1,12,1,4,0,1,5,127,11
1,1,19,1,4,0,1,5,127,11
1,1,20,1,5,1,1,5,127,11
1,1,14,1,5,1,1,5,127,11
1,1,7,1,5,1,1,5,76,11
1,1,6,0,0,0,1,5,127,11
1,1,8,1,1,0,1,5,90,11
1,1,1,0,1,0,1,5,90,11
1,1,21,0,2,0,1,5,93,11
1,1,20,1,3,0,1,5,98,11
1,1,16,1,3,0,1,5,23,11
1,1,5,0,5,1,1,5,109,11
1,1,9,1,6,1,1,5,67,11
1,1,14,1,6,1,1,5,21,11
1,1,6,0,6,1,1,5,21,11
1,1,1,0,6,1,1,5,90,11
1,1,17,1,6,1,1,5,90,11
1,1,10,1,0,0,1,5,79,9
1,1,13,1,0,0,1,5,127,11
1,1,14,1,1,0,1,5,67,11
1,1,5,0,6,1,1,5,90,11
1,1,15,1,6,1,1,5,79,11
1,1,5,0,3,0,1,5,32,9
1,1,12,1,3,0,1,5,46,11
1,1,18,1,3,0,1,5,21,11
1,1,10,1,3,0,1,5,90,11
1,1,11,1,4,0,1,5,90,11
1,1,10,1,4,0,1,5,90,11
1,1,22,0,5,1,1,5,67,11
1,1,11,1,6,1,1,5,67,11
1,1,19,1,6,1,1,5,79,11
1,1,9,1,0,0,1,5,10,11
1,1,13,1,1,0,1,5,67,11
1,1,22,0,1,0,1,5,67,11
1,1,16,1,1,0,1,5,10,11
2,1,7,1,2,0,1,5,43,11
2,1,14,1,5,1,1,5,93,11
2,1,12,1,6,1,1,5,67,11
2,1,8,1,6,1,1,5,79,9
2,1,12,1,6,1,1,5,66,11
2,1,16,1,6,1,1,5,90,11
2,1,15,1,0,0,1,5,90,11
2,1,21,0,1,0,1,5,90,11
2,1,11,1,1,0,1,5,38,11
2,1,10,1,2,0,1,5,38,11
2,1,21,0,2,0,1,5,90,11
2,1,22,0,2,0,1,5,90,11
2,1,20,1,3,0,1,5,67,11
2,1,21,0,3,0,1,5,79,11
2,1,17,1,3,0,1,5,67,11
2,1,14,1,4,0,1,5,90,11
2,1,11,1,6,1,1,5,67,11
2,1,23,0,6,1,1,5,90,11
2,1,3,0,0,0,1,5,103,11
2,1,11,1,2,0,1,5,15,11
2,1,11,1,2,0,1,5,10,11
2,1,12,1,2,0,1,5,21,11
2,1,23,0,2,0,1,5,103,11
2,1,16,1,3,0,1,5,48,9
2,1,19,1,3,0,1,5,10,11
2,1,16,1,3,0,1,5,79,11
2,1,11,1,4,0,1,5,90,11
2,1,13,1,4,0,1,5,90,11
2,1,2,0,5,1,1,5,90,11
2,1,19,1,5,1,1,5,67,11
2,1,22,0,2,0,1,5,38,11
2,1,23,0,3,0,1,5,90,11
2,1,19,1,4,0,1,5,67,11
2,1,0,0,4,0,1,5,42,11
2,1,18,1,5,1,1,5,90,11
2,1,16,1,0,0,1,5,79,11
2,1,2,0,0,0,1,5,90,11
2,1,22,0,0,0,1,5,103,11
2,1,16,1,1,0,1,5,116,11
3,2,5,0,2,0,1,5,67,11
3,2,0,0,3,0,1,5,90,11
3,2,15,1,5,1,1,5,79,11
3,2,19,1,1,0,1,5,79,11
3,2,10,1,2,0,1,5,90,11
3,2,22,0,2,0,1,5,66,11
3,2,16,1,2,0,1,5,90,11
3,2,16,1,2,0,1,5,90,11
3,2,23,0,2,0,1,5,90,11
3,2,15,1,3,0,1,5,67,11
3,2,6,0,3,0,1,5,46,11
3,2,20,1,4,0,1,5,38,11
3,2,15,1,4,0,1,5,10,11
3,2,5,0,5,1,1,5,90,11
3,2,2,0,6,1,1,5,90,11
3,2,17,1,6,1,1,5,67,11
3,2,0,0,6,1,1,5,90,11
3,2,2,0,6,1,1,5,10,11
3,2,9,1,6,1,1,5,90,11
3,2,16,1,6,1,1,5,93,11
3,2,21,0,6,1,1,5,90,11
3,2,22,0,6,1,1,5,90,11
3,2,22,0,6,1,1,5,90,11
3,2,0,0,0,0,1,5,90,11
3,2,2,0,1,0,1,5,90,11
3,2,14,1,1,0,1,5,90,11
3,2,1,0,1,0,1,5,90,11
3,2,1,0,1,0,1,5,101,11
3,2,19,1,2,0,1,5,38,11
3,2,6,0,3,0,1,5,82,9
3,2,14,1,3,0,1,5,93,11
3,2,13,1,4,0,1,5,67,11
3,2,22,0,4,0,1,5,91,11
3,2,21,0,5,1,1,5,46,11
3,2,18,1,5,1,1,5,66,11
3,2,21,0,6,1,1,5,103,11
3,2,13,1,0,0,1,5,103,11
3,2,1,0,0,0,1,5,38,11
3,2,19,1,0,0,1,5,93,11
3,2,12,1,2,0,1,5,21,11
3,2,22,0,2,0,1,5,90,11
3,2,13,1,3,0,1,5,90,11
3,2,11,1,5,1,1,5,10,11
3,2,17,1,5,1,1,5,90,11
3,2,4,0,5,1,1,5,90,9
3,2,9,1,6,1,1,5,79,11
3,2,13,1,6,1,1,5,67,11
3,2,20,1,6,1,1,5,21,11
3,2,18,1,6,1,1,5,86,11
3,2,19,1,1,0,1,5,79,11
3,2,21,0,2,0,1,5,67,11
3,2,19,1,2,0,1,5,21,11
3,2,9,1,4,0,1,5,66,11
4,2,4,0,0,0,2,5,21,11
4,2,14,1,0,0,2,5,58,11
4,2,17,1,0,0,2,5,10,11
4,2,22,0,1,0,2,5,58,11
4,2,19,1,1,0,2,5,10,11
4,2,17,1,1,0,2,5,79,11
4,2,15,1,1,0,2,5,90,11
4,2,18,1,3,0,2,5,90,11
4,2,21,0,3,0,2,5,103,11
4,2,22,0,3,0,2,5,90,11
4,2,14,1,4,0,2,5,48,11
4,2,10,1,5,1,2,5,38,9
4,2,19,1,0,0,2,5,67,11
4,2,21,0,0,0,2,5,21,11
4,2,18,1,0,0,2,5,79,11
4,2,13,1,2,0,2,5,90,11
4,2,22,0,3,0,2,5,90,11
4,2,11,1,3,0,2,5,38,11
4,2,21,0,4,0,2,5,98,11
4,2,5,0,5,1,2,5,15,8
4,2,13,1,5,1,2,5,93,11
4,2,5,0,6,1,2,5,67,11
4,2,0,0,6,1,2,5,90,11
4,2,0,0,6,1,2,5,103,11
4,2,18,1,6,1,2,5,10,11
4,2,3,0,0,0,2,5,90,11
4,2,13,1,2,0,2,5,98,11
4,2,19,1,3,0,2,5,21,11
4,2,21,0,5,1,2,5,67,11
4,2,6,0,6,1,2,5,90,11
4,2,19,1,2,0,2,5,112,11
4,2,11,1,2,0,2,5,93,11
4,2,14,1,2,0,2,5,93,11
4,2,15,1,4,0,2,5,10,11
4,2,1,0,5,1,2,5,21,9
4,2,17,1,5,1,2,5,93,11
4,2,11,1,6,1,2,5,10,11
5,2,7,1,0,0,2,5,48,11
5,2,1,0,0,0,2,5,90,11
5,2,9,1,0,0,2,5,83,11
5,2,2,0,1,0,2,5,90,11
5,2,4,0,4,0,2,5,90,11
5,2,4,0,5,1,2,5,90,11
5,2,8,1,5,1,2,5,76,11
5,2,10,1,5,1,2,5,76,9
5,2,23,0,6,1,2,5,90,11
5,2,19,1,6,1,2,5,10,11
5,2,11,1,2,0,2,5,21,11
5,2,11,1,2,0,2,5,21,11
5,2,2,0,5,1,2,5,90,11
5,2,10,1,6,1,2,5,67,11
5,2,19,1,6,1,2,5,10,11
5,2,21,0,0,0,2,5,67,11
5,2,2,0,0,0,2,5,90,11
5,2,1,0,0,0,2,5,90,11
5,2,3,0,0,0,2,5,90,11
5,2,16,1,1,0,2,5,79,11
5,2,19,1,1,0,2,5,67,11
5,2,20,1,2,0,2,5,91,11
5,2,4,0,4,0,2,5,93,9
5,2,1,0,6,1,2,5,90,11
5,2,22,0,6,1,2,5,103,11
5,2,17,1,6,1,2,5,90,11
5,2,2,0,0,0,2,5,90,11
5,2,16,1,2,0,2,5,98,11
5,2,16,1,2,0,2,5,98,11
5,2,18,1,2,0,2,5,93,11
5,2,12,1,3,0,2,5,67,11
5,2,17,1,5,1,2,5,46,11
5,2,18,1,2,0,2,5,90,11
6,3,9,1,4,0,2,5,98,11
6,3,21,0,5,1,2,5,21,11
6,3,21,0,5,1,2,5,21,11
6,3,13,1,5,1,2,5,79,11
6,3,8,1,6,1,2,5,58,11
6,3,14,1,6,1,2,5,90,11
6,3,15,1,0,0,2,5,93,11
6,3,0,0,0,0,2,5,83,11
6,3,20,1,2,0,2,5,103,11
6,3,18,1,2,0,2,5,90,11
6,3,23,0,6,1,2,5,21,11
6,3,1,0,0,0,2,5,38,11
6,3,6,0,1,0,2,5,21,11
6,3,13,1,1,0,2,5,125,11
6,3,5,0,3,0,2,5,67,11
6,3,15,1,4,0,2,5,10,11
6,3,12,1,5,1,2,5,67,11
6,3,18,1,6,1,2,5,93,11
6,3,22,0,0,0,2,5,21,11
6,3,3,0,2,0,2,5,90,11
6,3,18,1,4,0,2,5,90,11
6,3,2,0,5,1,2,5,99,11
6,3,3,0,5,1,2,5,90,11
6,3,21,0,6,1,2,5,90,11
6,3,23,0,2,0,2,5,103,11
6,3,13,1,4,0,2,5,38,11
7,3,17,1,6,1,3,5,1,11
7,3,0,0,1,0,3,5,103,11
7,3,20,1,1,0,3,5,24,11
7,3,2,0,3,0,3,5,90,11
7,3,17,1,3,0,3,5,21,11
7,3,19,1,3,0,3,5,98,11
7,3,22,0,6,1,3,5,90,11
7,3,2,0,6,1,3,5,42,9
7,3,0,0,6,1,3,5,103,11
7,3,10,1,0,0,3,5,90,11
7,3,18,1,3,0,3,5,107,11
7,3,8,1,4,0,3,5,21,11
7,3,16,1,5,1,3,5,90,11
7,3,18,1,6,1,3,5,32,11
7,3,16,1,0,0,3,5,21,9
7,3,19,1,0,0,3,5,38,11
7,3,1,0,0,0,3,5,18,11
7,3,21,0,0,0,3,5,90,11
7,3,19,1,1,0,3,5,62,11
7,3,14,1,1,0,3,5,67,11
7,3,7,1,2,0,3,5,21,11
7,3,0,0,3,0,3,5,103,11
7,3,11,1,4,0,3,5,11,11
7,3,1,0,6,1,3,5,48,11
7,3,22,0,0,0,3,5,21,11
7,3,14,1,1,0,3,5,93,11
7,3,22,0,1,0,3,5,56,11
7,3,13,1,2,0,3,5,79,11
7,3,21,0,3,0,3,5,93,11
7,3,8,1,5,1,3,5,22,9
7,3,22,0,6,1,3,5,116,11
7,3,3,0,6,1,3,5,114,11
7,3,18,1,6,1,3,5,93,11
7,3,23,0,0,0,3,5,93,11
7,3,14,1,0,0,3,5,67,11
7,3,22,0,0,0,3,5,21,11
8,3,14,1,1,0,3,5,67,11
8,3,12,1,1,0,3,5,21,11
8,3,7,1,2,0,3,5,67,8
8,3,3,0,5,1,3,5,67,11
8,3,8,1,6,1,3,5,90,11
8,3,23,0,0,0,3,5,57,8
8,3,15,1,1,0,3,5,21,11
8,3,21,0,3,0,3,5,46,9
8,3,12,1,3,0,3,5,90,11
8,3,10,1,4,0,3,5,21,11
8,3,15,1,4,0,3,5,93,9
8,3,16,1,0,0,3,5,93,9
8,3,6,0,0,0,3,5,10,11
8,3,6,0,2,0,3,5,90,11
8,3,16,1,2,0,3,5,98,11
8,3,13,1,5,1,3,5,90,11
8,3,5,0,0,0,3,5,11,11
8,3,6,0,2,0,3,5,98,11
8,3,7,1,3,0,3,5,48,9
8,3,16,1,3,0,3,5,93,11
8,3,23,0,4,0,3,5,116,11
8,3,1,0,5,1,3,5,47,11
8,3,6,0,5,1,3,5,21,9
8,3,2,0,6,1,3,5,67,11
8,3,21,0,1,0,3,5,67,11
8,3,5,0,2,0,3,5,90,11
9,4,0,0,6,1,3,5,103,11
9,4,9,1,2,0,3,5,30,11
9,4,11,1,5,1,3,5,48,11
9,4,10,1,6,1,3,5,90,11
9,4,11,1,6,1,3,5,90,11
9,4,21,0,1,0,3,5,108,11
9,4,9,1,1,0,3,5,21,11
9,4,13,1,1,0,3,5,90,11
9,4,15,1,2,0,3,5,79,11
9,4,16,1,3,0,3,5,21,11
9,4,6,0,5,1,3,5,91,11
9,4,5,0,5,1,3,5,103,11
9,4,3,0,1,0,3,5,90,11
9,4,2,0,1,0,3,5,21,9
9,4,20,1,3,0,3,5,67,11
9,4,18,1,5,1,3,5,38,11
9,4,14,1,3,0,3,5,45,8
9,4,3,0,4,0,3,5,21,11
9,4,14,1,5,1,3,5,21,11
10,4,12,1,4,0,4,5,67,11
10,4,2,0,4,0,4,5,66,11
10,4,0,0,5,1,4,5,90,11
10,4,11,1,6,1,4,5,48,11
10,4,21,0,5,1,4,5,38,11
10,4,23,0,5,1,4,5,21,11
10,4,22,0,5,1,4,5,21,11
10,4,4,0,6,1,4,5,90,11
10,4,20,1,6,1,4,5,103,11
10,4,9,1,6,1,4,5,15,11
10,4,21,0,2,0,4,5,90,11
10,4,14,1,2,0,4,5,103,11
10,4,6,0,3,0,4,5,21,11
10,4,18,1,4,0,4,5,67,9
10,4,13,1,5,1,4,5,67,11
10,4,13,1,1,0,4,5,21,11
11,4,22,0,4,0,4,5,90,11
11,4,17,1,6,1,4,5,67,9
11,4,13,1,0,0,4,5,103,11
11,4,2,0,4,0,4,5,90,11
11,4,3,0,4,0,4,5,90,11
11,4,3,0,4,0,4,5,90,11
11,4,2,0,4,0,4,5,93,11
11,4,16,1,5,1,4,5,103,11
11,4,12,1,6,1,4,5,93,11
11,4,5,0,1,0,4,5,67,11
11,4,14,1,2,0,4,5,90,11
11,4,18,1,6,1,4,5,67,11
11,4,18,1,6,1,4,5,90,11
11,4,17,1,6,1,4,5,90,11
11,4,17,1,0,0,4,5,67,11
11,4,21,0,0,0,4,5,98,11
11,4,0,0,0,0,4,5,21,9
11,4,3,0,1,0,4,5,48,9
11,4,8,1,2,0,4,5,93,9
11,4,5,0,3,0,4,5,10,11
11,4,18,1,0,0,4,5,90,11
11,4,20,1,1,0,4,5,67,11
12,1,4,0,4,0,4,5,22,9
12,1,14,1,4,0,4,5,67,11
12,1,11,1,5,1,4,5,79,11
12,1,10,1,6,1,4,5,103,11
12,1,0,0,0,0,4,5,90,11
12,1,1,0,0,0,4,5,90,11
12,1,3,0,0,0,4,5,90,11
12,1,12,1,0,0,4,5,67,11
12,1,14,1,1,0,4,5,90,11
12,1,11,1,2,0,4,5,90,11
12,1,20,1,2,0,4,5,79,11
12,1,20,1,2,0,4,5,79,11
12,1,20,1,3,0,4,5,67,11
12,1,6,0,3,0,4,5,90,11
12,1,0,0,4,0,4,5,79,8
12,1,9,1,4,0,4,5,98,11
12,1,17,1,4,0,4,5,10,11
12,1,16,1,5,1,4,5,90,11
12,1,13,1,5,1,4,5,79,11
12,1,13,1,6,1,4,5,90,11
12,1,14,1,6,1,4,5,79,11
12,1,13,1,6,1,4,5,90,11
12,1,22,0,1,0,4,5,10,9
12,1,19,1,1,0,4,5,90,11
12,1,9,1,2,0,4,5,10,11
12,1,6,0,3,0,4,5,90,11
12,1,15,1,4,0,4,5,103,11
12,1,9,1,5,1,4,5,90,11
12,1,16,1,5,1,4,5,90,11
12,1,18,1,5,1,4,5,90,11
12,1,20,1,4,0,4,5,67,11
12,1,21,0,5,1,4,5,90,11
12,1,13,1,6,1,4,5,90,11
12,1,0,0,0,0,4,5,90,11
12,1,13,1,1,0,4,5,67,11
12,1,22,0,2,0,4,5,79,11
12,1,22,0,5,1,4,5,67,11
12,1,22,0,6,1,4,5,79,11
12,1,19,1,6,1,4,5,90,11
1,1,16,1,6,1,1,5,67,9
1,1,12,1,6,1,1,5,90,11
1,1,2,0,6,1,1,5,126,11
1,1,5,0,6,1,1,5,2,11
1,1,23,0,0,0,1,5,90,11
1,1,23,0,1,0,1,5,93,11
1,1,9,1,3,0,1,5,11,11
1,1,8,1,4,0,1,5,67,11
1,1,4,0,5,1,1,5,93,9
1,1,2,0,5,1,1,5,24,11
1,1,23,0,6,1,1,5,90,11
1,1,5,0,0,0,1,5,90,11
1,1,20,1,0,0,1,5,93,11
1,1,14,1,0,0,1,5,90,11
1,1,19,1,0,0,1,5,67,11
1,1,15,1,0,0,1,5,67,11
1,1,4,0,1,0,1,5,90,11
1,1,20,1,3,0,1,5,67,11
1,1,21,0,3,0,1,5,93,11
1,1,15,1,4,0,1,5,66,11
1,1,15,1,5,1,1,5,90,11
1,1,1,0,6,1,1,5,90,11
1,1,0,0,0,0,1,5,103,11
1,1,19,1,2,0,1,5,76,11
1,1,7,1,2,0,1,5,76,11
1,1,14,1,5,1,1,5,103,11
1,1,17,1,5,1,1,5,93,11
1,1,12,1,0,0,1,5,90,11
1,1,4,0,3,0,1,5,76,11
1,1,11,1,3,0,1,5,67,11
1,1,18,1,4,0,1,5,67,11
1,1,9,1,4,0,1,5,76,11
1,1,19,1,5,1,1,5,67,11
1,1,2,0,5,1,1,5,76,11
1,1,12,1,0,0,1,5,127,11
2,1,3,0,3,0,1,5,103,11
2,1,14,1,3,0,1,5,93,11
2,1,9,1,6,1,1,5,67,11
2,1,14,1,6,1,1,5,67,9
2,1,9,1,6,1,1,5,127,11
2,1,20,1,2,0,1,5,67,11
2,1,6,0,2,0,1,5,67,11
2,1,2,0,5,1,1,5,79,9
2,1,2,0,5,1,1,5,127,11
2,1,14,1,6,1,1,5,67,11
2,1,20,1,1,0,1,5,127,11
2,1,22,0,1,0,1,5,127,11
2,1,13,1,1,0,1,5,98,11
2,1,4,0,3,0,1,5,98,11
2,1,2,0,4,0,1,5,98,11
2,1,15,1,4,0,1,5,93,11
2,1,10,1,4,0,1,5,127,11
2,1,2,0,4,0,1,5,24,9
2,1,2,0,5,1,1,5,24,9
2,1,0,0,5,1,1,5,98,11
2,1,0,0,5,1,1,5,98,11
2,1,12,1,6,1,1,5,67,11
2,1,9,1,6,1,1,5,98,11
2,1,9,1,6,1,1,5,93,11
2,1,19,1,0,0,1,5,91,11
2,1,21,0,2,0,1,5,10,11
2,1,0,0,3,0,1,5,24,11
2,1,20,1,4,0,1,5,38,9
2,1,2,0,6,1,1,5,10,11
2,1,16,1,0,0,1,5,17,11
2,1,22,0,1,0,1,5,103,11
3,2,1,0,2,0,1,5,103,11
3,2,16,1,2,0,1,5,90,11
3,2,12,1,2,0,1,5,93,11
3,2,18,1,3,0,1,5,67,11
3,2,20,1,6,1,1,5,67,11
3,2,20,1,0,0,1,5,98,11
3,2,20,1,0,0,1,5,10,11
3,2,3,0,2,0,1,5,76,11
3,2,10,1,3,0,1,5,93,11
3,2,21,0,6,1,1,5,90,11
3,2,13,1,0,0,1,5,67,11
3,2,6,0,0,0,1,5,84,11
3,2,16,1,5,1,1,5,90,11
3,2,3,0,2,0,1,5,90,11
3,2,3,0,2,0,1,5,76,9
3,2,22,0,3,0,1,5,90,11
3,2,8,1,4,0,1,5,93,11
3,2,18,1,5,1,1,5,93,11
3,2,15,1,5,1,1,5,103,11
3,2,6,0,5,1,1,5,76,11
3,2,2,0,5,1,1,5,76,11
3,2,20,1,6,1,1,5,67,9
3,2,22,0,6,1,1,5,127,11
3,2,21,0,0,0,1,5,127,11
3,2,9,1,1,0,1,5,59,11
3,2,8,1,2,0,1,5,76,11
3,2,14,1,3,0,1,5,93,11
4,2,1,0,2,0,2,5,90,11
4,2,22,0,2,0,2,5,98,11
4,2,14,1,2,0,2,5,98,11
4,2,13,1,4,0,2,5,67,11
4,2,23,0,6,1,2,5,127,11
4,2,0,0,0,0,2,5,76,11
4,2,2,0,3,0,2,5,67,11
4,2,18,1,4,0,2,5,93,11
4,2,21,0,5,1,2,5,66,11
4,2,21,0,5,1,2,5,103,11
4,2,11,1,5,1,2,5,90,11
4,2,22,0,6,1,2,5,66,11
4,2,17,1,6,1,2,5,127,11
4,2,0,0,6,1,2,5,101,11
4,2,1,0,6,1,2,5,125,11
4,2,1,0,6,1,2,5,90,11
4,2,0,0,6,1,2,5,67,11
4,2,1,0,6,1,2,5,90,11
4,2,1,0,6,1,2,5,90,11
4,2,21,0,0,0,2,5,98,11
4,2,22,0,1,0,2,5,93,11
4,2,22,0,2,0,2,5,103,11
4,2,2,0,4,0,2,5,127,11
4,2,3,0,6,1,2,5,127,11
4,2,0,0,6,1,2,5,127,11
4,2,23,0,0,0,2,5,127,11
4,2,18,1,0,0,2,5,67,9
4,2,4,0,1,0,2,5,93,11
4,2,22,0,2,0,2,5,93,11
4,2,8,1,2,0,2,5,32,11
4,2,6,0,5,1,2,5,67,11
4,2,20,1,5,1,2,5,127,11
4,2,23,0,6,1,2,5,127,11
5,2,1,0,0,0,2,5,76,11
5,2,2,0,0,0,2,5,67,11
5,2,22,0,3,0,2,5,127,11
5,2,22,0,4,0,2,5,66,11
5,2,13,1,4,0,2,5,93,11
5,2,12,1,4,0,2,5,98,11
5,2,1,0,5,1,2,5,76,11
5,2,2,0,5,1,2,5,93,11
5,2,8,1,6,1,2,5,93,11
5,2,13,1,6,1,2,5,93,11
5,2,11,1,6,1,2,5,52,11
5,2,3,0,1,0,2,5,127,11
5,2,4,0,4,0,2,5,76,11
5,2,5,0,5,1,2,5,93,11
5,2,21,0,6,1,2,5,93,11
5,2,16,1,4,0,2,5,93,11
5,2,18,1,4,0,2,5,10,11
5,2,8,1,5,1,2,5,93,11
5,2,1,0,5,1,2,5,90,11
5,2,3,0,6,1,2,5,98,11
5,2,17,1,6,1,2,5,93,11
5,2,22,0,0,0,2,5,66,11
5,2,20,1,0,0,2,5,93,11
5,2,1,0,1,0,2,5,93,11
5,2,17,1,1,0,2,5,90,11
6,3,16,1,3,0,2,5,93,9
6,3,15,1,5,1,2,5,93,11
6,3,4,0,5,1,2,5,98,11
6,3,3,0,5,1,2,5,98,11
6,3,13,1,6,1,2,5,67,11
6,3,12,1,0,0,2,5,103,11
6,3,20,1,0,0,2,5,24,11
6,3,2,0,1,0,2,5,76,11
6,3,2,0,1,0,2,5,58,11
6,3,1,0,1,0,2,5,90,11
6,3,3,0,2,0,2,5,90,11
6,3,23,0,2,0,2,5,127,11
6,3,12,1,2,0,2,5,93,11
6,3,6,0,3,0,2,5,93,11
6,3,0,0,3,0,2,5,127,11
6,3,21,0,3,0,2,5,93,11
6,3,20,1,4,0,2,5,93,11
6,3,19,1,4,0,2,5,93,11
6,3,23,0,4,0,2,5,90,11
6,3,17,1,6,1,2,5,67,11
6,3,1,0,0,0,2,5,76,11
6,3,16,1,0,0,2,5,93,11
6,3,15,1,2,0,2,5,93,11
6,3,9,1,2,0,2,5,93,11
6,3,22,0,3,0,2,5,90,11
6,3,21,0,3,0,2,5,93,11
6,3,11,1,4,0,2,5,98,11
6,3,23,0,5,1,2,5,98,11
6,3,17,1,6,1,2,5,93,11
6,3,12,1,0,0,2,5,76,11
6,3,23,0,0,0,2,5,93,11
6,3,22,0,1,0,2,5,93,11
6,3,21,0,1,0,2,5,10,11
6,3,5,0,2,0,2,5,103,11
6,3,13,1,3,0,2,5,76,11
6,3,23,0,3,0,2,5,93,11
6,3,12,1,4,0,2,5,93,11
6,3,22,0,4,0,2,5,93,11
6,3,7,1,4,0,2,5,38,11
6,3,3,0,5,1,2,5,98,11
6,3,15,1,5,1,2,5,58,11
6,3,21,0,0,0,2,5,93,11
6,3,21,0,0,0,2,5,93,11
6,3,22,0,1,0,2,5,79,9
6,3,4,0,1,0,2,5,21,11
6,3,3,0,1,0,2,5,93,11
6,3,9,1,1,0,2,5,76,11
6,3,23,0,2,0,2,5,93,11
6,3,22,0,2,0,2,5,76,11
6,3,1,0,4,0,2,5,127,11
6,3,12,1,4,0,2,5,93,11
7,3,0,0,5,1,3,5,93,11
7,3,20,1,6,1,3,5,112,11
7,3,1,0,6,1,3,5,90,11
7,3,22,0,1,0,3,5,93,11
7,3,1,0,2,0,3,5,76,11
7,3,18,1,2,0,3,5,93,11
7,3,12,1,2,0,3,5,93,11
7,3,18,1,2,0,3,5,93,11
7,3,22,0,2,0,3,5,103,11
7,3,16,1,2,0,3,5,48,11
7,3,21,0,3,0,3,5,93,11
7,3,11,1,4,0,3,5,10,11
7,3,23,0,4,0,3,5,93,11
7,3,21,0,5,1,3,5,93,11
7,3,14,1,5,1,3,5,83,11
7,3,20,1,6,1,3,5,93,11
7,3,19,1,6,1,3,5,93,11
7,3,12,1,6,1,3,5,127,11
7,3,3,0,6,1,3,5,127,9
7,3,0,0,6,1,3,5,93,11
7,3,23,0,6,1,3,5,93,11
7,3,12,1,0,0,3,5,93,11
7,3,15,1,1,0,3,5,93,11
7,3,16,1,2,0,3,5,93,11
7,3,21,0,2,0,3,5,103,11
7,3,23,0,3,0,3,5,93,11
7,3,8,1,4,0,3,5,76,11
7,3,14,1,4,0,3,5,93,11
7,3,20,1,4,0,3,5,93,11
7,3,23,0,5,1,3,5,93,11
7,3,19,1,5,1,3,5,58,11
7,3,22,0,5,1,3,5,76,11
7,3,2,0,5,1,3,5,93,11
7,3,3,0,5,1,3,5,93,11
7,3,21,0,5,1,3,5,93,11
7,3,9,1,6,1,3,5,79,11
7,3,10,1,6,1,3,5,79,11
7,3,10,1,6,1,3,5,103,11
7,3,0,0,6,1,3,5,93,11
7,3,22,0,1,0,3,5,93,11
7,3,20,1,1,0,3,5,67,11
7,3,0,0,2,0,3,5,76,11
7,3,1,0,2,0,3,5,93,11
7,3,19,1,2,0,3,5,76,11
7,3,18,1,3,0,3,5,103,11
7,3,17,1,5,1,3,5,112,11
7,3,11,1,5,1,3,5,127,11
7,3,10,1,5,1,3,5,93,11
7,3,21,0,5,1,3,5,93,11
7,3,19,1,6,1,3,5,90,11
7,3,9,1,6,1,3,5,93,11
7,3,13,1,2,0,3,5,93,11
7,3,22,0,3,0,3,5,93,11
7,3,0,0,3,0,3,5,67,8
7,3,14,1,3,0,3,5,76,11
7,3,5,0,4,0,3,5,93,11
7,3,19,1,4,0,3,5,86,11
7,3,15,1,5,1,3,5,67,9
7,3,0,0,5,1,3,5,130,11
7,3,8,1,6,1,3,5,10,11
7,3,13,1,6,1,3,5,93,11
7,3,22,0,6,1,3,5,93,11
7,3,2,0,6,1,3,5,90,11
7,3,9,1,0,0,3,5,93,11
7,3,19,1,0,0,3,5,10,11
8,3,19,1,1,0,3,5,103,11
8,3,4,0,2,0,3,5,90,11
8,3,20,1,3,0,3,5,67,11
8,3,17,1,3,0,3,5,93,11
8,3,2,0,4,0,3,5,67,11
8,3,2,0,4,0,3,5,98,11
8,3,3,0,4,0,3,5,93,11
8,3,0,0,4,0,3,5,103,11
8,3,22,0,4,0,3,5,98,11
8,3,16,1,4,0,3,5,93,11
8,3,19,1,4,0,3,5,93,11
8,3,19,1,5,1,3,5,127,11
8,3,20,1,5,1,3,5,93,11
8,3,5,0,6,1,3,5,93,11
8,3,10,1,0,0,3,5,93,11
8,3,19,1,1,0,3,5,93,11
8,3,11,1,1,0,3,5,66,11
8,3,21,0,1,0,3,5,93,11
8,3,11,1,2,0,3,5,76,11
8,3,18,1,3,0,3,5,67,11
8,3,0,0,4,0,3,5,93,11
8,3,2,0,4,0,3,5,125,11
8,3,5,0,4,0,3,5,90,11
8,3,22,0,5,1,3,5,93,11
8,3,19,1,5,1,3,5,93,11
8,3,1,0,5,1,3,5,93,11
8,3,22,0,6,1,3,5,67,11
8,3,0,0,6,1,3,5,93,11
8,3,8,1,0,0,3,5,93,11
8,3,23,0,0,0,3,5,93,11
8,3,1,0,0,0,3,5,93,11
8,3,18,1,2,0,3,5,103,11
8,3,19,1,4,0,3,5,127,11
8,3,20,1,5,1,3,5,93,11
8,3,17,1,5,1,3,5,93,11
8,3,19,1,5,1,3,5,103,11
8,3,12,1,5,1,3,5,93,11
8,3,4,0,6,1,3,5,76,11
8,3,17,1,0,0,3,5,98,11
8,3,13,1,1,0,3,5,93,9
8,3,23,0,2,0,3,5,93,11
8,3,6,0,2,0,3,5,103,11
8,3,7,1,2,0,3,5,93,11
8,3,22,0,3,0,3,5,93,11
8,3,14,1,3,0,3,5,67,11
8,3,10,1,3,0,3,5,93,11
8,3,22,0,4,0,3,5,98,11
8,3,12,1,4,0,3,5,93,11
8,3,21,0,5,1,3,5,93,11
8,3,8,1,5,1,3,5,93,11
8,3,3,0,0,0,3,5,93,11
8,3,18,1,1,0,3,5,112,11
8,3,11,1,2,0,3,5,76,11
8,3,8,1,3,0,3,5,67,11
8,3,23,0,3,0,3,5,90,11
9,4,18,1,5,1,3,5,93,11
9,4,1,0,5,1,3,5,76,11
9,4,21,0,1,0,3,5,76,11
9,4,13,1,1,0,3,5,98,11
9,4,0,0,2,0,3,5,67,11
9,4,10,1,4,0,3,5,32,11
9,4,17,1,4,0,3,5,21,11
9,4,12,1,4,0,3,5,93,11
9,4,21,0,6,1,3,5,93,11
9,4,17,1,6,1,3,5,93,11
9,4,10,1,6,1,3,5,127,11
9,4,1,0,0,0,3,5,10,11
9,4,1,0,0,0,3,5,93,11
9,4,20,1,1,0,3,5,38,11
9,4,20,1,1,0,3,5,93,11
9,4,11,1,2,0,3,5,67,11
9,4,5,0,3,0,3,5,10,11
9,4,12,1,3,0,3,5,93,11
9,4,7,1,3,0,3,5,93,11
9,4,22,0,3,0,3,5,93,11
9,4,12,1,4,0,3,5,76,11
9,4,12,1,6,1,3,5,103,11
9,4,3,0,2,0,3,5,79,11
9,4,19,1,3,0,3,5,76,11
9,4,0,0,5,1,3,5,93,11
9,4,20,1,6,1,3,5,98,11
9,4,10,1,2,0,3,5,76,11
9,4,18,1,4,0,3,5,67,11
9,4,23,0,5,1,3,5,93,11
10,4,20,1,6,1,4,5,90,11
10,4,10,1,6,1,4,5,76,11
10,4,5,0,6,1,4,5,127,11
10,4,1,0,0,0,4,5,10,11
10,4,3,0,2,0,4,5,98,11
10,4,16,1,5,1,4,5,67,11
10,4,2,0,0,0,4,5,21,11
10,4,3,0,1,0,4,5,90,11
10,4,3,0,2,0,4,5,103,11
10,4,14,1,3,0,4,5,48,11
10,4,21,0,3,0,4,5,93,11
10,4,14,1,3,0,4,5,79,11
10,4,15,1,4,0,4,5,21,11
10,4,20,1,4,0,4,5,76,11
10,4,22,0,0,0,4,5,127,11
10,4,6,0,1,0,4,5,93,11
10,4,16,1,2,0,4,5,24,11
10,4,2,0,3,0,4,5,79,11
10,4,22,0,3,0,4,5,93,11
10,4,23,0,4,0,4,5,127,11
10,4,2,0,6,1,4,5,103,11
10,4,16,1,6,1,4,5,21,11
10,4,18,1,6,1,4,5,93,11
10,4,8,1,0,0,4,5,67,11
10,4,3,0,2,0,4,5,21,11
10,4,0,0,2,0,4,5,127,11
10,4,16,1,2,0,4,5,10,11
10,4,4,0,5,1,4,5,127,11
10,4,5,0,5,1,4,5,127,11
10,4,13,1,6,1,4,5,93,11
10,4,19,1,6,1,4,5,98,11
10,4,2,0,6,1,4,5,90,11
10,4,4,0,0,0,4,5,90,11
10,4,20,1,0,0,4,5,79,11
10,4,18,1,0,0,4,5,90,11
10,4,19,1,0,0,4,5,90,11
10,4,20,1,1,0,4,5,93,11
11,4,21,0,2,0,4,5,98,11
11,4,12,1,2,0,4,5,67,11
11,4,14,1,2,0,4,5,38,11
11,4,4,0,3,0,4,5,67,11
11,4,22,0,3,0,4,5,127,11
11,4,21,0,4,0,4,5,93,11
11,4,11,1,4,0,4,5,98,11
11,4,1,0,6,1,4,5,10,11
11,4,11,1,0,0,4,5,67,11
11,4,7,1,1,0,4,5,10,11
11,4,21,0,1,0,4,5,79,11
11,4,21,0,2,0,4,5,10,11
11,4,21,0,2,0,4,5,93,11
11,4,19,1,2,0,4,5,76,11
11,4,3,0,2,0,4,5,67,11
11,4,0,0,5,1,4,5,67,11
11,4,22,0,5,1,4,5,98,11
11,4,23,0,5,1,4,5,98,11
11,4,17,1,5,1,4,5,93,11
11,4,5,0,5,1,4,5,67,11
11,4,1,0,5,1,4,5,127,11
11,4,4,0,0,0,4,5,101,11
11,4,6,0,1,0,4,5,127,11
11,4,20,1,1,0,4,5,79,11
11,4,11,1,1,0,4,5,67,11
11,4,0,0,2,0,4,5,127,11
11,4,0,0,2,0,4,5,127,11
11,4,17,1,2,0,4,5,93,11
11,4,4,0,3,0,4,5,48,11
11,4,2,0,3,0,4,5,58,11
11,4,23,0,3,0,4,5,10,11
11,4,1,0,3,0,4,5,127,11
11,4,23,0,4,0,4,5,127,11
11,4,9,1,5,1,4,5,103,11
11,4,16,1,6,1,4,5,93,11
11,4,17,1,6,1,4,5,67,11
11,4,21,0,0,0,4,5,93,11
11,4,9,1,0,0,4,5,127,11
11,4,6,0,1,0,4,5,127,11
11,4,21,0,2,0,4,5,76,11
11,4,22,0,2,0,4,5,93,11
11,4,10,1,2,0,4,5,76,11
11,4,21,0,5,1,4,5,91,11
11,4,8,1,0,0,4,5,67,11
11,4,12,1,1,0,4,5,113,11
11,4,19,1,1,0,4,5,91,11
11,4,14,1,3,0,4,5,67,11
11,4,9,1,3,0,4,5,76,11
12,1,0,0,4,0,4,5,76,11
12,1,21,0,5,1,4,5,127,11
12,1,12,1,6,1,4,5,127,11
12,1,0,0,6,1,4,5,127,11
12,1,22,0,1,0,4,5,67,11
12,1,21,0,2,0,4,5,127,11
12,1,0,0,3,0,4,5,127,11
12,1,0,0,6,1,4,5,127,11
12,1,1,0,2,0,4,5,21,11
12,1,0,0,4,0,4,5,90,11
12,1,0,0,4,0,4,5,90,11
12,1,2,0,6,1,4,5,67,11
12,1,12,1,1,0,4,5,79,11
12,1,4,0,2,0,4,5,67,11
12,1,18,1,2,0,4,5,67,11
12,1,12,1,2,0,4,5,10,11
12,1,21,0,4,0,4,5,127,11
12,1,21,0,4,0,4,5,76,11
12,1,4,0,5,1,4,5,127,11
12,1,3,0,5,1,4,5,127,11
12,1,21,0,6,1,4,5,127,11
12,1,23,0,6,1,4,5,103,11
12,1,20,1,0,0,4,5,127,11
12,1,10,1,0,0,4,5,67,11
12,1,1,0,1,0,4,5,10,11
12,1,22,0,2,0,4,5,90,11
12,1,17,1,3,0,4,5,93,11
12,1,6,0,4,0,4,5,67,11
12,1,22,0,5,1,4,5,127,11
12,1,20,1,5,1,4,5,93,11
12,1,1,0,6,1,4,5,127,11
12,1,7,1,6,1,4,5,127,11
1,1,4,0,6,1,1,5,67,11
1,1,2,0,0,0,1,5,91,11
1,1,11,1,4,0,1,5,21,11
1,1,18,1,6,1,1,5,76,11
1,1,17,1,2,0,1,5,38,11
1,1,15,1,3,0,1,5,93,11
1,1,22,0,4,0,1,5,127,11
1,1,22,0,4,0,1,5,127,11
1,1,14,1,5,1,1,5,67,11
1,1,1,0,6,1,1,5,127,11
1,1,2,0,6,1,1,5,56,9
1,1,16,1,0,0,1,5,93,11
1,1,21,0,0,0,1,5,67,11
1,1,20,1,0,0,1,5,67,11
1,1,23,0,3,0,1,5,38,11
1,1,21,0,3,0,1,5,67,11
1,1,19,1,4,0,1,5,90,11
1,1,15,1,5,1,1,5,93,11
1,1,13,1,6,1,1,5,90,11
1,1,17,1,1,0,1,5,93,11
2,1,21,0,2,0,1,5,90,11
2,1,18,1,2,0,1,5,67,11
2,1,13,1,4,0,1,5,79,11
2,1,15,1,5,1,1,5,103,11
2,1,19,1,5,1,1,5,103,11
2,1,20,1,0,0,1,5,79,11
2,1,20,1,0,0,1,5,79,11
2,1,12,1,1,0,1,5,90,11
2,1,0,0,3,0,1,5,90,11
2,1,17,1,6,1,1,5,90,11
2,1,2,0,1,0,1,5,90,11
2,1,20,1,3,0,1,5,93,11
2,1,0,0,4,0,1,5,67,11
2,1,9,1,4,0,1,5,67,11
2,1,15,1,4,0,1,5,93,11
2,1,23,0,0,0,1,5,67,9
2,1,13,1,4,0,1,5,93,11
2,1,9,1,4,0,1,5,93,11
2,1,11,1,4,0,1,5,1,11
2,1,21,0,0,0,1,5,67,11
2,1,16,1,0,0,1,5,11,11
3,2,11,1,2,0,1,5,93,11
3,2,20,1,5,1,1,5,38,11
3,2,19,1,6,1,1,5,79,11
3,2,12,1,6,1,1,5,67,11
3,2,13,1,3,0,1,5,93,11
3,2,2,0,4,0,1,5,58,11
3,2,12,1,6,1,1,5,90,11
3,2,17,1,6,1,1,5,103,11
3,2,19,1,0,0,1,5,93,11
3,2,1,0,4,0,1,5,93,11
3,2,20,1,5,1,1,5,67,11
3,2,10,1,5,1,1,5,127,11
3,2,19,1,6,1,1,5,67,11
3,2,22,0,2,0,1,5,67,11
3,2,12,1,6,1,1,5,93,9
3,2,19,1,1,0,1,5,93,9
3,2,19,1,2,0,1,5,38,11
3,2,5,0,3,0,1,5,124,11
3,2,13,1,4,0,1,5,93,11
4,2,12,1,0,0,2,5,67,11
4,2,18,1,0,0,2,5,79,11
4,2,14,1,1,0,2,5,22,11
4,2,14,1,3,0,2,5,15,11
4,2,23,0,3,0,2,5,67,11
4,2,2,0,4,0,2,5,90,11
4,2,20,1,2,0,2,5,67,8
4,2,18,1,2,0,2,5,103,11
4,2,21,0,5,1,2,5,67,11
4,2,16,1,0,0,2,5,79,11
4,2,14,1,2,0,2,5,79,11
4,2,16,1,4,0,2,5,90,11
4,2,22,0,5,1,2,5,103,11
4,2,21,0,5,1,2,5,93,11
4,2,21,0,6,1,2,5,79,11
5,2,14,1,4,0,2,5,79,11
5,2,2,0,1,0,2,5,90,11
5,2,10,1,3,0,2,5,103,11
5,2,3,0,5,1,2,5,90,11
5,2,19,1,6,1,2,5,93,11
5,2,11,1,1,0,2,5,93,11
5,2,21,0,2,0,2,5,127,11
6,3,19,1,4,0,2,5,93,11
6,3,22,0,5,1,2,5,90,11
6,3,15,1,5,1,2,5,67,11
6,3,2,0,5,1,2,5,125,11
6,3,18,1,5,1,2,5,90,11
6,3,19,1,6,1,2,5,103,11
6,3,18,1,6,1,2,5,90,11
6,3,13,1,2,0,2,5,103,11
6,3,1,0,5,1,2,5,90,11
6,3,0,0,6,1,2,5,90,11
6,3,9,1,0,0,2,5,15,11
6,3,8,1,2,0,2,5,93,11
6,3,1,0,3,0,2,5,90,9
6,3,14,1,3,0,2,5,93,11
6,3,10,1,3,0,2,5,67,11
6,3,8,1,5,1,2,5,93,11
6,3,15,1,6,1,2,5,67,11
6,3,15,1,0,0,2,5,93,11
6,3,0,0,2,0,2,5,90,11
6,3,18,1,2,0,2,5,124,11
6,3,13,1,4,0,2,5,103,11
7,3,13,1,6,1,3,5,90,11
7,3,14,1,2,0,3,5,93,11
7,3,10,1,5,1,3,5,67,11
7,3,15,1,5,1,3,5,4,11
7,3,18,1,5,1,3,5,93,9
7,3,13,1,2,0,3,5,93,11
7,3,3,0,3,0,3,5,127,11
7,3,21,0,4,0,3,5,76,11
7,3,16,1,0,0,3,5,93,11
7,3,18,1,0,0,3,5,67,11
7,3,14,1,1,0,3,5,21,11
7,3,22,0,3,0,3,5,67,11
7,3,18,1,5,1,3,5,90,8
8,3,18,1,5,1,3,5,93,9
8,3,22,0,0,0,3,5,58,11
8,3,12,1,3,0,3,5,67,11
8,3,9,1,4,0,3,5,58,11
8,3,15,1,0,0,3,5,124,8
9,4,12,1,0,0,3,5,93,9
9,4,17,1,4,0,3,5,21,11
9,4,12,1,2,0,3,5,93,11
9,4,13,1,3,0,3,5,79,11
9,4,14,1,3,0,3,5,93,11
9,4,3,0,5,1,3,5,93,11
9,4,7,1,5,1,3,5,93,11
9,4,1,0,5,1,3,5,93,11
9,4,13,1,0,0,3,5,21,11
9,4,23,0,1,0,3,5,41,11
9,4,14,1,5,1,3,5,15,11
10,4,11,1,6,1,4,5,93,11
10,4,12,1,2,0,4,5,38,9
10,4,11,1,6,1,4,5,93,11
10,4,5,0,5,1,4,5,90,11
10,4,1,0,2,0,4,5,93,11
10,4,3,0,3,0,4,5,38,11
11,4,4,0,0,0,4,5,127,11
11,4,8,1,1,0,4,5,21,11
11,4,22,0,4,0,4,5,67,11
11,4,11,1,0,0,4,5,90,11
11,4,12,1,1,0,4,5,93,11
11,4,12,1,1,0,4,5,90,11
11,4,12,1,6,1,4,5,93,11
12,1,19,1,4,0,4,5,67,11
12,1,0,0,5,1,4,5,76,8
12,1,21,0,6,1,4,5,90,11
12,1,12,1,2,0,4,5,93,11
12,1,14,1,4,0,4,5,67,8
12,1,7,1,5,1,4,5,67,11
12,1,17,1,6,1,4,5,93,11
12,1,19,1,1,0,4,5,93,11
12,1,21,0,2,0,4,5,93,11
12,1,14,1,3,0,4,5,124,11
12,1,23,0,6,1,4,5,76,11
12,1,3,0,1,0,4,5,48,11
12,1,13,1,1,0,4,5,90,11
12,1,15,1,1,0,4,5,67,11
12,1,19,1,1,0,4,5,67,11
12,1,13,1,3,0,4,5,127,11
12,1,7,1,5,1,4,5,79,8
1,1,0,0,6,1,1,5,79,11
1,1,0,0,6,1,1,5,79,11
1,1,13,1,6,1,1,5,93,11
1,1,15,1,0,0,1,5,93,11
1,1,11,1,1,0,1,5,127,11
1,1,17,1,4,0,1,5,127,11
1,1,12,1,6,1,1,5,93,11
1,1,18,1,6,1,1,5,79,11
1,1,14,1,0,0,1,5,93,11
1,1,20,1,4,0,1,5,93,11
1,1,11,1,2,0,1,5,28,11
1,1,3,0,4,0,1,5,21,11
1,1,17,1,0,0,1,5,93,11
1,1,20,1,0,0,1,5,93,11
1,1,19,1,1,0,1,5,79,11
2,1,9,1,4,0,1,5,59,11
2,1,12,1,6,1,1,5,127,11
2,1,17,1,6,1,1,5,93,11
2,1,18,1,0,0,1,5,79,11
2,1,10,1,3,0,1,5,21,11
2,1,11,1,1,0,1,5,93,11
2,1,5,0,6,1,1,5,80,11
3,2,19,1,4,0,1,5,93,11
3,2,13,1,0,0,1,5,79,9
3,2,18,1,1,0,1,5,93,11
3,2,18,1,1,0,1,5,93,11
3,2,19,1,1,0,1,5,21,11
3,2,12,1,3,0,1,5,93,11
3,2,18,1,5,1,1,5,127,11
3,2,20,1,0,0,1,5,75,11
3,2,16,1,4,0,1,5,15,11
4,2,19,1,5,1,2,5,79,11
4,2,15,1,3,0,2,5,93,11
4,2,2,0,4,0,2,5,93,11
4,2,2,0,5,1,2,5,93,11
4,2,3,0,5,1,2,5,93,11
4,2,15,1,6,1,2,5,93,11
4,2,0,0,6,1,2,5,66,11
4,2,0,0,6,1,2,5,93,11
4,2,1,0,6,1,2,5,93,11
4,2,0,0,6,1,2,5,93,11
4,2,0,0,6,1,2,5,93,11
4,2,9,1,2,0,2,5,93,11
4,2,15,1,3,0,2,5,93,11
4,2,14,1,5,1,2,5,93,11
4,2,14,1,1,0,2,5,93,11
4,2,1,0,1,0,2,5,93,11
4,2,19,1,3,0,2,5,93,11
4,2,14,1,4,0,2,5,93,11
4,2,3,0,5,1,2,5,93,11
4,2,20,1,5,1,2,5,93,11
5,2,3,0,1,0,2,5,76,11
5,2,3,0,5,1,2,5,21,11
5,2,13,1,0,0,2,5,103,11
5,2,11,1,2,0,2,5,93,11
6,3,7,1,3,0,2,5,79,11
6,3,14,1,6,1,2,5,112,11
6,3,8,1,2,0,2,5,67,11
6,3,3,0,5,1,2,5,103,11
6,3,17,1,5,1,2,5,93,11
6,3,17,1,6,1,2,5,38,11
6,3,1,0,3,0,2,5,10,11
6,3,21,0,3,0,2,5,21,11
7,3,2,0,5,1,3,5,79,11
7,3,18,1,5,1,3,5,79,11
7,3,15,1,1,0,3,5,79,11
7,3,21,0,5,1,3,5,50,11
7,3,18,1,6,1,3,5,93,11
7,3,4,0,6,1,3,5,93,11
7,3,1,0,6,1,3,5,93,11
7,3,1,0,6,1,3,5,93,11
7,3,13,1,1,0,3,5,93,11
7,3,0,0,3,0,3,5,93,11
7,3,8,1,6,1,3,5,112,11
7,3,14,1,6,1,3,5,79,11
7,3,1,0,0,0,3,5,127,11
8,3,21,0,2,0,3,5,21,11
8,3,14,1,3,0,3,5,93,11
8,3,9,1,3,0,3,5,58,11
8,3,13,1,3,0,3,5,93,11
8,3,22,0,6,1,3,5,118,9
8,3,2,0,3,0,3,5,21,11
8,3,13,1,6,1,3,5,50,11
8,3,12,1,1,0,3,5,1,11
8,3,11,1,1,0,3,5,50,11
8,3,7,1,1,0,3,5,67,11
8,3,15,1,2,0,3,5,93,11
8,3,14,1,2,0,3,5,21,11
8,3,22,0,2,0,3,5,79,11
8,3,13,1,2,0,3,5,125,11
9,4,18,1,6,1,3,5,93,11
9,4,23,0,6,1,3,5,82,11
9,4,2,0,6,1,3,5,79,9
9,4,22,0,6,1,3,5,79,9
9,4,19,1,6,1,3,5,79,11
9,4,21,0,2,0,3,5,79,11
9,4,5,0,3,0,3,5,79,11
9,4,8,1,1,0,3,5,21,11
10,4,0,0,0,0,4,5,79,11
10,4,3,0,1,0,4,5,59,9
10,4,10,1,4,0,4,5,79,9
10,4,20,1,6,1,4,5,79,9
10,4,20,1,1,0,4,5,79,11
10,4,18,1,4,0,4,5,93,11
10,4,18,1,1,0,4,5,79,11
10,4,11,1,5,1,4,5,21,11
10,4,10,1,0,0,4,5,79,11
10,4,19,1,1,0,4,5,79,9
10,4,4,0,2,0,4,5,93,11
10,4,12,1,5,1,4,5,50,11
10,4,9,1,6,1,4,5,93,11
10,4,10,1,0,0,4,5,93,11
11,4,17,1,4,0,4,5,21,11
11,4,9,1,5,1,4,5,79,11
11,4,21,0,0,0,4,5,79,11
11,4,17,1,4,0,4,5,79,11
11,4,21,0,4,0,4,5,93,11
11,4,16,1,6,1,4,5,93,11
11,4,8,1,2,0,4,5,93,11
11,4,13,1,3,0,4,5,93,11
11,4,14,1,1,0,4,5,127,11
11,4,12,1,3,0,4,5,79,11
11,4,8,1,4,0,4,5,93,9
12,1,6,0,4,0,4,5,93,11
12,1,16,1,3,0,4,5,127,11
12,1,13,1,5,1,4,5,93,11
12,1,11,1,5,1,4,5,93,11
12,1,12,1,1,0,4,5,93,11
12,1,17,1,1,0,4,5,93,11
12,1,11,1,3,0,4,5,127,11
12,1,15,1,1,0,4,5,101,11
12,1,1,0,1,0,4,5,79,8
12,1,16,1,3,0,4,5,93,11
12,1,10,1,5,1,4,5,93,11
12,1,17,1,6,1,4,5,93,11
1,1,2,0,1,0,1,5,59,11
1,1,10,1,2,0,1,5,93,11
1,1,13,1,2,0,1,5,93,11
1,1,17,1,6,1,1,5,93,11
2,1,7,1,3,0,1,5,79,11
3,2,18,1,2,0,1,5,67,11
3,2,10,1,6,1,1,5,67,11
3,2,20,1,5,1,1,5,127,11
3,2,20,1,2,0,1,5,93,11
3,2,13,1,2,0,1,5,93,11
3,2,11,1,1,0,1,5,93,11
4,2,9,1,2,0,2,5,93,11
4,2,21,0,4,0,2,5,93,11
4,2,18,1,0,0,2,5,93,11
4,2,9,1,3,0,2,5,93,11
4,2,16,1,4,0,2,5,93,11
4,2,23,0,5,1,2,5,93,11
4,2,13,1,3,0,2,5,93,11
4,2,15,1,6,1,2,5,83,11
4,2,14,1,5,1,2,5,93,11
5,2,13,1,3,0,2,5,93,11
5,2,21,0,3,0,2,5,1,11
5,2,13,1,5,1,2,5,93,11
5,2,17,1,3,0,2,5,67,11
7,3,23,0,4,0,3,5,112,11
7,3,1,0,0,0,3,5,79,11
7,3,17,1,2,0,3,5,83,11
8,3,14,1,4,0,3,5,93,11
8,3,18,1,5,1,3,5,112,11
8,3,15,1,2,0,3,5,93,11
8,3,9,1,3,0,3,5,21,11
9,4,7,1,1,0,3,5,112,11
9,4,13,1,1,0,3,5,35,9
9,4,23,0,6,1,3,5,50,11
10,4,21,0,1,0,4,5,75,11
12,1,2,0,6,1,4,5,90,11
1,1,22,0,1,0,1,5,90,11
1,1,10,1,4,0,1,5,90,11
1,1,16,1,5,1,1,5,90,11
1,1,4,0,6,1,1,5,93,11
1,1,21,0,0,0,1,5,15,11
1,1,13,1,5,1,1,5,67,11
2,1,14,1,6,1,1,5,90,11
2,1,9,1,6,1,1,5,90,11
2,1,20,1,0,0,1,5,90,11
2,1,0,0,4,0,1,5,67,11
2,1,21,0,1,0,1,5,67,11
3,2,21,0,5,1,1,5,67,11
3,2,1,0,0,0,1,5,76,8
3,2,6,0,0,0,1,5,48,8
3,2,20,1,4,0,1,5,90,11
3,2,20,1,5,1,1,5,127,11
4,2,4,0,5,1,2,5,58,11
4,2,1,0,6,1,2,5,127,11
4,2,21,0,2,0,2,5,67,11
4,2,21,0,6,1,2,5,38,11
4,2,19,1,2,0,2,5,21,11
4,2,23,0,5,1,2,5,38,11
4,2,18,1,5,1,2,5,93,11
4,2,0,0,6,1,2,5,66,9
4,2,22,0,6,1,2,5,127,11
4,2,19,1,3,0,2,5,76,11
4,2,21,0,4,0,2,5,90,11
4,2,22,0,5,1,2,5,127,11
4,2,7,1,2,0,2,5,69,11
4,2,6,0,4,0,2,5,90,11
4,2,9,1,6,1,2,5,15,11
5,2,2,0,5,1,2,5,79,11
5,2,21,0,0,0,2,5,127,11
5,2,22,0,2,0,2,5,103,11
5,2,13,1,1,0,2,5,124,11
5,2,16,1,5,1,2,5,93,11
5,2,6,0,3,0,2,5,76,11
6,3,13,1,3,0,2,5,127,11
6,3,17,1,0,0,2,5,103,11
6,3,0,0,4,0,2,5,67,11
6,3,23,0,1,0,2,5,127,11
6,3,2,0,6,1,2,5,67,11
6,3,14,1,3,0,2,5,15,11
6,3,1,0,0,0,2,5,21,11
6,3,23,0,2,0,2,5,21,11
6,3,14,1,4,0,2,5,127,11
7,3,10,1,1,0,3,5,67,11
7,3,15,1,4,0,3,5,90,9
7,3,4,0,1,0,3,5,38,11
7,3,20,1,2,0,3,5,84,11
7,3,1,0,5,1,3,5,21,11
7,3,19,1,6,1,3,5,93,11
7,3,23,0,6,1,3,5,127,11
7,3,15,1,6,1,3,5,103,11
8,3,10,1,1,0,3,5,67,11
8,3,0,0,3,0,3,5,98,11
8,3,17,1,5,1,3,5,2,8
8,3,2,0,0,0,3,5,67,11
8,3,20,1,2,0,3,5,67,9
8,3,2,0,3,0,3,5,86,9
8,3,16,1,6,1,3,5,93,11
8,3,3,0,0,0,3,5,108,11
8,3,15,1,2,0,3,5,67,8
8,3,5,0,6,1,3,5,90,11
8,3,2,0,1,0,3,5,58,11
9,4,16,1,5,1,3,5,38,11
9,4,19,1,6,1,3,5,93,11
9,4,12,1,0,0,3,5,67,11
9,4,17,1,1,0,3,5,21,9
9,4,12,1,2,0,3,5,76,8
9,4,17,1,1,0,3,5,48,11
10,4,10,1,3,0,4,5,15,11
10,4,23,0,4,0,4,5,127,9
10,4,23,0,4,0,4,5,127,11
10,4,15,1,0,0,4,5,10,9
10,4,8,1,2,0,4,5,67,11
10,4,6,0,6,1,4,5,90,11
11,4,12,1,6,1,4,5,127,11
11,4,21,0,6,1,4,5,127,11
11,4,21,0,6,1,4,5,127,11
11,4,17,1,1,0,4,5,90,11
11,4,12,1,4,0,4,5,126,11
11,4,4,0,2,0,4,5,98,11
11,4,2,0,3,0,4,5,21,11
11,4,3,0,6,1,4,5,21,8
12,1,2,0,6,1,4,5,90,11
12,1,21,0,3,0,4,5,90,11
12,1,23,0,4,0,4,5,67,8
12,1,2,0,4,0,4,5,21,11
12,1,9,1,5,1,4,5,90,11
12,1,15,1,3,0,4,5,90,11
12,1,20,1,0,0,4,5,90,11
12,1,18,1,0,0,4,5,4,11
12,1,20,1,2,0,4,5,67,11
12,1,16,1,3,0,4,5,24,9
12,1,14,1,1,0,4,5,67,11
1,1,0,0,6,1,1,5,67,11
1,1,22,0,4,0,1,5,127,11
1,1,12,1,5,1,1,5,127,11
1,1,21,0,1,0,1,5,98,11
1,1,2,0,2,0,1,5,127,11
1,1,12,1,2,0,1,5,67,11
1,1,0,0,4,0,1,5,67,11
2,1,4,0,4,0,1,5,67,11
2,1,10,1,6,1,1,5,127,11
2,1,17,1,0,0,1,5,67,11
2,1,14,1,0,0,1,5,127,11
2,1,7,1,1,0,1,5,67,11
2,1,19,1,3,0,1,5,127,11
2,1,14,1,3,0,1,5,67,11
2,1,0,0,4,0,1,5,127,11
2,1,1,0,5,1,1,5,67,11
2,1,16,1,6,1,1,5,67,11
2,1,19,1,0,0,1,5,67,11
2,1,18,1,6,1,1,5,67,11
2,1,4,0,0,0,1,5,67,11
2,1,21,0,1,0,1,5,67,11
2,1,15,1,1,0,1,5,76,11
3,2,1,0,2,0,1,5,58,11
3,2,17,1,5,1,1,5,67,11
3,2,14,1,5,1,1,5,127,11
3,2,22,0,0,0,1,5,76,11
3,2,15,1,0,0,1,5,67,11
3,2,2,0,2,0,1,5,101,11
3,2,21,0,3,0,1,5,127,11
3,2,18,1,6,1,1,5,67,11
3,2,23,0,3,0,1,5,127,11
3,2,0,0,4,0,1,5,67,11
3,2,21,0,3,0,1,5,38,11
3,2,15,1,2,0,1,5,127,11
3,2,13,1,2,0,1,5,79,11
3,2,23,0,2,0,1,5,76,11
3,2,0,0,3,0,1,5,67,9
4,2,5,0,6,1,2,5,127,11
4,2,22,0,6,1,2,5,67,11
4,2,23,0,6,1,2,5,93,11
4,2,10,1,6,1,2,5,58,8
4,2,23,0,0,0,2,5,90,11
4,2,13,1,0,0,2,5,67,11
4,2,3,0,3,0,2,5,127,11
4,2,23,0,5,1,2,5,90,11
4,2,23,0,2,0,2,5,127,11
4,2,10,1,4,0,2,5,67,11
4,2,2,0,4,0,2,5,67,11
4,2,14,1,5,1,2,5,67,11
4,2,3,0,5,1,2,5,58,9
4,2,1,0,6,1,2,5,67,11
4,2,0,0,6,1,2,5,127,11
4,2,12,1,6,1,2,5,103,11
4,2,13,1,0,0,2,5,67,11
4,2,17,1,0,0,2,5,79,11
4,2,18,1,6,1,2,5,127,11
5,2,12,1,6,1,2,5,67,9
5,2,5,0,3,0,2,5,127,11
5,2,20,1,1,0,2,5,48,11
5,2,22,0,2,0,2,5,93,11
5,2,18,1,5,1,2,5,58,11
5,2,22,0,6,1,2,5,90,11
5,2,15,1,0,0,2,5,76,11
5,2,13,1,6,1,2,5,90,11
5,2,14,1,0,0,2,5,93,11
6,3,22,0,3,0,2,5,103,11
6,3,19,1,0,0,2,5,127,11
6,3,1,0,1,0,2,5,103,11
6,3,19,1,2,0,2,5,108,9
6,3,21,0,4,0,2,5,67,11
7,3,18,1,4,0,3,5,21,11
7,3,19,1,5,1,3,5,110,11
7,3,12,1,5,1,3,5,103,11
7,3,13,1,2,0,3,5,103,11
7,3,19,1,5,1,3,5,16,11
7,3,16,1,3,0,3,5,103,11
7,3,20,1,1,0,3,5,93,11
7,3,9,1,1,0,3,5,58,11
7,3,18,1,6,1,3,5,101,11
8,3,1,0,1,0,3,5,103,11
8,3,22,0,2,0,3,5,67,11
8,3,10,1,4,0,3,5,32,11
8,3,22,0,6,1,3,5,76,11
8,3,18,1,1,0,3,5,76,9
8,3,2,0,1,0,3,5,127,11
8,3,23,0,3,0,3,5,93,11
8,3,10,1,5,1,3,5,67,11
8,3,4,0,1,0,3,5,67,8
9,4,23,0,2,0,3,5,67,11
9,4,3,0,4,0,3,5,21,11
9,4,15,1,6,1,3,5,21,11
9,4,11,1,5,1,3,5,67,11
9,4,5,0,5,1,3,5,30,11
9,4,2,0,5,1,3,5,127,11
9,4,19,1,0,0,3,5,103,11
9,4,19,1,1,0,3,5,101,11
9,4,21,0,4,0,3,5,76,11
9,4,12,1,3,0,3,5,38,11
9,4,9,1,3,0,3,5,67,11
9,4,20,1,4,0,3,5,21,11
9,4,6,0,5,1,3,5,93,11
10,4,16,1,3,0,4,5,67,11
10,4,13,1,4,0,4,5,21,11
10,4,20,1,4,0,4,5,93,11
10,4,6,0,5,1,4,5,21,11
10,4,17,1,6,1,4,5,127,11
10,4,23,0,1,0,4,5,90,11
10,4,22,0,2,0,4,5,58,11
10,4,20,1,3,0,4,5,127,11
10,4,15,1,5,1,4,5,83,11
10,4,3,0,0,0,4,5,76,11
11,4,13,1,4,0,4,5,67,11
11,4,10,1,5,1,4,5,21,11
11,4,0,0,0,0,4,5,90,11
11,4,14,1,4,0,4,5,102,11
11,4,17,1,5,1,4,5,67,11
11,4,17,1,5,1,4,5,67,8
11,4,15,1,2,0,4,5,110,11
11,4,19,1,5,1,4,5,103,11
11,4,23,0,2,0,4,5,127,11
11,4,20,1,2,0,4,5,67,11
11,4,13,1,2,0,4,5,38,11
12,1,3,0,4,0,4,5,21,9
12,1,5,0,6,1,4,5,93,11
12,1,7,1,6,1,4,5,58,11
12,1,18,1,2,0,4,5,93,11
12,1,0,0,0,0,4,5,67,11
1,1,12,1,0,0,1,5,79,11
1,1,4,0,4,0,1,5,90,11
1,1,1,0,6,1,1,5,90,11
1,1,19,1,2,0,1,5,67,11
1,1,3,0,2,0,1,5,90,11
1,1,4,0,0,0,1,5,67,11
1,1,3,0,0,0,1,5,67,11
1,1,17,1,2,0,1,5,48,11
1,1,19,1,6,1,1,5,103,11
1,1,10,1,6,1,1,5,69,11
2,1,2,0,3,0,1,5,90,11
2,1,9,1,3,0,1,5,67,11
3,2,1,0,5,1,1,5,90,11
3,2,0,0,6,1,1,5,38,9
3,2,13,1,6,1,1,5,101,11
3,2,18,1,6,1,1,5,66,11
3,2,19,1,5,1,1,5,67,11
3,2,20,1,2,0,1,5,67,11
4,2,13,1,5,1,2,5,56,11
4,2,3,0,2,0,2,5,126,11
4,2,15,1,4,0,2,5,93,11
4,2,13,1,0,0,2,5,67,11
4,2,23,0,0,0,2,5,90,11
4,2,23,0,0,0,2,5,90,11
4,2,3,0,5,1,2,5,90,11
4,2,0,0,5,1,2,5,127,11
5,2,0,0,1,0,2,5,90,11
5,2,1,0,6,1,2,5,127,11
5,2,0,0,0,0,2,5,127,11
5,2,22,0,2,0,2,5,93,11
5,2,15,1,6,1,2,5,127,11
5,2,3,0,1,0,2,5,76,11
5,2,2,0,1,0,2,5,76,11
5,2,13,1,5,1,2,5,67,11
5,2,16,1,0,0,2,5,80,11
5,2,15,1,1,0,2,5,67,11
6,3,12,1,3,0,2,5,67,11
6,3,9,1,0,0,2,5,67,9
6,3,16,1,5,1,2,5,67,11
6,3,20,1,1,0,2,5,38,11
6,3,23,0,4,0,2,5,79,11
6,3,1,0,5,1,2,5,80,11
6,3,12,1,5,1,2,5,67,11
7,3,13,1,2,0,3,5,91,11
7,3,21,0,3,0,3,5,93,11
7,3,19,1,6,1,3,5,79,11
7,3,1,0,0,0,3,5,76,11
7,3,22,0,2,0,3,5,90,11
7,3,0,0,4,0,3,5,80,11
7,3,3,0,5,1,3,5,79,11
7,3,16,1,3,0,3,5,38,11
7,3,7,1,3,0,3,5,90,11
7,3,5,0,4,0,3,5,67,11
7,3,17,1,5,1,3,5,112,11
7,3,18,1,0,0,3,5,90,11
7,3,17,1,2,0,3,5,38,11
8,3,11,1,1,0,3,5,21,11
8,3,19,1,5,1,3,5,67,11
8,3,10,1,6,1,3,5,93,11
8,3,4,0,6,1,3,5,58,11
8,3,21,0,2,0,3,5,67,11
8,3,15,1,3,0,3,5,67,11
8,3,14,1,2,0,3,5,67,11
8,3,4,0,2,0,3,5,101,11
9,4,15,1,3,0,3,5,67,11
9,4,22,0,3,0,3,5,79,11
9,4,4,0,5,1,3,5,103,11
9,4,16,1,2,0,3,5,67,11
9,4,6,0,3,0,3,5,103,11
9,4,13,1,3,0,3,5,101,11
10,4,11,1,1,0,4,5,67,11
10,4,11,1,2,0,4,5,90,11
10,4,12,1,4,0,4,5,90,11
10,4,5,0,2,0,4,5,67,11
10,4,14,1,3,0,4,5,38,11
10,4,11,1,4,0,4,5,90,11
10,4,11,1,4,0,4,5,48,11
10,4,2,0,1,0,4,5,21,11
10,4,12,1,3,0,4,5,67,11
11,4,1,0,5,1,4,5,79,11
11,4,6,0,0,0,4,5,90,11
11,4,21,0,6,1,4,5,67,11
12,1,0,0,4,0,4,5,59,11
12,1,6,0,5,1,4,5,38,9
12,1,17,1,1,0,4,5,38,11
12,1,12,1,2,0,4,5,79,11
12,1,17,1,3,0,4,5,79,11
12,1,8,1,3,0,4,5,1,11
12,1,12,1,4,0,4,5,38,11
12,1,14,1,5,1,4,5,38,11
12,1,15,1,6,1,4,5,67,11
12,1,9,1,6,1,4,5,79,11
12,1,2,0,1,0,4,5,90,11
12,1,23,0,3,0,4,5,90,11
1,1,17,1,6,1,1,5,90,11
1,1,0,0,1,0,1,5,67,11
1,1,9,1,3,0,1,5,113,11
1,1,19,1,5,1,1,5,93,11
2,1,17,1,5,1,1,5,90,11
2,1,10,1,0,0,1,5,93,11
2,1,0,0,3,0,1,5,90,11
3,2,18,1,4,0,1,5,35,11
3,2,18,1,0,0,1,5,90,11
3,2,0,0,1,0,1,5,90,11
3,2,0,0,4,0,1,5,90,11
3,2,6,0,1,0,1,5,93,11
4,2,13,1,0,0,2,5,79,11
4,2,12,1,4,0,2,5,90,11
4,2,21,0,6,1,2,5,93,11
4,2,4,0,6,1,2,5,67,11
4,2,1,0,0,0,2,5,90,11
4,2,2,0,1,0,2,5,103,11
4,2,20,1,3,0,2,5,48,11
5,2,18,1,0,0,2,5,90,11
5,2,14,1,5,1,2,5,103,11
5,2,0,0,6,1,2,5,103,11
5,2,14,1,1,0,2,5,124,9
5,2,15,1,5,1,2,5,93,11
5,2,23,0,5,1,2,5,67,11
5,2,21,0,3,0,2,5,93,11
5,2,22,0,0,0,2,5,67,11
6,3,11,1,3,0,2,5,103,11
6,3,12,1,2,0,2,5,79,11
6,3,18,1,5,1,2,5,90,11
6,3,17,1,0,0,2,5,93,11
6,3,17,1,2,0,2,5,103,11
6,3,5,0,4,0,2,5,90,11
6,3,7,1,4,0,2,5,93,11
6,3,0,0,5,1,2,5,67,11
6,3,12,1,6,1,2,5,67,11
7,3,16,1,2,0,3,5,93,11
7,3,16,1,2,0,3,5,93,11
7,3,19,1,3,0,3,5,98,11
7,3,5,0,4,0,3,5,59,11
7,3,3,0,1,0,3,5,21,11
7,3,3,0,2,0,3,5,76,9
7,3,17,1,2,0,3,5,21,11
7,3,16,1,3,0,3,5,93,11
7,3,5,0,5,1,3,5,93,11
7,3,0,0,6,1,3,5,101,11
7,3,14,1,1,0,3,5,84,11
7,3,18,1,5,1,3,5,10,11
7,3,14,1,4,0,3,5,21,11
7,3,23,0,6,1,3,5,93,11
8,3,22,0,6,1,3,5,67,11
8,3,11,1,0,0,3,5,21,11
8,3,11,1,5,1,3,5,46,11
8,3,0,0,6,1,3,5,93,11
8,3,9,1,2,0,3,5,93,11
8,3,12,1,4,0,3,5,21,11
8,3,8,1,1,0,3,5,93,11
8,3,21,0,2,0,3,5,79,11
8,3,12,1,3,0,3,5,93,11
9,4,23,0,2,0,3,5,67,11
9,4,1,0,4,0,3,5,90,11
9,4,6,0,5,1,3,5,67,11
9,4,13,1,6,1,3,5,93,11
9,4,20,1,3,0,3,5,67,11
9,4,13,1,1,0,3,5,75,11
9,4,19,1,4,0,3,5,72,8
9,4,3,0,6,1,3,5,90,11
9,4,20,1,5,1,3,5,90,11
10,4,17,1,6,1,4,5,90,11
10,4,18,1,2,0,4,5,30,11
10,4,0,0,5,1,4,5,90,11
10,4,17,1,3,0,4,5,103,11
11,4,22,0,5,1,4,5,103,11
11,4,14,1,6,1,4,5,67,11
11,4,17,1,6,1,4,5,90,11
11,4,1,0,6,1,4,5,67,11
11,4,20,1,2,0,4,5,24,11
11,4,8,1,1,0,4,5,67,11
12,1,15,1,0,0,4,5,118,11
12,1,22,0,1,0,4,5,101,11
12,1,5,0,0,0,4,5,67,9
10,4,22,0,0,0,4,5,102,9
1,1,11,1,1,0,1,5,93,11
1,1,12,1,1,0,1,5,93,11
1,1,17,1,1,0,1,5,93,11
1,1,8,1,1,0,1,5,24,11
1,1,23,0,2,0,1,5,83,11
1,1,4,0,2,0,1,5,76,11
1,1,0,0,6,1,1,5,79,9
1,1,22,0,4,0,1,5,80,11
1,1,18,1,2,0,1,5,103,11
1,1,19,1,2,0,1,5,93,11
1,1,18,1,3,0,1,5,76,11
1,1,13,1,6,1,1,5,125,11
1,1,21,0,0,0,1,5,93,11
1,1,20,1,6,1,1,5,126,11
1,1,15,1,1,0,1,5,90,11
2,1,16,1,0,0,1,5,93,11
2,1,0,0,0,0,1,5,76,11
2,1,13,1,1,0,1,5,15,11
2,1,15,1,2,0,1,5,21,11
2,1,10,1,2,0,1,5,93,11
2,1,15,1,3,0,1,5,93,11
2,1,12,1,4,0,1,5,93,11
2,1,17,1,4,0,1,5,93,11
2,1,18,1,4,0,1,5,93,11
2,1,9,1,5,1,1,5,93,9
2,1,23,0,5,1,1,5,93,9
2,1,17,1,1,0,1,5,93,11
2,1,20,1,2,0,1,5,93,11
2,1,21,0,3,0,1,5,90,11
2,1,21,0,6,1,1,5,93,11
2,1,4,0,0,0,1,5,93,11
2,1,4,0,1,0,1,5,76,11
3,2,14,1,6,1,1,5,24,9
3,2,19,1,0,0,1,5,93,11
3,2,6,0,0,0,1,5,76,11
3,2,20,1,1,0,1,5,21,11
3,2,19,1,5,1,1,5,93,11
3,2,8,1,0,0,1,5,79,9
3,2,11,1,3,0,1,5,93,11
3,2,22,0,3,0,1,5,93,11
3,2,16,1,4,0,1,5,93,11
3,2,6,0,6,1,1,5,79,11
3,2,21,0,2,0,1,5,93,11
3,2,13,1,1,0,1,5,90,11
3,2,19,1,2,0,1,5,93,11
3,2,23,0,2,0,1,5,93,11
3,2,14,1,3,0,1,5,111,11
3,2,19,1,4,0,1,5,93,11
4,2,19,1,6,1,2,5,90,11
4,2,11,1,2,0,2,5,91,11
4,2,15,1,2,0,2,5,93,11
4,2,21,0,4,0,2,5,93,11
4,2,3,0,6,1,2,5,124,11
4,2,4,0,6,1,2,5,21,11
4,2,22,0,0,0,2,5,91,11
4,2,0,0,1,0,2,5,93,11
4,2,15,1,1,0,2,5,90,11
4,2,8,1,2,0,2,5,93,11
4,2,7,1,2,0,2,5,93,11
4,2,21,0,3,0,2,5,93,9
4,2,6,0,5,1,2,5,67,9
4,2,1,0,6,1,2,5,90,11
4,2,18,1,2,0,2,5,76,11
4,2,15,1,4,0,2,5,93,11
4,2,14,1,5,1,2,5,93,11
4,2,13,1,1,0,2,5,103,11
4,2,20,1,1,0,2,5,65,9
4,2,2,0,1,0,2,5,79,9
4,2,22,0,2,0,2,5,96,11
4,2,15,1,2,0,2,5,15,11
4,2,15,1,3,0,2,5,127,11
4,2,16,1,5,1,2,5,67,11
4,2,14,1,5,1,2,5,38,8
4,2,22,0,5,1,2,5,93,9
5,2,1,0,0,0,2,5,93,11
5,2,15,1,0,0,2,5,93,11
5,2,18,1,0,0,2,5,93,11
5,2,22,0,0,0,2,5,93,11
5,2,19,1,0,0,2,5,93,11
5,2,15,1,1,0,2,5,91,11
5,2,15,1,3,0,2,5,93,11
5,2,18,1,3,0,2,5,93,11
5,2,22,0,3,0,2,5,93,11
5,2,21,0,5,1,2,5,93,11
5,2,23,0,5,1,2,5,93,11
5,2,16,1,5,1,2,5,93,11
5,2,23,0,5,1,2,5,127,11
5,2,17,1,0,0,2,5,93,11
5,2,16,1,2,0,2,5,93,11
5,2,0,0,3,0,2,5,93,11
5,2,19,1,4,0,2,5,103,11
5,2,6,0,4,0,2,5,93,9
5,2,18,1,5,1,2,5,93,11
5,2,21,0,6,1,2,5,93,11
5,2,14,1,6,1,2,5,93,11
5,2,20,1,0,0,2,5,93,11
5,2,22,0,0,0,2,5,93,11
5,2,0,0,1,0,2,5,93,11
5,2,11,1,1,0,2,5,93,11
5,2,10,1,3,0,2,5,38,11
5,2,10,1,4,0,2,5,93,11
5,2,12,1,4,0,2,5,93,11
5,2,19,1,4,0,2,5,93,11
5,2,21,0,4,0,2,5,93,11
5,2,21,0,4,0,2,5,93,11
5,2,21,0,5,1,2,5,93,11
5,2,14,1,1,0,2,5,93,11
5,2,20,1,1,0,2,5,93,11
5,2,17,1,1,0,2,5,93,9
5,2,8,1,2,0,2,5,21,11
5,2,21,0,2,0,2,5,93,11
5,2,23,0,2,0,2,5,93,11
5,2,0,0,2,0,2,5,90,11
5,2,20,1,2,0,2,5,93,11
5,2,18,1,3,0,2,5,93,11
5,2,21,0,4,0,2,5,93,11
5,2,23,0,4,0,2,5,93,11
5,2,0,0,4,0,2,5,93,11
5,2,8,1,4,0,2,5,93,11
5,2,23,0,4,0,2,5,93,11
5,2,23,0,5,1,2,5,93,11
5,2,13,1,5,1,2,5,93,11
5,2,18,1,5,1,2,5,93,9
5,2,18,1,6,1,2,5,93,11
5,2,15,1,6,1,2,5,93,11
5,2,17,1,6,1,2,5,93,11
5,2,18,1,6,1,2,5,93,11
5,2,17,1,6,1,2,5,93,11
5,2,1,0,0,0,2,5,93,9
5,2,17,1,0,0,2,5,93,11
5,2,13,1,0,0,2,5,93,11
5,2,7,1,1,0,2,5,93,11
5,2,13,1,1,0,2,5,93,11
5,2,13,1,1,0,2,5,93,9
5,2,10,1,1,0,2,5,93,11
5,2,22,0,2,0,2,5,93,11
6,3,15,1,3,0,2,5,93,9
6,3,17,1,3,0,2,5,93,11
6,3,17,1,4,0,2,5,127,11
6,3,7,1,4,0,2,5,93,11
6,3,16,1,4,0,2,5,103,11
6,3,20,1,5,1,2,5,93,11
6,3,4,0,5,1,2,5,90,11
6,3,13,1,5,1,2,5,93,11
6,3,20,1,5,1,2,5,93,11
6,3,0,0,6,1,2,5,103,11
6,3,16,1,6,1,2,5,93,11
6,3,21,0,6,1,2,5,93,11
6,3,23,0,6,1,2,5,93,11
6,3,8,1,0,0,2,5,127,11
6,3,20,1,0,0,2,5,93,11
6,3,23,0,0,0,2,5,93,11
6,3,23,0,0,0,2,5,93,11
6,3,11,1,0,0,2,5,93,9
6,3,21,0,1,0,2,5,93,11
6,3,17,1,1,0,2,5,93,11
6,3,23,0,1,0,2,5,93,11
6,3,1,0,1,0,2,5,103,11
6,3,16,1,1,0,2,5,93,11
6,3,16,1,1,0,2,5,93,11
6,3,18,1,1,0,2,5,93,11
6,3,19,1,1,0,2,5,93,11
6,3,21,0,2,0,2,5,93,11
6,3,9,1,2,0,2,5,93,11
6,3,16,1,2,0,2,5,93,11
6,3,23,0,3,0,2,5,21,11
6,3,9,1,3,0,2,5,4,11
6,3,12,1,4,0,2,5,93,11
6,3,11,1,4,0,2,5,93,11
6,3,21,0,4,0,2,5,93,11
6,3,18,1,4,0,2,5,93,11
6,3,17,1,4,0,2,5,93,9
6,3,21,0,4,0,2,5,93,11
6,3,21,0,4,0,2,5,93,11
6,3,4,0,5,1,2,5,76,8
6,3,19,1,5,1,2,5,93,11
6,3,23,0,6,1,2,5,93,11
6,3,17,1,0,0,2,5,93,11
6,3,22,0,0,0,2,5,21,11
6,3,11,1,0,0,2,5,93,11
6,3,5,0,2,0,2,5,93,11
6,3,21,0,2,0,2,5,93,11
6,3,13,1,2,0,2,5,103,11
6,3,23,0,2,0,2,5,93,11
6,3,17,1,2,0,2,5,93,11
6,3,15,1,2,0,2,5,93,11
6,3,3,0,3,0,2,5,103,11
6,3,17,1,3,0,2,5,93,11
6,3,0,0,3,0,2,5,58,9
6,3,16,1,3,0,2,5,93,11
6,3,20,1,4,0,2,5,16,11
6,3,18,1,4,0,2,5,93,11
6,3,3,0,6,1,2,5,76,11
6,3,20,1,0,0,2,5,93,11
6,3,21,0,0,0,2,5,110,11
6,3,13,1,0,0,2,5,93,11
6,3,17,1,0,0,2,5,100,11
6,3,17,1,0,0,2,5,93,11
6,3,15,1,1,0,2,5,93,11
6,3,20,1,1,0,2,5,93,11
6,3,23,0,1,0,2,5,93,11
6,3,17,1,2,0,2,5,93,11
6,3,21,0,2,0,2,5,93,11
6,3,15,1,3,0,2,5,93,11
6,3,21,0,3,0,2,5,93,11
6,3,20,1,3,0,2,5,21,11
6,3,11,1,4,0,2,5,93,11
6,3,20,1,4,0,2,5,93,11
6,3,21,0,4,0,2,5,93,11
6,3,21,0,5,1,2,5,127,11
6,3,21,0,5,1,2,5,93,11
6,3,13,1,5,1,2,5,93,8
6,3,20,1,5,1,2,5,93,11
6,3,19,1,5,1,2,5,93,11
6,3,21,0,5,1,2,5,93,11
6,3,15,1,6,1,2,5,93,11
6,3,16,1,0,0,2,5,93,11
6,3,15,1,1,0,2,5,93,11
6,3,10,1,1,0,2,5,93,11
6,3,15,1,1,0,2,5,21,9
6,3,11,1,1,0,2,5,93,9
6,3,23,0,1,0,2,5,93,11
6,3,23,0,1,0,2,5,93,11
6,3,22,0,1,0,2,5,93,11
6,3,0,0,2,0,2,5,93,11
6,3,19,1,2,0,2,5,93,11
6,3,21,0,2,0,2,5,93,11
6,3,21,0,2,0,2,5,21,11
6,3,2,0,2,0,2,5,114,11
6,3,1,0,4,0,2,5,21,11
6,3,2,0,4,0,2,5,93,11
6,3,16,1,4,0,2,5,93,9
7,3,17,1,5,1,3,5,93,11
7,3,19,1,5,1,3,5,21,11
7,3,5,0,6,1,3,5,1,9
7,3,18,1,6,1,3,5,93,11
7,3,12,1,0,0,3,5,93,11
7,3,17,1,0,0,3,5,93,11
7,3,20,1,0,0,3,5,93,11
7,3,5,0,1,0,3,5,103,11
7,3,13,1,1,0,3,5,93,11
7,3,17,1,3,0,3,5,93,11
7,3,8,1,3,0,3,5,93,11
7,3,12,1,3,0,3,5,93,11
7,3,21,0,3,0,3,5,93,11
7,3,13,1,4,0,3,5,93,11
7,3,2,0,4,0,3,5,93,11
7,3,23,0,4,0,3,5,93,11
7,3,5,0,6,1,3,5,16,11
7,3,17,1,6,1,3,5,79,11
7,3,21,0,6,1,3,5,93,11
7,3,0,0,0,0,3,5,21,11
7,3,15,1,0,0,3,5,93,11
7,3,13,1,0,0,3,5,93,11
7,3,16,1,1,0,3,5,90,11
7,3,17,1,1,0,3,5,93,9
7,3,12,1,2,0,3,5,103,11
7,3,11,1,2,0,3,5,93,11
7,3,12,1,2,0,3,5,93,11
7,3,18,1,2,0,3,5,93,11
7,3,15,1,2,0,3,5,93,11
7,3,22,0,3,0,3,5,93,11
7,3,21,0,3,0,3,5,93,11
7,3,22,0,3,0,3,5,93,11
7,3,13,1,4,0,3,5,90,11
7,3,4,0,5,1,3,5,76,11
7,3,18,1,5,1,3,5,93,11
7,3,21,0,5,1,3,5,93,11
7,3,23,0,5,1,3,5,90,11
7,3,17,1,6,1,3,5,21,11
7,3,17,1,6,1,3,5,93,11
7,3,20,1,6,1,3,5,93,11
7,3,5,0,6,1,3,5,93,11
7,3,8,1,0,0,3,5,93,11
7,3,9,1,0,0,3,5,1,11
7,3,16,1,0,0,3,5,21,11
7,3,22,0,1,0,3,5,93,11
7,3,20,1,1,0,3,5,93,11
7,3,13,1,1,0,3,5,93,11
7,3,15,1,1,0,3,5,93,11
7,3,16,1,1,0,3,5,93,11
7,3,16,1,1,0,3,5,10,11
7,3,0,0,1,0,3,5,93,11
7,3,13,1,2,0,3,5,93,11
7,3,21,0,2,0,3,5,93,11
7,3,12,1,3,0,3,5,93,11
7,3,21,0,3,0,3,5,93,11
7,3,4,0,4,0,3,5,21,11
7,3,21,0,4,0,3,5,93,11
7,3,21,0,4,0,3,5,93,11
7,3,3,0,5,1,3,5,90,11
7,3,4,0,5,1,3,5,76,11
7,3,13,1,6,1,3,5,76,11
7,3,0,0,0,0,3,5,21,11
7,3,13,1,0,0,3,5,76,11
7,3,10,1,0,0,3,5,93,11
7,3,21,0,0,0,3,5,93,11
7,3,23,0,0,0,3,5,93,9
7,3,8,1,2,0,3,5,90,11
7,3,2,0,3,0,3,5,90,11
7,3,11,1,3,0,3,5,93,11
7,3,16,1,3,0,3,5,22,8
7,3,12,1,4,0,3,5,76,11
7,3,10,1,5,1,3,5,90,9
7,3,20,1,0,0,3,5,93,11
7,3,20,1,0,0,3,5,93,11
7,3,12,1,0,0,3,5,93,11
7,3,17,1,0,0,3,5,93,11
8,3,11,1,1,0,3,5,93,11
8,3,14,1,3,0,3,5,93,9
8,3,13,1,4,0,3,5,93,11
8,3,20,1,4,0,3,5,103,11
8,3,16,1,5,1,3,5,24,11
8,3,11,1,6,1,3,5,93,11
8,3,8,1,0,0,3,5,93,11
8,3,8,1,1,0,3,5,93,11
8,3,15,1,2,0,3,5,93,11
8,3,13,1,3,0,3,5,93,11
8,3,0,0,3,0,3,5,124,11
8,3,14,1,3,0,3,5,93,11
8,3,16,1,3,0,3,5,93,11
8,3,20,1,3,0,3,5,103,11
8,3,21,0,4,0,3,5,93,11
8,3,1,0,6,1,3,5,80,11
8,3,3,0,0,0,3,5,41,11
8,3,20,1,0,0,3,5,10,11
8,3,14,1,1,0,3,5,15,9
8,3,14,1,3,0,3,5,21,8
8,3,11,1,3,0,3,5,93,11
8,3,23,0,4,0,3,5,93,11
8,3,19,1,5,1,3,5,93,11
8,3,16,1,5,1,3,5,93,11
8,3,18,1,6,1,3,5,10,11
8,3,1,0,0,0,3,5,93,11
8,3,11,1,0,0,3,5,93,11
8,3,4,0,1,0,3,5,93,11
8,3,8,1,1,0,3,5,46,8
8,3,1,0,1,0,3,5,93,11
8,3,7,1,2,0,3,5,93,11
8,3,22,0,2,0,3,5,93,11
8,3,22,0,3,0,3,5,90,11
8,3,3,0,5,1,3,5,76,11
8,3,13,1,5,1,3,5,93,9
8,3,6,0,1,0,3,5,90,11
8,3,10,1,1,0,3,5,127,11
8,3,13,1,1,0,3,5,127,11
8,3,17,1,1,0,3,5,93,11
8,3,19,1,1,0,3,5,93,11
8,3,20,1,1,0,3,5,93,11
8,3,16,1,3,0,3,5,124,11
9,4,15,1,4,0,3,5,93,11
9,4,19,1,4,0,3,5,93,11
9,4,20,1,4,0,3,5,93,11
9,4,21,0,4,0,3,5,93,11
9,4,5,0,5,1,3,5,93,9
9,4,12,1,6,1,3,5,93,11
9,4,11,1,6,1,3,5,76,11
9,4,20,1,6,1,3,5,93,11
9,4,22,0,6,1,3,5,46,8
9,4,14,1,0,0,3,5,93,11
9,4,9,1,0,0,3,5,93,11
9,4,17,1,0,0,3,5,93,11
9,4,19,1,0,0,3,5,93,11
9,4,18,1,0,0,3,5,46,8
9,4,18,1,2,0,3,5,21,11
9,4,19,1,2,0,3,5,90,11
9,4,20,1,4,0,3,5,76,11
9,4,16,1,0,0,3,5,93,11
9,4,23,0,3,0,3,5,93,11
9,4,2,0,3,0,3,5,22,9
9,4,7,1,3,0,3,5,93,11
9,4,6,0,4,0,3,5,93,11
9,4,6,0,5,1,3,5,93,11
9,4,16,1,6,1,3,5,93,9
9,4,0,0,6,1,3,5,93,11
9,4,22,0,3,0,3,5,90,11
9,4,23,0,5,1,3,5,93,11
9,4,20,1,6,1,3,5,79,11
9,4,19,1,0,0,3,5,93,11
9,4,11,1,0,0,3,5,93,11
9,4,15,1,0,0,3,5,109,11
9,4,13,1,0,0,3,5,93,11
9,4,10,1,3,0,3,5,93,11
9,4,4,0,3,0,3,5,93,11
9,4,9,1,5,1,3,5,90,11
9,4,22,0,5,1,3,5,90,11
9,4,12,1,5,1,3,5,90,11
10,4,8,1,1,0,4,5,21,11
10,4,19,1,1,0,4,5,93,11
10,4,2,0,3,0,4,5,79,11
10,4,14,1,3,0,4,5,93,11
10,4,22,0,4,0,4,5,93,11
10,4,19,1,4,0,4,5,93,11
10,4,13,1,6,1,4,5,21,11
10,4,12,1,0,0,4,5,93,11
10,4,0,0,1,0,4,5,21,11
10,4,9,1,1,0,4,5,93,11
10,4,21,0,2,0,4,5,21,11
10,4,3,0,2,0,4,5,21,11
10,4,16,1,3,0,4,5,79,11
10,4,22,0,3,0,4,5,10,11
10,4,19,1,6,1,4,5,93,11
10,4,19,1,6,1,4,5,93,11
10,4,18,1,6,1,4,5,93,11
10,4,0,0,0,0,4,5,93,11
10,4,0,0,0,0,4,5,93,11
10,4,21,0,1,0,4,5,127,11
10,4,14,1,3,0,4,5,21,11
10,4,21,0,4,0,4,5,93,11
10,4,23,0,4,0,4,5,103,11
10,4,8,1,5,1,4,5,93,11
10,4,20,1,5,1,4,5,79,11
10,4,12,1,0,0,4,5,79,11
11,4,22,0,3,0,4,5,93,11
11,4,16,1,2,0,4,5,93,11
11,4,2,0,5,1,4,5,58,11
11,4,1,0,5,1,4,5,90,11
11,4,20,1,6,1,4,5,90,11
11,4,20,1,0,0,4,5,93,11
11,4,10,1,3,0,4,5,67,9
11,4,22,0,3,0,4,5,90,11
11,4,20,1,4,0,4,5,67,11
11,4,20,1,0,0,4,5,93,11
11,4,19,1,0,0,4,5,103,11
11,4,12,1,2,0,4,5,67,11
11,4,11,1,4,0,4,5,103,11
11,4,21,0,6,1,4,5,67,11
11,4,15,1,6,1,4,5,93,11
11,4,13,1,1,0,4,5,90,11
11,4,21,0,1,0,4,5,21,11
11,4,9,1,3,0,4,5,103,11
11,4,11,1,3,0,4,5,103,11
11,4,15,1,3,0,4,5,24,11
12,1,14,1,4,0,4,5,93,11
12,1,1,0,6,1,4,5,93,11
12,1,16,1,0,0,4,5,93,11
12,1,21,0,0,0,4,5,93,11
12,1,0,0,3,0,4,5,93,11
12,1,20,1,5,1,4,5,93,11
12,1,9,1,0,0,4,5,103,11
12,1,19,1,1,0,4,5,67,11
12,1,8,1,3,0,4,5,93,11
12,1,13,1,4,0,4,5,93,11
12,1,10,1,6,1,4,5,67,11
12,1,23,0,0,0,4,5,79,11
12,1,0,0,1,0,4,5,93,11
12,1,21,0,3,0,4,5,24,9
12,1,17,1,2,0,4,5,46,11
12,1,21,0,2,0,4,5,93,11
12,1,2,0,3,0,4,5,24,11
12,1,11,1,4,0,4,5,79,11
1,1,13,1,3,0,1,5,15,11
1,1,22,0,5,1,1,5,15,11
1,1,21,0,6,1,1,5,4,11
1,1,17,1,2,0,1,5,4,11
1,1,17,1,1,0,1,5,127,11
1,1,15,1,0,0,1,5,93,11
1,1,18,1,5,1,1,5,1,11
2,1,8,1,1,0,1,5,95,8
2,1,17,1,6,1,1,5,103,11
2,1,14,1,5,1,1,5,4,11
2,1,20,1,0,0,1,5,93,11
2,1,18,1,4,0,1,5,93,11
2,1,21,0,4,0,1,5,1,11
2,1,1,0,6,1,1,5,21,9
2,1,18,1,6,1,1,5,93,11
3,2,21,0,4,0,1,5,127,11
3,2,8,1,6,1,1,5,103,11
3,2,21,0,4,0,1,5,67,11
3,2,20,1,2,0,1,5,4,9
3,2,12,1,0,0,1,5,93,11
3,2,22,0,2,0,1,5,127,11
3,2,16,1,4,0,1,5,93,11
4,2,23,0,0,0,2,5,67,11
4,2,22,0,5,1,2,5,127,11
4,2,15,1,1,0,2,5,93,11
4,2,22,0,5,1,2,5,10,11
4,2,1,0,3,0,2,5,127,11
4,2,14,1,0,0,2,5,4,11
4,2,12,1,3,0,2,5,4,9
4,2,15,1,4,0,2,5,103,9
4,2,13,1,4,0,2,5,103,11
4,2,12,1,5,1,2,5,93,11
4,2,16,1,5,1,2,5,93,11
4,2,18,1,5,1,2,5,93,11
5,2,7,1,0,0,2,5,93,11
5,2,13,1,3,0,2,5,4,11
5,2,15,1,4,0,2,5,28,11
5,2,20,1,6,1,2,5,127,11
5,2,20,1,0,0,2,5,93,11
6,3,20,1,5,1,2,5,21,11
6,3,19,1,4,0,2,5,127,11
6,3,12,1,3,0,2,5,21,11
6,3,8,1,5,1,2,5,126,11
6,3,10,1,6,1,2,5,127,11
6,3,11,1,1,0,2,5,67,11
6,3,1,0,3,0,2,5,21,11
6,3,20,1,3,0,2,5,4,11
7,3,18,1,2,0,3,5,21,11
7,3,19,1,0,0,3,5,93,11
7,3,6,0,0,0,3,5,90,9
7,3,13,1,6,1,3,5,103,11
7,3,19,1,6,1,3,5,93,11
7,3,14,1,2,0,3,5,4,11
7,3,16,1,2,0,3,5,103,11
7,3,11,1,0,0,3,5,93,11
8,3,19,1,2,0,3,5,4,11
8,3,5,0,6,1,3,5,103,9
8,3,9,1,1,0,3,5,93,11
8,3,13,1,5,1,3,5,93,9
8,3,15,1,5,1,3,5,21,11
8,3,19,1,3,0,3,5,103,11
8,3,19,1,0,0,3,5,4,11
9,4,21,0,5,1,3,5,79,11
10,4,17,1,0,0,4,5,103,11
10,4,22,0,2,0,4,5,21,11
10,4,10,1,6,1,4,5,38,11
10,4,22,0,6,1,4,5,127,11
10,4,18,1,5,1,4,5,67,11
11,4,19,1,4,0,4,5,90,11
11,4,14,1,5,1,4,5,4,11
11,4,18,1,2,0,4,5,35,11
11,4,21,0,6,1,4,5,103,11
11,4,16,1,0,0,4,5,127,11
11,4,19,1,1,0,4,5,93,9
11,4,18,1,4,0,4,5,127,11
12,1,6,0,4,0,4,5,76,11
12,1,17,1,5,1,4,5,127,11
12,1,10,1,5,1,4,5,93,11
12,1,18,1,1,0,4,5,127,11
12,1,18,1,2,0,4,5,21,11
12,1,19,1,5,1,4,5,91,11
12,1,9,1,3,0,4,5,79,9
12,1,9,1,2,0,4,5,93,11
12,1,13,1,2,0,4,5,114,9
12,1,17,1,4,0,4,5,93,11
12,1,21,0,5,1,4,5,127,11
3,2,22,0,6,1,1,5,127,11
6,3,17,1,2,0,2,5,103,11
8,3,9,1,2,0,3,5,79,11
8,3,12,1,6,1,3,5,21,9
1,1,15,1,5,1,1,5,76,11
4,2,2,0,1,0,2,5,76,11
4,2,15,1,4,0,2,5,76,11
5,2,11,1,3,0,2,5,76,11
5,2,16,1,0,0,2,5,90,11
5,2,8,1,6,1,2,5,90,11
7,3,18,1,1,0,3,5,21,11
7,3,17,1,3,0,3,5,76,11
8,3,6,0,3,0,3,5,90,11
8,3,19,1,3,0,3,5,90,11
8,3,12,1,3,0,3,5,76,9
11,4,8,1,3,0,4,5,76,9
12,1,12,1,3,0,4,5,90,11
1,1,19,1,4,0,1,5,90,11
2,1,12,1,6,1,1,5,93,11
2,1,13,1,0,0,1,5,93,11
3,2,16,1,4,0,1,5,21,9
3,2,19,1,3,0,1,5,21,11
3,2,20,1,4,0,1,5,21,9
3,2,18,1,3,0,1,5,90,11
4,2,15,1,5,1,2,5,93,11
4,2,8,1,5,1,2,5,28,11
4,2,12,1,5,1,2,5,93,11
4,2,19,1,0,0,2,5,90,11
4,2,13,1,1,0,2,5,112,11
4,2,17,1,2,0,2,5,93,11
4,2,1,0,4,0,2,5,90,11
4,2,17,1,6,1,2,5,93,11
4,2,10,1,2,0,2,5,93,11
5,2,13,1,0,0,2,5,93,11
5,2,11,1,4,0,2,5,67,11
5,2,19,1,2,0,2,5,90,11
5,2,12,1,0,0,2,5,58,11
5,2,22,0,0,0,2,5,125,11
6,3,12,1,2,0,2,5,93,11
6,3,23,0,5,1,2,5,50,11
7,3,19,1,2,0,3,5,93,11
7,3,23,0,3,0,3,5,103,11
7,3,22,0,4,0,3,5,79,11
7,3,19,1,5,1,3,29,93,11
7,3,10,1,0,0,3,5,93,11
8,3,21,0,1,0,3,5,76,11
8,3,21,0,3,0,3,5,93,11
8,3,6,0,6,1,3,5,93,11
8,3,21,0,3,0,3,5,21,11
8,3,8,1,5,1,3,5,90,11
9,4,9,1,6,1,3,29,15,11
9,4,13,1,3,0,3,5,21,11
9,4,16,1,5,1,3,29,47,11
9,4,17,1,6,1,3,29,90,8
9,4,11,1,3,0,3,29,22,11
10,4,15,1,2,0,4,5,93,11
10,4,11,1,4,0,4,5,93,11
10,4,15,1,5,1,4,5,93,11
10,4,13,1,5,1,4,5,93,11
10,4,9,1,0,0,4,5,92,11
10,4,15,1,2,0,4,5,93,11
10,4,12,1,6,1,4,5,93,11
10,4,11,1,6,1,4,5,93,11
11,4,9,1,2,0,4,5,93,9
11,4,11,1,4,0,4,5,75,9
11,4,17,1,5,1,4,5,93,11
11,4,21,0,4,0,4,5,93,11
11,4,12,1,3,0,4,5,93,11
12,1,17,1,4,0,4,5,93,11
12,1,21,0,4,0,4,5,67,11
12,1,23,0,5,1,4,5,93,11
12,1,21,0,0,0,4,5,103,11
12,1,8,1,0,0,4,5,79,11
12,1,19,1,6,1,4,5,21,11
12,1,17,1,6,1,4,5,90,11
12,1,15,1,5,1,4,5,68,11
1,1,17,1,1,0,1,5,93,11
1,1,16,1,1,0,1,5,124,11
1,1,10,1,2,0,1,5,124,11
1,1,11,1,4,0,1,5,93,11
1,1,15,1,4,0,1,5,93,11
1,1,17,1,5,1,1,5,93,11
1,1,2,0,6,1,1,5,38,11
1,1,13,1,6,1,1,5,93,11
1,1,18,1,1,0,1,5,93,11
1,1,6,0,1,0,1,5,79,8
1,1,18,1,6,1,1,5,93,11
1,1,11,1,5,1,1,5,93,11
1,1,14,1,3,0,1,5,90,11
1,1,13,1,4,0,1,5,93,11
1,1,18,1,6,1,1,5,93,11
2,1,13,1,3,0,1,5,127,11
2,1,16,1,3,0,1,5,127,11
2,1,12,1,4,0,1,5,67,11
2,1,20,1,6,1,1,5,67,11
2,1,18,1,0,0,1,5,79,11
2,1,13,1,2,0,1,5,79,11
2,1,16,1,3,0,1,5,124,11
2,1,17,1,4,0,1,5,38,11
2,1,13,1,6,1,1,5,90,11
2,1,12,1,1,0,1,5,93,11
2,1,13,1,4,0,1,5,93,11
2,1,11,1,1,0,1,5,93,11
2,1,14,1,1,0,1,5,103,11
2,1,16,1,1,0,1,5,93,11
2,1,12,1,5,1,1,5,93,11
2,1,11,1,0,0,1,5,93,11
2,1,21,0,1,0,1,5,93,11
2,1,23,0,1,0,1,5,93,11
3,2,18,1,6,1,1,5,93,11
3,2,18,1,2,0,1,5,93,11
3,2,13,1,6,1,1,5,38,11
3,2,19,1,6,1,1,5,93,11
3,2,20,1,6,1,1,5,79,11
3,2,12,1,1,0,1,5,21,11
3,2,1,0,0,0,1,5,127,11
3,2,10,1,2,0,1,5,93,11
3,2,13,1,2,0,1,5,127,11
3,2,18,1,3,0,1,5,93,11
3,2,18,1,4,0,1,5,93,11
3,2,19,1,4,0,1,5,79,11
4,2,16,1,1,0,2,5,90,11
4,2,20,1,4,0,2,5,93,11
4,2,23,0,5,1,2,5,90,11
4,2,23,0,5,1,2,5,93,11
4,2,0,0,6,1,2,5,90,11
4,2,1,0,6,1,2,5,90,11
4,2,14,1,6,1,2,5,90,11
4,2,17,1,0,0,2,5,93,11
4,2,12,1,1,0,2,5,93,11
4,2,11,1,5,1,2,5,93,11
4,2,19,1,5,1,2,5,90,11
4,2,11,1,2,0,2,5,93,11
4,2,22,0,2,0,2,5,58,11
4,2,21,0,6,1,2,5,93,11
5,2,9,1,4,0,2,5,14,11
5,2,12,1,4,0,2,5,93,11
5,2,11,1,0,0,2,5,93,11
5,2,7,1,5,1,2,5,93,11
5,2,19,1,5,1,2,5,93,11
5,2,8,1,1,0,2,5,93,11
6,3,14,1,3,0,2,5,38,11
6,3,5,0,6,1,2,5,58,11
6,3,23,0,6,1,2,5,93,11
6,3,16,1,1,0,2,5,103,11
6,3,19,1,3,0,2,5,83,11
6,3,13,1,5,1,2,5,58,11
6,3,18,1,5,1,2,5,93,11
7,3,14,1,2,0,3,5,93,11
7,3,2,0,5,1,3,5,93,11
7,3,4,0,5,1,3,5,93,11
7,3,13,1,5,1,3,5,93,11
7,3,17,1,0,0,3,5,93,11
7,3,13,1,0,0,3,5,93,9
7,3,9,1,1,0,3,5,93,11
7,3,8,1,4,0,3,5,93,11
7,3,20,1,0,0,3,5,79,11
7,3,18,1,3,0,3,5,93,11
7,3,17,1,0,0,3,5,103,11
8,3,20,1,1,0,3,5,93,11
8,3,17,1,1,0,3,5,93,11
8,3,20,1,2,0,3,5,38,11
8,3,17,1,4,0,3,5,127,11
8,3,21,0,1,0,3,5,93,11
8,3,7,1,3,0,3,5,103,11
8,3,11,1,6,1,3,5,93,11
8,3,22,0,2,0,3,5,79,11
8,3,11,1,6,1,3,5,21,11
8,3,8,1,1,0,3,5,93,11
8,3,6,0,5,1,3,5,93,11
8,3,8,1,5,1,3,5,93,11
8,3,11,1,5,1,3,5,93,11
8,3,12,1,6,1,3,5,38,11
8,3,23,0,0,0,3,5,90,11
9,4,15,1,0,0,3,5,93,11
9,4,15,1,5,1,3,5,93,11
9,4,23,0,3,0,3,5,93,11
9,4,19,1,5,1,3,5,14,11
9,4,8,1,0,0,3,5,93,11
9,4,17,1,0,0,3,5,93,11
9,4,18,1,6,1,3,5,93,11
10,4,16,1,0,0,4,5,93,11
10,4,17,1,3,0,4,5,21,11
10,4,19,1,0,0,4,5,93,8
10,4,9,1,1,0,4,5,79,8
10,4,0,0,3,0,4,5,93,11
10,4,20,1,3,0,4,5,93,11
11,4,11,1,6,1,4,5,93,11
11,4,13,1,6,1,4,5,93,11
11,4,12,1,6,1,4,5,93,11
11,4,17,1,1,0,4,5,93,11
11,4,7,1,2,0,4,5,79,11
11,4,12,1,3,0,4,5,93,11
11,4,17,1,3,0,4,5,93,11
11,4,14,1,5,1,4,5,93,11
11,4,7,1,6,1,4,5,93,11
11,4,9,1,3,0,4,5,103,11
11,4,14,1,3,0,4,5,93,11
11,4,23,0,6,1,4,5,67,11
11,4,13,1,3,0,4,5,93,11
12,1,17,1,5,1,4,5,93,11
12,1,9,1,4,0,4,5,103,11
12,1,13,1,0,0,4,5,21,11
12,1,12,1,2,0,4,5,38,11
12,1,12,1,5,1,4,5,79,11
12,1,16,1,1,0,4,5,93,11
12,1,22,0,2,0,4,5,103,11
12,1,14,1,3,0,4,5,93,11
12,1,16,1,2,0,4,5,93,11
12,1,16,1,4,0,4,5,79,8
1,1,23,0,6,1,1,5,93,11
1,1,16,1,6,1,1,5,90,11
1,1,0,0,6,1,1,5,79,11
1,1,16,1,1,0,1,5,93,11
1,1,0,0,1,0,1,5,90,11
1,1,8,1,2,0,1,5,79,11
1,1,17,1,2,0,1,5,93,11
1,1,11,1,3,0,1,5,93,11
1,1,22,0,4,0,1,5,93,11
1,1,3,0,4,0,1,5,93,11
1,1,21,0,5,1,1,5,90,11
1,1,6,0,5,1,1,5,93,11
1,1,2,0,5,1,1,5,90,11
1,1,0,0,0,0,1,5,93,11
1,1,10,1,0,0,1,5,93,11
1,1,7,1,0,0,1,5,93,11
1,1,6,0,1,0,1,5,93,11
1,1,12,1,2,0,1,5,93,11
1,1,16,1,2,0,1,5,90,11
1,1,9,1,3,0,1,5,90,11
1,1,16,1,5,1,1,5,93,11
1,1,18,1,5,1,1,5,93,11
1,1,5,0,2,0,1,5,90,11
1,1,17,1,2,0,1,5,93,11
1,1,14,1,3,0,1,5,93,11
1,1,16,1,0,0,1,5,93,11
1,1,10,1,3,0,1,5,93,11
2,1,10,1,2,0,1,5,67,11
2,1,19,1,3,0,1,5,93,11
2,1,13,1,3,0,1,5,93,11
2,1,20,1,3,0,1,5,90,11
2,1,21,0,4,0,1,5,93,11
2,1,17,1,0,0,1,5,79,11
2,1,14,1,5,1,1,5,90,11
2,1,20,1,6,1,1,5,79,11
2,1,12,1,6,1,1,5,79,11
2,1,14,1,4,0,1,5,90,11
2,1,14,1,5,1,1,5,93,11
2,1,11,1,5,1,1,5,93,11
2,1,16,1,6,1,1,5,93,11
2,1,9,1,1,0,1,5,90,11
2,1,10,1,1,0,1,5,93,11
2,1,1,0,2,0,1,5,93,11
2,1,18,1,2,0,1,5,93,11
2,1,18,1,3,0,1,5,93,11
2,1,12,1,6,1,1,5,93,11
2,1,13,1,6,1,1,5,93,11
2,1,19,1,1,0,1,5,93,11
2,1,18,1,1,0,1,5,93,11
2,1,14,1,1,0,1,5,93,11
2,1,11,1,1,0,1,5,93,11
3,2,12,1,5,1,1,5,93,11
3,2,16,1,6,1,1,5,15,11
3,2,11,1,0,0,1,5,90,11
3,2,15,1,1,0,1,5,93,11
3,2,1,0,2,0,1,5,67,11
3,2,0,0,3,0,1,5,67,11
3,2,13,1,3,0,1,5,93,11
3,2,23,0,3,0,1,5,93,11
3,2,17,1,5,1,1,5,93,11
3,2,6,0,6,1,1,5,93,11
3,2,20,1,6,1,1,5,67,11
3,2,14,1,1,0,1,5,90,11
3,2,17,1,1,0,1,5,93,11
3,2,11,1,2,0,1,5,21,11
3,2,10,1,4,0,1,5,93,11
3,2,14,1,4,0,1,5,93,11
3,2,10,1,5,1,1,5,93,11
3,2,15,1,5,1,1,5,93,11
3,2,8,1,0,0,1,5,93,11
3,2,17,1,0,0,1,5,93,11
3,2,9,1,1,0,1,5,93,11
3,2,0,0,1,0,1,5,93,11
3,2,7,1,3,0,1,5,93,11
3,2,18,1,4,0,1,5,93,11
3,2,9,1,4,0,1,5,79,11
3,2,17,1,5,1,1,5,93,11
3,2,16,1,0,0,1,5,93,11
3,2,19,1,0,0,1,5,93,11
3,2,11,1,1,0,1,5,93,11
4,2,8,1,5,1,2,5,93,11
4,2,21,0,6,1,2,5,103,11
4,2,19,1,6,1,2,5,93,11
4,2,16,1,6,1,2,5,93,11
4,2,0,0,6,1,2,5,93,11
4,2,11,1,0,0,2,5,79,11
4,2,20,1,1,0,2,5,93,11
4,2,16,1,2,0,2,5,48,11
4,2,12,1,2,0,2,5,113,11
4,2,8,1,5,1,2,5,93,11
4,2,18,1,0,0,2,5,93,11
5,2,11,1,0,0,2,5,93,11
5,2,17,1,0,0,2,5,76,11
5,2,20,1,2,0,2,5,79,11
5,2,19,1,1,0,2,5,67,11
5,2,13,1,6,1,2,5,90,11
5,2,11,1,0,0,2,5,93,11
5,2,21,0,2,0,2,5,93,11
5,2,15,1,3,0,2,5,90,11
5,2,19,1,6,1,2,5,93,11
5,2,7,1,1,0,2,5,90,11
5,2,20,1,1,0,2,5,93,11
5,2,11,1,3,0,2,5,79,11
5,2,21,0,6,1,2,5,93,11
5,2,21,0,0,0,2,5,93,11
6,3,10,1,3,0,2,5,93,11
6,3,17,1,0,0,2,5,93,11
6,3,19,1,1,0,2,5,103,11
6,3,12,1,1,0,2,5,93,11
6,3,11,1,2,0,2,5,93,11
6,3,17,1,4,0,2,5,90,11
6,3,18,1,5,1,2,5,93,9
6,3,19,1,5,1,2,5,93,11
6,3,19,1,5,1,2,5,93,11
6,3,4,0,6,1,2,5,90,11
6,3,18,1,6,1,2,5,93,11
6,3,20,1,2,0,2,5,93,11
6,3,22,0,2,0,2,5,93,11
6,3,17,1,3,0,2,5,93,11
6,3,21,0,3,0,2,5,93,11
6,3,21,0,3,0,2,5,79,11
6,3,19,1,4,0,2,5,93,11
6,3,16,1,0,0,2,5,21,9
6,3,7,1,0,0,2,5,21,11
7,3,22,0,5,1,3,5,93,11
7,3,14,1,5,1,3,5,93,11
7,3,14,1,5,1,3,5,103,11
7,3,17,1,2,0,3,5,76,11
7,3,8,1,3,0,3,5,90,11
7,3,12,1,4,0,3,5,93,11
7,3,15,1,5,1,3,5,103,11
7,3,22,0,6,1,3,5,90,11
7,3,16,1,2,0,3,5,93,11
7,3,10,1,2,0,3,5,93,11
7,3,6,0,2,0,3,5,79,11
7,3,19,1,5,1,3,5,93,11
7,3,13,1,5,1,3,5,90,11
7,3,16,1,0,0,3,5,76,11
7,3,16,1,0,0,3,5,93,11
7,3,15,1,1,0,3,5,93,11
7,3,8,1,4,0,3,5,93,11
7,3,18,1,4,0,3,5,76,11
7,3,14,1,0,0,3,5,93,11
7,3,7,1,3,0,3,5,103,11
7,3,6,0,5,1,3,5,93,9
8,3,7,1,3,0,3,5,93,11
8,3,14,1,4,0,3,5,93,11
8,3,17,1,4,0,3,5,93,11
8,3,19,1,4,0,3,5,79,11
8,3,0,0,0,0,3,5,93,11
8,3,1,0,2,0,3,5,93,11
8,3,16,1,6,1,3,5,28,11
8,3,23,0,6,1,3,5,79,9
8,3,8,1,0,0,3,5,93,11
8,3,16,1,1,0,3,5,93,9
8,3,7,1,1,0,3,5,93,11
8,3,21,0,2,0,3,5,93,11
8,3,18,1,2,0,3,5,93,11
8,3,16,1,4,0,3,5,93,11
8,3,12,1,5,1,3,5,93,11
8,3,22,0,6,1,3,5,58,11
8,3,1,0,6,1,3,5,93,11
8,3,19,1,0,0,3,5,103,11
8,3,9,1,0,0,3,5,76,11
8,3,0,0,1,0,3,5,93,11
8,3,11,1,1,0,3,5,93,11
8,3,22,0,1,0,3,5,79,11
8,3,17,1,1,0,3,5,93,11
8,3,15,1,4,0,3,5,76,11
8,3,20,1,6,1,3,5,93,11
8,3,7,1,6,1,3,5,93,9
8,3,9,1,0,0,3,5,93,11
8,3,11,1,0,0,3,5,93,11
8,3,11,1,1,0,3,5,93,11
8,3,15,1,2,0,3,5,93,11
9,4,10,1,6,1,3,5,93,11
9,4,13,1,4,0,3,5,21,11
9,4,5,0,4,0,3,5,15,11
9,4,12,1,1,0,3,5,93,11
9,4,17,1,2,0,3,5,21,11
9,4,9,1,5,1,3,5,58,11
9,4,11,1,6,1,3,5,38,11
9,4,14,1,2,0,3,5,93,11
9,4,18,1,4,0,3,5,58,11
9,4,4,0,4,0,3,5,93,9
9,4,9,1,0,0,3,5,93,11
9,4,10,1,5,1,3,5,93,11
10,4,19,1,6,1,4,5,93,11
10,4,13,1,2,0,4,5,15,11
10,4,20,1,5,1,4,5,50,11
10,4,21,0,5,1,4,5,103,11
10,4,10,1,6,1,4,5,93,11
10,4,8,1,2,0,4,5,76,11
10,4,23,0,2,0,4,5,15,9
10,4,19,1,4,0,4,5,93,11
10,4,19,1,0,0,4,5,93,11
10,4,17,1,3,0,4,5,93,11
10,4,2,0,4,0,4,5,24,11
10,4,19,1,4,0,4,5,93,11
10,4,8,1,0,0,4,5,93,11
10,4,10,1,1,0,4,5,93,11
10,4,18,1,4,0,4,5,90,11
10,4,3,0,6,1,4,5,21,11
11,4,18,1,2,0,4,5,93,11
11,4,9,1,5,1,4,5,93,11
11,4,14,1,5,1,4,5,93,11
11,4,17,1,0,0,4,5,93,11
11,4,16,1,1,0,4,5,93,11
11,4,9,1,2,0,4,5,93,11
11,4,5,0,3,0,4,5,21,11
11,4,16,1,6,1,4,5,93,11
11,4,21,0,6,1,4,5,93,11
11,4,15,1,2,0,4,5,93,11
11,4,16,1,3,0,4,5,93,11
11,4,11,1,4,0,4,5,93,11
11,4,10,1,5,1,4,5,93,11
11,4,13,1,5,1,4,5,93,11
11,4,17,1,5,1,4,5,93,11
11,4,16,1,5,1,4,5,93,11
11,4,9,1,1,0,4,5,93,11
11,4,16,1,2,0,4,5,93,11
11,4,9,1,4,0,4,5,93,11
11,4,6,0,5,1,4,5,24,11
11,4,0,0,5,1,4,5,93,11
11,4,17,1,2,0,4,5,93,11
11,4,20,1,3,0,4,5,14,11
12,1,20,1,5,1,4,5,93,11
12,1,5,0,5,1,4,5,67,11
12,1,4,0,6,1,4,5,93,11
12,1,2,0,2,0,4,5,21,11
12,1,11,1,3,0,4,5,93,11
12,1,14,1,6,1,4,5,93,11
12,1,17,1,1,0,4,5,93,11
12,1,20,1,2,0,4,5,93,11
12,1,18,1,2,0,4,5,79,8
12,1,17,1,3,0,4,5,93,11
12,1,16,1,2,0,4,5,79,11
12,1,17,1,4,0,4,5,90,11
12,1,15,1,1,0,4,5,15,9
1,1,16,1,6,1,1,5,103,11
1,1,17,1,0,0,1,5,93,11
1,1,19,1,2,0,1,5,93,11
1,1,21,0,3,0,1,5,93,11
1,1,19,1,5,1,1,5,27,11
1,1,12,1,1,0,1,5,38,11
1,1,16,1,3,0,1,5,93,11
1,1,17,1,6,1,1,5,103,11
1,1,17,1,6,1,1,5,93,11
1,1,16,1,6,1,1,5,93,11
1,1,22,0,0,0,1,5,103,11
1,1,17,1,0,0,1,5,93,11
1,1,1,0,1,0,1,5,93,11
1,1,10,1,2,0,1,5,103,11
1,1,20,1,2,0,1,5,93,11
1,1,12,1,2,0,1,5,93,11
1,1,15,1,0,0,1,5,103,11
1,1,9,1,1,0,1,5,79,11
1,1,13,1,1,0,1,5,93,11
2,1,19,1,2,0,1,5,103,11
2,1,15,1,4,0,1,5,79,11
2,1,18,1,4,0,1,5,93,11
2,1,22,0,6,1,1,5,103,11
2,1,15,1,6,1,1,5,93,11
2,1,17,1,2,0,1,5,79,8
2,1,12,1,6,1,1,5,93,11
2,1,11,1,2,0,1,5,103,11
2,1,9,1,3,0,1,5,93,11
2,1,18,1,6,1,1,5,93,11
3,2,14,1,3,0,1,5,93,11
3,2,16,1,3,0,1,5,93,8
3,2,18,1,4,0,1,5,93,11
3,2,19,1,2,0,1,5,93,11
3,2,13,1,6,1,1,5,67,11
3,2,10,1,6,1,1,5,93,11
3,2,5,0,0,0,1,5,103,11
3,2,12,1,1,0,1,5,93,11
3,2,8,1,3,0,1,5,103,11
3,2,12,1,4,0,1,5,93,11
3,2,3,0,5,1,1,5,93,11
3,2,20,1,6,1,1,5,79,11
3,2,14,1,0,0,1,5,93,11
3,2,10,1,0,0,1,5,93,11
3,2,13,1,1,0,1,5,103,11
3,2,8,1,3,0,1,5,103,11
3,2,0,0,6,1,1,5,103,11
3,2,2,0,6,1,1,5,103,11
3,2,11,1,0,0,1,5,103,11
3,2,7,1,1,0,1,5,103,11
3,2,19,1,1,0,1,5,79,11
3,2,12,1,2,0,1,5,93,11
4,2,23,0,5,1,2,5,3,11
4,2,20,1,5,1,2,5,93,11
4,2,12,1,6,1,2,5,93,11
4,2,20,1,0,0,2,5,93,11
4,2,17,1,0,0,2,5,103,11
4,2,1,0,0,0,2,5,103,11
4,2,15,1,2,0,2,5,93,11
4,2,18,1,3,0,2,5,93,11
4,2,21,0,6,1,2,5,103,11
4,2,22,0,6,1,2,5,93,11
4,2,9,1,5,1,2,5,93,11
4,2,17,1,6,1,2,5,103,11
4,2,14,1,6,1,2,5,79,11
4,2,15,1,0,0,2,5,103,11
4,2,13,1,2,0,2,5,93,11
4,2,1,0,3,0,2,5,103,11
4,2,14,1,4,0,2,5,93,11
5,2,23,0,2,0,2,5,103,11
5,2,18,1,1,0,2,5,93,11
5,2,18,1,3,0,2,5,79,8
5,2,18,1,2,0,2,5,103,11
5,2,21,0,3,0,2,5,103,11
5,2,14,1,4,0,2,5,103,11
5,2,22,0,1,0,2,5,103,11
5,2,20,1,6,1,2,5,127,11
6,3,13,1,3,0,2,5,93,11
6,3,14,1,4,0,2,5,3,11
6,3,22,0,1,0,2,5,91,11
6,3,16,1,2,0,2,5,93,11
6,3,20,1,3,0,2,5,93,11
6,3,20,1,3,0,2,5,103,11
6,3,23,0,4,0,2,5,79,8
6,3,15,1,0,0,2,5,93,11
6,3,19,1,3,0,2,5,103,11
6,3,13,1,4,0,2,5,93,11
6,3,11,1,6,1,2,5,103,11
7,3,15,1,0,0,3,5,93,11
7,3,17,1,1,0,3,5,93,11
7,3,13,1,1,0,3,5,93,11
7,3,19,1,4,0,3,5,93,11
7,3,5,0,6,1,3,5,93,11
7,3,2,0,4,0,3,5,38,8
7,3,16,1,6,1,3,5,103,11
7,3,2,0,2,0,3,5,93,11
7,3,13,1,3,0,3,5,48,8
7,3,20,1,6,1,3,5,93,11
7,3,15,1,6,1,3,5,93,11
8,3,11,1,1,0,3,5,103,11
8,3,16,1,1,0,3,5,93,11
8,3,18,1,1,0,3,5,93,11
8,3,15,1,3,0,3,5,93,11
8,3,7,1,5,1,3,5,38,11
8,3,16,1,6,1,3,5,93,11
8,3,4,0,0,0,3,5,93,11
8,3,21,0,6,1,3,5,90,11
8,3,21,0,4,0,3,5,93,11
8,3,17,1,6,1,3,5,90,11
9,4,7,1,4,0,3,5,93,11
9,4,20,1,6,1,3,5,93,11
9,4,12,1,3,0,3,5,103,11
9,4,14,1,6,1,3,5,79,11
9,4,9,1,2,0,3,5,103,11
9,4,19,1,4,0,3,5,93,11
9,4,18,1,1,0,3,5,93,11
10,4,14,1,4,0,4,5,93,11
10,4,8,1,4,0,4,5,93,11
10,4,10,1,6,1,4,5,93,11
10,4,16,1,4,0,4,5,93,11
10,4,8,1,5,1,4,5,93,11
10,4,18,1,5,1,4,5,93,11
10,4,16,1,5,1,4,5,93,11
10,4,13,1,6,1,4,5,93,11
10,4,10,1,1,0,4,5,93,11
10,4,12,1,5,1,4,5,93,11
10,4,17,1,6,1,4,5,93,11
10,4,16,1,1,0,4,5,103,11
10,4,16,1,1,0,4,5,103,11
11,4,10,1,5,1,4,5,93,11
11,4,17,1,3,0,4,5,93,11
11,4,19,1,3,0,4,5,93,11
11,4,18,1,0,0,4,5,93,11
11,4,18,1,0,0,4,5,103,11
11,4,10,1,2,0,4,5,93,11
11,4,23,0,6,1,4,5,90,8
11,4,22,0,6,1,4,5,103,11
11,4,16,1,0,0,4,5,93,11
11,4,6,0,5,1,4,5,93,11
11,4,4,0,5,1,4,5,38,11
11,4,15,1,3,0,4,5,93,11
12,1,18,1,2,0,4,5,48,11
12,1,23,0,5,1,4,5,90,11
12,1,12,1,6,1,4,5,93,11
12,1,16,1,1,0,4,5,93,11
12,1,17,1,1,0,4,5,93,11
12,1,15,1,5,1,4,5,103,11
1,1,17,1,4,0,1,42,93,11
1,1,15,1,0,0,1,42,21,11
1,1,16,1,0,0,1,42,67,11
1,1,8,1,1,0,1,42,21,11
1,1,8,1,2,0,1,42,90,11
2,1,12,1,4,0,1,42,90,11
2,1,11,1,4,0,1,42,67,11
2,1,23,0,5,1,1,42,90,11
2,1,16,1,6,1,1,42,79,11
2,1,22,0,6,1,1,42,79,11
2,1,18,1,0,0,1,42,67,11
2,1,21,0,0,0,1,42,103,11
2,1,7,1,1,0,1,42,93,11
2,1,17,1,1,0,1,42,15,11
2,1,3,0,4,0,1,42,24,9
2,1,12,1,5,1,1,42,79,8
2,1,20,1,3,0,1,42,90,11
2,1,0,0,4,0,1,42,79,9
2,1,20,1,4,0,1,42,90,11
2,1,10,1,5,1,1,42,90,11
3,2,11,1,2,0,1,42,79,11
3,2,19,1,2,0,1,42,90,11
3,2,10,1,6,1,1,42,21,9
3,2,17,1,2,0,1,42,90,11
5,2,16,1,0,0,2,42,90,11
5,2,20,1,1,0,2,42,112,11
6,3,13,1,3,0,2,42,90,11
6,3,17,1,0,0,2,42,67,9
6,3,14,1,0,0,2,42,93,11
6,3,14,1,2,0,2,42,91,11
6,3,14,1,0,0,2,42,26,11
6,3,13,1,1,0,2,42,79,11
6,3,20,1,2,0,2,42,90,11
6,3,17,1,4,0,2,42,103,11
6,3,19,1,4,0,2,42,93,11
6,3,22,0,4,0,2,42,103,11
6,3,15,1,0,0,2,42,103,11
6,3,15,1,2,0,2,42,93,11
7,3,18,1,6,1,3,42,103,11
7,3,21,0,1,0,3,42,125,11
7,3,20,1,5,1,3,42,112,11
7,3,21,0,0,0,3,42,66,11
7,3,12,1,1,0,3,42,103,11
7,3,17,1,5,1,3,42,90,11
7,3,8,1,0,0,3,42,107,11
7,3,20,1,1,0,3,42,90,11
7,3,1,0,6,1,3,42,127,11
7,3,12,1,3,0,3,42,90,11
7,3,10,1,6,1,3,42,10,11
7,3,15,1,6,1,3,42,90,11
7,3,10,1,0,0,3,42,15,11
8,3,0,0,4,0,3,42,90,11
8,3,1,0,6,1,3,42,101,11
8,3,16,1,0,0,3,42,103,11
8,3,3,0,3,0,3,42,93,11
8,3,19,1,4,0,3,42,90,11
8,3,20,1,5,1,3,42,93,11
8,3,11,1,3,0,3,42,103,11
8,3,16,1,3,0,3,42,103,11
8,3,23,0,4,0,3,42,67,11
8,3,12,1,5,1,3,42,93,11
8,3,22,0,5,1,3,42,127,11
8,3,21,0,6,1,3,42,31,9
8,3,18,1,5,1,3,42,103,11
9,4,21,0,3,0,3,42,103,11
9,4,12,1,0,0,3,42,24,11
9,4,0,0,1,0,3,42,103,11
9,4,19,1,2,0,3,42,93,11
9,4,13,1,0,0,3,42,24,9
9,4,23,0,0,0,3,42,24,11
9,4,16,1,6,1,3,42,103,11
9,4,11,1,2,0,3,42,103,11
9,4,9,1,3,0,3,42,21,11
9,4,10,1,4,0,3,42,103,11
10,4,15,1,1,0,4,42,67,11
10,4,15,1,1,0,4,42,90,11
10,4,10,1,3,0,4,42,103,11
10,4,0,0,5,1,4,42,103,11
10,4,13,1,0,0,4,42,21,11
10,4,13,1,6,1,4,42,93,9
10,4,13,1,0,0,4,42,90,11
10,4,10,1,2,0,4,42,79,11
10,4,15,1,2,0,4,42,38,11
10,4,18,1,4,0,4,42,93,11
10,4,17,1,1,0,4,42,90,11
10,4,12,1,2,0,4,42,48,11
10,4,14,1,2,0,4,42,105,11
10,4,17,1,2,0,4,42,124,11
10,4,15,1,5,1,4,42,124,11
10,4,18,1,1,0,4,42,90,11
11,4,12,1,2,0,4,42,93,11
11,4,17,1,4,0,4,42,48,11
11,4,17,1,6,1,4,42,90,11
12,1,20,1,1,0,4,42,58,9
12,1,16,1,3,0,4,42,90,11
12,1,13,1,3,0,4,42,67,11
12,1,14,1,4,0,4,42,21,11
1,1,20,1,3,0,1,42,90,11
2,1,16,1,2,0,1,42,79,8
2,1,20,1,3,0,1,42,90,11
3,2,21,0,0,0,1,42,90,11
3,2,15,1,6,1,1,42,93,11
4,2,9,1,5,1,2,42,90,11
4,2,11,1,3,0,2,42,90,11
4,2,16,1,3,0,2,42,90,11
5,2,5,0,3,0,2,42,90,11
5,2,11,1,0,0,2,42,112,11
5,2,21,0,0,0,2,42,15,11
7,3,12,1,3,0,3,42,90,9
7,3,12,1,6,1,3,42,93,11
7,3,18,1,0,0,3,42,21,11
7,3,16,1,5,1,3,42,103,11
8,3,19,1,2,0,3,42,112,11
10,4,16,1,3,0,4,42,15,11
10,4,18,1,4,0,4,42,112,11
10,4,1,0,0,0,4,42,90,11
10,4,16,1,2,0,4,42,76,11
10,4,12,1,5,1,4,42,76,11
10,4,13,1,0,0,4,42,76,11
10,4,20,1,0,0,4,42,14,11
10,4,12,1,6,1,4,42,21,11
10,4,11,1,4,0,4,42,112,11
11,4,14,1,5,1,4,42,79,9
11,4,1,0,6,1,4,42,112,11
12,1,14,1,3,0,4,42,79,11
2,1,13,1,1,0,1,42,93,11
3,2,16,1,3,0,1,42,103,11
3,2,15,1,6,1,1,42,103,11
4,2,20,1,2,0,2,42,103,11
4,2,8,1,3,0,2,42,103,11
5,2,20,1,3,0,2,42,103,11
7,3,23,0,2,0,3,42,103,11
8,3,0,0,3,0,3,42,103,11
9,4,1,0,6,1,3,42,16,11
9,4,15,1,6,1,3,42,103,11
10,4,18,1,5,1,4,42,76,11
1,1,21,0,5,1,1,42,103,11
2,1,20,1,5,1,1,42,90,11
2,1,18,1,1,0,1,42,90,11
2,1,14,1,6,1,1,42,107,11
2,1,14,1,5,1,1,42,90,11
4,2,13,1,1,0,2,42,112,11
5,2,8,1,6,1,2,42,103,11
7,3,13,1,0,0,3,42,21,11
7,3,19,1,2,0,3,42,58,8
8,3,12,1,0,0,3,42,103,11
9,4,19,1,2,0,3,42,103,11
9,4,14,1,2,0,3,42,90,11
9,4,17,1,6,1,3,42,124,11
11,4,11,1,4,0,4,42,15,11
11,4,9,1,0,0,4,42,93,11
1,1,15,1,3,0,1,21,67,11
1,1,10,1,3,0,1,21,127,11
1,1,15,1,4,0,1,21,127,11
1,1,17,1,4,0,1,21,90,11
2,1,12,1,6,1,1,21,103,11
2,1,17,1,0,0,1,21,21,11
2,1,16,1,1,0,1,21,103,11
2,1,18,1,1,0,1,21,103,11
2,1,22,0,1,0,1,21,79,11
2,1,6,0,5,1,1,21,67,11
2,1,16,1,3,0,1,21,103,11
2,1,0,0,3,0,1,21,103,11
2,1,9,1,5,1,1,21,98,11
2,1,16,1,6,1,1,21,103,11
2,1,12,1,0,0,1,21,98,11
2,1,13,1,0,0,1,21,103,11
2,1,15,1,0,0,1,21,93,9
3,2,11,1,3,0,1,21,76,11
3,2,17,1,0,0,1,21,93,11
3,2,10,1,6,1,1,21,79,11
3,2,16,1,0,0,1,21,93,11
3,2,15,1,3,0,1,21,103,11
3,2,6,0,4,0,1,21,103,11
3,2,19,1,0,0,1,21,112,11
3,2,17,1,1,0,1,21,103,11
4,2,23,0,0,0,2,21,21,11
4,2,20,1,4,0,2,21,24,9
4,2,13,1,6,1,2,21,103,11
5,2,15,1,0,0,2,21,90,11
5,2,20,1,5,1,2,21,103,11
5,2,12,1,1,0,2,21,79,9
6,3,0,0,5,1,2,21,46,9
6,3,21,0,3,0,2,21,65,11
6,3,11,1,2,0,2,21,21,11
7,3,18,1,4,0,3,21,112,11
7,3,13,1,5,1,3,21,79,11
7,3,14,1,2,0,3,21,127,11
7,3,23,0,4,0,3,21,21,11
7,3,7,1,0,0,3,21,103,11
8,3,16,1,0,0,3,21,103,11
8,3,0,0,2,0,3,21,38,11
8,3,12,1,4,0,3,21,67,11
8,3,16,1,3,0,3,21,103,11
8,3,10,1,5,1,3,21,79,11
8,3,12,1,6,1,3,21,103,11
9,4,10,1,4,0,3,21,103,11
9,4,19,1,4,0,3,21,103,11
9,4,15,1,4,0,3,21,93,11
9,4,21,0,5,1,3,21,103,11
9,4,12,1,3,0,3,21,67,11
9,4,10,1,0,0,3,21,38,11
10,4,17,1,1,0,4,21,103,11
10,4,17,1,2,0,4,21,52,11
10,4,17,1,3,0,4,21,103,11
10,4,11,1,5,1,4,21,103,11
10,4,18,1,2,0,4,21,127,11
10,4,20,1,5,1,4,21,66,11
11,4,22,0,5,1,4,21,38,11
11,4,12,1,6,1,4,21,93,11
11,4,21,0,0,0,4,21,67,9
11,4,21,0,3,0,4,21,67,11
12,1,13,1,3,0,4,21,90,11
12,1,20,1,5,1,4,21,127,11
12,1,12,1,2,0,4,21,67,11
12,1,21,0,3,0,4,21,67,11
12,1,14,1,5,1,4,21,67,9
1,1,19,1,0,0,1,21,4,11
2,1,8,1,2,0,1,21,48,11
2,1,21,0,5,1,1,21,79,11
3,2,4,0,3,0,1,21,67,9
3,2,21,0,6,1,1,21,90,11
4,2,12,1,6,1,2,21,103,11
4,2,21,0,6,1,2,21,79,9
4,2,14,1,6,1,2,21,76,11
5,2,23,0,5,1,2,21,93,11
6,3,15,1,3,0,2,21,103,11
6,3,23,0,3,0,2,21,103,11
7,3,19,1,1,0,3,21,127,11
7,3,9,1,5,1,3,21,103,11
7,3,23,0,1,0,3,21,93,11
7,3,2,0,0,0,3,21,21,11
9,4,12,1,1,0,3,21,103,11
9,4,13,1,1,0,3,21,15,11
9,4,11,1,3,0,3,21,21,11
9,4,23,0,2,0,3,21,103,11
10,4,1,0,5,1,4,21,112,11
10,4,2,0,2,0,4,21,112,11
12,1,11,1,2,0,4,21,38,11
12,1,15,1,4,0,4,21,15,11
12,1,14,1,2,0,4,21,103,11
1,1,9,1,6,1,1,21,67,11
1,1,18,1,1,0,1,21,90,11
1,1,19,1,0,0,1,21,67,11
2,1,17,1,2,0,1,21,127,11
2,1,19,1,5,1,1,21,93,11
2,1,13,1,1,0,1,21,103,11
2,1,14,1,3,0,1,21,103,11
2,1,2,0,4,0,1,21,93,11
2,1,15,1,4,0,1,21,103,11
2,1,12,1,6,1,1,21,103,11
2,1,18,1,0,0,1,21,103,11
3,2,8,1,4,0,1,21,67,11
3,2,23,0,6,1,1,21,21,9
3,2,17,1,6,1,1,21,67,9
3,2,19,1,5,1,1,21,103,11
3,2,14,1,6,1,1,21,103,11
3,2,14,1,6,1,1,21,103,11
3,2,12,1,6,1,1,21,103,11
4,2,21,0,5,1,2,21,103,11
4,2,10,1,5,1,2,21,21,11
4,2,15,1,4,0,2,21,67,11
4,2,14,1,1,0,2,21,79,9
4,2,21,0,5,1,2,21,103,11
5,2,19,1,5,1,2,21,103,11
5,2,23,0,1,0,2,21,67,11
5,2,14,1,5,1,2,21,15,8
5,2,5,0,0,0,2,21,21,11
5,2,9,1,1,0,2,21,21,11
5,2,17,1,5,1,2,21,127,11
5,2,10,1,6,1,2,21,103,11
6,3,22,0,1,0,2,21,103,11
6,3,7,1,0,0,2,21,21,11
6,3,11,1,4,0,2,21,16,11
6,3,15,1,6,1,2,21,76,11
6,3,16,1,3,0,2,21,127,11
7,3,21,0,2,0,3,21,103,11
7,3,20,1,3,0,3,21,93,11
7,3,19,1,4,0,3,21,38,11
7,3,13,1,1,0,3,21,14,11
7,3,19,1,5,1,3,21,110,11
7,3,21,0,6,1,3,21,90,11
7,3,11,1,2,0,3,21,90,11
8,3,13,1,0,0,3,21,67,11
8,3,15,1,2,0,3,21,103,11
9,4,18,1,3,0,3,21,10,11
9,4,19,1,5,1,3,21,26,11
9,4,17,1,6,1,3,21,90,11
10,4,11,1,0,0,4,21,93,11
10,4,12,1,0,0,4,21,93,9
10,4,10,1,2,0,4,21,93,11
10,4,21,0,0,0,4,21,127,11
10,4,8,1,2,0,4,21,21,11
10,4,12,1,3,0,4,21,21,11
11,4,15,1,5,1,4,21,67,11
11,4,17,1,0,0,4,21,21,11
11,4,17,1,1,0,4,21,93,11
11,4,20,1,5,1,4,21,103,11
12,1,8,1,5,1,4,21,67,11
12,1,18,1,5,1,4,21,21,9
12,1,10,1,3,0,4,21,67,9
12,1,16,1,3,0,4,21,125,11
12,1,18,1,5,1,4,21,103,11
12,1,11,1,4,0,4,21,21,11
1,1,14,1,0,0,1,21,90,11
1,1,15,1,2,0,1,21,79,11
2,1,13,1,6,1,1,21,79,11
2,1,15,1,4,0,1,21,93,11
2,1,17,1,5,1,1,21,90,11
2,1,17,1,0,0,1,21,93,11
3,2,2,0,5,1,1,21,127,11
3,2,18,1,0,0,1,21,103,11
5,2,16,1,3,0,2,21,90,11
5,2,21,0,4,0,2,21,66,11
5,2,12,1,6,1,2,21,103,11
5,2,5,0,2,0,2,21,93,11
6,3,20,1,5,1,2,21,114,8
6,3,21,0,5,1,2,21,79,11
7,3,20,1,2,0,3,21,76,11
7,3,13,1,0,0,3,21,90,11
9,4,13,1,5,1,3,21,103,11
9,4,20,1,3,0,3,21,103,11
9,4,9,1,5,1,3,21,103,11
10,4,8,1,0,0,4,21,57,11
10,4,12,1,1,0,4,21,103,11
11,4,0,0,2,0,4,21,103,11
11,4,9,1,5,1,4,21,90,11
11,4,17,1,6,1,4,21,103,11
12,1,21,0,5,1,4,21,103,11
12,1,12,1,4,0,4,21,112,11
12,1,11,1,6,1,4,21,15,8
12,1,16,1,0,0,4,21,103,11
12,1,10,1,5,1,4,21,79,9
1,1,16,1,0,0,1,9,127,11
1,1,15,1,1,0,1,9,103,11
1,1,11,1,2,0,1,9,21,11
1,1,14,1,5,1,1,9,127,11
1,1,18,1,4,0,1,9,67,11
1,1,15,1,3,0,1,9,103,11
1,1,17,1,3,0,1,9,103,11
1,1,18,1,5,1,1,9,79,11
1,1,18,1,1,0,1,9,103,11
2,1,17,1,5,1,1,9,103,11
2,1,18,1,5,1,1,9,103,11
2,1,16,1,6,1,1,9,90,11
2,1,19,1,0,0,1,9,67,11
2,1,19,1,1,0,1,9,67,11
2,1,18,1,2,0,1,9,90,11
2,1,19,1,2,0,1,9,79,11
2,1,11,1,3,0,1,9,103,11
2,1,20,1,4,0,1,9,67,11
2,1,13,1,6,1,1,9,103,11
2,1,14,1,0,0,1,9,103,11
2,1,15,1,2,0,1,9,103,11
2,1,14,1,4,0,1,9,103,11
2,1,15,1,4,0,1,9,79,11
2,1,15,1,5,1,1,9,103,11
2,1,18,1,6,1,1,9,103,11
2,1,13,1,0,0,1,9,93,11
2,1,11,1,1,0,1,9,103,11
2,1,13,1,1,0,1,9,103,11
2,1,16,1,1,0,1,9,103,11
2,1,16,1,1,0,1,9,103,11
2,1,17,1,1,0,1,9,103,11
2,1,20,1,1,0,1,9,103,11
2,1,20,1,5,1,1,9,48,11
2,1,16,1,6,1,1,9,103,11
2,1,12,1,0,0,1,9,103,11
2,1,8,1,1,0,1,9,103,11
3,2,12,1,5,1,1,9,67,11
3,2,13,1,6,1,1,9,103,11
3,2,20,1,6,1,1,9,103,11
3,2,14,1,1,0,1,9,38,11
3,2,16,1,2,0,1,9,93,9
4,2,21,0,2,0,2,9,90,11
4,2,4,0,6,1,2,9,67,11
4,2,1,0,0,0,2,9,90,11
4,2,23,0,0,0,2,9,67,11
4,2,15,1,5,1,2,9,79,11
4,2,7,1,0,0,2,9,38,11
4,2,17,1,2,0,2,9,79,11
5,2,14,1,0,0,2,9,59,11
5,2,17,1,0,0,2,9,127,11
5,2,18,1,0,0,2,9,103,11
5,2,20,1,0,0,2,9,103,11
5,2,21,0,5,1,2,9,103,11
5,2,22,0,6,1,2,9,67,11
5,2,12,1,0,0,2,9,93,11
5,2,16,1,2,0,2,9,103,11
5,2,21,0,6,1,2,9,103,11
6,3,14,1,4,0,2,9,103,11
6,3,19,1,0,0,2,9,103,11
6,3,0,0,1,0,2,9,93,11
6,3,15,1,2,0,2,9,103,11
6,3,0,0,5,1,2,9,26,11
6,3,9,1,5,1,2,9,26,11
6,3,14,1,2,0,2,9,90,11
6,3,14,1,5,1,2,9,93,11
6,3,10,1,2,0,2,9,22,11
6,3,18,1,3,0,2,9,103,11
6,3,21,0,6,1,2,9,103,11
6,3,6,0,0,0,2,9,103,11
7,3,22,0,5,1,3,9,79,11
7,3,15,1,6,1,3,9,79,11
7,3,21,0,6,1,3,9,14,8
7,3,16,1,1,0,3,9,93,11
7,3,10,1,2,0,3,9,48,11
7,3,10,1,5,1,3,9,67,11
7,3,19,1,0,0,3,9,24,11
7,3,20,1,1,0,3,9,103,11
7,3,8,1,0,0,3,9,21,11
7,3,15,1,2,0,3,9,93,11
7,3,2,0,4,0,3,9,79,11
7,3,12,1,4,0,3,9,79,11
7,3,17,1,6,1,3,9,65,11
7,3,16,1,3,0,3,9,103,9
7,3,15,1,4,0,3,9,93,11
7,3,20,1,4,0,3,9,21,11
8,3,7,1,4,0,3,9,103,11
8,3,10,1,4,0,3,9,93,11
8,3,11,1,6,1,3,9,67,11
8,3,12,1,6,1,3,9,112,11
8,3,9,1,1,0,3,9,93,11
8,3,19,1,1,0,3,9,103,11
8,3,7,1,3,0,3,9,103,11
8,3,17,1,4,0,3,9,103,11
8,3,17,1,0,0,3,9,93,11
8,3,15,1,3,0,3,9,103,11
8,3,7,1,0,0,3,9,93,11
8,3,21,0,4,0,3,9,103,11
8,3,0,0,6,1,3,9,93,11
8,3,2,0,6,1,3,9,103,11
8,3,5,0,6,1,3,9,110,11
8,3,17,1,1,0,3,9,103,11
8,3,8,1,2,0,3,9,103,11
9,4,12,1,5,1,3,9,93,11
9,4,19,1,5,1,3,9,103,11
9,4,7,1,0,0,3,9,112,11
9,4,11,1,1,0,3,9,103,11
9,4,13,1,1,0,3,9,90,11
9,4,17,1,3,0,3,9,103,11
9,4,23,0,3,0,3,9,103,11
9,4,16,1,4,0,3,9,67,11
9,4,22,0,0,0,3,9,90,11
9,4,19,1,2,0,3,9,93,11
9,4,16,1,3,0,3,9,46,9
9,4,18,1,3,0,3,9,103,11
9,4,14,1,0,0,3,9,103,11
9,4,8,1,2,0,3,9,103,11
10,4,15,1,0,0,4,9,93,11
10,4,18,1,0,0,4,9,111,11
10,4,20,1,0,0,4,9,46,9
10,4,12,1,4,0,4,9,93,11
10,4,12,1,0,0,4,9,93,11
10,4,11,1,4,0,4,9,93,11
10,4,18,1,5,1,4,9,103,11
10,4,13,1,6,1,4,9,103,11
10,4,21,0,2,0,4,9,67,11
10,4,14,1,3,0,4,9,93,9
10,4,19,1,3,0,4,9,65,11
10,4,16,1,5,1,4,9,93,11
10,4,21,0,5,1,4,9,103,11
10,4,19,1,2,0,4,9,79,11
10,4,18,1,0,0,4,9,103,11
10,4,15,1,1,0,4,9,58,11
11,4,19,1,3,0,4,9,46,9
11,4,15,1,4,0,4,9,103,11
11,4,15,1,4,0,4,9,103,11
11,4,18,1,5,1,4,9,58,11
11,4,17,1,1,0,4,9,93,11
11,4,17,1,2,0,4,9,93,11
11,4,22,0,4,0,4,9,103,11
11,4,20,1,5,1,4,9,79,11
11,4,11,1,6,1,4,9,103,11
11,4,20,1,6,1,4,9,103,11
11,4,13,1,1,0,4,9,90,11
11,4,14,1,6,1,4,9,79,11
12,1,16,1,5,1,4,9,103,11
12,1,19,1,5,1,4,9,67,11
12,1,19,1,5,1,4,9,21,11
12,1,3,0,1,0,4,9,93,11
12,1,20,1,1,0,4,9,38,11
12,1,21,0,3,0,4,9,103,11
12,1,13,1,2,0,4,9,111,11
12,1,12,1,6,1,4,9,90,11
12,1,19,1,1,0,4,9,90,11
12,1,15,1,6,1,4,9,103,11
1,1,13,1,6,1,1,9,48,11
2,1,14,1,1,0,1,9,103,11
2,1,22,0,4,0,1,9,38,11
2,1,15,1,5,1,1,9,103,11
3,2,16,1,6,1,1,9,103,11
4,2,12,1,0,0,2,9,90,11
4,2,18,1,6,1,2,9,67,11
4,2,8,1,2,0,2,9,38,9
5,2,0,0,2,0,2,9,112,11
5,2,12,1,2,0,2,9,38,11
7,3,15,1,6,1,3,9,103,11
7,3,15,1,6,1,3,9,93,11
7,3,15,1,2,0,3,9,103,11
8,3,12,1,1,0,3,9,93,11
9,4,15,1,3,0,3,9,46,11
10,4,13,1,5,1,4,9,38,11
10,4,15,1,2,0,4,9,26,9
11,4,11,1,6,1,4,9,38,11
11,4,3,0,0,0,4,9,90,11
12,1,9,1,5,1,4,9,14,9
1,1,7,1,0,0,1,9,103,11
2,1,16,1,5,1,1,9,103,11
2,1,14,1,4,0,1,9,103,11
6,3,17,1,1,0,2,9,112,11
7,3,20,1,5,1,3,9,112,11
9,4,14,1,2,0,3,9,22,9
11,4,22,0,5,1,4,9,79,11
1,1,16,1,0,0,1,37,65,11
1,1,14,1,2,0,1,37,103,11
1,1,19,1,2,0,1,37,14,11
1,1,18,1,4,0,1,37,103,11
1,1,10,1,6,1,1,37,103,11
1,1,14,1,6,1,1,37,103,11
1,1,14,1,0,0,1,37,103,11
1,1,15,1,0,0,1,37,103,11
1,1,22,0,0,0,1,37,93,11
1,1,8,1,4,0,1,37,103,11
1,1,9,1,1,0,1,37,21,11
1,1,15,1,3,0,1,37,79,11
1,1,15,1,3,0,1,37,103,11
1,1,12,1,6,1,1,37,21,11
1,1,18,1,6,1,1,37,127,11
1,1,18,1,0,0,1,37,127,11
1,1,20,1,0,0,1,37,14,11
2,1,20,1,2,0,1,37,127,11
2,1,21,0,4,0,1,37,127,11
2,1,15,1,0,0,1,37,93,11
2,1,17,1,0,0,1,37,67,11
2,1,13,1,3,0,1,37,127,11
2,1,21,0,3,0,1,37,91,11
2,1,23,0,3,0,1,37,79,11
2,1,10,1,4,0,1,37,79,11
2,1,16,1,4,0,1,37,103,11
2,1,2,0,5,1,1,37,103,11
2,1,14,1,5,1,1,37,103,11
2,1,17,1,5,1,1,37,21,11
2,1,13,1,6,1,1,37,103,11
2,1,11,1,6,1,1,37,93,11
2,1,15,1,6,1,1,37,103,11
2,1,18,1,6,1,1,37,103,11
2,1,20,1,6,1,1,37,38,11
2,1,18,1,0,0,1,37,14,11
2,1,20,1,0,0,1,37,38,11
2,1,13,1,2,0,1,37,93,11
2,1,15,1,3,0,1,37,103,11
2,1,17,1,4,0,1,37,93,11
2,1,9,1,6,1,1,37,21,11
2,1,15,1,2,0,1,37,103,11
2,1,16,1,2,0,1,37,103,11
2,1,18,1,3,0,1,37,103,11
2,1,13,1,4,0,1,37,103,11
2,1,21,0,4,0,1,37,98,11
2,1,2,0,6,1,1,37,98,11
3,2,0,0,1,0,1,37,103,11
3,2,16,1,1,0,1,37,98,11
3,2,3,0,2,0,1,37,91,11
3,2,17,1,6,1,1,37,103,11
3,2,13,1,1,0,1,37,103,11
3,2,14,1,1,0,1,37,103,11
3,2,13,1,2,0,1,37,103,11
3,2,13,1,2,0,1,37,91,11
3,2,22,0,3,0,1,37,93,11
3,2,17,1,4,0,1,37,103,11
3,2,12,1,5,1,1,37,93,11
3,2,21,0,5,1,1,37,38,11
3,2,16,1,6,1,1,37,93,11
3,2,6,0,0,0,1,37,76,11
3,2,10,1,0,0,1,37,103,11
3,2,19,1,0,0,1,37,103,11
3,2,20,1,0,0,1,37,67,11
3,2,23,0,0,0,1,37,67,11
3,2,14,1,1,0,1,37,38,8
3,2,23,0,4,0,1,37,127,11
3,2,13,1,0,0,1,37,103,11
3,2,13,1,2,0,1,37,15,11
3,2,14,1,2,0,1,37,22,11
3,2,11,1,3,0,1,37,38,11
3,2,13,1,3,0,1,37,103,11
3,2,14,1,3,0,1,37,91,11
3,2,20,1,3,0,1,37,90,11
3,2,19,1,3,0,1,37,103,11
4,2,16,1,5,1,2,37,69,11
4,2,17,1,5,1,2,37,103,11
4,2,14,1,5,1,2,37,103,11
4,2,16,1,6,1,2,37,103,11
4,2,23,0,0,0,2,37,76,11
4,2,23,0,1,0,2,37,118,11
4,2,15,1,4,0,2,37,79,11
4,2,3,0,5,1,2,37,127,11
4,2,14,1,5,1,2,37,103,11
4,2,11,1,6,1,2,37,127,11
4,2,9,1,0,0,2,37,127,11
4,2,14,1,5,1,2,37,93,11
4,2,19,1,5,1,2,37,98,11
4,2,23,0,6,1,2,37,93,11
4,2,18,1,1,0,2,37,67,11
4,2,13,1,5,1,2,37,67,11
4,2,12,1,6,1,2,37,127,11
4,2,21,0,6,1,2,37,103,11
4,2,23,0,0,0,2,37,79,11
5,2,22,0,3,0,2,37,76,11
5,2,11,1,4,0,2,37,67,11
5,2,2,0,1,0,2,37,112,11
5,2,21,0,0,0,2,37,15,11
5,2,22,0,1,0,2,37,21,11
5,2,1,0,4,0,2,37,80,11
5,2,20,1,5,1,2,37,103,11
5,2,13,1,1,0,2,37,93,11
5,2,14,1,4,0,2,37,103,11
5,2,0,0,5,1,2,37,21,11
5,2,19,1,5,1,2,37,38,11
5,2,19,1,5,1,2,37,46,11
5,2,17,1,6,1,2,37,93,11
5,2,7,1,0,0,2,37,111,11
6,3,16,1,3,0,2,37,103,11
6,3,22,0,3,0,2,37,103,11
6,3,12,1,4,0,2,37,103,11
6,3,16,1,4,0,2,37,103,11
6,3,17,1,4,0,2,37,103,11
6,3,20,1,4,0,2,37,103,11
6,3,19,1,5,1,2,37,21,11
6,3,3,0,0,0,2,37,98,11
6,3,13,1,0,0,2,37,93,11
6,3,14,1,0,0,2,37,103,11
6,3,23,0,0,0,2,37,103,11
6,3,14,1,1,0,2,37,103,11
6,3,18,1,1,0,2,37,103,11
6,3,11,1,2,0,2,37,103,11
6,3,6,0,3,0,2,37,79,11
6,3,14,1,3,0,2,37,93,11
6,3,15,1,3,0,2,37,93,11
6,3,18,1,3,0,2,37,103,11
6,3,12,1,4,0,2,37,93,11
6,3,13,1,4,0,2,37,103,11
6,3,14,1,4,0,2,37,103,11
6,3,13,1,0,0,2,37,103,11
6,3,16,1,3,0,2,37,103,11
6,3,22,0,5,1,2,37,79,11
6,3,20,1,6,1,2,37,93,11
6,3,13,1,0,0,2,37,103,11
6,3,1,0,1,0,2,37,21,11
6,3,10,1,1,0,2,37,98,11
6,3,16,1,1,0,2,37,93,11
6,3,21,0,3,0,2,37,103,11
6,3,16,1,4,0,2,37,103,11
6,3,12,1,5,1,2,37,103,11
6,3,17,1,5,1,2,37,103,11
6,3,19,1,5,1,2,37,103,11
6,3,20,1,5,1,2,37,103,11
6,3,22,0,1,0,2,37,103,11
6,3,18,1,1,0,2,37,103,11
6,3,15,1,2,0,2,37,103,11
6,3,17,1,2,0,2,37,93,11
6,3,12,1,4,0,2,37,103,11
7,3,14,1,5,1,3,37,79,11
7,3,16,1,5,1,3,37,93,11
7,3,22,0,6,1,3,37,93,11
7,3,18,1,6,1,3,37,103,11
7,3,0,0,0,0,3,37,21,11
7,3,14,1,0,0,3,37,93,11
7,3,22,0,2,0,3,37,21,11
7,3,20,1,3,0,3,37,103,11
7,3,17,1,3,0,3,37,103,11
7,3,11,1,6,1,3,37,127,11
7,3,12,1,2,0,3,37,93,11
7,3,18,1,3,0,3,37,103,11
7,3,17,1,6,1,3,37,103,11
7,3,18,1,6,1,3,37,103,11
7,3,21,0,0,0,3,37,103,11
7,3,14,1,1,0,3,37,113,11
7,3,21,0,2,0,3,37,103,11
7,3,20,1,2,0,3,37,79,11
7,3,9,1,5,1,3,37,103,11
7,3,10,1,5,1,3,37,76,11
7,3,16,1,5,1,3,37,93,11
7,3,19,1,5,1,3,37,93,11
7,3,0,0,6,1,3,37,103,11
7,3,19,1,6,1,3,37,103,11
7,3,0,0,0,0,3,37,103,11
7,3,0,0,0,0,3,37,103,11
7,3,10,1,0,0,3,37,93,11
7,3,10,1,1,0,3,37,103,11
7,3,16,1,2,0,3,37,93,11
7,3,0,0,3,0,3,37,103,11
7,3,3,0,3,0,3,37,103,11
7,3,10,1,5,1,3,37,103,11
7,3,17,1,0,0,3,37,103,11
8,3,14,1,1,0,3,37,103,11
8,3,17,1,2,0,3,37,93,11
8,3,16,1,3,0,3,37,103,11
8,3,20,1,4,0,3,37,98,11
8,3,21,0,4,0,3,37,103,11
8,3,15,1,5,1,3,37,15,11
8,3,3,0,6,1,3,37,126,11
8,3,19,1,6,1,3,37,103,11
8,3,18,1,1,0,3,37,103,11
8,3,19,1,1,0,3,37,103,11
8,3,17,1,1,0,3,37,103,11
8,3,13,1,2,0,3,37,103,11
8,3,21,0,2,0,3,37,103,11
8,3,8,1,3,0,3,37,24,11
8,3,21,0,3,0,3,37,103,11
8,3,9,1,4,0,3,37,103,11
8,3,18,1,4,0,3,37,103,11
8,3,10,1,5,1,3,37,103,11
8,3,10,1,5,1,3,37,103,11
8,3,12,1,5,1,3,37,103,11
8,3,11,1,6,1,3,37,93,9
8,3,18,1,0,0,3,37,103,11
8,3,19,1,0,0,3,37,93,11
8,3,15,1,1,0,3,37,103,11
8,3,17,1,1,0,3,37,93,11
8,3,13,1,2,0,3,37,103,11
8,3,16,1,2,0,3,37,103,11
8,3,15,1,4,0,3,37,103,11
8,3,20,1,4,0,3,37,103,11
8,3,21,0,5,1,3,37,21,11
8,3,19,1,5,1,3,37,103,11
8,3,19,1,5,1,3,37,93,11
8,3,11,1,6,1,3,37,103,11
8,3,21,0,6,1,3,37,103,11
8,3,18,1,6,1,3,37,93,11
8,3,16,1,6,1,3,37,93,11
8,3,17,1,0,0,3,37,93,11
8,3,8,1,0,0,3,37,103,11
8,3,6,0,0,0,3,37,103,11
8,3,20,1,1,0,3,37,118,11
8,3,13,1,2,0,3,37,109,11
8,3,16,1,2,0,3,37,103,11
8,3,19,1,2,0,3,37,103,11
8,3,20,1,2,0,3,37,103,11
8,3,1,0,3,0,3,37,93,11
8,3,12,1,3,0,3,37,103,11
8,3,11,1,4,0,3,37,103,11
8,3,12,1,5,1,3,37,103,11
8,3,17,1,5,1,3,37,93,11
8,3,13,1,6,1,3,37,93,11
8,3,5,0,6,1,3,37,103,11
8,3,3,0,6,1,3,37,21,11
8,3,17,1,0,0,3,37,103,11
8,3,18,1,0,0,3,37,127,11
8,3,13,1,1,0,3,37,93,11
8,3,17,1,1,0,3,37,103,11
8,3,12,1,2,0,3,37,127,11
9,4,16,1,5,1,3,37,79,11
9,4,16,1,5,1,3,37,103,11
9,4,20,1,5,1,3,37,103,11
9,4,16,1,6,1,3,37,93,11
9,4,20,1,6,1,3,37,103,11
9,4,16,1,0,0,3,37,93,11
9,4,17,1,0,0,3,37,21,11
9,4,14,1,1,0,3,37,103,11
9,4,0,0,1,0,3,37,93,11
9,4,0,0,1,0,3,37,67,11
9,4,19,1,2,0,3,37,103,11
9,4,11,1,2,0,3,37,93,11
9,4,4,0,3,0,3,37,103,11
9,4,14,1,3,0,3,37,103,11
9,4,17,1,3,0,3,37,93,11
9,4,18,1,3,0,3,37,103,11
9,4,5,0,4,0,3,37,93,11
9,4,7,1,4,0,3,37,103,11
9,4,22,0,0,0,3,37,93,11
9,4,18,1,0,0,3,37,103,11
9,4,19,1,0,0,3,37,93,11
9,4,0,0,1,0,3,37,93,11
9,4,4,0,1,0,3,37,93,11
9,4,7,1,1,0,3,37,93,11
9,4,19,1,1,0,3,37,93,11
9,4,22,0,1,0,3,37,103,11
9,4,15,1,2,0,3,37,103,11
9,4,7,1,3,0,3,37,103,11
9,4,17,1,3,0,3,37,103,11
9,4,12,1,4,0,3,37,93,11
9,4,16,1,5,1,3,37,103,11
9,4,15,1,5,1,3,37,103,11
9,4,23,0,0,0,3,37,103,11
9,4,4,0,1,0,3,37,21,11
9,4,17,1,1,0,3,37,103,11
9,4,12,1,1,0,3,37,103,11
9,4,19,1,2,0,3,37,103,11
9,4,19,1,4,0,3,37,103,11
9,4,17,1,4,0,3,37,103,11
9,4,18,1,5,1,3,37,103,11
9,4,0,0,6,1,3,37,103,11
9,4,1,0,0,0,3,37,93,11
9,4,0,0,0,0,3,37,103,11
9,4,20,1,0,0,3,37,103,11
9,4,20,1,0,0,3,37,93,11
9,4,17,1,0,0,3,37,103,11
9,4,11,1,0,0,3,37,103,11
9,4,11,1,1,0,3,37,93,11
9,4,19,1,1,0,3,37,114,11
9,4,2,0,2,0,3,37,103,11
9,4,14,1,3,0,3,37,103,11
9,4,17,1,3,0,3,37,103,11
9,4,0,0,4,0,3,37,103,11
10,4,8,1,6,1,4,37,103,11
10,4,8,1,1,0,4,37,93,11
10,4,12,1,2,0,4,37,127,11
10,4,20,1,3,0,4,37,103,11
10,4,19,1,3,0,4,37,103,11
10,4,19,1,4,0,4,37,103,11
10,4,22,0,6,1,4,37,103,11
10,4,15,1,6,1,4,37,103,11
10,4,18,1,6,1,4,37,103,11
10,4,16,1,0,0,4,37,103,11
10,4,9,1,2,0,4,37,103,11
10,4,10,1,2,0,4,37,103,11
10,4,19,1,2,0,4,37,103,11
10,4,13,1,2,0,4,37,103,11
10,4,16,1,2,0,4,37,93,11
10,4,10,1,4,0,4,37,103,11
10,4,13,1,5,1,4,37,103,11
10,4,13,1,6,1,4,37,93,11
10,4,15,1,0,0,4,37,76,11
10,4,11,1,0,0,4,37,103,11
10,4,17,1,6,1,4,37,93,11
10,4,18,1,0,0,4,37,93,11
10,4,14,1,1,0,4,37,93,11
10,4,19,1,2,0,4,37,103,11
10,4,10,1,2,0,4,37,103,11
10,4,19,1,5,1,4,37,21,11
10,4,17,1,6,1,4,37,21,11
10,4,12,1,0,0,4,37,15,11
10,4,19,1,1,0,4,37,103,11
11,4,16,1,3,0,4,37,103,11
11,4,5,0,3,0,4,37,76,11
11,4,13,1,4,0,4,37,103,11
11,4,15,1,6,1,4,37,79,11
11,4,11,1,1,0,4,37,93,11
11,4,16,1,4,0,4,37,127,11
12,1,16,1,0,0,4,37,103,11
12,1,17,1,4,0,4,37,98,11
12,1,20,1,4,0,4,37,79,11
12,1,16,1,5,1,4,37,127,11
12,1,7,1,6,1,4,37,67,11
12,1,17,1,1,0,4,37,103,11
12,1,10,1,4,0,4,37,103,11
12,1,19,1,6,1,4,37,98,11
12,1,17,1,0,0,4,37,103,11
12,1,18,1,0,0,4,37,98,11
12,1,21,0,0,0,4,37,103,11
12,1,15,1,4,0,4,37,103,11
12,1,7,1,6,1,4,37,103,11
12,1,18,1,6,1,4,37,103,11
2,1,10,1,3,0,1,37,103,11
5,2,20,1,3,0,2,37,79,11
8,3,15,1,2,0,3,37,15,11
10,4,11,1,6,1,4,37,93,11
1,1,14,1,5,1,1,37,90,11
2,1,19,1,1,0,1,37,76,11
2,1,17,1,3,0,1,37,57,11
2,1,17,1,6,1,1,37,103,11
2,1,16,1,0,0,1,37,4,11
2,1,13,1,2,0,1,37,15,11
2,1,16,1,6,1,1,37,103,11
2,1,17,1,0,0,1,37,103,11
3,2,3,0,5,1,1,37,93,11
3,2,17,1,1,0,1,37,90,11
3,2,19,1,1,0,1,37,103,11
3,2,18,1,4,0,1,37,103,11
3,2,19,1,5,1,1,37,103,11
3,2,9,1,1,0,1,37,15,11
3,2,13,1,6,1,1,37,93,11
4,2,16,1,5,1,2,37,103,11
4,2,11,1,3,0,2,37,103,11
5,2,18,1,0,0,2,37,21,11
5,2,1,0,5,1,2,37,90,11
6,3,14,1,4,0,2,37,79,9
6,3,11,1,2,0,2,37,90,11
6,3,13,1,3,0,2,37,90,11
8,3,11,1,6,1,3,37,46,11
9,4,11,1,4,0,3,37,90,11
9,4,18,1,6,1,3,37,103,11
9,4,12,1,6,1,3,37,25,8
9,4,16,1,0,0,3,37,38,8
9,4,16,1,3,0,3,37,90,11
9,4,9,1,6,1,3,37,90,11
9,4,14,1,6,1,3,37,93,11
9,4,22,0,2,0,3,37,93,11
10,4,0,0,1,0,4,37,103,11
11,4,17,1,2,0,4,37,103,11
1,1,21,0,4,0,1,11,103,11
1,1,21,0,5,1,1,11,67,11
1,1,8,1,1,0,1,11,103,11
1,1,20,1,4,0,1,11,67,11
1,1,0,0,3,0,1,11,4,11
1,1,23,0,6,1,1,11,21,11
1,1,11,1,5,1,1,11,67,11
1,1,12,1,6,1,1,11,38,9
2,1,14,1,0,0,1,11,103,11
2,1,10,1,1,0,1,11,103,11
2,1,9,1,1,0,1,11,79,11
2,1,10,1,1,0,1,11,90,11
2,1,16,1,2,0,1,11,103,11
2,1,5,0,4,0,1,11,79,11
2,1,20,1,5,1,1,11,90,11
2,1,16,1,0,0,1,11,14,9
2,1,21,0,0,0,1,11,21,11
2,1,14,1,0,0,1,11,93,11
2,1,11,1,4,0,1,11,90,11
2,1,12,1,6,1,1,11,103,11
2,1,7,1,0,0,1,11,67,11
2,1,16,1,1,0,1,11,103,11
2,1,4,0,2,0,1,11,91,9
2,1,18,1,5,1,1,11,103,11
3,2,19,1,3,0,1,11,38,11
3,2,0,0,4,0,1,11,98,11
3,2,6,0,2,0,1,11,103,11
3,2,18,1,5,1,1,11,127,11
3,2,10,1,5,1,1,11,127,11
3,2,17,1,6,1,1,11,90,11
3,2,19,1,6,1,1,11,67,11
3,2,16,1,5,1,1,11,127,11
3,2,20,1,6,1,1,11,106,11
3,2,12,1,6,1,1,11,93,11
4,2,19,1,2,0,2,11,90,11
4,2,20,1,3,0,2,11,93,11
4,2,17,1,1,0,2,11,112,11
4,2,13,1,4,0,2,11,103,11
4,2,15,1,4,0,2,11,79,11
4,2,13,1,5,1,2,11,47,8
4,2,15,1,5,1,2,11,10,11
4,2,6,0,6,1,2,11,4,11
5,2,16,1,0,0,2,11,79,11
5,2,15,1,0,0,2,11,58,11
5,2,14,1,1,0,2,11,103,11
5,2,15,1,0,0,2,11,15,11
5,2,20,1,3,0,2,11,21,11
5,2,21,0,2,0,2,11,103,11
6,3,10,1,0,0,2,11,103,11
6,3,10,1,2,0,2,11,90,11
6,3,19,1,3,0,2,11,76,11
6,3,15,1,1,0,2,11,67,11
6,3,21,0,4,0,2,11,38,11
6,3,7,1,4,0,2,11,15,11
6,3,16,1,4,0,2,11,110,11
7,3,11,1,3,0,3,11,103,11
7,3,14,1,4,0,3,11,67,11
7,3,20,1,6,1,3,11,67,9
7,3,22,0,2,0,3,11,67,11
7,3,9,1,6,1,3,11,127,11
7,3,14,1,0,0,3,11,24,9
7,3,22,0,0,0,3,11,67,11
7,3,22,0,1,0,3,11,76,11
7,3,16,1,5,1,3,11,93,11
7,3,2,0,6,1,3,11,109,11
8,3,13,1,1,0,3,11,103,11
8,3,21,0,5,1,3,11,76,11
8,3,14,1,5,1,3,11,90,11
8,3,4,0,3,0,3,11,93,11
8,3,12,1,5,1,3,11,24,11
8,3,15,1,0,0,3,11,103,11
8,3,19,1,2,0,3,11,93,11
8,3,14,1,3,0,3,11,93,11
8,3,7,1,6,1,3,11,79,8
8,3,23,0,4,0,3,11,93,11
8,3,19,1,5,1,3,11,24,11
8,3,0,0,5,1,3,11,103,11
8,3,22,0,3,0,3,11,124,11
9,4,17,1,1,0,3,11,65,11
9,4,11,1,6,1,3,11,90,11
9,4,3,0,0,0,3,11,4,11
9,4,4,0,1,0,3,11,90,11
9,4,3,0,1,0,3,11,79,11
9,4,22,0,6,1,3,11,116,9
9,4,20,1,0,0,3,11,67,11
9,4,18,1,5,1,3,11,67,9
9,4,14,1,2,0,3,11,79,9
9,4,18,1,3,0,3,11,90,11
9,4,12,1,5,1,3,11,93,11
10,4,20,1,1,0,4,11,93,11
10,4,13,1,4,0,4,11,76,11
10,4,15,1,6,1,4,11,38,8
10,4,23,0,1,0,4,11,38,11
10,4,5,0,2,0,4,11,93,11
10,4,14,1,3,0,4,11,26,11
10,4,16,1,5,1,4,11,93,11
10,4,7,1,5,1,4,11,72,11
10,4,17,1,0,0,4,11,67,11
10,4,0,0,1,0,4,11,93,11
10,4,3,0,1,0,4,11,21,9
10,4,17,1,1,0,4,11,4,11
11,4,15,1,5,1,4,11,90,11
11,4,14,1,5,1,4,11,112,11
11,4,13,1,6,1,4,11,38,9
11,4,9,1,4,0,4,11,21,11
11,4,16,1,0,0,4,11,79,11
11,4,20,1,0,0,4,11,67,11
11,4,8,1,1,0,4,11,93,11
11,4,7,1,1,0,4,11,103,11
12,1,9,1,2,0,4,11,87,11
12,1,0,0,0,0,4,11,76,11
12,1,18,1,3,0,4,11,93,11
12,1,20,1,6,1,4,11,90,11
12,1,13,1,1,0,4,11,28,11
12,1,19,1,4,0,4,11,103,11
2,1,1,0,0,0,1,11,112,11
2,1,3,0,0,0,1,11,112,11
6,3,10,1,0,0,2,11,24,9
9,4,9,1,1,0,3,11,22,11
2,1,15,1,2,0,1,11,14,11
2,1,10,1,1,0,1,11,103,11
3,2,9,1,4,0,1,11,24,11
6,3,19,1,3,0,2,11,90,11
7,3,13,1,1,0,3,11,103,11
7,3,18,1,6,1,3,11,125,11
7,3,18,1,0,0,3,11,93,11
9,4,12,1,3,0,3,11,90,11
9,4,10,1,2,0,3,11,21,9
10,4,9,1,1,0,4,11,76,9
10,4,17,1,4,0,4,11,4,11
11,4,13,1,2,0,4,11,93,11
11,4,15,1,5,1,4,11,26,9
12,1,6,0,1,0,4,11,14,11
1,1,7,1,2,0,1,11,90,11
1,1,16,1,0,0,1,11,127,11
1,1,16,1,2,0,1,11,127,11
2,1,14,1,3,0,1,11,93,11
2,1,15,1,6,1,1,11,38,11
2,1,18,1,6,1,1,11,79,11
2,1,11,1,0,0,1,11,127,11
2,1,9,1,3,0,1,11,38,9
2,1,23,0,4,0,1,11,15,11
2,1,14,1,0,0,1,11,14,11
2,1,15,1,0,0,1,11,14,9
2,1,4,0,0,0,1,11,127,11
3,2,20,1,0,0,1,11,38,8
3,2,18,1,1,0,1,11,67,11
3,2,5,0,1,0,1,11,111,11
4,2,16,1,2,0,2,11,79,11
4,2,10,1,6,1,2,11,127,11
4,2,22,0,4,0,2,11,24,11
4,2,10,1,5,1,2,11,24,11
4,2,22,0,2,0,2,11,112,11
4,2,11,1,4,0,2,11,79,8
5,2,12,1,0,0,2,11,21,11
5,2,6,0,5,1,2,11,79,11
6,3,23,0,2,0,2,11,103,11
6,3,12,1,6,1,2,11,67,11
6,3,15,1,3,0,2,11,21,11
7,3,16,1,5,1,3,11,15,9
7,3,17,1,0,0,3,11,93,11
8,3,16,1,4,0,3,11,26,9
8,3,10,1,5,1,3,11,127,11
8,3,12,1,3,0,3,11,93,11
8,3,14,1,6,1,3,11,4,11
8,3,9,1,4,0,3,11,103,11
9,4,21,0,6,1,3,11,93,11
9,4,22,0,5,1,3,11,93,11
9,4,16,1,5,1,3,11,93,11
10,4,19,1,2,0,4,11,103,11
10,4,19,1,4,0,4,11,84,11
10,4,21,0,4,0,4,11,79,9
10,4,14,1,5,1,4,11,76,11
10,4,9,1,3,0,4,11,15,11
10,4,2,0,6,1,4,11,127,11
11,4,15,1,2,0,4,11,21,11
11,4,14,1,5,1,4,11,112,11
11,4,16,1,6,1,4,11,4,11
11,4,0,0,1,0,4,11,21,9
11,4,15,1,4,0,4,11,4,11
11,4,15,1,2,0,4,11,38,11
12,1,20,1,1,0,4,11,103,11
12,1,20,1,5,1,4,11,67,9
12,1,13,1,1,0,4,11,90,11
12,1,11,1,4,0,4,11,10,11
12,1,9,1,5,1,4,11,90,11
3,2,7,1,0,0,1,11,14,9
5,2,17,1,4,0,2,11,127,11
6,3,17,1,0,0,2,11,112,9
7,3,15,1,6,1,3,11,14,11
7,3,19,1,4,0,3,11,14,9
7,3,5,0,3,0,3,11,103,11
10,4,23,0,4,0,4,11,103,11
10,4,7,1,2,0,4,11,112,11
10,4,12,1,4,0,4,11,21,11
11,4,15,1,2,0,4,11,40,9
12,1,13,1,1,0,4,11,15,11
1,1,9,1,0,0,1,11,98,11
1,1,10,1,2,0,1,11,14,8
2,1,22,0,3,0,1,11,79,11
2,1,10,1,6,1,1,11,79,11
2,1,19,1,1,0,1,11,98,11
2,1,23,0,1,0,1,11,24,11
2,1,9,1,4,0,1,11,93,11
2,1,20,1,5,1,1,11,127,11
2,1,18,1,1,0,1,11,101,11
2,1,17,1,2,0,1,11,90,11
2,1,16,1,3,0,1,11,93,11
2,1,21,0,4,0,1,11,93,11
2,1,19,1,6,1,1,11,93,11
2,1,17,1,1,0,1,11,4,11
2,1,10,1,1,0,1,11,79,11
2,1,14,1,2,0,1,11,98,11
2,1,21,0,4,0,1,11,90,11
2,1,19,1,1,0,1,11,112,11
3,2,9,1,3,0,1,11,38,11
5,2,18,1,6,1,2,11,79,11
5,2,20,1,6,1,2,11,15,11
5,2,9,1,2,0,2,11,113,9
5,2,6,0,4,0,2,11,90,11
6,3,16,1,0,0,2,11,103,11
6,3,13,1,3,0,2,11,38,11
6,3,20,1,0,0,2,11,93,11
6,3,18,1,6,1,2,11,103,11
7,3,21,0,0,0,3,11,127,11
7,3,15,1,4,0,3,11,93,11
7,3,13,1,5,1,3,11,79,11
8,3,1,0,1,0,3,11,93,11
8,3,13,1,4,0,3,11,103,11
8,3,2,0,4,0,3,11,21,11
8,3,17,1,2,0,3,11,79,9
9,4,15,1,5,1,3,11,103,11
9,4,14,1,0,0,3,11,112,11
9,4,11,1,1,0,3,11,4,11
10,4,21,0,1,0,4,11,93,11
11,4,10,1,5,1,4,11,112,11
12,1,16,1,1,0,4,11,93,11
12,1,0,0,3,0,4,11,15,11
2,1,12,1,6,1,1,11,103,11
3,2,23,0,3,0,1,11,93,11
3,2,14,1,4,0,1,11,103,11
5,2,13,1,1,0,2,11,103,11
5,2,10,1,1,0,2,11,103,11
7,3,15,1,2,0,3,11,21,11
7,3,14,1,3,0,3,11,21,11
8,3,18,1,1,0,3,11,124,11
8,3,12,1,3,0,3,11,21,11
8,3,10,1,4,0,3,11,93,9
11,4,13,1,5,1,4,11,112,11
11,4,10,1,4,0,4,11,21,11
12,1,20,1,6,1,4,11,112,11
1,1,22,0,6,1,1,19,58,11
1,1,22,0,6,1,1,19,127,11
1,1,23,0,6,1,1,19,127,11
1,1,7,1,6,1,1,19,127,11
1,1,9,1,6,1,1,19,127,11
1,1,7,1,1,0,1,19,127,11
1,1,4,0,2,0,1,19,76,11
1,1,13,1,3,0,1,19,67,11
1,1,22,0,4,0,1,19,127,11
1,1,0,0,2,0,1,19,76,11
1,1,9,1,4,0,1,19,79,11
1,1,15,1,5,1,1,19,127,11
1,1,14,1,0,0,1,19,79,11
1,1,18,1,2,0,1,19,67,11
1,1,23,0,3,0,1,19,90,11
1,1,1,0,6,1,1,19,80,11
1,1,6,0,3,0,1,19,67,11
2,1,14,1,2,0,1,19,67,11
2,1,12,1,2,0,1,19,67,11
2,1,17,1,2,0,1,19,67,11
2,1,21,0,3,0,1,19,79,11
2,1,19,1,4,0,1,19,60,11
2,1,16,1,5,1,1,19,127,11
2,1,14,1,6,1,1,19,67,11
2,1,12,1,0,0,1,19,67,11
2,1,2,0,2,0,1,19,103,11
2,1,13,1,5,1,1,19,79,11
2,1,3,0,3,0,1,19,79,11
2,1,4,0,5,1,1,19,127,11
2,1,5,0,5,1,1,19,90,11
2,1,11,1,5,1,1,19,58,11
3,2,21,0,4,0,1,19,127,11
3,2,17,1,5,1,1,19,127,11
3,2,2,0,6,1,1,19,76,11
3,2,3,0,0,0,1,19,127,11
3,2,1,0,2,0,1,19,127,11
3,2,1,0,2,0,1,19,127,11
3,2,22,0,2,0,1,19,127,11
3,2,22,0,3,0,1,19,127,11
3,2,5,0,5,1,1,19,98,9
3,2,13,1,6,1,1,19,67,11
3,2,4,0,0,0,1,19,58,11
3,2,6,0,0,0,1,19,127,11
3,2,14,1,0,0,1,19,35,11
3,2,8,1,1,0,1,19,90,11
3,2,16,1,1,0,1,19,103,11
3,2,10,1,6,1,1,19,67,8
3,2,12,1,6,1,1,19,67,11
3,2,22,0,1,0,1,19,98,11
3,2,7,1,2,0,1,19,103,9
3,2,22,0,2,0,1,19,67,11
3,2,21,0,2,0,1,19,67,11
4,2,5,0,5,1,2,19,98,9
4,2,1,0,0,0,2,19,127,11
4,2,21,0,2,0,2,19,79,11
4,2,20,1,3,0,2,19,127,11
4,2,9,1,5,1,2,19,67,11
4,2,19,1,5,1,2,19,67,11
4,2,19,1,5,1,2,19,76,11
4,2,12,1,6,1,2,19,83,11
4,2,4,0,3,0,2,19,59,11
4,2,1,0,6,1,2,19,76,11
4,2,10,1,5,1,2,19,79,11
4,2,3,0,6,1,2,19,127,11
4,2,16,1,1,0,2,19,67,11
4,2,4,0,6,1,2,19,127,11
5,2,12,1,2,0,2,19,127,11
5,2,14,1,5,1,2,19,11,11
5,2,18,1,6,1,2,19,32,11
5,2,6,0,6,1,2,19,76,11
5,2,5,0,0,0,2,19,127,11
5,2,2,0,0,0,2,19,58,8
5,2,19,1,3,0,2,19,101,11
5,2,13,1,4,0,2,19,58,11
5,2,9,1,5,1,2,19,67,11
5,2,2,0,6,1,2,19,67,11
5,2,7,1,0,0,2,19,127,11
5,2,4,0,2,0,2,19,76,9
5,2,2,0,6,1,2,19,98,11
6,3,6,0,5,1,2,19,127,11
6,3,16,1,1,0,2,19,67,11
6,3,13,1,4,0,2,19,67,11
6,3,7,1,4,0,2,19,98,11
6,3,4,0,5,1,2,19,58,11
6,3,2,0,1,0,2,19,127,11
6,3,21,0,3,0,2,19,127,11
6,3,22,0,4,0,2,19,67,11
7,3,1,0,6,1,3,19,67,11
7,3,6,0,0,0,3,19,110,11
7,3,21,0,5,1,3,19,127,11
7,3,16,1,0,0,3,19,58,11
7,3,4,0,5,1,3,19,67,11
7,3,4,0,5,1,3,19,127,11
7,3,18,1,6,1,3,19,67,11
7,3,14,1,1,0,3,19,67,11
7,3,16,1,2,0,3,19,67,11
7,3,18,1,4,0,3,19,67,11
7,3,23,0,4,0,3,19,127,11
7,3,11,1,4,0,3,19,67,11
7,3,11,1,6,1,3,19,67,9
7,3,15,1,0,0,3,19,103,11
7,3,12,1,3,0,3,19,90,11
7,3,21,0,3,0,3,19,127,11
7,3,11,1,4,0,3,19,67,11
7,3,2,0,5,1,3,19,67,11
8,3,2,0,3,0,3,19,98,11
8,3,9,1,1,0,3,19,90,11
8,3,0,0,3,0,3,19,127,11
8,3,6,0,6,1,3,19,67,11
8,3,21,0,6,1,3,19,67,11
8,3,13,1,4,0,3,19,67,11
8,3,22,0,3,0,3,19,79,9
9,4,15,1,4,0,3,19,67,11
9,4,11,1,1,0,3,19,76,11
9,4,16,1,0,0,3,19,67,11
9,4,21,0,2,0,3,19,127,11
9,4,5,0,5,1,3,19,76,11
9,4,7,1,0,0,3,19,76,11
9,4,4,0,3,0,3,19,98,11
9,4,11,1,4,0,3,19,67,11
9,4,16,1,5,1,3,19,67,11
9,4,20,1,1,0,3,19,127,11
9,4,9,1,2,0,3,19,67,11
9,4,4,0,5,1,3,19,127,11
10,4,5,0,1,0,4,19,76,11
10,4,12,1,4,0,4,19,67,11
10,4,23,0,5,1,4,19,67,11
10,4,7,1,5,1,4,19,127,11
10,4,17,1,2,0,4,19,127,11
10,4,14,1,3,0,4,19,48,11
10,4,17,1,3,0,4,19,76,11
10,4,4,0,4,0,4,19,76,11
10,4,15,1,1,0,4,19,127,11
10,4,5,0,5,1,4,19,127,11
10,4,11,1,6,1,4,19,67,11
10,4,16,1,1,0,4,19,48,11
10,4,4,0,1,0,4,19,76,11
11,4,11,1,2,0,4,19,127,11
11,4,4,0,0,0,4,19,90,11
11,4,20,1,1,0,4,19,127,11
11,4,12,1,2,0,4,19,76,11
11,4,18,1,6,1,4,19,112,11
11,4,3,0,4,0,4,19,98,11
11,4,17,1,5,1,4,19,67,11
11,4,12,1,6,1,4,19,58,11
11,4,17,1,6,1,4,19,67,11
11,4,0,0,1,0,4,19,90,11
11,4,17,1,2,0,4,19,90,11
11,4,16,1,3,0,4,19,67,11
11,4,11,1,0,0,4,19,67,11
11,4,9,1,0,0,4,19,90,11
11,4,18,1,1,0,4,19,76,11
11,4,1,0,2,0,4,19,90,11
12,1,20,1,5,1,4,19,101,11
12,1,21,0,1,0,4,19,90,11
12,1,21,0,2,0,4,19,127,11
12,1,12,1,3,0,4,19,101,11
12,1,23,0,5,1,4,19,127,11
12,1,6,0,6,1,4,19,127,11
12,1,12,1,0,0,4,19,90,11
12,1,15,1,2,0,4,19,67,11
12,1,22,0,3,0,4,19,127,11
12,1,7,1,5,1,4,19,48,11
12,1,20,1,0,0,4,19,90,11
12,1,3,0,2,0,4,19,90,9
12,1,3,0,5,1,4,19,90,11
12,1,3,0,5,1,4,19,127,11
12,1,18,1,0,0,4,19,127,11
12,1,22,0,0,0,4,19,127,11
12,1,3,0,0,0,4,19,127,11
1,1,17,1,6,1,1,19,67,11
1,1,17,1,1,0,1,19,79,11
1,1,20,1,5,1,1,19,93,11
1,1,11,1,6,1,1,19,127,11
1,1,17,1,0,0,1,19,127,11
1,1,16,1,0,0,1,19,93,11
1,1,15,1,1,0,1,19,127,11
1,1,13,1,2,0,1,19,38,11
1,1,21,0,3,0,1,19,10,11
1,1,7,1,4,0,1,19,98,11
1,1,11,1,5,1,1,19,103,11
1,1,22,0,5,1,1,19,21,11
1,1,20,1,6,1,1,19,67,11
1,1,10,1,0,0,1,19,93,11
1,1,13,1,1,0,1,19,79,11
1,1,11,1,3,0,1,19,93,11
1,1,18,1,4,0,1,19,67,11
1,1,15,1,4,0,1,19,93,11
1,1,14,1,5,1,1,19,93,11
1,1,5,0,5,1,1,19,21,11
1,1,14,1,5,1,1,19,79,11
1,1,20,1,6,1,1,19,98,11
1,1,18,1,6,1,1,19,93,11
1,1,10,1,6,1,1,19,21,11
1,1,9,1,0,0,1,19,67,11
1,1,21,0,0,0,1,19,90,11
1,1,10,1,1,0,1,19,98,11
1,1,23,0,1,0,1,19,67,11
1,1,18,1,2,0,1,19,103,11
1,1,13,1,2,0,1,19,103,11
1,1,7,1,4,0,1,19,79,11
1,1,23,0,5,1,1,19,98,11
1,1,23,0,5,1,1,19,79,11
1,1,21,0,5,1,1,19,38,11
1,1,8,1,5,1,1,19,79,11
1,1,13,1,5,1,1,19,48,11
1,1,18,1,5,1,1,19,79,11
1,1,0,0,5,1,1,19,79,11
1,1,7,1,5,1,1,19,79,11
1,1,20,1,6,1,1,19,98,11
1,1,18,1,6,1,1,19,114,11
1,1,2,0,6,1,1,19,79,11
1,1,3,0,6,1,1,19,93,11
2,1,20,1,2,0,1,19,10,11
2,1,12,1,4,0,1,19,79,11
2,1,1,0,5,1,1,19,93,11
2,1,20,1,5,1,1,19,4,11
2,1,19,1,5,1,1,19,21,11
2,1,18,1,5,1,1,19,67,11
2,1,11,1,5,1,1,19,98,11
2,1,21,0,6,1,1,19,38,11
2,1,17,1,6,1,1,19,67,11
2,1,17,1,6,1,1,19,67,11
2,1,15,1,1,0,1,19,38,11
2,1,8,1,1,0,1,19,98,11
2,1,8,1,1,0,1,19,10,11
2,1,17,1,3,0,1,19,98,11
2,1,18,1,3,0,1,19,93,11
2,1,18,1,3,0,1,19,79,11
2,1,0,0,4,0,1,19,103,11
2,1,1,0,4,0,1,19,24,11
2,1,15,1,4,0,1,19,103,11
2,1,23,0,4,0,1,19,21,11
2,1,9,1,4,0,1,19,93,11
2,1,18,1,4,0,1,19,93,11
2,1,2,0,5,1,1,19,21,11
2,1,18,1,6,1,1,19,67,11
2,1,22,0,6,1,1,19,93,11
2,1,21,0,0,0,1,19,67,11
2,1,21,0,0,0,1,19,127,11
2,1,15,1,0,0,1,19,103,11
2,1,13,1,1,0,1,19,58,11
2,1,2,0,1,0,1,19,98,11
2,1,14,1,1,0,1,19,93,11
2,1,22,0,2,0,1,19,38,11
2,1,12,1,3,0,1,19,38,11
2,1,8,1,3,0,1,19,24,11
2,1,21,0,3,0,1,19,67,11
2,1,13,1,4,0,1,19,93,11
2,1,16,1,4,0,1,19,127,11
2,1,15,1,4,0,1,19,67,11
2,1,14,1,6,1,1,19,93,11
2,1,6,0,0,0,1,19,127,11
2,1,21,0,1,0,1,19,103,11
2,1,21,0,1,0,1,19,90,11
2,1,18,1,1,0,1,19,90,11
2,1,7,1,3,0,1,19,21,11
2,1,21,0,3,0,1,19,67,11
2,1,11,1,3,0,1,19,66,11
2,1,14,1,3,0,1,19,103,11
2,1,10,1,4,0,1,19,116,11
2,1,21,0,5,1,1,19,93,11
2,1,13,1,5,1,1,19,24,11
2,1,0,0,5,1,1,19,67,11
2,1,12,1,6,1,1,19,21,11
2,1,20,1,6,1,1,19,67,11
3,2,14,1,2,0,1,19,15,9
3,2,16,1,3,0,1,19,38,11
3,2,20,1,3,0,1,19,98,11
3,2,18,1,3,0,1,19,58,11
3,2,16,1,6,1,1,19,67,11
3,2,9,1,0,0,1,19,21,11
3,2,14,1,2,0,1,19,38,11
3,2,12,1,2,0,1,19,24,11
3,2,23,0,3,0,1,19,21,11
3,2,11,1,3,0,1,19,15,11
3,2,21,0,4,0,1,19,21,11
3,2,12,1,4,0,1,19,79,11
3,2,9,1,5,1,1,19,93,11
3,2,1,0,5,1,1,19,98,11
3,2,19,1,6,1,1,19,127,11
3,2,16,1,6,1,1,19,93,11
3,2,0,0,0,0,1,19,67,11
3,2,18,1,0,0,1,19,66,11
3,2,23,0,0,0,1,19,98,11
3,2,11,1,1,0,1,19,38,11
3,2,23,0,2,0,1,19,67,11
3,2,13,1,2,0,1,19,15,11
3,2,9,1,3,0,1,19,10,11
3,2,18,1,4,0,1,19,103,11
3,2,17,1,4,0,1,19,98,11
3,2,15,1,5,1,1,19,67,11
3,2,18,1,5,1,1,19,67,11
3,2,8,1,5,1,1,19,103,11
3,2,21,0,0,0,1,19,98,11
3,2,19,1,0,0,1,19,21,11
3,2,12,1,0,0,1,19,93,11
3,2,1,0,0,0,1,19,103,11
3,2,15,1,1,0,1,19,58,11
3,2,22,0,2,0,1,19,67,11
3,2,21,0,2,0,1,19,38,11
3,2,12,1,5,1,1,19,38,11
3,2,16,1,1,0,1,19,15,11
3,2,12,1,2,0,1,19,103,11
3,2,20,1,2,0,1,19,66,11
3,2,4,0,3,0,1,19,67,11
3,2,9,1,3,0,1,19,103,11
3,2,9,1,4,0,1,19,103,11
4,2,13,1,0,0,2,19,67,11
4,2,21,0,1,0,2,19,98,11
4,2,23,0,1,0,2,19,38,11
4,2,17,1,1,0,2,19,103,11
4,2,19,1,2,0,2,19,4,9
4,2,14,1,3,0,2,19,79,11
4,2,22,0,3,0,2,19,10,11
4,2,23,0,3,0,2,19,98,11
4,2,16,1,4,0,2,19,93,11
4,2,6,0,4,0,2,19,98,11
4,2,14,1,5,1,2,19,67,11
4,2,17,1,5,1,2,19,67,11
4,2,1,0,1,0,2,19,21,11
4,2,20,1,1,0,2,19,98,11
4,2,20,1,2,0,2,19,103,11
4,2,19,1,2,0,2,19,59,11
4,2,23,0,3,0,2,19,79,11
4,2,13,1,3,0,2,19,93,11
4,2,22,0,5,1,2,19,93,11
4,2,21,0,5,1,2,19,103,11
4,2,18,1,5,1,2,19,38,11
4,2,15,1,6,1,2,19,67,11
4,2,0,0,6,1,2,19,93,11
4,2,21,0,1,0,2,19,67,11
4,2,3,0,3,0,2,19,98,11
4,2,10,1,3,0,2,19,14,11
4,2,0,0,3,0,2,19,98,11
4,2,11,1,3,0,2,19,67,11
4,2,22,0,4,0,2,19,103,11
4,2,20,1,4,0,2,19,103,11
4,2,1,0,5,1,2,19,98,11
4,2,0,0,6,1,2,19,98,11
4,2,7,1,6,1,2,19,97,11
4,2,4,0,0,0,2,19,103,11
4,2,20,1,1,0,2,19,67,9
4,2,15,1,1,0,2,19,113,11
4,2,18,1,1,0,2,19,103,11
4,2,16,1,3,0,2,19,21,11
4,2,11,1,3,0,2,19,67,11
4,2,19,1,3,0,2,19,10,11
4,2,14,1,4,0,2,19,67,11
4,2,21,0,4,0,2,19,98,11
4,2,18,1,4,0,2,19,93,11
4,2,20,1,5,1,2,19,15,11
4,2,19,1,5,1,2,19,21,11
4,2,9,1,5,1,2,19,93,11
4,2,9,1,6,1,2,19,98,11
4,2,0,0,6,1,2,19,21,11
4,2,6,0,6,1,2,19,38,11
4,2,17,1,6,1,2,19,127,11
4,2,14,1,6,1,2,19,103,11
4,2,6,0,6,1,2,19,98,11
5,2,22,0,0,0,2,19,21,11
5,2,3,0,0,0,2,19,67,11
5,2,6,0,0,0,2,19,38,11
5,2,14,1,2,0,2,19,93,11
5,2,0,0,3,0,2,19,127,11
5,2,21,0,4,0,2,19,21,11
5,2,0,0,5,1,2,19,98,11
5,2,21,0,5,1,2,19,103,11
5,2,17,1,5,1,2,19,67,11
5,2,17,1,6,1,2,19,93,11
5,2,2,0,6,1,2,19,21,11
5,2,21,0,0,0,2,19,98,11
5,2,14,1,1,0,2,19,38,11
5,2,4,0,3,0,2,19,103,11
5,2,0,0,3,0,2,19,103,11
5,2,14,1,4,0,2,19,98,11
5,2,20,1,5,1,2,19,93,11
5,2,23,0,6,1,2,19,67,11
5,2,20,1,0,0,2,19,15,11
5,2,22,0,1,0,2,19,21,11
5,2,14,1,1,0,2,19,21,11
5,2,23,0,3,0,2,19,98,11
5,2,0,0,3,0,2,19,21,11
5,2,16,1,4,0,2,19,93,11
5,2,12,1,5,1,2,19,93,11
5,2,19,1,5,1,2,19,67,11
5,2,22,0,0,0,2,19,98,11
5,2,22,0,1,0,2,19,127,11
5,2,20,1,2,0,2,19,59,11
5,2,9,1,2,0,2,19,4,11
5,2,8,1,2,0,2,19,103,11
5,2,5,0,2,0,2,19,125,11
5,2,23,0,2,0,2,19,127,11
5,2,0,0,3,0,2,19,67,11
5,2,0,0,3,0,2,19,79,11
5,2,19,1,3,0,2,19,79,11
5,2,13,1,3,0,2,19,93,11
5,2,1,0,5,1,2,19,67,11
5,2,21,0,6,1,2,19,93,11
5,2,1,0,6,1,2,19,98,11
5,2,5,0,0,0,2,19,10,11
5,2,15,1,1,0,2,19,113,11
5,2,22,0,2,0,2,19,10,11
5,2,13,1,2,0,2,19,103,11
6,3,22,0,3,0,2,19,24,11
6,3,21,0,3,0,2,19,66,11
6,3,16,1,4,0,2,19,103,11
6,3,16,1,5,1,2,19,21,11
6,3,17,1,5,1,2,19,38,11
6,3,20,1,6,1,2,19,98,11
6,3,21,0,6,1,2,19,98,11
6,3,19,1,6,1,2,19,103,11
6,3,5,0,0,0,2,19,79,11
6,3,18,1,0,0,2,19,80,11
6,3,9,1,1,0,2,19,2,11
6,3,0,0,1,0,2,19,103,11
6,3,17,1,2,0,2,19,93,11
6,3,21,0,3,0,2,19,98,11
6,3,17,1,4,0,2,19,93,11
6,3,14,1,5,1,2,19,46,11
6,3,17,1,5,1,2,19,103,11
6,3,16,1,5,1,2,19,38,11
6,3,18,1,5,1,2,19,89,11
6,3,10,1,6,1,2,19,67,11
6,3,15,1,0,0,2,19,66,11
6,3,10,1,0,0,2,19,93,11
6,3,1,0,4,0,2,19,98,11
6,3,0,0,4,0,2,19,113,11
6,3,22,0,0,0,2,19,93,11
6,3,21,0,0,0,2,19,67,11
6,3,0,0,1,0,2,19,93,11
6,3,10,1,1,0,2,19,58,11
6,3,11,1,2,0,2,19,103,11
6,3,20,1,2,0,2,19,93,11
6,3,19,1,2,0,2,19,103,11
6,3,6,0,2,0,2,19,79,11
6,3,6,0,2,0,2,19,21,11
6,3,2,0,4,0,2,19,103,11
6,3,2,0,6,1,2,19,103,11
6,3,8,1,0,0,2,19,93,11
6,3,6,0,1,0,2,19,15,11
6,3,16,1,2,0,2,19,21,11
6,3,13,1,2,0,2,19,21,11
6,3,22,0,2,0,2,19,98,11
6,3,21,0,3,0,2,19,58,11
6,3,18,1,4,0,2,19,103,11
7,3,18,1,5,1,3,19,4,11
7,3,19,1,5,1,3,19,79,11
7,3,17,1,5,1,3,19,79,11
7,3,2,0,5,1,3,19,10,11
7,3,11,1,0,0,3,19,10,11
7,3,14,1,0,0,3,19,10,11
7,3,18,1,0,0,3,19,103,11
7,3,14,1,2,0,3,19,79,11
7,3,21,0,3,0,3,19,103,11
7,3,14,1,3,0,3,19,67,11
7,3,20,1,4,0,3,19,38,11
7,3,17,1,4,0,3,19,127,9
7,3,19,1,4,0,3,19,103,11
7,3,19,1,4,0,3,19,93,11
7,3,14,1,5,1,3,19,72,11
7,3,23,0,5,1,3,19,4,11
7,3,2,0,5,1,3,19,93,8
7,3,9,1,6,1,3,19,93,11
7,3,1,0,6,1,3,19,103,11
7,3,14,1,6,1,3,19,93,11
7,3,21,0,2,0,3,19,103,11
7,3,21,0,2,0,3,19,34,11
7,3,15,1,2,0,3,19,21,11
7,3,0,0,3,0,3,19,103,11
7,3,21,0,4,0,3,19,103,11
7,3,5,0,4,0,3,19,21,11
7,3,0,0,4,0,3,19,66,11
7,3,16,1,4,0,3,19,48,11
7,3,21,0,4,0,3,19,4,11
7,3,23,0,6,1,3,19,66,11
7,3,16,1,6,1,3,19,98,11
7,3,1,0,6,1,3,19,21,11
7,3,15,1,0,0,3,19,48,11
7,3,20,1,2,0,3,19,103,11
7,3,16,1,2,0,3,19,10,11
7,3,10,1,2,0,3,19,93,11
7,3,17,1,2,0,3,19,4,11
7,3,9,1,3,0,3,19,103,11
7,3,11,1,3,0,3,19,103,11
7,3,15,1,3,0,3,19,103,11
7,3,9,1,4,0,3,19,67,11
7,3,14,1,4,0,3,19,103,11
7,3,19,1,5,1,3,19,103,11
7,3,15,1,5,1,3,19,103,11
7,3,14,1,6,1,3,19,113,11
7,3,9,1,6,1,3,19,21,11
7,3,8,1,0,0,3,19,80,11
7,3,15,1,0,0,3,19,103,11
7,3,20,1,1,0,3,19,103,11
7,3,1,0,1,0,3,19,106,8
7,3,20,1,2,0,3,19,103,11
7,3,10,1,2,0,3,19,38,11
7,3,16,1,3,0,3,19,103,11
7,3,16,1,3,0,3,19,93,11
7,3,6,0,4,0,3,19,93,11
7,3,17,1,4,0,3,19,67,11
7,3,20,1,5,1,3,19,93,11
7,3,18,1,0,0,3,19,67,11
8,3,7,1,1,0,3,19,93,11
8,3,19,1,2,0,3,19,67,11
8,3,1,0,5,1,3,19,98,11
8,3,4,0,0,0,3,19,60,11
8,3,9,1,0,0,3,19,98,11
8,3,12,1,1,0,3,19,103,11
8,3,18,1,1,0,3,19,79,11
8,3,20,1,2,0,3,19,93,11
8,3,14,1,3,0,3,19,79,11
8,3,11,1,4,0,3,19,118,11
8,3,23,0,5,1,3,19,93,11
8,3,4,0,5,1,3,19,79,11
8,3,19,1,6,1,3,19,103,11
8,3,18,1,0,0,3,19,103,11
8,3,23,0,0,0,3,19,103,11
8,3,18,1,0,0,3,19,103,11
8,3,21,0,1,0,3,19,66,11
8,3,6,0,2,0,3,19,67,11
8,3,13,1,3,0,3,19,67,9
8,3,3,0,4,0,3,19,67,11
8,3,5,0,4,0,3,19,103,11
8,3,23,0,5,1,3,19,93,11
8,3,22,0,0,0,3,19,93,11
8,3,10,1,0,0,3,19,46,9
8,3,4,0,1,0,3,19,103,11
8,3,9,1,1,0,3,19,67,11
8,3,7,1,2,0,3,19,98,11
8,3,2,0,2,0,3,19,103,11
8,3,15,1,3,0,3,19,93,11
8,3,9,1,3,0,3,19,67,11
8,3,1,0,4,0,3,19,79,11
8,3,15,1,4,0,3,19,103,11
8,3,1,0,0,0,3,19,103,11
8,3,22,0,0,0,3,19,93,11
8,3,18,1,1,0,3,19,103,11
8,3,16,1,2,0,3,19,97,11
8,3,22,0,3,0,3,19,103,11
8,3,20,1,3,0,3,19,103,11
9,4,5,0,4,0,3,19,103,11
9,4,16,1,4,0,3,19,4,11
9,4,8,1,0,0,3,19,67,11
9,4,18,1,0,0,3,19,103,11
9,4,20,1,1,0,3,19,93,11
9,4,20,1,3,0,3,19,79,11
9,4,23,0,3,0,3,19,127,11
9,4,10,1,3,0,3,19,24,11
9,4,16,1,4,0,3,19,103,11
9,4,15,1,5,1,3,19,93,11
9,4,12,1,6,1,3,19,98,11
9,4,14,1,6,1,3,19,103,11
9,4,15,1,0,0,3,19,4,11
9,4,11,1,0,0,3,19,103,11
9,4,0,0,2,0,3,19,66,11
9,4,22,0,3,0,3,19,93,11
9,4,6,0,3,0,3,19,53,11
9,4,12,1,4,0,3,19,103,11
9,4,3,0,5,1,3,19,67,11
9,4,17,1,5,1,3,19,127,11
9,4,2,0,6,1,3,19,103,11
9,4,21,0,0,0,3,19,67,11
9,4,20,1,0,0,3,19,21,11
9,4,11,1,3,0,3,19,103,11
9,4,10,1,3,0,3,19,24,8
9,4,10,1,4,0,3,19,93,11
9,4,10,1,4,0,3,19,14,11
9,4,17,1,4,0,3,19,103,11
9,4,13,1,6,1,3,19,11,11
9,4,14,1,0,0,3,19,21,11
9,4,23,0,0,0,3,19,127,11
9,4,20,1,0,0,3,19,93,11
9,4,20,1,1,0,3,19,93,11
9,4,14,1,1,0,3,19,103,11
9,4,6,0,2,0,3,19,21,11
9,4,20,1,2,0,3,19,103,11
9,4,0,0,3,0,3,19,103,11
9,4,21,0,3,0,3,19,103,11
9,4,14,1,3,0,3,19,38,11
9,4,4,0,4,0,3,19,21,11
9,4,7,1,4,0,3,19,21,11
9,4,12,1,4,0,3,19,127,11
9,4,23,0,4,0,3,19,103,11
9,4,16,1,5,1,3,19,4,11
9,4,4,0,5,1,3,19,103,11
10,4,18,1,6,1,4,19,103,11
10,4,17,1,6,1,4,19,38,11
10,4,10,1,6,1,4,19,93,11
10,4,17,1,0,0,4,19,103,11
10,4,20,1,0,0,4,19,103,11
10,4,5,0,1,0,4,19,21,11
10,4,7,1,1,0,4,19,127,11
10,4,14,1,1,0,4,19,98,11
10,4,19,1,2,0,4,19,103,11
10,4,10,1,2,0,4,19,67,11
10,4,17,1,3,0,4,19,103,11
10,4,16,1,4,0,4,19,93,11
10,4,19,1,4,0,4,19,21,11
10,4,20,1,5,1,4,19,98,11
10,4,15,1,5,1,4,19,59,11
10,4,21,0,5,1,4,19,103,11
10,4,12,1,5,1,4,19,103,11
10,4,9,1,5,1,4,19,103,11
10,4,0,0,5,1,4,19,93,11
10,4,19,1,6,1,4,19,79,11
10,4,13,1,6,1,4,19,93,11
10,4,14,1,0,0,4,19,93,11
10,4,2,0,0,0,4,19,21,11
10,4,22,0,0,0,4,19,103,11
10,4,23,0,0,0,4,19,103,11
10,4,17,1,1,0,4,19,22,11
10,4,17,1,1,0,4,19,103,11
10,4,9,1,1,0,4,19,67,11
10,4,20,1,1,0,4,19,103,11
10,4,13,1,1,0,4,19,103,11
10,4,12,1,3,0,4,19,4,11
10,4,17,1,4,0,4,19,38,11
10,4,15,1,4,0,4,19,21,11
10,4,3,0,4,0,4,19,58,11
10,4,23,0,6,1,4,19,21,11
10,4,21,0,6,1,4,19,126,11
10,4,14,1,0,0,4,19,103,11
10,4,1,0,0,0,4,19,98,11
10,4,11,1,0,0,4,19,93,11
10,4,20,1,1,0,4,19,112,11
10,4,21,0,2,0,4,19,127,11
10,4,13,1,3,0,4,19,67,11
10,4,10,1,3,0,4,19,93,11
10,4,4,0,4,0,4,19,98,11
10,4,0,0,5,1,4,19,98,11
10,4,16,1,6,1,4,19,67,11
10,4,13,1,0,0,4,19,103,11
10,4,14,1,0,0,4,19,103,11
10,4,4,0,1,0,4,19,103,11
10,4,18,1,1,0,4,19,103,11
10,4,23,0,1,0,4,19,103,11
10,4,11,1,3,0,4,19,91,11
10,4,9,1,3,0,4,19,79,11
10,4,3,0,3,0,4,19,10,11
10,4,0,0,3,0,4,19,98,11
10,4,12,1,5,1,4,19,93,11
10,4,20,1,5,1,4,19,67,11
10,4,19,1,6,1,4,19,32,11
10,4,9,1,0,0,4,19,84,11
10,4,18,1,1,0,4,19,67,11
10,4,13,1,1,0,4,19,67,11
11,4,10,1,2,0,4,19,67,11
11,4,0,0,2,0,4,19,93,11
11,4,12,1,3,0,4,19,93,11
11,4,13,1,6,1,4,19,93,11
11,4,22,0,6,1,4,19,93,11
11,4,1,0,6,1,4,19,21,11
11,4,13,1,0,0,4,19,21,11
11,4,10,1,3,0,4,19,21,11
11,4,12,1,3,0,4,19,103,11
11,4,22,0,3,0,4,19,103,11
11,4,19,1,4,0,4,19,67,11
11,4,21,0,5,1,4,19,21,11
11,4,8,1,5,1,4,19,112,11
11,4,21,0,1,0,4,19,67,11
11,4,21,0,1,0,4,19,90,11
11,4,22,0,1,0,4,19,98,11
11,4,21,0,1,0,4,19,98,11
11,4,20,1,2,0,4,19,103,11
11,4,20,1,2,0,4,19,98,11
11,4,7,1,2,0,4,19,103,11
11,4,0,0,2,0,4,19,90,11
11,4,16,1,3,0,4,19,103,11
11,4,21,0,3,0,4,19,103,11
11,4,11,1,3,0,4,19,103,11
11,4,9,1,3,0,4,19,93,11
11,4,22,0,3,0,4,19,38,11
11,4,10,1,4,0,4,19,24,11
11,4,16,1,5,1,4,19,67,11
11,4,12,1,5,1,4,19,93,11
11,4,9,1,5,1,4,19,21,11
11,4,18,1,1,0,4,19,93,11
11,4,18,1,2,0,4,19,21,11
11,4,19,1,3,0,4,19,38,11
11,4,22,0,3,0,4,19,24,11
11,4,11,1,4,0,4,19,67,11
11,4,15,1,4,0,4,19,79,11
11,4,2,0,4,0,4,19,21,11
11,4,19,1,5,1,4,19,93,11
11,4,20,1,5,1,4,19,58,11
11,4,17,1,5,1,4,19,103,11
11,4,14,1,5,1,4,19,93,8
11,4,19,1,6,1,4,19,103,11
11,4,0,0,6,1,4,19,127,11
11,4,16,1,6,1,4,19,38,11
11,4,13,1,6,1,4,19,67,11
11,4,22,0,0,0,4,19,127,11
11,4,22,0,0,0,4,19,103,11
11,4,1,0,2,0,4,19,21,11
12,1,18,1,4,0,4,19,103,11
12,1,14,1,4,0,4,19,103,11
12,1,4,0,5,1,4,19,98,11
12,1,16,1,5,1,4,19,67,11
12,1,17,1,6,1,4,19,127,11
12,1,14,1,6,1,4,19,67,11
12,1,15,1,6,1,4,19,67,11
12,1,10,1,6,1,4,19,38,11
12,1,9,1,6,1,4,19,93,11
12,1,2,0,0,0,4,19,21,11
12,1,18,1,1,0,4,19,103,11
12,1,20,1,1,0,4,19,103,11
12,1,6,0,3,0,4,19,21,11
12,1,16,1,5,1,4,19,98,11
12,1,15,1,5,1,4,19,15,11
12,1,16,1,5,1,4,19,93,11
12,1,8,1,5,1,4,19,38,11
12,1,21,0,6,1,4,19,21,11
12,1,0,0,0,0,4,19,67,11
12,1,16,1,0,0,4,19,79,11
12,1,20,1,1,0,4,19,67,11
12,1,14,1,2,0,4,19,103,11
12,1,11,1,3,0,4,19,93,11
12,1,2,0,4,0,4,19,103,11
12,1,6,0,4,0,4,19,103,11
12,1,14,1,4,0,4,19,79,11
12,1,14,1,5,1,4,19,38,11
12,1,7,1,5,1,4,19,79,11
12,1,4,0,6,1,4,19,103,11
12,1,15,1,6,1,4,19,103,11
12,1,21,0,1,0,4,19,79,11
12,1,17,1,2,0,4,19,103,11
12,1,17,1,3,0,4,19,38,11
12,1,7,1,4,0,4,19,21,11
12,1,20,1,5,1,4,19,127,11
12,1,19,1,6,1,4,19,38,11
12,1,15,1,6,1,4,19,103,11
12,1,11,1,3,0,4,19,98,11
12,1,13,1,4,0,4,19,59,11
12,1,22,0,4,0,4,19,98,11
12,1,20,1,4,0,4,19,98,11
12,1,13,1,5,1,4,19,103,11
12,1,16,1,6,1,4,19,67,11
12,1,3,0,6,1,4,19,21,11
1,1,11,1,3,0,1,19,79,11
1,1,16,1,4,0,1,19,79,11
1,1,13,1,2,0,1,19,103,11
1,1,12,1,3,0,1,19,103,11
1,1,0,0,4,0,1,19,38,11
1,1,18,1,2,0,1,19,38,11
2,1,13,1,3,0,1,19,98,11
2,1,16,1,6,1,1,19,106,11
2,1,7,1,6,1,1,19,79,11
2,1,16,1,4,0,1,19,83,11
2,1,0,0,6,1,1,19,79,9
2,1,17,1,6,1,1,19,103,11
2,1,13,1,0,0,1,19,93,11
2,1,11,1,0,0,1,19,103,11
2,1,12,1,0,0,1,19,93,11
3,2,14,1,0,0,1,19,103,11
3,2,21,0,0,0,1,19,13,11
3,2,17,1,1,0,1,19,103,11
3,2,18,1,6,1,1,19,38,11
3,2,5,0,0,0,1,19,83,11
3,2,14,1,0,0,1,19,103,11
3,2,13,1,2,0,1,19,79,11
3,2,18,1,0,0,1,19,67,11
3,2,20,1,3,0,1,19,38,11
4,2,21,0,5,1,2,19,103,11
4,2,8,1,1,0,2,19,103,11
5,2,22,0,4,0,2,19,103,11
6,3,3,0,6,1,2,19,98,11
6,3,3,0,6,1,2,19,21,11
6,3,19,1,4,0,2,19,103,11
6,3,10,1,6,1,2,19,79,11
7,3,17,1,0,0,3,19,103,11
7,3,18,1,6,1,3,19,79,11
7,3,18,1,3,0,3,19,103,11
7,3,16,1,4,0,3,19,21,11
7,3,10,1,4,0,3,19,103,11
7,3,3,0,5,1,3,19,103,11
7,3,20,1,4,0,3,19,103,11
8,3,16,1,6,1,3,19,103,11
8,3,5,0,6,1,3,19,103,11
8,3,4,0,6,1,3,19,48,11
8,3,6,0,4,0,3,19,83,11
8,3,17,1,0,0,3,19,21,11
8,3,21,0,2,0,3,19,93,11
8,3,19,1,2,0,3,19,103,11
9,4,5,0,4,0,3,19,103,11
9,4,8,1,0,0,3,19,103,11
9,4,15,1,4,0,3,19,15,8
9,4,21,0,6,1,3,19,83,11
9,4,20,1,0,0,3,19,103,11
9,4,7,1,3,0,3,19,21,11
10,4,21,0,0,0,4,19,107,11
10,4,16,1,1,0,4,19,103,11
10,4,18,1,1,0,4,19,103,11
10,4,13,1,2,0,4,19,79,8
10,4,12,1,4,0,4,19,93,11
10,4,14,1,5,1,4,19,79,11
10,4,22,0,2,0,4,19,103,11
10,4,7,1,0,0,4,19,118,11
11,4,19,1,3,0,4,19,103,11
11,4,18,1,6,1,4,19,103,11
11,4,17,1,6,1,4,19,103,11
11,4,11,1,5,1,4,19,38,11
11,4,13,1,6,1,4,19,103,11
11,4,9,1,5,1,4,19,4,11
11,4,23,0,6,1,4,19,4,11
12,1,21,0,1,0,4,19,21,11
12,1,16,1,6,1,4,19,93,11
12,1,12,1,2,0,4,19,103,11
12,1,14,1,4,0,4,19,93,11
1,1,14,1,3,0,1,19,21,9
1,1,16,1,4,0,1,19,21,11
1,1,17,1,4,0,1,19,103,11
1,1,8,1,1,0,1,19,21,11
1,1,11,1,4,0,1,19,15,11
1,1,13,1,4,0,1,19,103,11
1,1,6,0,0,0,1,19,93,11
1,1,22,0,0,0,1,19,89,11
1,1,15,1,0,0,1,19,103,11
1,1,3,0,1,0,1,19,79,9
1,1,13,1,2,0,1,19,103,11
1,1,14,1,2,0,1,19,103,11
1,1,16,1,3,0,1,19,103,11
1,1,15,1,3,0,1,19,4,11
1,1,11,1,3,0,1,19,93,11
1,1,12,1,3,0,1,19,4,11
1,1,16,1,6,1,1,19,93,11
1,1,13,1,2,0,1,19,38,11
2,1,19,1,2,0,1,19,127,11
2,1,18,1,2,0,1,19,103,11
2,1,16,1,3,0,1,19,103,11
2,1,20,1,6,1,1,19,38,11
2,1,1,0,6,1,1,19,14,9
2,1,10,1,0,0,1,19,21,11
2,1,13,1,1,0,1,19,103,11
2,1,20,1,3,0,1,19,103,11
2,1,12,1,3,0,1,19,93,11
2,1,7,1,3,0,1,19,79,11
2,1,13,1,4,0,1,19,103,11
2,1,16,1,4,0,1,19,38,11
2,1,11,1,5,1,1,19,103,11
2,1,17,1,5,1,1,19,103,11
2,1,21,0,5,1,1,19,93,11
2,1,9,1,5,1,1,19,15,9
2,1,14,1,0,0,1,19,93,11
2,1,18,1,1,0,1,19,4,11
2,1,14,1,3,0,1,19,103,11
2,1,14,1,5,1,1,19,103,11
2,1,15,1,5,1,1,19,103,11
2,1,12,1,6,1,1,19,57,11
2,1,15,1,0,0,1,19,103,11
2,1,13,1,0,0,1,19,103,11
2,1,15,1,0,0,1,19,103,11
2,1,14,1,1,0,1,19,103,11
2,1,12,1,2,0,1,19,103,11
2,1,17,1,2,0,1,19,103,11
2,1,22,0,2,0,1,19,127,11
2,1,18,1,3,0,1,19,38,11
2,1,14,1,4,0,1,19,103,11
2,1,20,1,4,0,1,19,97,11
2,1,20,1,6,1,1,19,103,11
2,1,17,1,6,1,1,19,103,11
2,1,11,1,6,1,1,19,103,11
2,1,14,1,0,0,1,19,4,11
2,1,18,1,0,0,1,19,4,11
3,2,19,1,2,0,1,19,38,11
3,2,9,1,4,0,1,19,112,11
3,2,21,0,4,0,1,19,79,11
3,2,16,1,2,0,1,19,103,11
3,2,19,1,4,0,1,19,103,9
3,2,14,1,5,1,1,19,103,11
3,2,18,1,6,1,1,19,103,11
3,2,12,1,6,1,1,19,127,11
3,2,19,1,6,1,1,19,93,11
3,2,15,1,0,0,1,19,98,11
3,2,10,1,1,0,1,19,67,11
3,2,22,0,3,0,1,19,38,11
3,2,18,1,4,0,1,19,103,11
3,2,18,1,4,0,1,19,103,11
3,2,13,1,5,1,1,19,103,11
3,2,19,1,6,1,1,19,79,11
3,2,17,1,2,0,1,19,103,11
3,2,16,1,6,1,1,19,4,11
3,2,18,1,6,1,1,19,103,11
3,2,11,1,0,0,1,19,103,11
3,2,17,1,1,0,1,19,38,11
3,2,10,1,2,0,1,19,38,11
3,2,16,1,2,0,1,19,112,11
3,2,21,0,3,0,1,19,103,11
3,2,14,1,3,0,1,19,103,11
3,2,11,1,3,0,1,19,103,11
3,2,17,1,4,0,1,19,93,11
4,2,10,1,0,0,2,19,103,11
4,2,22,0,0,0,2,19,79,11
4,2,20,1,6,1,2,19,103,11
4,2,21,0,6,1,2,19,38,11
4,2,10,1,6,1,2,19,38,11
4,2,11,1,0,0,2,19,103,11
4,2,18,1,4,0,2,19,103,11
4,2,1,0,4,0,2,19,38,11
4,2,16,1,5,1,2,19,103,11
4,2,19,1,5,1,2,19,112,11
4,2,11,1,3,0,2,19,93,11
4,2,19,1,4,0,2,19,93,11
4,2,21,0,6,1,2,19,103,11
5,2,19,1,5,1,2,19,103,11
5,2,21,0,6,1,2,19,103,11
6,3,16,1,0,0,2,19,21,11
6,3,7,1,0,0,2,19,15,11
6,3,23,0,2,0,2,19,21,11
6,3,14,1,3,0,2,19,103,11
6,3,22,0,5,1,2,19,129,11
6,3,19,1,4,0,2,19,76,9
7,3,14,1,5,1,3,19,20,9
7,3,13,1,2,0,3,19,21,11
7,3,19,1,2,0,3,19,112,11
7,3,10,1,6,1,3,19,103,11
7,3,17,1,0,0,3,19,103,11
7,3,12,1,1,0,3,19,103,11
7,3,19,1,3,0,3,19,103,11
7,3,18,1,6,1,3,19,103,11
7,3,14,1,0,0,3,19,4,11
7,3,13,1,2,0,3,19,103,11
7,3,17,1,5,1,3,19,103,11
7,3,21,0,2,0,3,19,127,11
7,3,16,1,3,0,3,19,21,9
7,3,18,1,4,0,3,19,127,11
7,3,19,1,6,1,3,19,4,11
7,3,16,1,6,1,3,19,21,11
8,3,10,1,2,0,3,19,4,11
8,3,2,0,2,0,3,19,21,8
8,3,6,0,3,0,3,19,4,11
8,3,18,1,5,1,3,19,103,11
8,3,8,1,5,1,3,19,93,11
8,3,16,1,0,0,3,19,127,11
8,3,17,1,2,0,3,19,103,11
8,3,9,1,4,0,3,19,103,11
8,3,9,1,2,0,3,19,103,11
8,3,18,1,0,0,3,19,103,11
8,3,18,1,0,0,3,19,127,11
8,3,16,1,1,0,3,19,57,11
8,3,13,1,1,0,3,19,103,11
8,3,9,1,3,0,3,19,21,11
9,4,18,1,5,1,3,19,103,11
9,4,18,1,0,0,3,19,112,11
9,4,14,1,4,0,3,19,103,11
9,4,10,1,4,0,3,19,93,11
9,4,20,1,5,1,3,19,103,11
9,4,12,1,6,1,3,19,67,11
9,4,19,1,6,1,3,19,103,11
9,4,18,1,2,0,3,19,46,11
9,4,18,1,5,1,3,19,103,11
9,4,11,1,6,1,3,19,21,11
9,4,10,1,5,1,3,19,79,11
9,4,18,1,6,1,3,19,21,11
9,4,23,0,4,0,3,19,46,11
9,4,6,0,5,1,3,19,103,11
9,4,13,1,5,1,3,19,103,11
10,4,8,1,6,1,4,19,21,11
10,4,17,1,6,1,4,19,103,11
10,4,12,1,0,0,4,19,103,11
10,4,16,1,1,0,4,19,103,11
10,4,18,1,1,0,4,19,103,11
10,4,18,1,1,0,4,19,103,11
10,4,21,0,2,0,4,19,103,11
10,4,13,1,2,0,4,19,103,11
10,4,13,1,3,0,4,19,103,11
10,4,10,1,3,0,4,19,38,9
10,4,12,1,4,0,4,19,103,11
10,4,11,1,4,0,4,19,103,11
10,4,11,1,5,1,4,19,103,11
10,4,13,1,5,1,4,19,127,11
10,4,19,1,6,1,4,19,103,11
10,4,18,1,0,0,4,19,103,11
10,4,16,1,3,0,4,19,69,11
10,4,10,1,4,0,4,19,103,11
10,4,7,1,6,1,4,19,21,11
10,4,19,1,4,0,4,19,103,11
10,4,12,1,5,1,4,19,103,11
10,4,14,1,5,1,4,19,103,11
10,4,16,1,6,1,4,19,103,11
10,4,17,1,6,1,4,19,103,11
10,4,17,1,0,0,4,19,103,11
11,4,18,1,2,0,4,19,93,11
11,4,11,1,2,0,4,19,103,11
11,4,21,0,2,0,4,19,79,9
11,4,18,1,3,0,4,19,103,11
11,4,4,0,0,0,4,19,21,11
11,4,16,1,2,0,4,19,103,11
11,4,20,1,5,1,4,19,21,11
11,4,9,1,6,1,4,19,21,11
11,4,1,0,3,0,4,19,21,11
11,4,17,1,4,0,4,19,103,11
11,4,13,1,4,0,4,19,103,11
11,4,15,1,5,1,4,19,47,11
11,4,18,1,5,1,4,19,103,11
11,4,16,1,6,1,4,19,103,11
11,4,19,1,6,1,4,19,93,11
11,4,7,1,3,0,4,19,79,11
11,4,20,1,2,0,4,19,21,11
11,4,14,1,3,0,4,19,103,11
12,1,17,1,1,0,4,19,38,11
12,1,19,1,1,0,4,19,103,11
12,1,13,1,6,1,4,19,103,11
12,1,14,1,1,0,4,19,93,11
12,1,15,1,1,0,4,19,103,11
12,1,15,1,4,0,4,19,28,11
12,1,19,1,6,1,4,19,111,11
12,1,15,1,4,0,4,19,79,11
12,1,11,1,1,0,4,19,103,11
12,1,18,1,2,0,4,19,103,11
12,1,14,1,2,0,4,19,93,11
12,1,16,1,5,1,4,19,103,11
12,1,17,1,5,1,4,19,103,11
12,1,14,1,6,1,4,19,103,11
1,1,15,1,6,1,1,19,67,11
1,1,22,0,6,1,1,19,67,11
1,1,0,0,6,1,1,19,67,11
1,1,0,0,6,1,1,19,93,11
1,1,17,1,1,0,1,19,93,11
1,1,14,1,2,0,1,19,67,11
1,1,16,1,4,0,1,19,98,11
1,1,18,1,4,0,1,19,67,11
1,1,19,1,5,1,1,19,21,11
1,1,1,0,6,1,1,19,93,11
1,1,13,1,1,0,1,19,93,11
1,1,15,1,3,0,1,19,98,11
1,1,19,1,3,0,1,19,67,11
1,1,11,1,3,0,1,19,67,11
1,1,21,0,3,0,1,19,93,11
1,1,20,1,5,1,1,19,67,11
1,1,19,1,5,1,1,19,67,11
1,1,22,0,5,1,1,19,67,11
1,1,1,0,6,1,1,19,67,11
1,1,10,1,0,0,1,19,67,11
1,1,23,0,4,0,1,19,98,11
1,1,22,0,6,1,1,19,67,11
1,1,13,1,6,1,1,19,67,11
1,1,16,1,0,0,1,19,98,11
1,1,20,1,2,0,1,19,76,11
1,1,22,0,2,0,1,19,98,11
1,1,22,0,2,0,1,19,103,11
1,1,23,0,4,0,1,19,67,11
1,1,12,1,5,1,1,19,98,11
1,1,20,1,6,1,1,19,98,11
1,1,17,1,0,0,1,19,98,11
1,1,18,1,0,0,1,19,67,11
1,1,15,1,0,0,1,19,67,11
1,1,21,0,1,0,1,19,67,11
1,1,2,0,1,0,1,19,15,11
2,1,11,1,2,0,1,19,98,11
2,1,10,1,3,0,1,19,67,11
2,1,19,1,3,0,1,19,79,11
2,1,0,0,4,0,1,19,67,11
2,1,19,1,4,0,1,19,93,11
2,1,9,1,5,1,1,19,98,11
2,1,0,0,0,0,1,19,98,11
2,1,16,1,0,0,1,19,103,11
2,1,13,1,1,0,1,19,67,11
2,1,14,1,2,0,1,19,98,11
2,1,0,0,3,0,1,19,12,11
2,1,21,0,5,1,1,19,98,11
2,1,22,0,6,1,1,19,67,11
2,1,11,1,1,0,1,19,93,11
2,1,11,1,1,0,1,19,66,11
2,1,13,1,3,0,1,19,98,11
2,1,0,0,4,0,1,19,67,11
2,1,23,0,5,1,1,19,98,11
2,1,19,1,1,0,1,19,103,11
2,1,22,0,1,0,1,19,67,11
2,1,19,1,3,0,1,19,66,11
2,1,12,1,3,0,1,19,93,11
2,1,16,1,3,0,1,19,93,11
2,1,21,0,5,1,1,19,67,11
2,1,2,0,1,0,1,19,93,11
3,2,23,0,2,0,1,19,76,11
3,2,18,1,2,0,1,19,67,11
3,2,19,1,5,1,1,19,67,11
3,2,18,1,0,0,1,19,76,11
3,2,18,1,2,0,1,19,93,11
3,2,10,1,2,0,1,19,91,11
3,2,23,0,2,0,1,19,67,11
3,2,11,1,2,0,1,19,98,11
3,2,4,0,5,1,1,19,67,11
3,2,12,1,6,1,1,19,67,11
3,2,21,0,6,1,1,19,13,11
3,2,20,1,2,0,1,19,67,11
3,2,12,1,3,0,1,19,98,11
3,2,6,0,4,0,1,19,98,11
3,2,18,1,1,0,1,19,76,11
3,2,16,1,1,0,1,19,76,11
3,2,11,1,3,0,1,19,67,11
3,2,3,0,4,0,1,19,80,11
3,2,15,1,1,0,1,19,103,11
3,2,8,1,3,0,1,19,79,11
4,2,19,1,6,1,2,19,98,11
4,2,5,0,6,1,2,19,98,11
4,2,10,1,0,0,2,19,114,11
4,2,18,1,3,0,2,19,67,11
4,2,17,1,3,0,2,19,47,11
4,2,20,1,4,0,2,19,67,11
4,2,7,1,0,0,2,19,38,11
4,2,14,1,2,0,2,19,67,11
4,2,13,1,4,0,2,19,76,11
4,2,20,1,4,0,2,19,76,11
4,2,13,1,4,0,2,19,103,11
4,2,11,1,4,0,2,19,76,11
4,2,23,0,5,1,2,19,76,11
4,2,4,0,5,1,2,19,76,11
4,2,4,0,6,1,2,19,15,11
4,2,12,1,3,0,2,19,67,11
4,2,12,1,4,0,2,19,67,11
4,2,2,0,4,0,2,19,98,11
4,2,15,1,1,0,2,19,76,11
4,2,12,1,1,0,2,19,67,11
4,2,14,1,4,0,2,19,76,11
4,2,9,1,4,0,2,19,93,11
4,2,17,1,6,1,2,19,101,11
5,2,13,1,0,0,2,19,67,11
5,2,14,1,6,1,2,19,67,11
5,2,10,1,4,0,2,19,98,11
5,2,17,1,0,0,2,19,58,11
5,2,18,1,0,0,2,19,67,11
5,2,18,1,1,0,2,19,93,11
5,2,15,1,1,0,2,19,93,11
5,2,15,1,3,0,2,19,67,11
5,2,21,0,4,0,2,19,98,11
5,2,10,1,6,1,2,19,76,11
5,2,12,1,2,0,2,19,76,11
5,2,14,1,2,0,2,19,93,11
5,2,18,1,2,0,2,19,79,11
5,2,22,0,3,0,2,19,103,11
5,2,14,1,3,0,2,19,67,11
5,2,16,1,4,0,2,19,67,11
5,2,14,1,5,1,2,19,67,11
5,2,13,1,6,1,2,19,67,11
5,2,20,1,0,0,2,19,76,11
5,2,15,1,1,0,2,19,93,11
5,2,15,1,2,0,2,19,79,11
6,3,13,1,4,0,2,19,67,11
6,3,16,1,6,1,2,19,83,11
6,3,4,0,0,0,2,19,67,11
6,3,9,1,2,0,2,19,93,11
6,3,13,1,4,0,2,19,93,11
6,3,4,0,5,1,2,19,76,11
6,3,23,0,1,0,2,19,103,11
6,3,21,0,2,0,2,19,62,11
6,3,10,1,2,0,2,19,67,11
6,3,4,0,5,1,2,19,58,11
6,3,9,1,5,1,2,19,125,11
6,3,10,1,5,1,2,19,58,11
6,3,21,0,0,0,2,19,58,11
6,3,8,1,1,0,2,19,67,11
6,3,4,0,4,0,2,19,38,11
6,3,14,1,1,0,2,19,93,11
6,3,12,1,3,0,2,19,76,11
6,3,23,0,3,0,2,19,48,11
7,3,17,1,0,0,3,19,76,11
7,3,10,1,2,0,3,19,67,11
7,3,14,1,2,0,3,19,91,11
7,3,14,1,3,0,3,19,98,11
7,3,18,1,3,0,3,19,61,11
7,3,14,1,5,1,3,19,67,11
7,3,11,1,6,1,3,19,67,11
7,3,19,1,6,1,3,19,98,11
7,3,22,0,6,1,3,19,93,11
7,3,18,1,2,0,3,19,67,11
7,3,10,1,2,0,3,19,58,11
7,3,15,1,3,0,3,19,98,11
7,3,11,1,3,0,3,19,67,11
7,3,7,1,4,0,3,19,15,11
7,3,21,0,1,0,3,19,67,11
7,3,18,1,2,0,3,19,79,11
7,3,12,1,3,0,3,19,93,11
7,3,13,1,5,1,3,19,67,11
7,3,11,1,5,1,3,19,67,11
7,3,19,1,6,1,3,19,67,11
7,3,18,1,6,1,3,19,93,11
7,3,14,1,1,0,3,19,76,11
7,3,16,1,3,0,3,19,93,11
8,3,3,0,2,0,3,19,98,11
8,3,23,0,2,0,3,19,76,11
8,3,6,0,3,0,3,19,67,11
8,3,20,1,4,0,3,19,79,11
8,3,17,1,5,1,3,19,67,11
8,3,0,0,2,0,3,19,48,11
8,3,14,1,5,1,3,19,103,11
8,3,13,1,6,1,3,19,93,11
8,3,21,0,1,0,3,19,21,11
8,3,23,0,5,1,3,19,67,11
8,3,2,0,5,1,3,19,76,8
8,3,15,1,5,1,3,19,67,11
8,3,9,1,3,0,3,19,103,11
8,3,16,1,4,0,3,19,21,11
8,3,7,1,5,1,3,19,48,11
8,3,10,1,3,0,3,19,67,11
9,4,22,0,5,1,3,19,49,11
9,4,7,1,6,1,3,19,48,9
9,4,23,0,1,0,3,19,76,11
9,4,9,1,2,0,3,19,76,11
9,4,0,0,5,1,3,19,76,11
9,4,18,1,0,0,3,19,93,11
9,4,16,1,0,0,3,19,4,11
9,4,22,0,4,0,3,19,21,11
9,4,12,1,6,1,3,19,79,11
9,4,16,1,6,1,3,19,15,11
9,4,13,1,6,1,3,19,103,11
9,4,18,1,6,1,3,19,93,11
9,4,8,1,0,0,3,19,98,11
9,4,23,0,1,0,3,19,98,11
9,4,11,1,4,0,3,19,67,11
10,4,7,1,6,1,4,19,98,11
10,4,17,1,6,1,4,19,79,11
10,4,19,1,6,1,4,19,103,11
10,4,4,0,1,0,4,19,93,11
10,4,17,1,2,0,4,19,91,11
10,4,20,1,2,0,4,19,103,11
10,4,20,1,0,0,4,19,21,11
10,4,4,0,0,0,4,19,67,11
10,4,20,1,2,0,4,19,67,11
10,4,6,0,4,0,4,19,76,11
10,4,9,1,4,0,4,19,98,11
10,4,20,1,0,0,4,19,67,11
10,4,21,0,0,0,4,19,76,11
10,4,10,1,2,0,4,19,79,11
10,4,15,1,3,0,4,19,76,11
10,4,16,1,3,0,4,19,67,11
10,4,13,1,4,0,4,19,79,11
10,4,14,1,6,1,4,19,67,11
10,4,17,1,6,1,4,19,67,11
10,4,19,1,0,0,4,19,67,11
10,4,14,1,1,0,4,19,58,11
10,4,22,0,3,0,4,19,98,11
10,4,10,1,6,1,4,19,15,11
10,4,14,1,0,0,4,19,98,11
10,4,15,1,0,0,4,19,98,11
11,4,10,1,2,0,4,19,76,11
11,4,9,1,4,0,4,19,98,11
11,4,7,1,5,1,4,19,66,11
11,4,5,0,5,1,4,19,85,11
11,4,0,0,5,1,4,19,98,11
11,4,21,0,0,0,4,19,67,11
11,4,23,0,0,0,4,19,67,11
11,4,10,1,4,0,4,19,93,11
11,4,21,0,5,1,4,19,98,11
11,4,21,0,5,1,4,19,4,11
11,4,0,0,3,0,4,19,98,11
11,4,12,1,3,0,4,19,76,11
11,4,19,1,5,1,4,19,90,11
11,4,20,1,5,1,4,19,67,11
11,4,18,1,6,1,4,19,98,11
11,4,11,1,0,0,4,19,103,11
11,4,15,1,0,0,4,19,98,11
11,4,21,0,0,0,4,19,67,11
11,4,1,0,1,0,4,19,67,11
11,4,17,1,5,1,4,19,98,11
11,4,20,1,6,1,4,19,67,11
11,4,6,0,0,0,4,19,98,11
11,4,7,1,0,0,4,19,98,11
11,4,10,1,0,0,4,19,76,11
11,4,13,1,0,0,4,19,67,11
11,4,18,1,0,0,4,19,38,11
11,4,18,1,1,0,4,19,67,11
11,4,19,1,2,0,4,19,4,11
11,4,1,0,3,0,4,19,98,11
12,1,22,0,4,0,4,19,4,11
12,1,7,1,4,0,4,19,93,11
12,1,20,1,5,1,4,19,67,11
12,1,19,1,5,1,4,19,98,11
12,1,10,1,6,1,4,19,98,11
12,1,0,0,6,1,4,19,98,11
12,1,1,0,2,0,4,19,76,11
12,1,0,0,6,1,4,19,98,11
12,1,19,1,0,0,4,19,67,11
12,1,21,0,0,0,4,19,15,11
12,1,15,1,1,0,4,19,67,11
12,1,19,1,1,0,4,19,76,11
12,1,21,0,2,0,4,19,67,11
12,1,21,0,2,0,4,19,58,11
12,1,21,0,6,1,4,19,76,11
12,1,18,1,0,0,4,19,76,11
12,1,16,1,1,0,4,19,98,11
12,1,5,0,3,0,4,19,82,11
12,1,17,1,4,0,4,19,76,11
12,1,9,1,6,1,4,19,98,11
12,1,16,1,1,0,4,19,76,11
12,1,21,0,1,0,4,19,66,11
12,1,17,1,2,0,4,19,93,11
12,1,21,0,4,0,4,19,98,11
12,1,13,1,6,1,4,19,93,11
7,3,16,1,6,1,3,19,5,11
1,1,12,1,3,0,1,19,93,11
1,1,3,0,3,0,1,19,76,11
1,1,11,1,4,0,1,19,127,11
1,1,15,1,5,1,1,19,93,9
1,1,14,1,5,1,1,19,93,11
1,1,14,1,5,1,1,19,127,9
1,1,19,1,1,0,1,19,93,11
1,1,16,1,1,0,1,19,90,11
1,1,22,0,2,0,1,19,79,11
1,1,18,1,3,0,1,19,93,11
1,1,12,1,3,0,1,19,93,11
1,1,20,1,4,0,1,19,79,11
1,1,18,1,6,1,1,19,79,9
1,1,8,1,6,1,1,19,93,11
1,1,0,0,0,0,1,19,127,11
1,1,10,1,2,0,1,19,103,11
1,1,13,1,2,0,1,19,103,11
1,1,17,1,3,0,1,19,90,9
1,1,15,1,5,1,1,19,76,9
1,1,15,1,0,0,1,19,76,11
1,1,2,0,4,0,1,19,76,11
1,1,20,1,6,1,1,19,79,11
1,1,13,1,0,0,1,19,79,8
1,1,18,1,1,0,1,19,76,11
2,1,14,1,2,0,1,19,79,11
2,1,15,1,3,0,1,19,98,11
2,1,14,1,5,1,1,19,4,11
2,1,12,1,6,1,1,19,21,11
2,1,14,1,6,1,1,19,38,8
2,1,17,1,6,1,1,19,103,11
2,1,15,1,6,1,1,19,90,11
2,1,20,1,0,0,1,19,79,11
2,1,21,0,0,0,1,19,4,11
2,1,18,1,0,0,1,19,103,11
2,1,9,1,0,0,1,19,127,11
2,1,16,1,0,0,1,19,24,11
2,1,15,1,0,0,1,19,93,8
2,1,21,0,1,0,1,19,111,8
2,1,14,1,1,0,1,19,38,11
2,1,14,1,1,0,1,19,127,11
2,1,18,1,4,0,1,19,127,11
2,1,17,1,4,0,1,19,103,11
2,1,21,0,5,1,1,19,103,11
2,1,16,1,6,1,1,19,103,11
2,1,17,1,0,0,1,19,21,11
2,1,16,1,2,0,1,19,103,11
2,1,18,1,2,0,1,19,127,9
2,1,17,1,2,0,1,19,58,8
2,1,15,1,2,0,1,19,127,11
2,1,17,1,3,0,1,19,103,11
2,1,13,1,4,0,1,19,103,9
2,1,20,1,5,1,1,19,93,11
2,1,17,1,5,1,1,19,38,9
2,1,18,1,5,1,1,19,103,11
2,1,14,1,6,1,1,19,103,11
2,1,12,1,6,1,1,19,93,11
2,1,15,1,6,1,1,19,103,11
2,1,16,1,6,1,1,19,103,11
2,1,23,0,6,1,1,19,118,11
2,1,23,0,0,0,1,19,46,11
2,1,11,1,1,0,1,19,4,11
2,1,14,1,1,0,1,19,103,11
2,1,14,1,2,0,1,19,103,11
2,1,20,1,2,0,1,19,90,11
2,1,16,1,2,0,1,19,103,11
2,1,17,1,2,0,1,19,103,9
2,1,17,1,3,0,1,19,103,11
2,1,0,0,3,0,1,19,103,11
2,1,21,0,4,0,1,19,103,11
2,1,14,1,5,1,1,19,21,11
2,1,13,1,6,1,1,19,103,9
2,1,18,1,1,0,1,19,90,11
3,2,19,1,2,0,1,19,93,11
3,2,19,1,2,0,1,19,127,11
3,2,11,1,3,0,1,19,93,11
3,2,15,1,4,0,1,19,93,11
3,2,9,1,5,1,1,19,76,11
3,2,17,1,6,1,1,19,103,11
3,2,17,1,0,0,1,19,15,8
3,2,19,1,1,0,1,19,103,11
3,2,12,1,5,1,1,19,103,11
3,2,13,1,1,0,1,19,76,9
3,2,13,1,6,1,1,19,103,11
3,2,13,1,1,0,1,19,103,11
3,2,19,1,1,0,1,19,103,11
3,2,17,1,1,0,1,19,93,11
3,2,18,1,2,0,1,19,93,9
3,2,19,1,2,0,1,19,93,11
3,2,19,1,2,0,1,19,46,9
3,2,13,1,3,0,1,19,127,11
3,2,17,1,3,0,1,19,103,9
3,2,14,1,4,0,1,19,93,9
3,2,20,1,4,0,1,19,38,11
4,2,0,0,5,1,2,19,93,11
4,2,21,0,5,1,2,19,103,11
4,2,20,1,5,1,2,19,103,11
4,2,20,1,6,1,2,19,127,11
4,2,23,0,6,1,2,19,21,11
4,2,13,1,3,0,2,19,103,11
4,2,14,1,3,0,2,19,93,11
4,2,11,1,4,0,2,19,76,11
4,2,17,1,4,0,2,19,127,11
4,2,20,1,0,0,2,19,103,11
4,2,18,1,3,0,2,19,46,11
4,2,3,0,5,1,2,19,58,9
4,2,21,0,6,1,2,19,103,11
4,2,6,0,4,0,2,19,97,11
4,2,23,0,5,1,2,19,127,11
4,2,16,1,6,1,2,19,103,11
4,2,21,0,1,0,2,19,4,11
4,2,12,1,2,0,2,19,103,11
4,2,8,1,3,0,2,19,103,9
4,2,22,0,3,0,2,19,103,11
4,2,19,1,4,0,2,19,93,11
4,2,15,1,4,0,2,19,127,11
4,2,15,1,6,1,2,19,103,11
5,2,12,1,1,0,2,19,103,11
5,2,21,0,0,0,2,19,4,11
5,2,10,1,2,0,2,19,21,11
5,2,12,1,6,1,2,19,15,11
5,2,10,1,1,0,2,19,103,11
5,2,22,0,5,1,2,19,103,9
5,2,15,1,5,1,2,19,103,11
5,2,1,0,5,1,2,19,127,9
5,2,21,0,6,1,2,19,93,9
5,2,1,0,0,0,2,19,93,9
5,2,0,0,0,0,2,19,103,9
5,2,8,1,0,0,2,19,103,11
5,2,15,1,0,0,2,19,103,11
5,2,17,1,4,0,2,19,103,11
5,2,9,1,0,0,2,19,103,11
5,2,0,0,0,0,2,19,98,11
5,2,14,1,2,0,2,19,127,11
5,2,14,1,2,0,2,19,127,11
6,3,22,0,3,0,2,19,103,11
6,3,16,1,5,1,2,19,93,11
6,3,13,1,6,1,2,19,103,11
6,3,21,0,6,1,2,19,103,11
6,3,19,1,2,0,2,19,127,11
6,3,14,1,2,0,2,19,93,11
6,3,11,1,3,0,2,19,103,11
6,3,13,1,5,1,2,19,103,11
6,3,9,1,0,0,2,19,93,11
6,3,14,1,0,0,2,19,127,11
6,3,21,0,2,0,2,19,93,11
6,3,14,1,4,0,2,19,103,11
6,3,15,1,5,1,2,19,108,11
6,3,12,1,5,1,2,19,14,8
6,3,10,1,0,0,2,19,93,11
6,3,16,1,1,0,2,19,93,11
6,3,9,1,2,0,2,19,127,9
6,3,19,1,4,0,2,19,103,11
6,3,16,1,5,1,2,19,4,11
6,3,14,1,5,1,2,19,21,9
6,3,21,0,0,0,2,19,103,11
6,3,22,0,0,0,2,19,127,11
6,3,13,1,0,0,2,19,79,11
6,3,21,0,1,0,2,19,127,11
6,3,8,1,2,0,2,19,103,11
6,3,13,1,2,0,2,19,127,11
6,3,21,0,2,0,2,19,103,11
6,3,23,0,2,0,2,19,46,11
7,3,15,1,5,1,3,19,103,9
7,3,1,0,1,0,3,19,127,11
7,3,16,1,1,0,3,19,103,11
7,3,12,1,1,0,3,19,127,11
7,3,23,0,1,0,3,19,127,11
7,3,23,0,3,0,3,19,127,11
7,3,15,1,3,0,3,19,4,11
7,3,22,0,4,0,3,19,103,11
7,3,1,0,5,1,3,19,93,11
7,3,0,0,5,1,3,19,93,11
7,3,15,1,1,0,3,19,127,11
7,3,15,1,2,0,3,19,93,11
7,3,11,1,4,0,3,19,103,9
7,3,21,0,5,1,3,19,127,11
7,3,20,1,5,1,3,19,93,11
7,3,10,1,0,0,3,19,93,11
7,3,12,1,0,0,3,19,103,11
7,3,12,1,2,0,3,19,93,11
7,3,13,1,3,0,3,19,93,11
7,3,21,0,3,0,3,19,93,11
7,3,12,1,3,0,3,19,90,11
7,3,19,1,4,0,3,19,127,11
7,3,2,0,5,1,3,19,93,11
7,3,4,0,6,1,3,19,127,9
7,3,22,0,0,0,3,19,127,11
7,3,23,0,1,0,3,19,93,11
7,3,17,1,1,0,3,19,103,11
7,3,0,0,2,0,3,19,103,11
7,3,19,1,2,0,3,19,93,11
7,3,16,1,3,0,3,19,127,11
7,3,15,1,3,0,3,19,103,11
7,3,8,1,3,0,3,19,103,11
7,3,17,1,4,0,3,19,127,11
7,3,14,1,4,0,3,19,103,11
7,3,21,0,4,0,3,19,127,11
7,3,8,1,5,1,3,19,103,11
7,3,6,0,5,1,3,19,127,11
7,3,15,1,6,1,3,19,93,9
7,3,12,1,0,0,3,19,93,11
7,3,13,1,0,0,3,19,103,11
7,3,12,1,0,0,3,19,21,11
8,3,21,0,1,0,3,19,21,11
8,3,15,1,2,0,3,19,93,11
8,3,11,1,4,0,3,19,93,11
8,3,19,1,4,0,3,19,93,11
8,3,19,1,5,1,3,19,93,11
8,3,22,0,4,0,3,19,93,11
8,3,15,1,4,0,3,19,103,11
8,3,12,1,5,1,3,19,103,11
8,3,10,1,3,0,3,19,127,11
8,3,20,1,5,1,3,19,101,11
8,3,9,1,6,1,3,19,127,11
8,3,14,1,6,1,3,19,103,11
8,3,20,1,0,0,3,19,103,11
8,3,10,1,0,0,3,19,103,11
8,3,6,0,1,0,3,19,103,11
8,3,11,1,1,0,3,19,79,9
8,3,2,0,1,0,3,19,93,11
8,3,17,1,1,0,3,19,93,9
8,3,20,1,2,0,3,19,127,11
8,3,23,0,3,0,3,19,127,11
8,3,19,1,4,0,3,19,127,11
8,3,21,0,4,0,3,19,127,11
8,3,23,0,4,0,3,19,98,11
8,3,21,0,6,1,3,19,103,11
8,3,17,1,6,1,3,19,103,11
8,3,20,1,0,0,3,19,103,9
9,4,16,1,4,0,3,19,103,11
9,4,13,1,4,0,3,19,103,11
9,4,16,1,6,1,3,19,103,11
9,4,17,1,6,1,3,19,127,11
9,4,17,1,1,0,3,19,103,11
9,4,6,0,2,0,3,19,93,9
9,4,22,0,2,0,3,19,127,11
9,4,13,1,2,0,3,19,127,11
9,4,13,1,4,0,3,19,103,11
9,4,17,1,4,0,3,19,103,11
9,4,8,1,4,0,3,19,93,11
9,4,12,1,5,1,3,19,127,9
9,4,19,1,6,1,3,19,127,11
9,4,10,1,6,1,3,19,93,11
9,4,6,0,6,1,3,19,103,11
9,4,17,1,0,0,3,19,93,11
9,4,19,1,2,0,3,19,103,11
9,4,3,0,2,0,3,19,21,11
9,4,8,1,3,0,3,19,15,11
9,4,7,1,4,0,3,19,93,11
9,4,23,0,4,0,3,19,103,11
9,4,9,1,5,1,3,19,103,11
9,4,1,0,2,0,3,19,67,11
9,4,18,1,3,0,3,19,127,9
9,4,15,1,3,0,3,19,38,11
9,4,22,0,3,0,3,19,127,11
9,4,8,1,4,0,3,19,127,11
9,4,23,0,4,0,3,19,103,11
9,4,14,1,5,1,3,19,46,11
10,4,12,1,6,1,4,19,103,11
10,4,15,1,6,1,4,19,127,11
10,4,14,1,0,0,4,19,103,11
10,4,19,1,0,0,4,19,93,11
10,4,16,1,1,0,4,19,103,11
10,4,19,1,2,0,4,19,127,11
10,4,22,0,2,0,4,19,127,11
10,4,13,1,3,0,4,19,103,11
10,4,13,1,4,0,4,19,103,11
10,4,18,1,4,0,4,19,103,11
10,4,3,0,5,1,4,19,26,11
10,4,16,1,5,1,4,19,127,11
10,4,7,1,5,1,4,19,103,9
10,4,13,1,6,1,4,19,103,11
10,4,17,1,6,1,4,19,93,11
10,4,9,1,6,1,4,19,103,11
10,4,19,1,6,1,4,19,127,11
10,4,22,0,6,1,4,19,103,9
10,4,9,1,6,1,4,19,103,11
10,4,15,1,0,0,4,19,103,11
10,4,13,1,0,0,4,19,103,11
10,4,10,1,0,0,4,19,21,9
10,4,16,1,0,0,4,19,103,11
10,4,13,1,0,0,4,19,15,9
10,4,19,1,0,0,4,19,93,9
10,4,19,1,1,0,4,19,103,11
10,4,14,1,1,0,4,19,103,11
10,4,14,1,1,0,4,19,93,11
10,4,5,0,2,0,4,19,79,11
10,4,23,0,3,0,4,19,103,11
10,4,15,1,4,0,4,19,103,9
10,4,16,1,5,1,4,19,93,11
10,4,19,1,2,0,4,19,103,9
10,4,16,1,3,0,4,19,103,9
10,4,19,1,3,0,4,19,93,11
10,4,19,1,4,0,4,19,103,11
10,4,0,0,4,0,4,19,127,11
10,4,17,1,6,1,4,19,46,11
10,4,20,1,0,0,4,19,127,11
10,4,16,1,2,0,4,19,93,11
10,4,12,1,6,1,4,19,103,11
10,4,15,1,1,0,4,19,103,11
11,4,12,1,4,0,4,19,24,9
11,4,18,1,6,1,4,19,93,9
11,4,16,1,6,1,4,19,93,9
11,4,14,1,1,0,4,19,103,11
11,4,10,1,4,0,4,19,103,11
11,4,10,1,1,0,4,19,122,11
11,4,20,1,1,0,4,19,103,11
11,4,13,1,2,0,4,19,15,9
11,4,23,0,3,0,4,19,24,9
11,4,14,1,3,0,4,19,127,9
11,4,23,0,4,0,4,19,46,11
11,4,13,1,4,0,4,19,103,11
11,4,17,1,5,1,4,19,127,9
11,4,13,1,5,1,4,19,93,11
11,4,20,1,2,0,4,19,79,11
11,4,21,0,2,0,4,19,21,11
11,4,18,1,3,0,4,19,127,11
11,4,15,1,4,0,4,19,79,11
11,4,10,1,6,1,4,19,93,11
11,4,21,0,3,0,4,19,15,11
12,1,16,1,1,0,4,19,103,9
12,1,16,1,0,0,4,19,15,11
12,1,15,1,0,0,4,19,93,9
12,1,22,0,0,0,4,19,93,9
12,1,21,0,1,0,4,19,93,11
12,1,13,1,1,0,4,19,127,11
12,1,19,1,2,0,4,19,93,9
12,1,7,1,3,0,4,19,93,11
12,1,18,1,4,0,4,19,79,11
12,1,11,1,6,1,4,19,103,11
12,1,15,1,6,1,4,19,103,11
12,1,1,0,5,1,4,19,103,11
12,1,14,1,6,1,4,19,127,11
12,1,4,0,0,0,4,19,21,9
12,1,17,1,2,0,4,19,90,11
12,1,15,1,2,0,4,19,103,11
12,1,15,1,5,1,4,19,127,11
1,1,23,0,6,1,1,19,127,11
1,1,18,1,6,1,1,19,127,11
1,1,18,1,2,0,1,19,24,8
1,1,22,0,4,0,1,19,103,11
1,1,14,1,4,0,1,19,103,11
1,1,20,1,5,1,1,19,4,11
1,1,12,1,6,1,1,19,103,11
1,1,11,1,6,1,1,19,93,11
1,1,10,1,6,1,1,19,67,11
1,1,0,0,2,0,1,19,48,11
1,1,11,1,3,0,1,19,79,11
1,1,14,1,1,0,1,19,127,11
2,1,18,1,3,0,1,19,103,11
2,1,15,1,1,0,1,19,4,8
2,1,13,1,1,0,1,19,4,11
2,1,19,1,1,0,1,19,79,11
2,1,15,1,3,0,1,19,93,11
2,1,13,1,3,0,1,19,127,11
2,1,18,1,6,1,1,19,4,11
2,1,12,1,6,1,1,19,4,11
2,1,12,1,1,0,1,19,4,11
2,1,16,1,2,0,1,19,1,9
2,1,19,1,3,0,1,19,103,11
2,1,13,1,4,0,1,19,103,11
2,1,19,1,4,0,1,19,4,11
2,1,22,0,5,1,1,19,103,11
2,1,8,1,5,1,1,19,76,11
2,1,21,0,1,0,1,19,103,11
2,1,15,1,2,0,1,19,4,9
2,1,16,1,2,0,1,19,28,11
2,1,23,0,3,0,1,19,38,11
2,1,20,1,6,1,1,19,28,11
3,2,11,1,1,0,1,19,90,11
3,2,16,1,1,0,1,19,4,11
3,2,19,1,6,1,1,19,84,11
3,2,21,0,0,0,1,19,103,11
3,2,14,1,1,0,1,19,93,11
3,2,17,1,5,1,1,19,15,9
3,2,23,0,6,1,1,19,67,11
3,2,12,1,1,0,1,19,4,11
3,2,11,1,3,0,1,19,93,11
3,2,12,1,6,1,1,19,93,11
3,2,12,1,1,0,1,19,103,11
3,2,10,1,2,0,1,19,79,9
3,2,16,1,3,0,1,19,15,9
4,2,19,1,6,1,2,19,93,11
4,2,5,0,2,0,2,19,79,11
4,2,15,1,4,0,2,19,90,11
4,2,16,1,5,1,2,19,67,11
4,2,12,1,3,0,2,19,4,11
4,2,21,0,3,0,2,19,46,11
4,2,14,1,3,0,2,19,11,11
4,2,14,1,5,1,2,19,4,11
4,2,18,1,4,0,2,19,66,11
4,2,13,1,4,0,2,19,93,11
4,2,21,0,4,0,2,19,93,11
4,2,23,0,6,1,2,19,21,11
4,2,20,1,2,0,2,19,57,11
4,2,11,1,3,0,2,19,4,11
4,2,19,1,6,1,2,19,67,11
4,2,20,1,6,1,2,19,93,11
5,2,21,0,1,0,2,19,90,11
5,2,12,1,0,0,2,19,93,11
5,2,1,0,3,0,2,19,21,11
5,2,21,0,2,0,2,19,93,11
5,2,17,1,4,0,2,19,32,9
5,2,11,1,5,1,2,19,32,11
5,2,17,1,0,0,2,19,15,9
5,2,21,0,1,0,2,19,4,11
5,2,17,1,1,0,2,19,93,11
5,2,20,1,1,0,2,19,4,11
6,3,22,0,5,1,2,19,90,11
6,3,14,1,6,1,2,19,21,11
6,3,16,1,6,1,2,19,21,11
6,3,13,1,2,0,2,19,93,11
6,3,9,1,4,0,2,19,93,11
6,3,16,1,2,0,2,19,90,11
6,3,17,1,2,0,2,19,103,11
6,3,11,1,2,0,2,19,103,11
6,3,16,1,2,0,2,19,103,11
6,3,16,1,3,0,2,19,41,11
6,3,17,1,0,0,2,19,79,11
6,3,17,1,1,0,2,19,4,9
6,3,18,1,2,0,2,19,48,11
6,3,9,1,3,0,2,19,93,11
7,3,17,1,5,1,3,19,28,11
7,3,5,0,6,1,3,19,21,11
7,3,18,1,6,1,3,19,93,11
7,3,14,1,0,0,3,19,4,9
7,3,21,0,1,0,3,19,93,11
7,3,18,1,1,0,3,19,124,11
7,3,17,1,4,0,3,19,93,9
7,3,11,1,5,1,3,19,21,11
7,3,10,1,5,1,3,19,79,9
7,3,11,1,5,1,3,19,79,11
7,3,12,1,0,0,3,19,93,11
7,3,23,0,4,0,3,19,103,11
7,3,19,1,5,1,3,19,103,11
7,3,22,0,1,0,3,19,103,11
7,3,13,1,4,0,3,19,93,11
7,3,18,1,0,0,3,19,103,11
7,3,11,1,0,0,3,19,93,11
8,3,1,0,1,0,3,19,48,11
8,3,16,1,2,0,3,19,103,11
8,3,18,1,2,0,3,19,98,11
8,3,16,1,2,0,3,19,4,11
8,3,18,1,4,0,3,19,93,11
8,3,8,1,0,0,3,19,4,11
8,3,14,1,0,0,3,19,67,11
8,3,17,1,0,0,3,19,11,8
8,3,16,1,0,0,3,19,28,8
8,3,18,1,1,0,3,19,103,11
8,3,9,1,2,0,3,19,4,11
8,3,19,1,2,0,3,19,103,11
8,3,17,1,4,0,3,19,93,11
8,3,16,1,0,0,3,19,93,11
8,3,14,1,0,0,3,19,38,11
8,3,18,1,1,0,3,19,103,11
8,3,18,1,3,0,3,19,93,11
8,3,18,1,5,1,3,19,93,9
8,3,18,1,5,1,3,19,93,11
8,3,18,1,5,1,3,19,28,11
8,3,13,1,5,1,3,19,103,11
8,3,12,1,6,1,3,19,93,11
8,3,14,1,0,0,3,19,88,11
8,3,20,1,2,0,3,19,79,11
8,3,12,1,2,0,3,19,11,9
9,4,16,1,4,0,3,19,4,11
9,4,10,1,6,1,3,19,93,11
9,4,17,1,0,0,3,19,4,11
9,4,11,1,1,0,3,19,93,11
9,4,17,1,2,0,3,19,67,11
9,4,5,0,0,0,3,19,76,11
9,4,15,1,2,0,3,19,103,11
9,4,15,1,3,0,3,19,79,11
9,4,8,1,3,0,3,19,93,11
9,4,17,1,5,1,3,19,103,11
9,4,18,1,0,0,3,19,93,11
9,4,14,1,0,0,3,19,4,11
9,4,22,0,2,0,3,19,76,11
9,4,16,1,3,0,3,19,76,11
9,4,11,1,4,0,3,19,103,11
9,4,1,0,5,1,3,19,103,11
10,4,20,1,6,1,4,19,90,11
10,4,21,0,6,1,4,19,103,11
10,4,18,1,0,0,4,19,28,11
10,4,16,1,2,0,4,19,93,9
10,4,21,0,3,0,4,19,76,11
10,4,17,1,3,0,4,19,4,11
10,4,19,1,5,1,4,19,103,11
10,4,17,1,2,0,4,19,93,11
10,4,17,1,2,0,4,19,103,11
10,4,16,1,3,0,4,19,4,11
10,4,15,1,0,0,4,19,124,11
10,4,17,1,1,0,4,19,93,11
10,4,13,1,1,0,4,19,93,11
10,4,0,0,2,0,4,19,93,11
10,4,21,0,3,0,4,19,93,11
10,4,18,1,4,0,4,19,4,11
10,4,13,1,5,1,4,19,93,11
10,4,16,1,1,0,4,19,4,11
10,4,17,1,1,0,4,19,4,11
10,4,23,0,3,0,4,19,67,11
10,4,19,1,6,1,4,19,93,11
10,4,21,0,1,0,4,19,76,11
11,4,14,1,2,0,4,19,93,11
11,4,14,1,5,1,4,19,79,11
11,4,17,1,5,1,4,19,48,11
11,4,20,1,6,1,4,19,4,11
11,4,15,1,6,1,4,19,93,11
11,4,14,1,1,0,4,19,4,11
11,4,8,1,1,0,4,19,80,11
11,4,13,1,2,0,4,19,4,11
11,4,13,1,6,1,4,19,93,11
11,4,15,1,0,0,4,19,67,11
11,4,17,1,1,0,4,19,4,9
11,4,11,1,1,0,4,19,93,11
11,4,17,1,3,0,4,19,103,11
11,4,14,1,3,0,4,19,1,11
11,4,16,1,4,0,4,19,93,11
11,4,20,1,5,1,4,19,93,11
11,4,17,1,1,0,4,19,93,11
11,4,6,0,2,0,4,19,4,11
11,4,17,1,2,0,4,19,103,11
11,4,5,0,6,1,4,19,4,11
11,4,12,1,0,0,4,19,93,11
11,4,14,1,0,0,4,19,93,11
11,4,16,1,1,0,4,19,93,11
11,4,11,1,2,0,4,19,76,11
11,4,16,1,3,0,4,19,127,11
12,1,16,1,4,0,4,19,103,11
12,1,14,1,4,0,4,19,93,9
12,1,7,1,6,1,4,19,93,9
12,1,17,1,0,0,4,19,93,11
12,1,10,1,6,1,4,19,127,11
12,1,13,1,0,0,4,19,93,11
12,1,11,1,3,0,4,19,79,8
12,1,16,1,3,0,4,19,93,11
12,1,19,1,3,0,4,19,76,11
12,1,13,1,4,0,4,19,79,11
12,1,17,1,0,0,4,19,93,11
12,1,11,1,1,0,4,19,79,9
12,1,13,1,2,0,4,19,4,11
12,1,15,1,4,0,4,19,103,11
1,1,18,1,4,0,1,44,103,11
1,1,20,1,5,1,1,44,82,11
1,1,0,0,6,1,1,44,21,11
1,1,8,1,6,1,1,44,79,11
1,1,14,1,0,0,1,44,103,11
1,1,21,0,0,0,1,44,15,11
1,1,15,1,2,0,1,44,76,11
1,1,10,1,2,0,1,44,103,11
1,1,11,1,3,0,1,44,93,11
1,1,18,1,3,0,1,44,103,11
1,1,22,0,4,0,1,44,112,11
1,1,8,1,4,0,1,44,80,11
1,1,21,0,1,0,1,44,4,11
2,1,17,1,4,0,1,44,103,11
2,1,19,1,5,1,1,44,103,11
2,1,21,0,6,1,1,44,89,9
2,1,12,1,6,1,1,44,103,11
2,1,12,1,6,1,1,44,103,11
2,1,17,1,0,0,1,44,103,11
2,1,14,1,2,0,1,44,93,11
2,1,23,0,2,0,1,44,103,11
2,1,13,1,3,0,1,44,103,11
2,1,17,1,4,0,1,44,103,11
2,1,7,1,4,0,1,44,38,11
2,1,13,1,5,1,1,44,79,11
2,1,12,1,6,1,1,44,93,11
2,1,11,1,6,1,1,44,98,11
2,1,15,1,2,0,1,44,103,11
2,1,12,1,2,0,1,44,103,11
2,1,7,1,3,0,1,44,103,11
2,1,19,1,3,0,1,44,98,11
2,1,12,1,5,1,1,44,103,11
2,1,12,1,6,1,1,44,103,11
2,1,17,1,6,1,1,44,103,11
2,1,11,1,0,0,1,44,103,11
2,1,12,1,0,0,1,44,4,11
2,1,14,1,0,0,1,44,4,11
2,1,17,1,1,0,1,44,4,11
2,1,14,1,1,0,1,44,4,11
2,1,16,1,2,0,1,44,103,11
2,1,13,1,3,0,1,44,103,11
2,1,21,0,4,0,1,44,15,11
2,1,16,1,5,1,1,44,4,11
2,1,15,1,5,1,1,44,4,11
2,1,13,1,6,1,1,44,4,11
3,2,16,1,5,1,1,44,90,11
3,2,19,1,3,0,1,44,103,11
3,2,14,1,4,0,1,44,103,11
3,2,18,1,5,1,1,44,103,11
3,2,11,1,5,1,1,44,67,11
3,2,14,1,0,0,1,44,103,11
3,2,21,0,4,0,1,44,103,11
3,2,22,0,5,1,1,44,79,11
3,2,20,1,6,1,1,44,103,11
3,2,8,1,0,0,1,44,79,11
3,2,13,1,2,0,1,44,103,11
3,2,15,1,3,0,1,44,103,11
3,2,20,1,3,0,1,44,103,11
4,2,11,1,5,1,2,44,103,11
4,2,20,1,6,1,2,44,24,11
4,2,16,1,0,0,2,44,103,11
4,2,10,1,3,0,2,44,103,11
4,2,1,0,4,0,2,44,103,11
4,2,0,0,6,1,2,44,83,11
4,2,12,1,4,0,2,44,93,11
4,2,10,1,6,1,2,44,103,11
4,2,15,1,6,1,2,44,21,11
4,2,21,0,5,1,2,44,127,11
5,2,10,1,1,0,2,44,112,11
5,2,14,1,6,1,2,44,79,11
6,3,13,1,3,0,2,44,103,11
6,3,6,0,6,1,2,44,21,11
6,3,12,1,6,1,2,44,103,11
6,3,15,1,1,0,2,44,103,11
6,3,11,1,3,0,2,44,93,11
6,3,13,1,5,1,2,44,21,11
6,3,17,1,1,0,2,44,103,11
7,3,18,1,5,1,3,44,103,11
7,3,22,0,6,1,3,44,38,11
7,3,16,1,4,0,3,44,90,11
7,3,18,1,4,0,3,44,71,11
7,3,14,1,6,1,3,44,21,11
7,3,18,1,6,1,3,44,26,11
7,3,19,1,6,1,3,44,103,11
7,3,10,1,1,0,3,44,79,11
7,3,18,1,1,0,3,44,103,11
7,3,17,1,1,0,3,44,103,11
7,3,15,1,2,0,3,44,103,11
7,3,15,1,5,1,3,44,90,11
7,3,0,0,1,0,3,44,48,11
7,3,15,1,1,0,3,44,103,11
7,3,15,1,2,0,3,44,90,11
7,3,14,1,3,0,3,44,103,11
7,3,10,1,5,1,3,44,103,11
7,3,19,1,5,1,3,44,103,11
7,3,17,1,0,0,3,44,76,11
8,3,20,1,3,0,3,44,103,11
8,3,3,0,5,1,3,44,84,11
8,3,15,1,6,1,3,44,93,11
8,3,8,1,6,1,3,44,79,11
8,3,3,0,6,1,3,44,98,11
8,3,15,1,0,0,3,44,103,11
8,3,13,1,5,1,3,44,103,11
8,3,19,1,6,1,3,44,93,11
8,3,14,1,3,0,3,44,103,11
8,3,9,1,5,1,3,44,67,11
8,3,9,1,0,0,3,44,103,11
8,3,16,1,0,0,3,44,103,11
8,3,20,1,0,0,3,44,21,11
8,3,21,0,1,0,3,44,16,11
8,3,10,1,1,0,3,44,103,11
8,3,14,1,6,1,3,44,103,11
8,3,16,1,0,0,3,44,67,11
8,3,14,1,1,0,3,44,103,11
8,3,18,1,1,0,3,44,103,11
8,3,16,1,1,0,3,44,103,11
8,3,13,1,2,0,3,44,103,11
9,4,19,1,5,1,3,44,93,11
9,4,15,1,4,0,3,44,103,11
9,4,10,1,5,1,3,44,103,11
9,4,16,1,6,1,3,44,103,11
9,4,17,1,0,0,3,44,93,11
9,4,13,1,1,0,3,44,103,11
9,4,1,0,6,1,3,44,103,11
9,4,19,1,1,0,3,44,103,11
9,4,21,0,2,0,3,44,103,11
9,4,17,1,4,0,3,44,103,11
9,4,18,1,5,1,3,44,93,11
9,4,17,1,5,1,3,44,103,11
9,4,20,1,5,1,3,44,103,11
9,4,14,1,1,0,3,44,90,11
9,4,20,1,5,1,3,44,103,11
9,4,6,0,5,1,3,44,103,11
9,4,14,1,5,1,3,44,67,11
10,4,18,1,2,0,4,44,103,11
10,4,12,1,5,1,4,44,4,11
10,4,15,1,6,1,4,44,4,11
10,4,6,0,0,0,4,44,4,11
10,4,17,1,1,0,4,44,103,11
10,4,20,1,1,0,4,44,103,11
10,4,14,1,5,1,4,44,93,11
10,4,16,1,5,1,4,44,98,11
10,4,15,1,6,1,4,44,103,11
10,4,14,1,6,1,4,44,103,11
10,4,18,1,0,0,4,44,103,11
10,4,16,1,1,0,4,44,103,11
10,4,10,1,6,1,4,44,103,11
10,4,17,1,6,1,4,44,103,11
10,4,18,1,6,1,4,44,103,11
10,4,14,1,0,0,4,44,103,11
10,4,14,1,1,0,4,44,103,11
10,4,20,1,1,0,4,44,103,11
11,4,14,1,3,0,4,44,103,11
11,4,18,1,4,0,4,44,103,11
11,4,15,1,0,0,4,44,98,11
11,4,19,1,3,0,4,44,103,11
11,4,18,1,6,1,4,44,103,11
11,4,13,1,6,1,4,44,103,11
11,4,17,1,0,0,4,44,103,11
11,4,18,1,2,0,4,44,67,11
11,4,17,1,3,0,4,44,83,11
12,1,14,1,2,0,4,44,90,11
12,1,23,0,6,1,4,44,90,11
12,1,23,0,6,1,4,44,90,11
12,1,15,1,1,0,4,44,90,11
12,1,13,1,3,0,4,44,103,11
1,1,16,1,1,0,1,44,4,11
1,1,15,1,4,0,1,44,4,11
1,1,15,1,2,0,1,44,103,11
1,1,17,1,2,0,1,44,103,11
1,1,9,1,3,0,1,44,64,11
1,1,8,1,6,1,1,44,79,9
2,1,11,1,4,0,1,44,103,11
2,1,21,0,6,1,1,44,103,11
2,1,11,1,1,0,1,44,79,8
2,1,15,1,2,0,1,44,103,11
2,1,18,1,1,0,1,44,103,11
2,1,9,1,0,0,1,44,4,11
2,1,13,1,0,0,1,44,4,11
2,1,17,1,2,0,1,44,103,11
2,1,17,1,0,0,1,44,103,11
3,2,20,1,0,0,1,44,79,9
3,2,22,0,4,0,1,44,79,11
4,2,18,1,1,0,2,44,4,11
4,2,0,0,1,0,2,44,103,11
5,2,14,1,4,0,2,44,93,11
6,3,13,1,5,1,2,44,103,11
6,3,14,1,1,0,2,44,103,11
6,3,12,1,4,0,2,44,103,11
6,3,21,0,3,0,2,44,103,11
6,3,20,1,5,1,2,44,112,11
6,3,19,1,5,1,2,44,79,9
6,3,12,1,2,0,2,44,4,11
6,3,10,1,3,0,2,44,4,11
7,3,15,1,5,1,3,44,22,11
7,3,9,1,1,0,3,44,90,11
7,3,9,1,6,1,3,44,90,11
7,3,13,1,2,0,3,44,103,11
7,3,7,1,5,1,3,44,90,11
7,3,12,1,0,0,3,44,103,11
7,3,9,1,5,1,3,44,103,11
8,3,18,1,2,0,3,44,103,11
8,3,10,1,0,0,3,44,122,11
8,3,12,1,5,1,3,44,103,11
9,4,8,1,0,0,3,44,112,11
9,4,8,1,2,0,3,44,103,11
9,4,17,1,2,0,3,44,103,11
9,4,16,1,4,0,3,44,4,11
9,4,18,1,6,1,3,44,103,11
9,4,17,1,6,1,3,44,103,11
10,4,18,1,4,0,4,44,103,11
10,4,13,1,1,0,4,44,103,11
10,4,18,1,5,1,4,44,4,11
10,4,18,1,4,0,4,44,103,11
11,4,12,1,2,0,4,44,103,11
11,4,16,1,3,0,4,44,103,11
11,4,15,1,3,0,4,44,103,11
11,4,16,1,6,1,4,44,103,11
12,1,8,1,2,0,4,44,81,11
12,1,5,0,3,0,4,44,79,11
12,1,11,1,3,0,4,44,79,11
1,1,16,1,5,1,1,44,4,11
1,1,18,1,6,1,1,44,4,11
1,1,17,1,6,1,1,44,4,11
1,1,16,1,0,0,1,44,21,11
1,1,9,1,4,0,1,44,21,11
1,1,18,1,4,0,1,44,103,11
1,1,18,1,1,0,1,44,103,11
1,1,14,1,3,0,1,44,103,11
1,1,17,1,6,1,1,44,103,11
2,1,18,1,5,1,1,44,103,11
2,1,11,1,6,1,1,44,103,11
2,1,13,1,6,1,1,44,103,11
2,1,17,1,1,0,1,44,103,11
2,1,12,1,3,0,1,44,103,11
2,1,14,1,1,0,1,44,103,11
2,1,17,1,2,0,1,44,103,11
2,1,20,1,3,0,1,44,103,11
2,1,16,1,5,1,1,44,4,11
2,1,18,1,6,1,1,44,103,11
2,1,18,1,2,0,1,44,103,11
2,1,16,1,5,1,1,44,4,11
3,2,13,1,2,0,1,44,103,11
3,2,19,1,3,0,1,44,103,11
3,2,12,1,5,1,1,44,103,11
3,2,15,1,5,1,1,44,103,11
3,2,19,1,1,0,1,44,103,11
3,2,19,1,3,0,1,44,21,11
3,2,16,1,6,1,1,44,103,11
3,2,21,0,6,1,1,44,103,11
3,2,22,0,2,0,1,44,38,11
3,2,15,1,2,0,1,44,103,11
3,2,16,1,3,0,1,44,103,11
4,2,17,1,5,1,2,44,103,11
4,2,14,1,2,0,2,44,15,11
4,2,1,0,4,0,2,44,21,11
4,2,8,1,3,0,2,44,129,11
4,2,6,0,6,1,2,44,79,11
4,2,19,1,6,1,2,44,103,11
5,2,10,1,3,0,2,44,76,11
6,3,17,1,3,0,2,44,103,11
6,3,19,1,5,1,2,44,112,11
6,3,17,1,1,0,2,44,103,11
6,3,18,1,1,0,2,44,103,11
6,3,8,1,4,0,2,44,112,11
6,3,17,1,6,1,2,44,103,11
6,3,21,0,1,0,2,44,103,11
7,3,11,1,3,0,3,44,103,11
7,3,19,1,4,0,3,44,103,11
7,3,21,0,0,0,3,44,76,11
7,3,16,1,1,0,3,44,90,11
7,3,12,1,5,1,3,44,103,11
7,3,10,1,0,0,3,44,90,11
7,3,11,1,3,0,3,44,103,11
7,3,12,1,4,0,3,44,60,11
7,3,15,1,5,1,3,44,103,9
7,3,11,1,5,1,3,44,103,11
8,3,7,1,3,0,3,44,79,11
8,3,19,1,4,0,3,44,103,11
8,3,1,0,4,0,3,44,98,11
8,3,13,1,5,1,3,44,103,11
8,3,21,0,0,0,3,44,103,11
8,3,17,1,1,0,3,44,103,11
8,3,9,1,2,0,3,44,103,11
8,3,11,1,6,1,3,44,76,11
8,3,13,1,1,0,3,44,103,11
8,3,12,1,4,0,3,44,103,11
8,3,9,1,5,1,3,44,76,11
8,3,18,1,6,1,3,44,103,11
8,3,10,1,0,0,3,44,103,11
8,3,23,0,2,0,3,44,38,11
8,3,16,1,5,1,3,44,98,11
8,3,16,1,2,0,3,44,103,11
9,4,21,0,4,0,3,44,103,11
9,4,4,0,0,0,3,44,79,11
9,4,12,1,1,0,3,44,103,11
9,4,22,0,4,0,3,44,21,11
9,4,12,1,3,0,3,44,93,11
9,4,13,1,3,0,3,44,4,11
9,4,13,1,4,0,3,44,103,11
10,4,20,1,1,0,4,44,103,11
10,4,16,1,2,0,4,44,103,11
10,4,10,1,3,0,4,44,103,11
10,4,18,1,5,1,4,44,103,11
10,4,8,1,0,0,4,44,79,11
10,4,13,1,6,1,4,44,103,11
10,4,14,1,6,1,4,44,103,11
10,4,13,1,0,0,4,44,93,11
10,4,20,1,1,0,4,44,103,11
11,4,21,0,0,0,4,44,76,11
11,4,23,0,1,0,4,44,103,11
11,4,0,0,2,0,4,44,103,11
11,4,11,1,3,0,4,44,103,11
11,4,19,1,6,1,4,44,67,11
11,4,17,1,3,0,4,44,103,11
11,4,21,0,5,1,4,44,67,11
11,4,12,1,5,1,4,44,79,11
12,1,17,1,6,1,4,44,103,11
12,1,11,1,1,0,4,44,21,11
12,1,21,0,1,0,4,44,103,11
12,1,0,0,5,1,4,44,76,11
12,1,18,1,3,0,4,44,103,11
2,1,16,1,0,0,1,44,103,11
2,1,16,1,4,0,1,44,4,11
3,2,15,1,4,0,1,44,93,11
3,2,13,1,0,0,1,44,103,11
3,2,13,1,5,1,1,44,103,11
3,2,22,0,1,0,1,44,79,11
4,2,9,1,4,0,2,44,112,11
7,3,11,1,2,0,3,44,93,11
7,3,9,1,3,0,3,44,21,11
7,3,14,1,4,0,3,44,21,11
7,3,1,0,4,0,3,44,60,11
8,3,21,0,5,1,3,44,21,11
8,3,15,1,6,1,3,44,21,11
10,4,17,1,3,0,4,44,4,11
11,4,15,1,4,0,4,44,103,11
12,1,12,1,1,0,4,44,103,11
1,1,18,1,1,0,1,44,103,11
1,1,16,1,0,0,1,44,103,11
1,1,10,1,3,0,1,44,103,11
1,1,8,1,4,0,1,44,79,11
2,1,18,1,4,0,1,44,103,11
2,1,12,1,5,1,1,44,103,11
2,1,13,1,1,0,1,44,103,11
2,1,19,1,1,0,1,44,103,11
2,1,15,1,4,0,1,44,103,11
2,1,19,1,2,0,1,44,103,11
2,1,17,1,3,0,1,44,103,11
2,1,19,1,6,1,1,44,103,11
2,1,0,0,1,0,1,44,4,11
2,1,16,1,1,0,1,44,93,11
2,1,12,1,6,1,1,44,103,11
3,2,19,1,6,1,1,44,103,11
3,2,10,1,1,0,1,44,103,11
3,2,21,0,0,0,1,44,79,11
3,2,21,0,6,1,1,44,103,11
3,2,16,1,1,0,1,44,14,11
3,2,14,1,3,0,1,44,103,11
4,2,13,1,6,1,2,44,112,11
4,2,23,0,3,0,2,44,4,11
5,2,12,1,1,0,2,44,4,11
6,3,20,1,3,0,2,44,103,11
6,3,3,0,6,1,2,44,21,11
6,3,14,1,0,0,2,44,76,11
6,3,19,1,4,0,2,44,103,11
7,3,16,1,2,0,3,44,90,11
7,3,23,0,2,0,3,44,103,11
7,3,18,1,4,0,3,44,93,11
8,3,17,1,2,0,3,44,103,11
8,3,23,0,3,0,3,44,103,11
8,3,17,1,6,1,3,44,14,11
8,3,0,0,6,1,3,44,103,11
8,3,14,1,4,0,3,44,103,11
8,3,12,1,2,0,3,44,93,11
9,4,10,1,4,0,3,44,103,11
9,4,22,0,4,0,3,44,98,11
9,4,11,1,0,0,3,44,79,11
9,4,14,1,5,1,3,44,21,11
10,4,13,1,2,0,4,44,103,11
10,4,19,1,2,0,4,44,79,11
10,4,20,1,6,1,4,44,4,11
10,4,13,1,3,0,4,44,103,11
11,4,14,1,2,0,4,44,90,11
12,1,17,1,5,1,4,44,103,11
12,1,13,1,3,0,4,44,103,11
12,1,17,1,4,0,4,44,103,11
1,1,15,1,0,0,1,44,103,11
1,1,16,1,5,1,1,44,79,11
2,1,18,1,2,0,1,44,103,11
2,1,15,1,4,0,1,44,4,11
2,1,12,1,5,1,1,44,103,11
2,1,13,1,5,1,1,44,103,11
2,1,15,1,0,0,1,44,4,11
2,1,0,0,5,1,1,44,103,11
2,1,13,1,6,1,1,44,103,11
2,1,17,1,1,0,1,44,93,11
3,2,23,0,5,1,1,44,15,11
3,2,14,1,3,0,1,44,103,11
3,2,15,1,1,0,1,44,103,11
3,2,15,1,6,1,1,44,103,11
4,2,13,1,4,0,2,44,103,11
4,2,13,1,4,0,2,44,93,11
4,2,13,1,4,0,2,44,103,11
5,2,20,1,3,0,2,44,103,11
6,3,10,1,6,1,2,44,93,11
6,3,13,1,6,1,2,44,4,11
6,3,18,1,5,1,2,44,112,11
7,3,12,1,6,1,3,44,22,11
8,3,14,1,2,0,3,44,103,11
8,3,19,1,2,0,3,44,103,11
8,3,16,1,1,0,3,44,79,11
8,3,15,1,4,0,3,44,22,11
9,4,10,1,2,0,3,44,103,11
9,4,15,1,2,0,3,44,103,11
10,4,17,1,3,0,4,44,103,11
10,4,19,1,6,1,4,44,103,11
10,4,23,0,6,1,4,44,103,11
10,4,14,1,0,0,4,44,22,11
11,4,13,1,4,0,4,44,26,11
11,4,18,1,1,0,4,44,76,11
12,1,21,0,6,1,4,44,76,11
12,1,11,1,2,0,4,44,93,11
12,1,10,1,0,0,4,44,79,11
12,1,17,1,5,1,4,44,103,11
1,1,20,1,2,0,1,49,21,11
1,1,12,1,1,0,1,49,38,8
1,1,1,0,3,0,1,49,38,11
1,1,20,1,1,0,1,49,79,8
2,1,14,1,6,1,1,49,38,9
2,1,16,1,5,1,1,49,79,8
3,2,21,0,3,0,1,49,67,9
3,2,18,1,1,0,1,49,38,8
4,2,21,0,6,1,2,49,21,11
4,2,20,1,0,0,2,49,38,11
5,2,1,0,5,1,2,49,15,11
5,2,12,1,5,1,2,49,38,8
6,3,15,1,3,0,2,49,21,11
6,3,23,0,4,0,2,49,79,8
7,3,23,0,1,0,3,49,14,11
7,3,19,1,5,1,3,49,38,11
7,3,16,1,5,1,3,49,21,11
7,3,15,1,0,0,3,49,93,11
8,3,14,1,0,0,3,49,21,11
8,3,13,1,1,0,3,49,21,11
8,3,11,1,6,1,3,49,103,11
8,3,16,1,1,0,3,49,103,11
8,3,9,1,3,0,3,49,123,9
8,3,16,1,0,0,3,49,127,8
9,4,16,1,6,1,3,49,93,11
10,4,22,0,2,0,4,49,67,11
10,4,1,0,0,0,4,49,21,11
11,4,15,1,5,1,4,49,93,11
11,4,14,1,4,0,4,49,21,11
12,1,12,1,6,1,4,49,38,11
12,1,21,0,3,0,4,49,14,11
12,1,11,1,4,0,4,49,93,11
12,1,0,0,5,1,4,49,38,9
1,1,14,1,0,0,1,49,15,9
6,3,23,0,1,0,2,49,35,11
11,4,0,0,6,1,4,49,38,8
1,1,11,1,3,0,1,49,103,11
1,1,18,1,3,0,1,49,103,11
1,1,19,1,4,0,1,49,93,11
2,1,20,1,2,0,1,49,79,11
2,1,13,1,4,0,1,49,118,11
2,1,21,0,4,0,1,49,127,11
2,1,13,1,6,1,1,49,93,11
2,1,15,1,1,0,1,49,15,11
2,1,13,1,2,0,1,49,93,11
2,1,12,1,5,1,1,49,93,11
2,1,18,1,6,1,1,49,79,11
2,1,15,1,3,0,1,49,103,11
3,2,20,1,2,0,1,49,127,11
3,2,19,1,5,1,1,49,127,11
3,2,11,1,1,0,1,49,103,11
3,2,12,1,4,0,1,49,79,11
3,2,21,0,2,0,1,49,93,11
3,2,11,1,6,1,1,49,127,11
3,2,14,1,2,0,1,49,38,11
4,2,16,1,5,1,2,49,93,11
4,2,21,0,2,0,2,49,93,11
4,2,13,1,4,0,2,49,127,11
5,2,17,1,6,1,2,49,21,11
5,2,7,1,1,0,2,49,112,11
5,2,13,1,5,1,2,49,121,11
5,2,15,1,2,0,2,49,127,11
5,2,15,1,1,0,2,49,127,11
6,3,15,1,4,0,2,49,93,11
6,3,5,0,6,1,2,49,112,11
7,3,17,1,4,0,3,49,90,11
7,3,17,1,6,1,3,49,93,11
7,3,22,0,1,0,3,49,87,11
7,3,16,1,6,1,3,49,112,11
7,3,11,1,0,0,3,49,20,11
8,3,9,1,0,0,3,49,48,11
8,3,13,1,0,0,3,49,83,11
8,3,23,0,4,0,3,49,103,11
9,4,1,0,0,0,3,49,112,11
9,4,21,0,2,0,3,49,112,11
9,4,17,1,0,0,3,49,103,11
10,4,21,0,0,0,4,49,112,11
11,4,15,1,5,1,4,49,10,11
11,4,8,1,0,0,4,49,93,11
12,1,19,1,1,0,4,49,103,11
1,1,9,1,3,0,1,49,93,11
1,1,13,1,6,1,1,49,93,11
1,1,13,1,6,1,1,49,87,11
2,1,12,1,4,0,1,49,93,11
2,1,14,1,5,1,1,49,93,11
2,1,15,1,6,1,1,49,79,11
2,1,22,0,1,0,1,49,103,11
2,1,4,0,3,0,1,49,38,11
2,1,11,1,5,1,1,49,79,11
2,1,19,1,6,1,1,49,43,11
2,1,11,1,6,1,1,49,48,11
2,1,15,1,5,1,1,49,4,11
2,1,10,1,0,0,1,49,127,11
2,1,18,1,0,0,1,49,98,11
2,1,23,0,1,0,1,49,66,11
3,2,18,1,3,0,1,49,93,11
3,2,9,1,1,0,1,49,79,11
3,2,17,1,1,0,1,49,79,11
3,2,9,1,2,0,1,49,26,11
3,2,23,0,2,0,1,49,103,11
3,2,13,1,3,0,1,49,93,11
4,2,10,1,1,0,2,49,76,11
4,2,21,0,4,0,2,49,79,11
4,2,2,0,4,0,2,49,87,9
4,2,21,0,5,1,2,49,38,11
4,2,16,1,6,1,2,49,103,11
5,2,13,1,0,0,2,49,103,11
5,2,20,1,2,0,2,49,76,11
5,2,15,1,2,0,2,49,103,11
5,2,16,1,2,0,2,49,93,11
5,2,23,0,1,0,2,49,103,11
6,3,0,0,6,1,2,49,48,11
6,3,15,1,2,0,2,49,93,11
6,3,16,1,4,0,2,49,93,11
6,3,16,1,3,0,2,49,103,9
6,3,9,1,4,0,2,49,87,11
6,3,22,0,1,0,2,49,103,11
6,3,14,1,5,1,2,49,103,11
7,3,16,1,4,0,3,49,28,11
7,3,13,1,0,0,3,49,76,9
7,3,22,0,2,0,3,49,103,11
7,3,23,0,3,0,3,49,28,11
7,3,12,1,3,0,3,49,76,11
7,3,20,1,4,0,3,49,103,11
7,3,22,0,1,0,3,49,103,11
7,3,21,0,1,0,3,49,79,11
7,3,20,1,2,0,3,49,67,11
7,3,11,1,6,1,3,49,4,11
8,3,20,1,1,0,3,49,93,11
8,3,21,0,4,0,3,49,98,11
8,3,2,0,6,1,3,49,76,11
8,3,20,1,6,1,3,49,93,11
8,3,3,0,5,1,3,49,93,11
8,3,8,1,5,1,3,49,127,11
8,3,18,1,5,1,3,49,38,11
8,3,22,0,6,1,3,49,127,11
8,3,19,1,6,1,3,49,76,11
8,3,20,1,1,0,3,49,48,11
8,3,23,0,3,0,3,49,122,11
9,4,19,1,6,1,3,49,93,11
9,4,20,1,1,0,3,49,66,11
9,4,10,1,5,1,3,49,93,11
9,4,14,1,4,0,3,49,93,11
10,4,9,1,0,0,4,49,103,11
10,4,14,1,1,0,4,49,93,11
10,4,16,1,5,1,4,49,93,11
10,4,19,1,0,0,4,49,103,11
10,4,19,1,6,1,4,49,93,11
11,4,19,1,3,0,4,49,38,11
11,4,11,1,4,0,4,49,103,11
11,4,15,1,2,0,4,49,93,11
11,4,3,0,3,0,4,49,57,11
11,4,14,1,4,0,4,49,93,11
11,4,17,1,0,0,4,49,93,11
11,4,17,1,3,0,4,49,28,11
11,4,13,1,0,0,4,49,103,11
12,1,9,1,0,0,4,49,103,11
12,1,8,1,2,0,4,49,48,11
12,1,12,1,0,0,4,49,103,11
12,1,11,1,6,1,4,49,127,11
2,1,10,1,0,0,1,49,124,11
2,1,15,1,1,0,1,49,93,11
2,1,3,0,6,1,1,49,93,11
3,2,6,0,6,1,1,49,111,11
3,2,11,1,1,0,1,49,15,11
3,2,17,1,4,0,1,49,93,11
7,3,3,0,3,0,3,49,67,11
9,4,12,1,2,0,3,49,93,11
9,4,3,0,3,0,3,49,4,11
10,4,18,1,0,0,4,49,112,11
10,4,8,1,1,0,4,49,4,11
12,1,22,0,1,0,4,49,127,11
12,1,8,1,5,1,4,49,79,9
1,1,0,0,1,0,1,49,79,11
2,1,22,0,1,0,1,49,93,11
5,2,12,1,0,0,2,49,21,9
6,3,20,1,4,0,2,49,79,11
7,3,10,1,2,0,3,49,79,11
7,3,14,1,0,0,3,49,79,11
10,4,13,1,6,1,4,49,93,11
10,4,14,1,3,0,4,49,112,11
11,4,6,0,2,0,4,49,69,11
1,1,17,1,4,0,1,26,52,11
1,1,11,1,6,1,1,26,103,11
1,1,18,1,6,1,1,26,79,11
1,1,17,1,2,0,1,26,103,11
1,1,9,1,3,0,1,26,93,11
1,1,15,1,3,0,1,26,38,11
1,1,15,1,5,1,1,26,38,11
1,1,16,1,6,1,1,26,67,11
1,1,18,1,1,0,1,26,38,11
2,1,19,1,2,0,1,26,103,11
2,1,14,1,4,0,1,26,38,11
2,1,20,1,4,0,1,26,67,11
2,1,18,1,5,1,1,26,93,11
2,1,21,0,5,1,1,26,90,11
2,1,18,1,0,0,1,26,4,11
2,1,19,1,0,0,1,26,103,11
2,1,16,1,2,0,1,26,79,11
2,1,8,1,4,0,1,26,90,11
2,1,18,1,4,0,1,26,93,11
2,1,18,1,5,1,1,26,67,11
2,1,22,0,5,1,1,26,127,11
2,1,17,1,6,1,1,26,93,11
2,1,10,1,6,1,1,26,103,11
2,1,13,1,6,1,1,26,93,11
2,1,4,0,0,0,1,26,79,11
2,1,18,1,0,0,1,26,103,11
2,1,6,0,1,0,1,26,103,11
2,1,2,0,2,0,1,26,58,11
2,1,15,1,2,0,1,26,103,11
2,1,10,1,3,0,1,26,103,11
2,1,15,1,6,1,1,26,103,11
2,1,16,1,6,1,1,26,93,11
2,1,16,1,0,0,1,26,93,11
3,2,15,1,2,0,1,26,79,11
3,2,19,1,3,0,1,26,67,11
3,2,7,1,4,0,1,26,4,11
3,2,12,1,4,0,1,26,93,11
3,2,11,1,1,0,1,26,93,11
3,2,16,1,5,1,1,26,67,11
3,2,17,1,1,0,1,26,111,11
4,2,10,1,0,0,2,26,93,11
4,2,21,0,3,0,2,26,67,11
4,2,17,1,6,1,2,26,21,11
4,2,17,1,6,1,2,26,112,11
6,3,12,1,4,0,2,26,103,11
6,3,12,1,2,0,2,26,76,11
6,3,23,0,3,0,2,26,98,11
6,3,14,1,6,1,2,26,93,11
6,3,13,1,0,0,2,26,90,11
6,3,14,1,0,0,2,26,26,11
7,3,16,1,2,0,3,26,116,11
7,3,18,1,5,1,3,26,103,11
7,3,15,1,6,1,3,26,4,11
7,3,21,0,6,1,3,26,101,11
7,3,20,1,3,0,3,26,93,11
7,3,12,1,4,0,3,26,40,11
7,3,14,1,2,0,3,26,4,11
7,3,12,1,4,0,3,26,26,9
7,3,12,1,5,1,3,26,26,8
7,3,3,0,1,0,3,26,76,11
7,3,16,1,1,0,3,26,103,11
7,3,7,1,5,1,3,26,76,11
8,3,13,1,1,0,3,26,103,11
8,3,17,1,2,0,3,26,103,11
8,3,10,1,4,0,3,26,93,11
8,3,5,0,5,1,3,26,98,11
8,3,1,0,0,0,3,26,76,11
8,3,23,0,0,0,3,26,103,11
8,3,1,0,1,0,3,26,103,11
8,3,18,1,2,0,3,26,103,11
8,3,21,0,2,0,3,26,103,11
8,3,19,1,1,0,3,26,103,11
8,3,13,1,2,0,3,26,93,11
8,3,13,1,2,0,3,26,103,11
8,3,7,1,3,0,3,26,103,11
9,4,18,1,6,1,3,26,103,11
9,4,8,1,1,0,3,26,38,8
9,4,16,1,6,1,3,26,24,11
9,4,17,1,1,0,3,26,103,11
9,4,12,1,1,0,3,26,4,11
9,4,15,1,2,0,3,26,103,11
9,4,7,1,5,1,3,26,4,11
9,4,10,1,5,1,3,26,4,11
9,4,16,1,5,1,3,26,4,11
10,4,12,1,5,1,4,26,103,11
10,4,10,1,0,0,4,26,103,11
10,4,4,0,1,0,4,26,103,11
10,4,9,1,2,0,4,26,103,11
10,4,16,1,4,0,4,26,103,11
10,4,13,1,5,1,4,26,93,11
10,4,21,0,5,1,4,26,103,11
10,4,19,1,6,1,4,26,103,11
10,4,15,1,4,0,4,26,103,11
10,4,18,1,1,0,4,26,76,11
10,4,8,1,4,0,4,26,103,11
10,4,17,1,5,1,4,26,93,11
10,4,22,0,5,1,4,26,103,11
10,4,15,1,0,0,4,26,93,11
10,4,11,1,1,0,4,26,103,11
11,4,14,1,3,0,4,26,4,11
11,4,17,1,3,0,4,26,103,11
11,4,13,1,0,0,4,26,93,11
11,4,19,1,3,0,4,26,103,11
11,4,18,1,3,0,4,26,103,11
11,4,18,1,0,0,4,26,93,11
11,4,0,0,3,0,4,26,112,11
11,4,13,1,3,0,4,26,26,11
11,4,10,1,6,1,4,26,93,11
11,4,14,1,0,0,4,26,103,11
11,4,17,1,1,0,4,26,103,11
11,4,12,1,2,0,4,26,67,11
11,4,14,1,6,1,4,26,79,11
11,4,16,1,2,0,4,26,103,11
12,1,13,1,6,1,4,26,103,11
12,1,14,1,0,0,4,26,103,11
12,1,14,1,3,0,4,26,103,11
12,1,11,1,4,0,4,26,103,11
12,1,14,1,1,0,4,26,79,11
12,1,14,1,5,1,4,26,90,11
12,1,16,1,3,0,4,26,103,11
12,1,21,0,6,1,4,26,38,11
1,1,20,1,5,1,1,26,127,11
1,1,14,1,6,1,1,26,127,11
1,1,8,1,2,0,1,26,93,11
1,1,16,1,0,0,1,26,93,11
4,2,15,1,6,1,2,26,15,11
4,2,3,0,6,1,2,26,98,11
4,2,13,1,4,0,2,26,90,11
4,2,18,1,4,0,2,26,112,11
5,2,23,0,1,0,2,26,103,11
6,3,20,1,0,0,2,26,103,11
7,3,1,0,5,1,3,26,24,8
7,3,17,1,2,0,3,26,26,11
8,3,20,1,0,0,3,26,93,11
12,1,13,1,6,1,4,26,76,11
1,1,2,0,1,0,1,26,24,11
2,1,20,1,3,0,1,26,103,11
2,1,23,0,0,0,1,26,127,11
3,2,5,0,6,1,1,26,127,11
3,2,13,1,0,0,1,26,103,11
4,2,15,1,5,1,2,26,103,11
4,2,17,1,2,0,2,26,79,8
4,2,21,0,2,0,2,26,14,11
4,2,13,1,6,1,2,26,39,9
5,2,20,1,5,1,2,26,39,11
6,3,18,1,5,1,2,26,112,11
6,3,8,1,3,0,2,26,103,11
7,3,20,1,4,0,3,26,21,11
7,3,18,1,3,0,3,26,103,11
8,3,13,1,5,1,3,26,93,11
9,4,19,1,4,0,3,26,93,11
9,4,17,1,0,0,3,26,103,11
11,4,16,1,3,0,4,26,93,11
12,1,19,1,4,0,4,26,79,11
2,1,22,0,2,0,1,26,15,9
2,1,19,1,5,1,1,26,98,11
2,1,13,1,1,0,1,26,103,11
3,2,20,1,6,1,1,26,90,11
4,2,13,1,1,0,2,26,79,11
5,2,7,1,0,0,2,26,21,11
6,3,21,0,0,0,2,26,21,11
6,3,18,1,5,1,2,26,26,11
8,3,15,1,5,1,3,26,93,11
10,4,15,1,0,0,4,26,93,11
10,4,13,1,6,1,4,26,93,11
11,4,14,1,3,0,4,26,98,11
12,1,21,0,4,0,4,26,67,11
12,1,10,1,0,0,4,26,69,11
12,1,14,1,0,0,4,26,98,11
1,1,11,1,6,1,1,38,127,11
1,1,23,0,1,0,1,38,67,11
1,1,8,1,5,1,1,38,67,11
1,1,17,1,6,1,1,38,127,11
1,1,13,1,4,0,1,38,79,11
1,1,4,0,5,1,1,38,38,8
1,1,6,0,1,0,1,38,30,11
2,1,20,1,3,0,1,38,127,11
2,1,14,1,0,0,1,38,103,11
2,1,19,1,4,0,1,38,103,11
2,1,13,1,2,0,1,38,93,11
2,1,11,1,3,0,1,38,79,11
2,1,18,1,6,1,1,38,79,11
2,1,21,0,1,0,1,38,103,11
2,1,18,1,0,0,1,38,67,11
2,1,22,0,0,0,1,38,14,9
3,2,10,1,1,0,1,38,67,11
3,2,14,1,1,0,1,38,103,11
3,2,18,1,2,0,1,38,103,11
4,2,13,1,5,1,2,38,127,11
4,2,17,1,6,1,2,38,79,11
5,2,21,0,2,0,2,38,112,11
5,2,23,0,4,0,2,38,127,11
5,2,22,0,3,0,2,38,103,11
5,2,21,0,5,1,2,38,79,9
5,2,16,1,6,1,2,38,26,11
6,3,9,1,2,0,2,38,90,11
7,3,15,1,6,1,3,38,67,11
7,3,4,0,2,0,3,38,24,11
7,3,20,1,5,1,3,38,103,11
7,3,18,1,0,0,3,38,4,11
7,3,21,0,3,0,3,38,127,11
8,3,23,0,1,0,3,38,127,11
8,3,19,1,0,0,3,38,90,11
8,3,1,0,4,0,3,38,79,11
8,3,15,1,6,1,3,38,90,11
8,3,18,1,6,1,3,38,46,11
8,3,16,1,4,0,3,38,103,11
8,3,13,1,6,1,3,38,103,11
8,3,21,0,1,0,3,38,90,11
9,4,11,1,4,0,3,38,90,11
9,4,14,1,1,0,3,38,103,11
9,4,21,0,0,0,3,38,103,11
9,4,20,1,1,0,3,38,103,11
9,4,13,1,2,0,3,38,103,11
9,4,8,1,3,0,3,38,67,8
9,4,10,1,4,0,3,38,93,11
9,4,15,1,3,0,3,38,103,11
10,4,15,1,3,0,4,38,14,11
10,4,16,1,1,0,4,38,127,9
10,4,6,0,3,0,4,38,103,11
10,4,11,1,3,0,4,38,103,11
10,4,12,1,5,1,4,38,103,11
10,4,20,1,6,1,4,38,103,11
10,4,12,1,0,0,4,38,93,9
10,4,13,1,0,0,4,38,93,9
10,4,18,1,5,1,4,38,103,11
10,4,9,1,1,0,4,38,103,11
10,4,13,1,6,1,4,38,103,11
10,4,18,1,1,0,4,38,103,11
11,4,18,1,0,0,4,38,103,11
11,4,13,1,3,0,4,38,67,11
11,4,8,1,6,1,4,38,103,11
11,4,14,1,6,1,4,38,127,11
12,1,12,1,5,1,4,38,79,11
12,1,20,1,6,1,4,38,67,9
12,1,9,1,4,0,4,38,67,11
12,1,12,1,5,1,4,38,103,11
12,1,16,1,6,1,4,38,103,11
12,1,22,0,2,0,4,38,127,11
12,1,12,1,6,1,4,38,103,11
12,1,15,1,6,1,4,38,103,11
12,1,16,1,6,1,4,38,103,11
12,1,3,0,2,0,4,38,15,9
12,1,12,1,4,0,4,38,127,11
1,1,12,1,6,1,1,38,67,11
1,1,2,0,0,0,1,38,103,11
1,1,16,1,5,1,1,38,114,11
1,1,12,1,3,0,1,38,103,11
1,1,15,1,3,0,1,38,103,11
1,1,18,1,3,0,1,38,67,11
1,1,11,1,0,0,1,38,21,11
1,1,12,1,1,0,1,38,67,11
1,1,13,1,1,0,1,38,15,8
2,1,19,1,2,0,1,38,103,11
2,1,8,1,4,0,1,38,98,11
2,1,13,1,4,0,1,38,103,11
2,1,11,1,5,1,1,38,112,11
2,1,17,1,5,1,1,38,38,11
2,1,17,1,4,0,1,38,103,11
2,1,22,0,5,1,1,38,98,11
2,1,17,1,0,0,1,38,103,11
2,1,19,1,3,0,1,38,79,8
2,1,10,1,3,0,1,38,67,11
2,1,21,0,4,0,1,38,98,11
2,1,14,1,1,0,1,38,103,11
2,1,21,0,5,1,1,38,15,8
2,1,0,0,1,0,1,38,52,11
2,1,16,1,1,0,1,38,98,11
3,2,11,1,4,0,1,38,103,11
3,2,17,1,1,0,1,19,38,11
3,2,14,1,0,0,1,38,103,11
3,2,14,1,3,0,1,38,67,11
3,2,21,0,5,1,1,38,103,11
3,2,17,1,6,1,1,38,98,11
3,2,16,1,2,0,1,38,103,11
3,2,14,1,4,0,1,38,67,11
4,2,21,0,5,1,2,38,103,11
4,2,15,1,1,0,2,38,79,9
4,2,20,1,1,0,2,38,103,11
4,2,22,0,1,0,2,38,67,11
4,2,23,0,2,0,2,38,103,11
4,2,18,1,2,0,2,38,112,11
4,2,22,0,5,1,2,38,26,11
4,2,18,1,2,0,2,38,67,11
5,2,10,1,2,0,2,38,112,11
5,2,20,1,0,0,2,38,103,11
5,2,17,1,3,0,2,38,67,11
5,2,15,1,5,1,2,38,103,11
5,2,11,1,1,0,2,38,103,11
5,2,16,1,1,0,2,38,38,11
5,2,13,1,3,0,2,38,84,11
6,3,12,1,3,0,2,38,38,11
6,3,10,1,0,0,2,38,103,11
6,3,10,1,1,0,2,38,67,11
6,3,11,1,4,0,2,38,67,11
7,3,10,1,5,1,3,38,93,11
7,3,16,1,6,1,3,38,93,11
7,3,20,1,0,0,3,19,103,11
7,3,11,1,0,0,3,38,14,11
7,3,15,1,3,0,3,19,21,11
7,3,13,1,5,1,3,38,103,11
7,3,13,1,5,1,3,38,103,11
7,3,22,0,1,0,3,38,103,11
7,3,21,0,1,0,3,19,103,11
7,3,14,1,3,0,3,38,124,8
7,3,14,1,4,0,3,38,103,11
7,3,19,1,4,0,3,19,103,11
7,3,15,1,5,1,3,38,103,11
7,3,22,0,5,1,3,19,103,11
8,3,15,1,4,0,3,38,103,11
8,3,22,0,4,0,3,38,103,11
8,3,16,1,5,1,3,38,76,11
8,3,16,1,0,0,3,19,103,11
8,3,11,1,0,0,3,38,103,11
8,3,18,1,5,1,3,38,103,11
8,3,13,1,2,0,3,38,93,11
8,3,10,1,5,1,3,38,103,11
8,3,21,0,6,1,3,38,103,11
8,3,16,1,0,0,3,38,103,11
8,3,17,1,1,0,3,38,21,11
8,3,19,1,1,0,3,38,103,11
8,3,20,1,2,0,3,38,103,11
8,3,16,1,3,0,3,38,103,11
8,3,7,1,5,1,3,38,46,11
8,3,8,1,3,0,3,38,93,11
9,4,14,1,5,1,3,38,103,11
9,4,18,1,6,1,3,38,14,8
9,4,19,1,6,1,3,38,103,11
9,4,19,1,0,0,3,38,103,11
9,4,14,1,3,0,3,38,103,11
10,4,21,0,0,0,4,19,103,11
10,4,20,1,0,0,4,38,103,11
10,4,12,1,1,0,4,19,93,11
10,4,13,1,5,1,4,38,103,11
10,4,13,1,3,0,4,38,103,11
10,4,17,1,4,0,4,38,103,11
10,4,16,1,5,1,4,38,67,11
10,4,12,1,6,1,4,38,103,11
11,4,12,1,2,0,4,38,67,11
11,4,18,1,0,0,4,38,103,11
11,4,18,1,1,0,4,38,103,11
11,4,18,1,1,0,4,38,103,11
11,4,18,1,1,0,4,38,67,11
11,4,9,1,3,0,4,19,103,11
11,4,10,1,5,1,4,19,103,11
11,4,11,1,5,1,4,38,79,11
11,4,17,1,6,1,4,38,103,11
11,4,13,1,6,1,4,38,90,11
12,1,11,1,0,0,4,38,98,11
12,1,5,0,5,1,4,19,79,11
12,1,19,1,2,0,4,38,26,11
12,1,17,1,6,1,4,38,79,11
12,1,14,1,1,0,4,38,76,9
12,1,21,0,2,0,4,38,90,11
12,1,15,1,5,1,4,38,103,11
12,1,14,1,5,1,4,38,103,11
12,1,22,0,5,1,4,38,93,11
12,1,2,0,1,0,4,38,14,11
12,1,17,1,3,0,4,38,103,11
4,2,20,1,5,1,2,19,103,11
9,4,20,1,6,1,3,19,103,11
1,1,17,1,6,1,1,38,90,11
1,1,14,1,6,1,1,38,90,11
1,1,16,1,6,1,1,38,90,11
1,1,10,1,2,0,1,38,16,11
1,1,15,1,2,0,1,38,57,11
2,1,11,1,2,0,1,38,15,9
2,1,18,1,3,0,1,38,90,11
2,1,17,1,6,1,1,38,89,8
2,1,0,0,1,0,1,38,103,11
2,1,18,1,3,0,1,38,90,11
2,1,9,1,4,0,1,38,38,11
2,1,14,1,6,1,1,38,38,8
2,1,0,0,0,0,1,38,103,11
2,1,13,1,0,0,1,38,90,11
2,1,12,1,2,0,1,38,90,11
2,1,18,1,3,0,1,38,103,11
2,1,10,1,5,1,1,38,103,11
2,1,15,1,6,1,1,38,38,11
2,1,14,1,1,0,1,38,103,11
2,1,19,1,2,0,1,38,103,11
2,1,13,1,2,0,1,38,103,11
2,1,9,1,3,0,1,38,103,11
2,1,22,0,5,1,1,38,90,11
2,1,18,1,6,1,1,38,90,11
2,1,7,1,0,0,1,38,76,11
3,2,16,1,2,0,1,38,79,11
3,2,10,1,5,1,1,38,125,11
3,2,12,1,0,0,1,38,67,11
3,2,18,1,0,0,1,38,90,11
3,2,20,1,0,0,1,38,67,11
3,2,8,1,4,0,1,38,101,11
3,2,20,1,5,1,1,38,103,11
3,2,22,0,5,1,1,38,103,11
3,2,17,1,6,1,1,38,103,11
3,2,1,0,0,0,1,38,79,11
4,2,17,1,6,1,2,38,103,11
4,2,20,1,1,0,2,38,15,11
4,2,21,0,4,0,2,38,79,11
4,2,14,1,5,1,2,38,93,11
4,2,18,1,3,0,2,38,103,11
4,2,1,0,4,0,2,38,103,11
4,2,19,1,6,1,2,38,90,11
5,2,12,1,1,0,2,38,90,11
5,2,3,0,6,1,2,38,31,9
6,3,18,1,6,1,2,38,90,11
6,3,19,1,5,1,2,38,90,11
7,3,11,1,4,0,3,38,90,11
7,3,15,1,0,0,3,38,57,11
7,3,20,1,2,0,3,38,90,11
7,3,11,1,4,0,3,38,90,11
7,3,15,1,2,0,3,38,79,11
7,3,18,1,2,0,3,38,90,11
7,3,12,1,4,0,3,38,90,11
7,3,13,1,0,0,3,38,90,11
8,3,12,1,1,0,3,38,90,11
8,3,11,1,2,0,3,38,90,11
8,3,23,0,3,0,3,38,67,11
8,3,3,0,2,0,3,38,15,9
8,3,12,1,1,0,3,38,103,11
9,4,3,0,5,1,3,38,93,11
9,4,17,1,6,1,3,38,93,11
9,4,17,1,0,0,3,38,79,11
9,4,12,1,4,0,3,38,90,11
10,4,14,1,1,0,4,38,90,11
10,4,16,1,1,0,4,38,90,11
10,4,19,1,3,0,4,38,90,11
10,4,23,0,3,0,4,38,90,11
10,4,11,1,6,1,4,38,90,11
10,4,11,1,2,0,4,38,90,9
10,4,19,1,5,1,4,38,90,11
10,4,17,1,6,1,4,38,90,11
11,4,9,1,5,1,4,38,90,11
11,4,16,1,5,1,4,38,90,11
11,4,23,0,5,1,4,38,103,11
11,4,13,1,6,1,4,38,90,11
11,4,12,1,3,0,4,38,14,11
11,4,13,1,4,0,4,38,103,11
11,4,16,1,0,0,4,38,67,11
11,4,22,0,2,0,4,38,90,11
11,4,15,1,5,1,4,38,103,11
11,4,12,1,1,0,4,38,79,8
12,1,21,0,1,0,4,38,90,11
12,1,8,1,4,0,4,38,79,11
12,1,20,1,5,1,4,38,15,11
12,1,21,0,0,0,4,38,93,11
12,1,18,1,3,0,4,38,90,11
12,1,16,1,4,0,4,38,103,11
12,1,14,1,5,1,4,38,103,11
12,1,9,1,2,0,4,38,79,11
12,1,20,1,2,0,4,38,103,11
12,1,1,0,3,0,4,38,103,11
12,1,7,1,3,0,4,38,103,11
12,1,14,1,6,1,4,38,90,11
1,1,11,1,3,0,1,16,103,11
1,1,22,0,4,0,1,16,103,11
2,1,17,1,0,0,1,16,79,11
2,1,21,0,0,0,1,16,67,11
2,1,12,1,3,0,1,16,103,11
2,1,16,1,3,0,1,16,15,11
2,1,17,1,3,0,1,16,69,11
2,1,19,1,3,0,1,16,67,11
2,1,21,0,0,0,1,16,80,11
2,1,16,1,2,0,1,16,103,11
2,1,15,1,3,0,1,16,67,9
2,1,17,1,6,1,1,16,76,11
2,1,12,1,3,0,1,16,79,11
2,1,18,1,5,1,1,16,93,11
2,1,14,1,5,1,1,16,103,11
2,1,15,1,6,1,1,16,90,11
2,1,12,1,1,0,1,16,103,11
3,2,16,1,2,0,1,16,10,11
3,2,0,0,5,1,1,16,67,11
3,2,12,1,5,1,1,16,90,11
3,2,13,1,6,1,1,16,93,11
3,2,10,1,0,0,1,16,79,11
3,2,19,1,4,0,1,16,67,11
3,2,20,1,1,0,1,16,112,11
3,2,18,1,6,1,1,16,90,11
3,2,16,1,2,0,1,16,90,11
3,2,17,1,3,0,1,16,76,9
4,2,9,1,5,1,2,16,90,11
4,2,16,1,5,1,2,16,103,11
4,2,17,1,5,1,2,16,103,11
4,2,20,1,5,1,2,16,103,11
4,2,15,1,0,0,2,16,112,11
4,2,16,1,0,0,2,16,84,11
4,2,6,0,6,1,2,16,79,11
4,2,14,1,4,0,2,16,110,8
4,2,13,1,5,1,2,16,79,11
4,2,14,1,2,0,2,16,67,11
4,2,1,0,3,0,2,16,112,11
4,2,20,1,4,0,2,16,103,11
5,2,10,1,0,0,2,16,79,11
6,3,22,0,0,0,2,16,103,11
6,3,12,1,1,0,2,16,21,11
6,3,14,1,3,0,2,16,103,11
6,3,17,1,3,0,2,16,103,11
6,3,1,0,1,0,2,16,79,11
6,3,10,1,1,0,2,16,103,11
7,3,11,1,1,0,3,16,22,9
7,3,8,1,4,0,3,16,67,11
7,3,12,1,5,1,3,16,103,11
7,3,13,1,5,1,3,16,76,11
7,3,22,0,5,1,3,16,4,11
7,3,17,1,0,0,3,16,103,11
7,3,17,1,2,0,3,16,103,11
7,3,4,0,5,1,3,16,21,11
7,3,9,1,2,0,3,16,21,11
7,3,14,1,3,0,3,16,103,11
7,3,19,1,3,0,3,16,103,11
7,3,21,0,5,1,3,16,103,11
8,3,16,1,5,1,3,16,103,11
8,3,18,1,4,0,3,16,103,11
8,3,16,1,0,0,3,16,103,9
8,3,2,0,3,0,3,16,93,11
8,3,14,1,3,0,3,16,21,11
8,3,14,1,0,0,3,16,103,11
8,3,17,1,1,0,3,16,103,9
8,3,14,1,2,0,3,16,103,11
9,4,14,1,2,0,3,16,103,11
9,4,16,1,5,1,3,16,21,11
9,4,14,1,0,0,3,16,21,11
9,4,19,1,0,0,3,16,93,11
9,4,12,1,0,0,3,16,4,11
9,4,17,1,5,1,3,16,103,11
9,4,17,1,5,1,3,16,103,11
10,4,15,1,6,1,4,16,103,11
10,4,16,1,0,0,4,16,103,11
10,4,18,1,1,0,4,16,103,11
10,4,8,1,3,0,4,16,42,11
10,4,7,1,4,0,4,16,103,11
10,4,18,1,6,1,4,16,103,11
11,4,21,0,5,1,4,16,91,11
11,4,21,0,1,0,4,16,11,11
11,4,21,0,4,0,4,16,77,11
11,4,2,0,1,0,4,16,21,11
11,4,17,1,4,0,4,16,14,9
11,4,18,1,5,1,4,16,98,11
11,4,1,0,1,0,4,16,67,11
11,4,15,1,3,0,4,16,79,11
12,1,12,1,6,1,4,16,79,9
12,1,16,1,6,1,4,16,90,11
12,1,11,1,1,0,4,16,103,11
12,1,15,1,3,0,4,16,103,11
12,1,15,1,4,0,4,16,103,11
12,1,17,1,6,1,4,16,79,9
12,1,10,1,0,0,4,16,21,11
12,1,23,0,2,0,4,16,98,11
12,1,21,0,3,0,4,16,21,11
12,1,15,1,0,0,4,16,103,11
12,1,9,1,5,1,4,16,79,11
12,1,14,1,6,1,4,16,21,11
12,1,17,1,6,1,4,16,69,9
1,1,14,1,4,0,1,16,98,11
1,1,12,1,5,1,1,16,28,11
1,1,10,1,6,1,1,16,98,11
1,1,15,1,2,0,1,16,71,11
1,1,7,1,3,0,1,16,112,11
1,1,8,1,5,1,1,16,38,11
1,1,11,1,5,1,1,16,101,11
1,1,20,1,5,1,1,16,21,11
2,1,9,1,6,1,1,16,103,11
2,1,10,1,2,0,1,16,79,11
2,1,21,0,2,0,1,16,79,11
2,1,17,1,4,0,1,16,79,11
2,1,11,1,4,0,1,16,79,11
3,2,6,0,5,1,1,16,112,11
3,2,8,1,5,1,1,16,87,8
3,2,6,0,1,0,1,16,83,11
4,2,19,1,1,0,2,16,103,11
4,2,11,1,0,0,2,16,15,11
5,2,9,1,5,1,2,16,103,11
5,2,12,1,5,1,2,16,103,11
7,3,23,0,6,1,3,16,79,9
7,3,22,0,3,0,3,16,103,11
7,3,4,0,5,1,3,16,11,11
8,3,20,1,5,1,3,16,93,8
9,4,7,1,0,0,3,16,79,11
10,4,17,1,0,0,4,16,26,11
12,1,5,0,0,0,4,16,67,9
1,1,9,1,4,0,1,19,38,9
1,1,14,1,5,1,1,16,93,11
1,1,15,1,5,1,1,16,76,11
1,1,13,1,0,0,1,16,21,11
1,1,20,1,0,0,1,16,112,11
2,1,15,1,5,1,1,16,21,11
2,1,21,0,5,1,1,16,67,11
2,1,12,1,6,1,1,16,93,11
2,1,16,1,2,0,1,16,93,11
2,1,19,1,2,0,1,16,21,11
2,1,11,1,3,0,1,16,76,11
3,2,11,1,3,0,1,16,112,11
3,2,17,1,6,1,1,16,79,11
3,2,20,1,2,0,1,16,79,9
3,2,12,1,6,1,1,16,79,11
3,2,16,1,6,1,1,16,93,11
3,2,0,0,0,0,1,16,111,11
3,2,14,1,2,0,1,16,93,11
4,2,22,0,2,0,2,16,79,11
4,2,6,0,1,0,2,16,79,9
4,2,20,1,6,1,2,16,103,11
5,2,23,0,2,0,2,16,67,11
5,2,15,1,2,0,2,16,93,11
5,2,11,1,2,0,2,16,38,9
6,3,11,1,2,0,2,16,79,11
6,3,1,0,6,1,2,16,103,11
7,3,15,1,0,0,3,16,80,11
7,3,2,0,0,0,3,16,14,9
7,3,5,0,5,1,3,16,111,9
7,3,11,1,2,0,3,16,76,11
7,3,14,1,3,0,3,16,67,11
7,3,16,1,6,1,3,16,127,11
8,3,20,1,0,0,3,16,79,11
8,3,21,0,1,0,3,16,15,11
9,4,10,1,4,0,3,16,93,11
9,4,2,0,1,0,3,16,79,11
9,4,13,1,1,0,3,19,79,9
9,4,17,1,0,0,3,16,93,11
10,4,12,1,6,1,4,16,21,9
10,4,16,1,1,0,4,16,26,11
10,4,12,1,4,0,4,16,93,11
10,4,17,1,5,1,4,16,79,11
10,4,6,0,2,0,4,16,21,11
10,4,11,1,6,1,4,16,26,11
10,4,16,1,1,0,4,16,76,11
11,4,14,1,4,0,4,16,127,9
11,4,14,1,4,0,4,16,127,11
11,4,9,1,1,0,4,16,59,11
11,4,18,1,1,0,4,16,21,11
11,4,12,1,5,1,4,16,58,11
11,4,2,0,6,1,4,16,21,11
11,4,10,1,6,1,4,16,93,11
12,1,2,0,0,0,4,16,76,11
12,1,21,0,0,0,4,16,21,9
12,1,2,0,2,0,4,16,21,11
12,1,21,0,6,1,4,16,79,9
1,1,19,1,0,0,1,39,127,11
1,1,19,1,5,1,1,39,38,11
1,1,4,0,6,1,1,39,67,11
1,1,16,1,4,0,1,39,103,11
1,1,23,0,4,0,1,39,103,11
1,1,15,1,6,1,1,39,21,11
1,1,22,0,0,0,1,39,112,11
1,1,19,1,6,1,1,39,103,11
2,1,16,1,0,0,1,39,93,11
2,1,13,1,1,0,1,39,93,11
2,1,20,1,3,0,1,39,67,11
2,1,17,1,3,0,1,39,93,11
2,1,20,1,4,0,1,39,24,11
2,1,14,1,6,1,1,39,103,11
2,1,20,1,6,1,1,39,103,11
2,1,14,1,0,0,1,39,67,11
2,1,16,1,1,0,1,39,79,9
2,1,12,1,2,0,1,39,59,11
2,1,12,1,3,0,1,39,38,9
2,1,9,1,4,0,1,39,21,11
2,1,8,1,4,0,1,39,111,11
2,1,1,0,6,1,1,39,87,11
2,1,15,1,0,0,1,39,103,9
2,1,18,1,6,1,1,39,98,11
2,1,16,1,1,0,1,39,67,11
2,1,12,1,1,0,1,39,67,11
3,2,0,0,3,0,1,39,106,11
3,2,0,0,3,0,1,39,90,11
3,2,13,1,6,1,1,39,103,11
3,2,14,1,6,1,1,39,67,11
3,2,12,1,1,0,1,39,79,11
3,2,0,0,4,0,1,39,38,11
3,2,13,1,0,0,1,39,90,11
3,2,16,1,0,0,1,39,103,11
3,2,20,1,0,0,1,39,83,11
3,2,16,1,1,0,1,39,103,11
3,2,23,0,1,0,1,39,103,11
3,2,15,1,2,0,1,39,103,11
3,2,21,0,3,0,1,39,103,9
3,2,6,0,4,0,1,39,103,11
4,2,20,1,4,0,2,39,90,11
4,2,19,1,6,1,2,39,103,11
4,2,23,0,6,1,2,39,79,11
4,2,1,0,6,1,2,39,21,11
4,2,1,0,0,0,2,39,82,11
4,2,21,0,0,0,2,39,67,11
4,2,16,1,2,0,2,39,47,11
4,2,18,1,4,0,2,39,67,11
5,2,16,1,0,0,2,39,93,11
5,2,22,0,1,0,2,39,38,11
5,2,21,0,3,0,2,39,4,11
5,2,20,1,4,0,2,39,112,11
5,2,13,1,0,0,2,39,93,11
5,2,20,1,4,0,2,39,103,11
5,2,17,1,1,0,2,39,103,11
5,2,18,1,3,0,2,39,103,11
5,2,18,1,5,1,2,39,98,11
5,2,18,1,6,1,2,39,75,11
5,2,17,1,2,0,2,39,79,11
6,3,12,1,6,1,2,39,38,11
6,3,15,1,1,0,2,39,103,11
6,3,7,1,1,0,2,39,103,11
6,3,20,1,4,0,2,39,103,11
6,3,9,1,6,1,2,39,112,11
6,3,21,0,0,0,2,39,93,11
6,3,14,1,6,1,2,39,103,11
6,3,7,1,0,0,2,39,79,11
6,3,11,1,3,0,2,39,109,11
6,3,12,1,6,1,2,39,48,11
6,3,14,1,2,0,2,39,103,11
7,3,23,0,0,0,3,39,76,11
7,3,12,1,4,0,3,39,127,11
7,3,19,1,6,1,3,39,93,11
7,3,13,1,5,1,3,39,93,11
7,3,16,1,5,1,3,39,103,11
7,3,5,0,2,0,3,39,49,11
7,3,11,1,2,0,3,39,103,11
7,3,11,1,5,1,3,39,111,9
7,3,14,1,6,1,3,39,103,11
7,3,8,1,1,0,3,39,79,11
7,3,15,1,1,0,3,39,65,11
7,3,9,1,1,0,3,39,67,11
7,3,19,1,3,0,3,39,103,11
7,3,13,1,4,0,3,39,103,11
7,3,15,1,4,0,3,39,90,11
7,3,18,1,5,1,3,39,90,11
7,3,16,1,6,1,3,39,103,11
8,3,13,1,1,0,3,39,93,11
8,3,17,1,2,0,3,39,103,11
8,3,12,1,5,1,3,39,93,11
8,3,5,0,5,1,3,39,111,8
8,3,14,1,5,1,3,39,93,11
8,3,18,1,6,1,3,39,103,11
8,3,16,1,0,0,3,39,93,11
8,3,19,1,1,0,3,39,93,11
8,3,20,1,2,0,3,39,103,9
8,3,13,1,3,0,3,39,93,11
8,3,12,1,4,0,3,39,103,11
8,3,13,1,5,1,3,39,103,11
8,3,16,1,5,1,3,39,103,11
8,3,12,1,6,1,3,39,103,11
8,3,10,1,3,0,3,39,79,11
8,3,13,1,5,1,3,39,103,11
8,3,16,1,6,1,3,39,103,11
8,3,16,1,1,0,3,39,58,11
8,3,15,1,4,0,3,39,103,11
8,3,7,1,5,1,3,39,103,11
8,3,12,1,5,1,3,39,67,11
8,3,23,0,6,1,3,39,112,11
8,3,10,1,0,0,3,39,103,11
8,3,5,0,0,0,3,39,120,11
8,3,11,1,1,0,3,39,103,11
9,4,22,0,4,0,3,39,67,11
9,4,8,1,2,0,3,39,93,11
9,4,16,1,2,0,3,39,103,11
9,4,2,0,4,0,3,39,67,9
9,4,0,0,5,1,3,39,103,11
9,4,15,1,4,0,3,39,103,11
10,4,7,1,0,0,4,39,93,11
10,4,18,1,1,0,4,39,59,11
10,4,13,1,2,0,4,39,58,11
10,4,15,1,5,1,4,39,103,11
10,4,14,1,1,0,4,39,103,11
10,4,18,1,3,0,4,39,103,11
10,4,18,1,4,0,4,39,103,11
10,4,13,1,1,0,4,39,24,11
10,4,18,1,3,0,4,39,79,11
10,4,10,1,1,0,4,39,52,11
11,4,20,1,2,0,4,39,26,11
11,4,14,1,3,0,4,39,67,11
11,4,18,1,4,0,4,39,38,11
11,4,3,0,1,0,4,39,90,11
11,4,10,1,3,0,4,39,103,11
11,4,19,1,4,0,4,39,103,11
11,4,19,1,5,1,4,39,21,11
11,4,13,1,0,0,4,39,93,11
11,4,8,1,0,0,4,39,67,11
11,4,23,0,2,0,4,39,93,9
12,1,14,1,1,0,4,39,93,11
12,1,8,1,5,1,4,39,67,11
12,1,20,1,6,1,4,39,79,11
12,1,10,1,0,0,4,39,66,11
12,1,10,1,1,0,4,39,90,11
12,1,14,1,0,0,4,39,67,11
12,1,16,1,0,0,4,39,79,11
12,1,17,1,1,0,4,39,90,11
12,1,15,1,2,0,4,39,67,11
12,1,17,1,4,0,4,39,103,11
12,1,13,1,6,1,4,39,103,11
12,1,15,1,6,1,4,39,93,11
12,1,16,1,1,0,4,39,103,11
1,1,16,1,5,1,1,39,21,11
2,1,19,1,6,1,1,39,79,9
2,1,10,1,2,0,1,39,38,11
3,2,19,1,6,1,1,39,79,11
4,2,15,1,4,0,2,39,79,8
5,2,11,1,6,1,2,39,38,11
9,4,7,1,5,1,3,39,126,11
10,4,1,0,3,0,4,39,67,9
10,4,0,0,0,0,4,39,15,9
12,1,16,1,6,1,4,39,38,11
1,1,15,1,2,0,1,39,79,9
1,1,23,0,6,1,1,39,79,11
1,1,0,0,3,0,1,39,127,11
1,1,13,1,4,0,1,39,67,11
1,1,8,1,0,0,1,39,67,11
1,1,19,1,1,0,1,39,127,11
1,1,16,1,2,0,1,39,28,11
1,1,21,0,2,0,1,39,79,11
2,1,22,0,4,0,1,39,15,9
2,1,12,1,1,0,1,39,21,11
2,1,1,0,2,0,1,39,127,11
2,1,12,1,2,0,1,39,103,11
2,1,11,1,4,0,1,39,103,11
2,1,14,1,0,0,1,39,93,11
2,1,5,0,4,0,1,39,88,8
2,1,13,1,5,1,1,39,103,11
2,1,13,1,1,0,1,39,4,11
3,2,14,1,6,1,1,39,38,11
3,2,17,1,0,0,1,39,103,11
3,2,16,1,6,1,1,39,93,11
3,2,18,1,2,0,1,39,103,11
4,2,20,1,5,1,2,39,28,11
4,2,12,1,4,0,2,39,21,11
4,2,7,1,4,0,2,39,127,11
4,2,12,1,2,0,2,39,127,11
4,2,12,1,2,0,2,39,93,11
4,2,13,1,4,0,2,39,103,11
4,2,14,1,4,0,2,39,4,11
6,3,4,0,0,0,2,39,118,8
6,3,9,1,3,0,2,39,93,11
6,3,15,1,5,1,2,39,38,11
6,3,16,1,3,0,2,39,93,11
7,3,12,1,6,1,3,39,93,11
7,3,9,1,6,1,3,39,111,9
7,3,23,0,0,0,3,39,21,11
7,3,16,1,3,0,3,39,79,11
7,3,4,0,0,0,3,39,127,11
8,3,1,0,0,0,3,39,80,11
8,3,17,1,3,0,3,39,90,11
8,3,23,0,5,1,3,39,112,11
8,3,2,0,6,1,3,39,112,11
9,4,1,0,1,0,3,39,112,11
9,4,15,1,5,1,3,39,28,11
9,4,19,1,4,0,3,39,103,11
10,4,0,0,0,0,4,39,103,11
10,4,14,1,6,1,4,39,90,11
11,4,12,1,6,1,4,39,103,11
11,4,18,1,6,1,4,39,79,11
11,4,17,1,0,0,4,39,79,11
12,1,16,1,6,1,4,39,79,11
12,1,20,1,2,0,4,39,127,11
12,1,0,0,6,1,4,39,127,9
12,1,14,1,6,1,4,39,127,11
2,1,16,1,5,1,1,39,103,11
3,2,18,1,1,0,1,39,21,11
7,3,10,1,6,1,3,39,21,11
9,4,15,1,2,0,3,39,21,11
1,1,7,1,3,0,1,27,90,11
2,1,14,1,3,0,1,27,79,11
2,1,6,0,6,1,1,27,38,11
2,1,15,1,0,0,1,27,98,11
2,1,1,0,3,0,1,27,98,11
2,1,10,1,3,0,1,27,79,11
2,1,19,1,6,1,1,27,90,9
2,1,13,1,2,0,1,27,98,11
2,1,18,1,2,0,1,27,103,11
2,1,0,0,5,1,1,27,67,11
2,1,12,1,5,1,1,27,93,11
2,1,15,1,6,1,1,27,28,11
2,1,16,1,1,0,1,27,103,11
2,1,12,1,3,0,1,27,63,11
2,1,12,1,3,0,1,27,103,11
2,1,16,1,5,1,1,27,93,11
2,1,12,1,6,1,1,27,103,11
2,1,17,1,0,0,1,27,103,11
2,1,21,0,0,0,1,27,103,11
3,2,13,1,3,0,1,27,103,11
3,2,8,1,0,0,1,27,90,9
3,2,16,1,6,1,1,27,79,11
3,2,14,1,2,0,1,27,14,8
4,2,20,1,6,1,2,27,127,11
4,2,7,1,2,0,2,27,67,11
4,2,10,1,3,0,2,27,66,11
4,2,19,1,2,0,2,27,87,11
4,2,4,0,5,1,2,27,98,11
4,2,19,1,5,1,2,27,38,11
5,2,2,0,6,1,2,27,98,11
5,2,11,1,3,0,2,27,103,9
5,2,12,1,6,1,2,27,90,11
5,2,19,1,6,1,2,27,87,11
5,2,19,1,0,0,2,27,87,11
6,3,18,1,6,1,2,27,87,11
6,3,22,0,3,0,2,27,80,11
6,3,0,0,2,0,2,27,98,11
6,3,18,1,3,0,2,27,4,11
6,3,21,0,6,1,2,27,87,11
6,3,2,0,1,0,2,27,98,11
6,3,3,0,6,1,2,27,98,11
6,3,0,0,0,0,2,27,126,11
6,3,1,0,0,0,2,27,98,11
7,3,22,0,0,0,3,27,87,11
7,3,23,0,0,0,3,27,62,11
7,3,18,1,4,0,3,27,90,11
7,3,19,1,1,0,3,27,4,11
7,3,16,1,2,0,3,27,103,11
7,3,17,1,2,0,3,27,67,11
7,3,19,1,3,0,3,27,38,8
7,3,17,1,0,0,3,27,93,11
8,3,22,0,3,0,3,27,90,11
8,3,23,0,1,0,3,27,90,11
8,3,12,1,2,0,3,27,93,11
8,3,16,1,2,0,3,27,93,11
8,3,18,1,0,0,3,27,93,11
9,4,1,0,0,0,3,27,21,11
9,4,10,1,0,0,3,27,101,11
9,4,10,1,3,0,3,27,67,11
9,4,23,0,4,0,3,27,93,11
9,4,14,1,6,1,3,27,21,11
9,4,13,1,0,0,3,27,67,11
10,4,15,1,1,0,4,27,93,9
10,4,16,1,5,1,4,27,103,11
10,4,18,1,5,1,4,27,93,11
10,4,17,1,4,0,4,27,24,11
10,4,15,1,6,1,4,27,103,11
10,4,17,1,1,0,4,27,93,11
11,4,7,1,2,0,4,27,68,11
11,4,1,0,5,1,4,27,90,8
11,4,13,1,1,0,4,27,67,11
12,1,4,0,5,1,4,27,98,11
12,1,19,1,6,1,4,27,79,11
12,1,17,1,1,0,4,27,103,11
12,1,23,0,2,0,4,27,67,11
12,1,19,1,5,1,4,27,79,11
12,1,18,1,1,0,4,27,79,11
12,1,2,0,2,0,4,27,98,11
12,1,21,0,5,1,4,27,79,11
12,1,13,1,6,1,4,27,4,8
12,1,15,1,5,1,4,27,4,11
12,1,2,0,6,1,4,27,79,11
12,1,12,1,6,1,4,27,98,11
12,1,12,1,4,0,4,27,48,11
12,1,14,1,5,1,4,27,15,11
1,1,0,0,0,0,1,27,79,8
1,1,11,1,2,0,1,27,79,11
2,1,8,1,2,0,1,27,79,11
2,1,11,1,2,0,1,27,103,11
2,1,22,0,3,0,1,27,79,11
2,1,18,1,6,1,1,27,103,11
2,1,13,1,0,0,1,27,15,11
2,1,15,1,2,0,1,27,103,11
3,2,1,0,6,1,1,27,79,11
3,2,17,1,2,0,1,27,79,11
3,2,15,1,3,0,1,27,103,11
3,2,15,1,5,1,1,27,93,11
3,2,21,0,2,0,1,27,103,11
3,2,18,1,2,0,1,27,14,11
4,2,14,1,5,1,2,27,79,9
7,3,12,1,0,0,3,27,93,11
7,3,12,1,3,0,3,27,4,11
8,3,8,1,1,0,3,27,93,11
8,3,19,1,6,1,3,27,67,11
9,4,8,1,0,0,3,27,4,11
9,4,9,1,2,0,3,27,48,11
9,4,17,1,1,0,3,27,14,11
9,4,10,1,3,0,3,27,110,11
12,1,17,1,4,0,4,27,103,11
12,1,21,0,6,1,4,27,79,9
12,1,3,0,6,1,4,27,38,9
2,1,16,1,2,0,1,27,103,11
2,1,18,1,5,1,1,27,38,11
2,1,1,0,1,0,1,27,103,11
3,2,13,1,3,0,1,27,103,11
3,2,8,1,1,0,1,27,79,11
5,2,13,1,0,0,2,27,4,11
5,2,19,1,6,1,2,27,67,11
6,3,10,1,3,0,2,27,4,11
10,4,8,1,1,0,4,27,79,11
10,4,4,0,6,1,4,27,21,11
11,4,14,1,4,0,4,27,79,11
11,4,21,0,2,0,4,27,79,11
12,1,10,1,5,1,4,27,38,9
1,1,14,1,2,0,1,27,15,11
1,1,19,1,2,0,1,27,38,8
1,1,13,1,3,0,1,27,79,11
1,1,18,1,2,0,1,27,103,11
1,1,13,1,3,0,1,27,38,11
2,1,18,1,0,0,1,27,103,11
2,1,15,1,6,1,1,27,38,8
2,1,16,1,1,0,1,27,103,11
2,1,0,0,2,0,1,27,103,11
2,1,14,1,3,0,1,27,93,11
2,1,15,1,5,1,1,27,103,11
2,1,19,1,5,1,1,27,103,11
2,1,20,1,6,1,1,27,93,11
2,1,11,1,0,0,1,27,103,11
2,1,12,1,0,0,1,27,103,11
2,1,15,1,1,0,1,27,38,11
2,1,18,1,3,0,1,27,112,11
2,1,18,1,3,0,1,27,103,11
2,1,12,1,3,0,1,27,103,11
2,1,18,1,3,0,1,27,124,11
2,1,19,1,5,1,1,27,103,11
2,1,13,1,6,1,1,27,103,11
2,1,18,1,6,1,1,27,103,11
3,2,4,0,4,0,1,27,15,11
3,2,14,1,0,0,1,27,103,11
3,2,21,0,3,0,1,27,79,11
3,2,11,1,6,1,1,27,103,11
3,2,14,1,0,0,1,27,103,11
3,2,16,1,3,0,1,27,38,8
3,2,12,1,6,1,1,27,38,11
3,2,11,1,3,0,1,27,93,11
3,2,17,1,4,0,1,27,127,11
4,2,12,1,4,0,2,27,79,9
4,2,13,1,4,0,2,27,93,11
4,2,9,1,3,0,2,27,93,11
4,2,11,1,6,1,2,27,67,11
5,2,17,1,0,0,2,27,79,11
5,2,19,1,5,1,2,27,15,9
5,2,23,0,3,0,2,27,127,11
5,2,22,0,5,1,2,27,90,11
6,3,4,0,3,0,2,27,38,11
6,3,11,1,3,0,2,27,21,11
6,3,0,0,1,0,2,27,90,11
6,3,11,1,6,1,2,27,93,11
6,3,15,1,6,1,2,27,67,11
6,3,14,1,1,0,2,27,21,8
7,3,22,0,4,0,3,27,15,11
7,3,12,1,1,0,3,27,87,11
7,3,3,0,2,0,3,27,15,11
7,3,0,0,4,0,3,27,127,11
7,3,16,1,4,0,3,27,93,11
7,3,18,1,0,0,3,27,101,11
8,3,20,1,5,1,3,27,112,11
8,3,12,1,5,1,3,27,103,11
8,3,12,1,2,0,3,27,127,11
8,3,12,1,3,0,3,27,127,11
9,4,6,0,0,0,3,27,98,11
9,4,10,1,0,0,3,27,79,11
9,4,17,1,0,0,3,27,124,11
10,4,15,1,3,0,4,27,103,11
10,4,15,1,3,0,4,27,103,11
10,4,20,1,2,0,4,27,98,11
10,4,22,0,4,0,4,27,21,9
10,4,17,1,0,0,4,27,103,11
11,4,8,1,2,0,4,27,21,8
11,4,4,0,0,0,4,27,67,11
11,4,21,0,0,0,4,27,38,8
12,1,11,1,0,0,4,27,21,9
12,1,14,1,6,1,4,27,103,11
12,1,6,0,1,0,4,27,101,11
1,1,9,1,0,0,1,47,90,11
1,1,21,0,1,0,1,47,93,11
1,1,19,1,2,0,1,47,90,11
1,1,18,1,6,1,1,47,90,11
1,1,12,1,1,0,1,47,90,11
1,1,20,1,2,0,1,47,90,11
1,1,18,1,5,1,1,47,90,11
1,1,13,1,1,0,1,47,103,11
1,1,20,1,1,0,1,47,103,11
1,1,21,0,1,0,1,47,93,11
1,1,13,1,2,0,1,47,103,11
1,1,17,1,3,0,1,47,90,11
1,1,10,1,5,1,1,47,90,11
1,1,22,0,6,1,1,47,79,11
2,1,9,1,2,0,1,47,90,11
2,1,8,1,6,1,1,47,79,11
2,1,9,1,3,0,1,47,90,11
2,1,8,1,4,0,1,47,24,11
2,1,5,0,5,1,1,47,90,11
2,1,14,1,5,1,1,47,98,11
2,1,19,1,0,0,1,47,98,11
2,1,16,1,2,0,1,47,103,11
2,1,10,1,5,1,1,47,67,11
2,1,14,1,5,1,1,47,93,11
2,1,17,1,5,1,1,47,103,11
2,1,15,1,6,1,1,47,103,11
2,1,13,1,1,0,1,47,103,11
2,1,14,1,1,0,1,47,103,11
2,1,15,1,1,0,1,47,103,11
2,1,19,1,1,0,1,47,103,11
2,1,12,1,3,0,1,47,103,11
2,1,17,1,5,1,1,47,103,11
2,1,19,1,5,1,1,47,103,11
3,2,15,1,3,0,1,47,79,11
3,2,12,1,4,0,1,47,103,11
3,2,9,1,4,0,1,47,79,11
3,2,20,1,5,1,1,47,90,11
3,2,16,1,0,0,1,47,103,11
3,2,9,1,3,0,1,47,90,11
3,2,20,1,6,1,1,47,103,11
3,2,20,1,1,0,1,47,79,11
3,2,12,1,2,0,1,47,93,11
3,2,10,1,3,0,1,47,98,11
3,2,10,1,4,0,1,47,79,11
4,2,18,1,5,1,2,47,90,11
4,2,19,1,5,1,2,47,90,11
4,2,14,1,4,0,2,47,90,11
4,2,14,1,1,0,2,47,90,11
4,2,19,1,1,0,2,47,90,11
4,2,1,0,4,0,2,47,67,11
5,2,18,1,3,0,2,47,103,11
6,3,19,1,4,0,2,47,103,11
6,3,16,1,0,0,2,47,93,11
6,3,11,1,1,0,2,47,103,11
6,3,18,1,3,0,2,47,79,9
7,3,23,0,3,0,3,47,98,11
7,3,0,0,6,1,3,47,98,11
7,3,15,1,1,0,3,47,103,11
7,3,17,1,5,1,3,47,103,11
8,3,16,1,6,1,3,47,93,11
8,3,22,0,0,0,3,47,14,8
9,4,0,0,1,0,3,47,108,9
9,4,21,0,4,0,3,47,90,11
9,4,13,1,6,1,3,47,103,11
10,4,19,1,4,0,4,47,103,11
10,4,20,1,5,1,4,47,67,11
10,4,5,0,6,1,4,47,98,11
10,4,6,0,6,1,4,47,98,11
10,4,14,1,0,0,4,47,103,11
10,4,16,1,3,0,4,47,93,11
10,4,20,1,3,0,4,47,79,9
10,4,9,1,5,1,4,47,103,11
10,4,11,1,1,0,4,47,103,11
11,4,13,1,2,0,4,47,15,11
11,4,13,1,0,0,4,47,103,11
11,4,18,1,1,0,4,47,103,11
11,4,2,0,6,1,4,47,67,11
11,4,23,0,0,0,4,47,90,11
11,4,18,1,4,0,4,47,103,11
11,4,19,1,0,0,4,47,90,11
11,4,11,1,1,0,4,47,98,11
12,1,14,1,4,0,4,47,103,11
12,1,15,1,5,1,4,47,103,11
12,1,12,1,0,0,4,47,98,11
12,1,8,1,1,0,4,47,98,11
12,1,0,0,0,0,4,47,79,11
12,1,22,0,0,0,4,47,79,11
12,1,1,0,6,1,4,47,98,11
12,1,16,1,4,0,4,47,98,11
1,1,18,1,2,0,1,23,103,11
1,1,11,1,2,0,1,23,79,11
1,1,9,1,3,0,1,23,103,11
1,1,9,1,2,0,1,23,127,11
1,1,13,1,4,0,1,23,79,8
2,1,0,0,3,0,1,23,127,11
2,1,18,1,4,0,1,23,127,11
2,1,8,1,5,1,1,23,127,11
2,1,13,1,6,1,1,23,79,11
2,1,20,1,3,0,1,23,127,11
2,1,10,1,0,0,1,23,76,9
2,1,16,1,0,0,1,23,21,11
2,1,16,1,1,0,1,23,127,11
2,1,18,1,1,0,1,23,103,11
2,1,14,1,5,1,1,23,79,11
2,1,15,1,5,1,1,23,93,11
2,1,19,1,5,1,1,23,103,11
2,1,14,1,6,1,1,23,103,11
2,1,14,1,6,1,1,23,103,11
2,1,7,1,0,0,1,23,127,11
2,1,16,1,0,0,1,23,103,11
2,1,10,1,2,0,1,23,103,11
2,1,2,0,6,1,1,23,101,11
2,1,10,1,6,1,1,23,103,11
2,1,15,1,6,1,1,23,103,11
2,1,15,1,6,1,1,23,38,11
2,1,22,0,6,1,1,23,103,11
3,2,20,1,3,0,1,23,79,11
3,2,22,0,2,0,1,23,38,11
3,2,17,1,2,0,1,23,103,11
3,2,9,1,3,0,1,23,127,11
3,2,16,1,4,0,1,23,127,11
4,2,20,1,5,1,2,23,79,11
4,2,7,1,0,0,2,23,38,11
4,2,18,1,1,0,2,23,67,11
4,2,13,1,3,0,2,23,38,11
4,2,16,1,5,1,2,23,38,11
4,2,19,1,6,1,2,23,103,11
4,2,21,0,0,0,2,23,38,11
4,2,17,1,4,0,2,23,103,11
4,2,10,1,3,0,2,23,79,11
4,2,10,1,3,0,2,23,1,11
4,2,20,1,4,0,2,23,79,11
4,2,1,0,6,1,2,23,79,11
5,2,15,1,3,0,2,23,1,11
5,2,17,1,2,0,2,23,21,11
5,2,18,1,3,0,2,23,79,11
5,2,22,0,6,1,2,23,38,11
6,3,18,1,5,1,2,23,67,11
6,3,11,1,5,1,2,23,103,11
6,3,4,0,2,0,2,23,24,8
7,3,22,0,5,1,3,23,103,11
7,3,5,0,6,1,3,23,103,11
7,3,23,0,6,1,3,23,103,11
7,3,14,1,0,0,3,23,103,11
7,3,2,0,2,0,3,23,127,11
7,3,17,1,3,0,3,23,103,11
7,3,17,1,4,0,3,23,103,11
8,3,17,1,1,0,3,23,1,9
8,3,1,0,5,1,3,23,103,11
8,3,20,1,5,1,3,23,103,11
8,3,11,1,6,1,3,23,21,11
8,3,21,0,5,1,3,23,65,8
9,4,15,1,1,0,3,23,106,11
9,4,11,1,6,1,3,23,67,11
9,4,12,1,1,0,3,23,103,11
10,4,14,1,3,0,4,23,103,11
10,4,18,1,0,0,4,23,1,11
10,4,14,1,1,0,4,23,103,11
10,4,13,1,6,1,4,23,103,11
11,4,19,1,3,0,4,23,124,11
11,4,3,0,6,1,4,23,103,11
11,4,15,1,0,0,4,23,38,11
11,4,13,1,2,0,4,23,127,11
11,4,17,1,4,0,4,23,103,11
11,4,4,0,3,0,4,23,127,11
12,1,6,0,5,1,4,23,79,11
12,1,19,1,5,1,4,23,103,11
12,1,14,1,1,0,4,23,127,11
12,1,14,1,6,1,4,23,1,11
12,1,13,1,4,0,4,23,79,11
12,1,17,1,3,0,4,23,1,11
12,1,19,1,4,0,4,23,67,11
1,1,14,1,6,1,1,23,103,11
2,1,19,1,6,1,1,23,103,11
2,1,14,1,3,0,1,23,103,11
1,1,21,0,3,0,1,23,103,11
1,1,11,1,6,1,1,23,103,11
1,1,16,1,0,0,1,23,79,8
1,1,20,1,4,0,1,23,38,11
1,1,11,1,3,0,1,23,127,11
1,1,17,1,6,1,1,23,38,11
1,1,10,1,1,0,1,23,38,11
2,1,19,1,5,1,1,23,103,11
2,1,7,1,1,0,1,23,79,11
2,1,14,1,2,0,1,23,103,11
2,1,14,1,5,1,1,23,103,11
2,1,20,1,5,1,1,23,38,11
3,2,19,1,2,0,1,23,38,11
3,2,16,1,2,0,1,23,38,11
3,2,16,1,2,0,1,23,103,11
3,2,13,1,3,0,1,23,103,11
3,2,15,1,3,0,1,23,103,11
4,2,16,1,5,1,2,23,103,11
4,2,17,1,5,1,2,23,38,11
4,2,13,1,6,1,2,23,103,11
5,2,9,1,0,0,2,23,79,8
6,3,20,1,5,1,2,23,83,11
6,3,16,1,4,0,2,23,21,11
7,3,3,0,3,0,3,23,103,11
7,3,3,0,2,0,3,23,103,11
7,3,3,0,5,1,3,23,103,11
8,3,12,1,4,0,3,23,103,11
9,4,14,1,0,0,3,23,103,11
10,4,21,0,6,1,4,23,1,11
10,4,18,1,2,0,4,23,103,11
10,4,18,1,3,0,4,23,103,11
10,4,16,1,0,0,4,23,103,11
11,4,16,1,1,0,4,23,127,11
12,1,9,1,5,1,4,23,103,11
12,1,13,1,5,1,4,23,103,11
12,1,11,1,3,0,4,23,1,11
12,1,15,1,4,0,4,23,103,11
6,3,12,1,5,1,2,23,79,11
1,1,11,1,4,0,1,8,98,11
1,1,17,1,6,1,1,8,67,11
1,1,0,0,1,0,1,8,98,11
1,1,20,1,3,0,1,8,98,11
1,1,22,0,0,0,1,8,98,11
1,1,17,1,3,0,1,8,98,11
1,1,16,1,0,0,1,8,98,11
1,1,16,1,0,0,1,8,67,11
1,1,15,1,1,0,1,8,103,11
2,1,12,1,2,0,1,8,103,11
2,1,17,1,4,0,1,8,103,11
2,1,18,1,5,1,1,8,79,11
2,1,2,0,1,0,1,8,98,11
2,1,17,1,1,0,1,8,79,11
2,1,8,1,2,0,1,8,98,11
2,1,11,1,2,0,1,8,98,11
2,1,14,1,3,0,1,8,103,11
2,1,15,1,3,0,1,8,103,11
2,1,11,1,6,1,1,8,79,9
2,1,18,1,6,1,1,8,103,11
2,1,10,1,0,0,1,8,67,11
2,1,18,1,1,0,1,8,93,11
2,1,18,1,1,0,1,8,103,11
2,1,23,0,1,0,1,8,98,11
2,1,14,1,2,0,1,8,103,11
2,1,13,1,3,0,1,8,93,11
2,1,21,0,4,0,1,8,98,11
2,1,10,1,5,1,1,8,103,11
2,1,10,1,5,1,1,8,103,11
2,1,15,1,6,1,1,8,103,11
2,1,16,1,6,1,1,8,103,11
2,1,17,1,6,1,1,8,103,11
2,1,12,1,1,0,1,8,103,11
2,1,13,1,1,0,1,8,103,11
2,1,16,1,1,0,1,8,103,11
2,1,17,1,1,0,1,8,103,11
2,1,19,1,1,0,1,8,103,11
2,1,15,1,2,0,1,8,103,11
2,1,19,1,2,0,1,8,103,11
2,1,14,1,3,0,1,8,93,11
2,1,16,1,3,0,1,8,103,11
2,1,21,0,3,0,1,8,98,11
2,1,11,1,6,1,1,8,93,11
2,1,14,1,0,0,1,8,103,11
3,2,14,1,3,0,1,8,103,11
3,2,15,1,0,0,1,8,103,11
3,2,10,1,1,0,1,8,98,11
3,2,13,1,1,0,1,8,67,11
3,2,22,0,1,0,1,8,67,11
3,2,21,0,3,0,1,8,98,11
3,2,17,1,2,0,1,8,98,11
3,2,17,1,6,1,1,8,103,11
3,2,13,1,0,0,1,8,93,11
3,2,19,1,2,0,1,8,103,11
4,2,9,1,6,1,2,8,67,11
4,2,14,1,4,0,2,8,67,11
4,2,21,0,6,1,2,8,127,11
4,2,15,1,0,0,2,8,98,11
4,2,7,1,3,0,2,8,79,9
4,2,21,0,4,0,2,8,103,11
4,2,13,1,3,0,2,8,103,11
4,2,21,0,5,1,2,8,38,9
4,2,17,1,6,1,2,8,103,11
4,2,2,0,6,1,2,8,38,9
6,3,13,1,6,1,2,8,79,11
6,3,13,1,6,1,2,8,103,11
6,3,15,1,6,1,2,8,14,11
7,3,12,1,5,1,3,8,26,11
7,3,2,0,6,1,3,8,98,11
8,3,19,1,3,0,3,8,90,8
8,3,14,1,2,0,3,8,21,11
8,3,0,0,1,0,3,8,21,11
8,3,17,1,0,0,3,8,103,11
9,4,7,1,0,0,3,8,21,9
9,4,18,1,3,0,3,8,10,11
10,4,17,1,3,0,4,8,21,11
10,4,14,1,6,1,4,8,103,11
10,4,18,1,2,0,4,8,76,8
10,4,20,1,0,0,4,8,103,11
11,4,18,1,0,0,4,8,1,11
11,4,20,1,6,1,4,8,98,11
11,4,7,1,1,0,4,8,98,11
11,4,16,1,3,0,4,8,98,11
11,4,15,1,2,0,4,8,98,11
12,1,17,1,5,1,4,8,112,11
12,1,7,1,1,0,4,8,98,11
12,1,20,1,3,0,4,8,79,8
12,1,21,0,3,0,4,8,67,11
12,1,20,1,0,0,4,8,67,8
12,1,0,0,2,0,4,8,67,11
12,1,16,1,2,0,4,8,103,11
12,1,22,0,5,1,4,8,98,11
1,1,13,1,1,0,1,8,79,11
2,1,16,1,3,0,1,8,79,11
2,1,20,1,6,1,1,8,103,11
2,1,14,1,3,0,1,8,103,11
2,1,13,1,4,0,1,8,103,11
2,1,16,1,4,0,1,8,103,11
2,1,20,1,1,0,1,8,103,11
2,1,16,1,2,0,1,8,103,11
2,1,18,1,2,0,1,8,103,11
3,2,21,0,6,1,1,8,79,11
3,2,16,1,0,0,1,8,103,11
3,2,17,1,5,1,1,8,103,11
3,2,20,1,6,1,1,8,103,11
7,3,22,0,4,0,3,8,4,11
7,3,20,1,0,0,3,8,93,11
8,3,20,1,4,0,3,8,21,11
10,4,12,1,6,1,4,8,79,11
12,1,19,1,4,0,4,8,98,11
1,1,0,0,6,1,1,20,127,11
1,1,17,1,6,1,1,20,127,11
1,1,15,1,6,1,1,20,127,11
1,1,21,0,2,0,1,20,127,11
1,1,11,1,2,0,1,20,38,11
1,1,13,1,6,1,1,20,127,11
1,1,11,1,6,1,1,20,90,8
1,1,3,0,2,0,1,20,79,8
1,1,16,1,3,0,1,20,38,11
1,1,12,1,5,1,1,20,79,11
1,1,21,0,5,1,1,20,127,11
1,1,16,1,1,0,1,20,79,11
1,1,13,1,3,0,1,20,127,11
1,1,10,1,4,0,1,20,111,11
1,1,17,1,6,1,1,20,127,11
1,1,9,1,1,0,1,20,82,11
1,1,15,1,1,0,1,20,127,11
1,1,12,1,2,0,1,20,93,11
1,1,22,0,2,0,1,20,127,11
1,1,10,1,4,0,1,20,127,11
1,1,2,0,5,1,1,20,127,11
1,1,11,1,5,1,1,20,82,11
1,1,0,0,0,0,1,20,127,11
1,1,23,0,0,0,1,20,127,11
1,1,16,1,0,0,1,20,38,11
1,1,13,1,1,0,1,20,127,11
1,1,21,0,1,0,1,20,127,11
2,1,6,0,4,0,1,20,127,11
2,1,15,1,4,0,1,20,15,8
2,1,19,1,6,1,1,20,38,11
2,1,11,1,0,0,1,20,127,11
2,1,20,1,0,0,1,20,38,11
2,1,19,1,0,0,1,20,67,11
2,1,18,1,0,0,1,20,127,11
2,1,20,1,1,0,1,20,127,11
2,1,20,1,1,0,1,20,103,11
2,1,15,1,1,0,1,20,127,11
2,1,15,1,2,0,1,20,4,8
2,1,15,1,4,0,1,20,127,11
2,1,18,1,4,0,1,20,93,11
2,1,14,1,4,0,1,20,103,11
2,1,10,1,5,1,1,20,127,11
2,1,22,0,5,1,1,20,127,11
2,1,18,1,6,1,1,20,127,11
2,1,16,1,6,1,1,20,127,11
2,1,19,1,6,1,1,20,127,11
2,1,12,1,0,0,1,20,103,11
2,1,16,1,0,0,1,20,127,11
2,1,14,1,2,0,1,20,79,8
2,1,13,1,3,0,1,20,93,11
2,1,21,0,3,0,1,20,83,11
2,1,16,1,3,0,1,20,103,11
2,1,17,1,5,1,1,20,103,11
2,1,19,1,6,1,1,20,66,11
2,1,11,1,6,1,1,20,93,11
2,1,21,0,6,1,1,20,103,11
2,1,13,1,0,0,1,20,103,11
2,1,15,1,1,0,1,20,127,11
2,1,15,1,1,0,1,20,103,11
2,1,12,1,1,0,1,20,93,11
2,1,16,1,1,0,1,20,93,8
2,1,14,1,1,0,1,20,103,11
2,1,18,1,2,0,1,20,103,11
2,1,13,1,3,0,1,20,93,11
2,1,12,1,4,0,1,20,127,11
2,1,8,1,4,0,1,20,48,11
2,1,14,1,4,0,1,20,103,11
2,1,11,1,4,0,1,20,127,11
2,1,17,1,5,1,1,20,103,11
2,1,13,1,5,1,1,20,103,11
2,1,18,1,5,1,1,20,103,11
2,1,12,1,5,1,1,20,127,11
2,1,19,1,6,1,1,20,127,11
2,1,19,1,6,1,1,20,127,11
2,1,20,1,6,1,1,20,127,11
2,1,13,1,6,1,1,20,93,11
2,1,17,1,6,1,1,20,103,11
2,1,12,1,6,1,1,20,103,11
2,1,13,1,6,1,1,20,93,11
2,1,21,0,0,0,1,20,127,11
2,1,14,1,1,0,1,20,66,11
2,1,11,1,1,0,1,20,14,11
2,1,14,1,1,0,1,20,127,11
3,2,14,1,5,1,1,20,67,11
3,2,18,1,0,0,1,20,103,11
3,2,23,0,0,0,1,20,67,11
3,2,20,1,3,0,1,20,79,11
3,2,2,0,6,1,1,20,127,11
3,2,22,0,1,0,1,20,127,11
3,2,4,0,2,0,1,20,127,11
3,2,18,1,3,0,1,20,67,11
3,2,22,0,4,0,1,20,38,11
3,2,19,1,4,0,1,20,103,11
3,2,15,1,5,1,1,20,127,11
3,2,15,1,0,0,1,20,79,8
3,2,11,1,5,1,1,20,127,11
3,2,12,1,5,1,1,20,103,11
3,2,14,1,1,0,1,20,127,11
3,2,22,0,1,0,1,20,79,11
4,2,20,1,5,1,2,20,67,11
4,2,21,0,6,1,2,20,103,11
4,2,0,0,0,0,2,20,38,11
4,2,13,1,2,0,2,20,127,11
4,2,22,0,4,0,2,20,51,11
4,2,21,0,4,0,2,20,67,8
4,2,17,1,5,1,2,20,127,11
4,2,8,1,5,1,2,20,67,11
4,2,21,0,6,1,2,20,38,11
4,2,10,1,2,0,2,20,127,11
4,2,0,0,3,0,2,20,127,11
4,2,14,1,3,0,2,20,79,8
4,2,18,1,6,1,2,20,67,11
4,2,12,1,2,0,2,20,127,11
4,2,13,1,5,1,2,20,103,11
4,2,6,0,5,1,2,20,103,11
5,2,23,0,4,0,2,20,38,11
5,2,10,1,6,1,2,20,67,11
5,2,15,1,0,0,2,20,21,11
5,2,15,1,5,1,2,20,38,11
5,2,17,1,0,0,2,20,93,11
5,2,15,1,0,0,2,20,93,11
5,2,4,0,1,0,2,20,127,11
6,3,21,0,5,1,2,20,32,11
6,3,15,1,2,0,2,20,32,8
6,3,9,1,3,0,2,20,21,11
6,3,7,1,5,1,2,20,127,11
6,3,13,1,0,0,2,20,38,11
6,3,23,0,1,0,2,20,127,11
6,3,21,0,6,1,2,20,103,11
6,3,0,0,4,0,2,20,127,11
6,3,19,1,4,0,2,20,127,11
7,3,16,1,4,0,3,20,127,11
7,3,6,0,4,0,3,20,127,11
7,3,15,1,4,0,3,20,127,11
7,3,14,1,2,0,3,20,127,11
7,3,22,0,6,1,3,20,127,11
7,3,13,1,1,0,3,20,103,11
7,3,15,1,2,0,3,20,103,11
7,3,20,1,5,1,3,20,103,11
7,3,10,1,5,1,3,20,127,11
7,3,16,1,0,0,3,20,103,11
7,3,9,1,2,0,3,20,67,11
7,3,12,1,3,0,3,20,93,11
7,3,16,1,0,0,3,20,93,11
7,3,4,0,0,0,3,20,90,11
8,3,18,1,4,0,3,20,127,11
8,3,18,1,0,0,3,20,67,11
8,3,11,1,1,0,3,20,79,8
8,3,17,1,2,0,3,20,103,11
8,3,17,1,4,0,3,20,127,11
8,3,19,1,5,1,3,20,125,11
8,3,17,1,0,0,3,20,93,11
8,3,16,1,1,0,3,20,90,11
8,3,11,1,2,0,3,20,95,11
8,3,16,1,3,0,3,20,65,11
8,3,14,1,4,0,3,20,127,11
8,3,21,0,5,1,3,20,127,11
8,3,9,1,1,0,3,20,127,11
9,4,7,1,4,0,3,20,127,11
9,4,14,1,1,0,3,20,103,11
9,4,14,1,1,0,3,20,103,11
9,4,16,1,4,0,3,20,127,11
9,4,21,0,6,1,3,20,90,11
10,4,19,1,2,0,4,20,103,11
10,4,17,1,3,0,4,20,103,11
10,4,16,1,4,0,4,20,83,11
10,4,13,1,6,1,4,20,1,11
10,4,19,1,6,1,4,20,103,11
10,4,19,1,0,0,4,20,103,11
10,4,18,1,4,0,4,20,30,11
10,4,20,1,6,1,4,20,93,11
10,4,14,1,6,1,4,20,103,11
10,4,11,1,0,0,4,20,103,11
11,4,12,1,2,0,4,20,79,11
11,4,19,1,4,0,4,20,109,11
11,4,13,1,2,0,4,20,21,9
11,4,21,0,2,0,4,20,127,11
11,4,21,0,3,0,4,20,67,11
11,4,18,1,4,0,4,20,67,9
11,4,10,1,6,1,4,20,38,11
11,4,18,1,1,0,4,20,127,11
11,4,4,0,4,0,4,20,90,11
11,4,22,0,6,1,4,20,127,11
11,4,23,0,6,1,4,20,67,11
11,4,0,0,0,0,4,20,67,11
11,4,1,0,0,0,4,20,48,11
11,4,20,1,1,0,4,20,21,11
11,4,17,1,2,0,4,20,127,11
11,4,16,1,2,0,4,20,127,11
12,1,15,1,5,1,4,20,127,11
12,1,5,0,0,0,4,20,127,11
12,1,14,1,1,0,4,20,103,11
12,1,16,1,3,0,4,20,127,11
12,1,16,1,5,1,4,20,38,11
12,1,23,0,5,1,4,20,66,11
12,1,21,0,6,1,4,20,67,11
12,1,14,1,0,0,4,20,127,11
12,1,11,1,3,0,4,20,90,11
12,1,12,1,3,0,4,20,127,11
12,1,17,1,5,1,4,20,67,9
12,1,22,0,5,1,4,20,127,11
12,1,7,1,1,0,4,20,127,11
12,1,21,0,1,0,4,20,48,11
12,1,13,1,3,0,4,20,127,11
12,1,18,1,4,0,4,20,79,11
12,1,11,1,6,1,4,20,67,11
12,1,14,1,0,0,4,20,90,11
12,1,17,1,2,0,4,20,67,11
12,1,19,1,2,0,4,20,103,11
12,1,13,1,3,0,4,20,127,11
12,1,21,0,4,0,4,20,71,9
12,1,17,1,6,1,4,20,127,11
1,1,11,1,0,0,1,20,93,11
1,1,12,1,0,0,1,20,21,11
2,1,1,0,3,0,1,20,79,11
4,2,9,1,2,0,2,20,21,11
5,2,11,1,0,0,2,20,38,11
7,3,22,0,0,0,3,20,103,11
7,3,15,1,5,1,3,20,79,9
8,3,14,1,4,0,3,20,103,11
8,3,7,1,0,0,3,20,93,11
8,3,10,1,1,0,3,20,103,11
9,4,10,1,3,0,3,20,67,11
10,4,11,1,4,0,4,20,93,11
10,4,11,1,2,0,4,20,103,11
10,4,18,1,1,0,4,20,103,11
11,4,18,1,6,1,4,20,21,11
3,2,17,1,1,0,1,20,79,11
4,2,11,1,0,0,2,20,38,11
9,4,17,1,6,1,3,20,93,11
1,1,17,1,0,0,1,20,98,11
1,1,18,1,0,0,1,20,98,11
1,1,17,1,1,0,1,20,98,11
1,1,13,1,2,0,1,20,98,11
1,1,17,1,3,0,1,20,98,11
1,1,20,1,4,0,1,20,98,11
1,1,18,1,0,0,1,20,98,11
1,1,15,1,0,0,1,20,98,11
1,1,19,1,0,0,1,20,98,11
1,1,17,1,2,0,1,20,79,11
1,1,14,1,4,0,1,20,98,11
1,1,17,1,5,1,1,20,67,11
1,1,13,1,5,1,1,20,98,11
1,1,11,1,0,0,1,20,98,11
1,1,11,1,1,0,1,20,38,11
1,1,9,1,0,0,1,20,67,9
1,1,13,1,1,0,1,20,98,11
1,1,14,1,5,1,1,20,98,11
1,1,14,1,5,1,1,20,103,11
1,1,10,1,6,1,1,20,38,11
1,1,17,1,1,0,1,20,98,11
2,1,15,1,3,0,1,20,93,11
2,1,19,1,4,0,1,20,79,11
2,1,11,1,5,1,1,20,98,11
2,1,16,1,5,1,1,20,79,11
2,1,18,1,6,1,1,20,98,11
2,1,13,1,6,1,1,20,98,11
2,1,13,1,6,1,1,20,103,11
2,1,15,1,1,0,1,20,98,11
2,1,12,1,1,0,1,20,1,11
2,1,13,1,3,0,1,20,67,11
2,1,14,1,3,0,1,20,38,11
2,1,11,1,4,0,1,20,98,11
2,1,11,1,4,0,1,20,103,11
2,1,17,1,6,1,1,20,98,11
2,1,12,1,0,0,1,20,98,11
2,1,13,1,1,0,1,20,98,11
2,1,13,1,2,0,1,20,93,11
2,1,20,1,4,0,1,20,98,11
2,1,11,1,5,1,1,20,103,11
2,1,14,1,1,0,1,20,93,11
2,1,17,1,1,0,1,20,93,11
2,1,14,1,4,0,1,20,103,11
2,1,8,1,6,1,1,20,93,11
2,1,11,1,6,1,1,20,93,11
3,2,18,1,4,0,1,20,98,11
3,2,17,1,0,0,1,20,98,11
3,2,15,1,2,0,1,20,79,11
3,2,17,1,6,1,1,20,93,11
3,2,9,1,6,1,1,20,15,11
3,2,19,1,2,0,1,20,38,11
3,2,12,1,2,0,1,20,90,11
3,2,19,1,4,0,1,20,98,11
3,2,13,1,4,0,1,20,93,11
3,2,14,1,6,1,1,20,93,11
3,2,21,0,6,1,1,20,98,11
3,2,18,1,6,1,1,20,98,11
3,2,13,1,0,0,1,20,112,11
3,2,9,1,1,0,1,20,21,11
3,2,8,1,2,0,1,20,98,11
4,2,18,1,6,1,2,20,15,11
4,2,12,1,2,0,2,20,38,11
4,2,16,1,4,0,2,20,103,11
4,2,22,0,0,0,2,20,103,11
4,2,19,1,5,1,2,20,103,11
5,2,20,1,5,1,2,20,93,11
5,2,15,1,4,0,2,20,21,11
5,2,18,1,0,0,2,20,112,11
6,3,21,0,2,0,2,20,103,11
7,3,21,0,5,1,3,20,93,11
7,3,21,0,2,0,3,20,103,11
7,3,23,0,6,1,3,20,90,11
7,3,20,1,3,0,3,20,103,11
8,3,18,1,3,0,3,20,93,11
8,3,20,1,4,0,3,20,103,11
8,3,20,1,1,0,3,20,93,11
8,3,11,1,5,1,3,20,93,11
8,3,20,1,5,1,3,20,103,11
8,3,21,0,1,0,3,20,41,11
8,3,18,1,2,0,3,20,93,11
8,3,19,1,4,0,3,20,103,11
8,3,17,1,4,0,3,20,93,9
8,3,17,1,4,0,3,20,103,11
8,3,0,0,6,1,3,20,93,9
8,3,19,1,1,0,3,20,93,11
8,3,23,0,2,0,3,20,98,11
8,3,0,0,3,0,3,20,1,9
9,4,4,0,6,1,3,20,14,9
9,4,17,1,6,1,3,20,14,9
9,4,14,1,6,1,3,20,15,11
9,4,0,0,1,0,3,20,98,11
9,4,18,1,1,0,3,20,93,11
9,4,12,1,0,0,3,20,93,11
9,4,16,1,1,0,3,20,103,11
10,4,23,0,0,0,4,20,93,11
10,4,19,1,2,0,4,20,103,11
10,4,19,1,0,0,4,20,103,11
10,4,4,0,1,0,4,20,98,11
10,4,14,1,4,0,4,20,103,11
10,4,16,1,4,0,4,20,103,11
10,4,17,1,5,1,4,20,103,11
11,4,3,0,1,0,4,20,103,11
11,4,9,1,6,1,4,20,98,11
11,4,22,0,6,1,4,20,98,11
11,4,18,1,6,1,4,20,38,11
11,4,11,1,0,0,4,20,98,11
11,4,10,1,0,0,4,20,98,11
12,1,11,1,6,1,4,20,98,11
12,1,11,1,6,1,4,20,90,8
12,1,18,1,5,1,4,20,38,11
12,1,19,1,1,0,4,20,103,11
12,1,10,1,6,1,4,20,98,11
12,1,13,1,0,0,4,20,38,11
12,1,17,1,3,0,4,20,98,11
12,1,16,1,4,0,4,20,103,11
12,1,12,1,5,1,4,20,21,11
2,1,14,1,4,0,1,20,103,11
2,1,13,1,1,0,1,20,21,11
4,2,11,1,6,1,2,20,79,8
4,2,19,1,4,0,2,20,103,11
6,3,12,1,4,0,2,20,103,11
7,3,14,1,6,1,3,20,21,9
7,3,21,0,0,0,3,20,103,11
8,3,14,1,3,0,3,20,93,11
10,4,12,1,5,1,4,20,103,11
1,1,14,1,0,0,1,20,103,11
2,1,12,1,1,0,1,20,103,11
9,4,17,1,5,1,3,20,124,11
10,4,2,0,4,0,4,20,103,11
2,1,19,1,2,0,1,20,103,11
2,1,17,1,6,1,1,20,103,11
2,1,18,1,6,1,1,20,93,11
4,2,11,1,6,1,2,20,112,11
7,3,15,1,5,1,3,20,93,11
7,3,16,1,0,0,3,20,103,11
7,3,0,0,0,0,3,20,103,11
10,4,18,1,6,1,4,20,103,11
1,1,10,1,3,0,1,20,32,11
2,1,10,1,3,0,1,20,93,11
2,1,11,1,0,0,1,20,88,11
2,1,14,1,4,0,1,20,103,11
2,1,14,1,3,0,1,20,103,11
6,3,9,1,3,0,2,20,127,11
8,3,18,1,5,1,3,20,112,11
8,3,8,1,4,0,3,20,65,11
11,4,8,1,0,0,4,20,21,11
12,1,18,1,5,1,4,20,103,11
1,1,20,1,0,0,1,18,67,11
2,1,14,1,2,0,1,18,103,11
2,1,17,1,2,0,1,18,103,11
2,1,1,0,5,1,1,18,67,11
2,1,20,1,5,1,1,18,127,11
2,1,10,1,6,1,1,18,103,11
2,1,21,0,5,1,1,18,103,11
3,2,23,0,0,0,1,18,127,11
3,2,15,1,1,0,1,18,103,11
3,2,20,1,0,0,1,18,127,11
3,2,11,1,6,1,1,18,93,11
4,2,7,1,0,0,2,18,48,11
5,2,22,0,3,0,2,18,93,11
5,2,18,1,3,0,2,18,38,11
6,3,19,1,6,1,2,18,67,11
6,3,10,1,1,0,2,18,103,11
6,3,14,1,2,0,2,18,93,11
6,3,13,1,3,0,2,18,103,11
6,3,18,1,1,0,2,18,14,11
6,3,21,0,1,0,2,18,57,11
6,3,0,0,5,1,2,18,93,11
6,3,12,1,1,0,2,18,79,11
6,3,11,1,2,0,2,18,127,11
6,3,14,1,3,0,2,18,103,11
7,3,20,1,6,1,3,18,4,11
7,3,10,1,1,0,3,18,93,11
7,3,13,1,2,0,3,18,93,11
7,3,17,1,5,1,3,18,93,11
7,3,14,1,2,0,3,18,28,11
7,3,16,1,5,1,3,18,127,11
8,3,12,1,5,1,3,18,103,11
8,3,15,1,2,0,3,18,76,11
8,3,13,1,4,0,3,18,127,11
8,3,16,1,3,0,3,18,93,11
8,3,12,1,4,0,3,18,21,11
8,3,13,1,0,0,3,18,103,11
9,4,20,1,6,1,3,18,103,11
9,4,12,1,0,0,3,18,93,11
9,4,17,1,6,1,3,18,93,11
9,4,20,1,6,1,3,18,103,11
9,4,17,1,3,0,3,18,103,11
2,1,13,1,1,0,1,18,103,11
2,1,23,0,1,0,1,18,103,11
2,1,17,1,2,0,1,18,93,11
2,1,16,1,4,0,1,18,67,8
2,1,17,1,2,0,1,18,103,11
2,1,14,1,2,0,1,18,103,11
2,1,18,1,2,0,1,18,103,11
2,1,11,1,6,1,1,18,103,11
2,1,17,1,6,1,1,18,93,11
2,1,13,1,1,0,1,18,103,11
3,2,17,1,0,0,1,18,93,11
3,2,12,1,3,0,1,18,79,11
4,2,16,1,5,1,2,18,103,11
4,2,6,0,2,0,2,18,76,11
7,3,0,0,1,0,3,18,103,11
8,3,19,1,2,0,3,18,111,11
8,3,10,1,0,0,3,18,93,11
9,4,1,0,6,1,3,18,127,11
10,4,22,0,6,1,4,18,103,11
10,4,12,1,5,1,4,18,103,11
10,4,15,1,2,0,4,18,1,11
10,4,18,1,1,0,4,18,103,11
11,4,16,1,2,0,4,18,112,11
12,1,8,1,1,0,4,18,21,11
2,1,10,1,6,1,1,18,90,11
3,2,21,0,6,1,1,18,90,11
4,2,21,0,6,1,2,18,90,11
5,2,20,1,6,1,2,18,90,11
5,2,11,1,5,1,2,18,90,11
5,2,11,1,5,1,2,18,90,11
6,3,12,1,3,0,2,18,67,11
6,3,20,1,0,0,2,18,57,11
7,3,14,1,1,0,3,18,90,11
8,3,10,1,5,1,3,18,93,11
9,4,17,1,6,1,3,18,35,11
9,4,13,1,4,0,3,18,103,11
9,4,11,1,4,0,3,18,103,11
9,4,13,1,4,0,3,18,103,11
9,4,10,1,5,1,3,18,103,11
9,4,11,1,0,0,3,18,103,11
9,4,17,1,0,0,3,18,103,11
9,4,18,1,4,0,3,18,1,11
12,1,19,1,1,0,4,18,90,11
12,1,20,1,0,0,4,18,90,11
1,1,0,0,6,1,1,4,98,11
1,1,11,1,6,1,1,4,103,11
1,1,18,1,5,1,1,4,103,11
1,1,21,0,2,0,1,4,112,11
1,1,8,1,5,1,1,4,14,9
1,1,18,1,6,1,1,4,103,11
1,1,14,1,2,0,1,4,98,11
1,1,6,0,3,0,1,4,98,11
1,1,3,0,4,0,1,4,98,11
1,1,9,1,4,0,1,4,67,11
1,1,10,1,0,0,1,4,103,11
2,1,19,1,2,0,1,4,98,11
2,1,13,1,2,0,1,4,103,11
2,1,22,0,3,0,1,4,67,11
2,1,20,1,6,1,1,4,79,11
2,1,8,1,0,0,1,4,98,11
2,1,12,1,2,0,1,4,103,11
2,1,17,1,4,0,1,4,103,11
2,1,3,0,5,1,1,4,98,11
2,1,12,1,5,1,1,4,103,11
2,1,14,1,0,0,1,4,103,11
2,1,3,0,1,0,1,4,98,11
2,1,2,0,1,0,1,4,98,11
2,1,20,1,2,0,1,4,67,11
2,1,14,1,4,0,1,4,103,11
2,1,3,0,4,0,1,4,71,11
2,1,12,1,4,0,1,4,69,11
2,1,23,0,4,0,1,4,67,11
2,1,19,1,4,0,1,4,103,11
2,1,19,1,6,1,1,4,103,11
2,1,18,1,6,1,1,4,103,11
2,1,21,0,6,1,1,4,103,11
2,1,8,1,6,1,1,4,103,11
2,1,18,1,0,0,1,4,103,11
2,1,15,1,1,0,1,4,103,11
2,1,23,0,1,0,1,4,98,11
2,1,9,1,2,0,1,4,38,11
2,1,13,1,2,0,1,4,83,11
2,1,15,1,3,0,1,4,103,11
2,1,15,1,4,0,1,4,93,11
2,1,17,1,5,1,1,4,103,11
2,1,17,1,6,1,1,4,57,11
2,1,13,1,6,1,1,4,103,11
2,1,18,1,1,0,1,4,103,11
2,1,21,0,1,0,1,4,98,11
3,2,1,0,2,0,1,4,98,11
3,2,12,1,2,0,1,4,103,11
3,2,9,1,2,0,1,4,103,11
3,2,13,1,2,0,1,4,76,11
3,2,16,1,3,0,1,4,103,11
3,2,18,1,6,1,1,4,93,11
3,2,12,1,4,0,1,4,4,11
3,2,16,1,4,0,1,4,93,11
3,2,19,1,6,1,1,4,38,11
3,2,18,1,4,0,1,4,93,11
3,2,18,1,5,1,1,4,69,11
3,2,19,1,5,1,1,4,79,11
3,2,17,1,0,0,1,4,103,11
3,2,20,1,2,0,1,4,67,11
3,2,16,1,5,1,1,4,103,11
3,2,12,1,5,1,1,4,103,11
3,2,17,1,6,1,1,4,98,11
3,2,20,1,1,0,1,4,79,11
3,2,19,1,4,0,1,4,103,11
4,2,11,1,5,1,2,4,103,11
4,2,20,1,6,1,2,4,103,11
4,2,2,0,6,1,2,4,98,11
4,2,1,0,4,0,2,4,98,11
4,2,14,1,4,0,2,4,28,11
4,2,20,1,5,1,2,4,103,11
4,2,16,1,0,0,2,4,67,11
4,2,11,1,0,0,2,4,98,11
4,2,8,1,1,0,2,4,79,11
4,2,17,1,3,0,2,4,103,11
4,2,10,1,6,1,2,4,98,11
4,2,1,0,6,1,2,4,79,11
4,2,18,1,2,0,2,4,67,11
4,2,14,1,3,0,2,4,93,11
4,2,5,0,3,0,2,4,98,11
4,2,11,1,4,0,2,4,58,11
4,2,17,1,0,0,2,4,103,11
4,2,12,1,2,0,2,4,103,11
4,2,16,1,3,0,2,4,93,11
4,2,21,0,3,0,2,4,67,11
4,2,18,1,5,1,2,4,93,11
4,2,20,1,5,1,2,4,103,11
5,2,4,0,5,1,2,4,98,11
5,2,11,1,6,1,2,4,79,11
5,2,12,1,5,1,2,4,103,11
5,2,16,1,6,1,2,4,103,11
5,2,9,1,2,0,2,4,90,11
6,3,2,0,2,0,2,4,103,11
6,3,9,1,2,0,2,4,103,11
6,3,13,1,4,0,2,4,103,11
6,3,10,1,0,0,2,4,103,11
6,3,11,1,4,0,2,4,59,11
6,3,3,0,5,1,2,4,76,9
6,3,20,1,0,0,2,4,93,11
6,3,21,0,2,0,2,4,127,11
6,3,9,1,2,0,2,4,4,11
6,3,20,1,4,0,2,4,98,11
6,3,20,1,1,0,2,4,127,11
7,3,18,1,2,0,3,4,93,11
7,3,7,1,3,0,3,4,48,11
7,3,21,0,3,0,3,4,103,11
7,3,11,1,3,0,3,4,48,11
7,3,11,1,6,1,3,4,103,11
7,3,11,1,6,1,3,4,103,11
7,3,21,0,0,0,3,4,93,11
7,3,21,0,2,0,3,4,93,11
7,3,2,0,4,0,3,4,98,11
7,3,20,1,4,0,3,4,93,11
7,3,11,1,6,1,3,4,76,11
7,3,8,1,6,1,3,4,93,11
7,3,7,1,0,0,3,4,103,11
7,3,10,1,0,0,3,4,93,11
7,3,11,1,0,0,3,4,58,11
7,3,16,1,1,0,3,4,103,9
7,3,11,1,2,0,3,4,103,11
8,3,10,1,5,1,3,4,79,11
8,3,21,0,5,1,3,4,98,11
8,3,9,1,6,1,3,4,112,11
8,3,22,0,0,0,3,4,21,11
8,3,0,0,1,0,3,4,103,11
8,3,1,0,3,0,3,4,101,11
8,3,12,1,5,1,3,4,79,11
8,3,20,1,6,1,3,4,103,11
8,3,3,0,6,1,3,4,98,11
8,3,13,1,0,0,3,4,110,11
8,3,17,1,2,0,3,4,93,11
8,3,8,1,2,0,3,4,103,11
8,3,18,1,6,1,3,4,93,11
8,3,20,1,0,0,3,4,93,11
8,3,11,1,2,0,3,4,79,11
9,4,14,1,4,0,3,4,76,9
9,4,15,1,1,0,3,4,67,11
9,4,13,1,6,1,3,4,103,11
9,4,5,0,1,0,3,4,15,11
9,4,13,1,5,1,3,4,103,11
9,4,14,1,5,1,3,4,48,11
9,4,11,1,1,0,3,4,93,11
10,4,12,1,6,1,4,4,103,11
10,4,18,1,6,1,4,4,93,11
10,4,6,0,2,0,4,4,21,11
10,4,0,0,3,0,4,4,93,11
10,4,2,0,5,1,4,4,98,11
10,4,16,1,5,1,4,4,93,9
10,4,12,1,0,0,4,4,103,11
10,4,7,1,0,0,4,4,98,11
10,4,7,1,1,0,4,4,93,11
10,4,16,1,6,1,4,4,76,9
10,4,18,1,1,0,4,4,103,11
10,4,18,1,2,0,4,4,93,11
10,4,17,1,2,0,4,4,93,11
10,4,10,1,4,0,4,4,67,11
11,4,20,1,6,1,4,4,67,11
11,4,9,1,1,0,4,4,67,11
11,4,21,0,3,0,4,4,103,11
11,4,14,1,3,0,4,4,79,11
11,4,1,0,6,1,4,4,103,11
11,4,10,1,2,0,4,4,98,11
11,4,14,1,3,0,4,4,103,11
11,4,9,1,6,1,4,4,93,11
11,4,23,0,6,1,4,4,98,11
11,4,23,0,0,0,4,4,103,11
11,4,9,1,1,0,4,4,93,11
11,4,12,1,5,1,4,4,98,11
11,4,5,0,0,0,4,4,79,11
12,1,0,0,4,0,4,4,98,11
12,1,18,1,5,1,4,4,103,11
12,1,4,0,6,1,4,4,98,11
12,1,19,1,6,1,4,4,98,11
12,1,18,1,6,1,4,4,38,11
12,1,18,1,6,1,4,4,79,11
12,1,5,0,5,1,4,4,58,8
12,1,15,1,2,0,4,4,98,11
12,1,18,1,4,0,4,4,103,11
12,1,18,1,4,0,4,4,93,11
12,1,19,1,4,0,4,4,103,11
12,1,19,1,6,1,4,4,67,11
12,1,13,1,6,1,4,4,127,11
3,2,15,1,0,0,1,4,112,11
7,3,18,1,1,0,3,4,103,11
7,3,16,1,4,0,3,4,79,11
1,1,20,1,1,0,1,40,79,11
1,1,16,1,4,0,1,40,103,11
1,1,18,1,0,0,1,40,98,11
1,1,10,1,4,0,1,40,15,8
1,1,15,1,6,1,1,40,90,11
2,1,11,1,3,0,1,40,90,11
2,1,9,1,6,1,1,40,90,11
2,1,9,1,1,0,1,40,93,11
2,1,17,1,2,0,1,40,79,11
2,1,16,1,3,0,1,40,90,11
2,1,12,1,5,1,1,40,93,11
2,1,18,1,5,1,1,40,103,11
2,1,23,0,5,1,1,40,90,11
2,1,14,1,2,0,1,40,93,11
2,1,16,1,6,1,1,40,21,11
2,1,10,1,0,0,1,40,15,11
2,1,17,1,3,0,1,40,103,11
2,1,10,1,6,1,1,40,118,9
2,1,17,1,6,1,1,40,103,11
2,1,22,0,6,1,1,40,112,11
2,1,16,1,0,0,1,40,103,11
2,1,15,1,1,0,1,40,103,11
3,2,13,1,6,1,1,40,103,11
3,2,11,1,0,0,1,40,93,11
3,2,17,1,4,0,1,40,127,11
3,2,20,1,5,1,1,40,103,11
3,2,19,1,2,0,1,40,57,11
3,2,10,1,5,1,1,40,127,11
4,2,13,1,1,0,2,40,15,11
4,2,19,1,2,0,2,40,14,11
4,2,16,1,5,1,2,40,103,11
4,2,5,0,2,0,2,40,90,11
4,2,5,0,2,0,2,40,90,11
4,2,5,0,2,0,2,40,90,11
4,2,20,1,3,0,2,40,103,11
4,2,10,1,6,1,2,40,79,11
4,2,18,1,2,0,2,40,90,11
4,2,18,1,3,0,2,40,103,11
4,2,10,1,4,0,2,40,103,11
4,2,17,1,6,1,2,40,103,11
5,2,14,1,0,0,2,40,93,11
5,2,16,1,0,0,2,40,93,11
5,2,21,0,1,0,2,40,112,11
5,2,21,0,1,0,2,40,93,11
5,2,12,1,3,0,2,40,103,11
5,2,15,1,3,0,2,40,103,11
5,2,17,1,5,1,2,40,103,11
5,2,21,0,5,1,2,40,103,11
5,2,14,1,2,0,2,40,103,11
5,2,5,0,0,0,2,40,76,9
5,2,19,1,3,0,2,40,26,8
5,2,16,1,0,0,2,40,93,11
5,2,18,1,1,0,2,40,103,11
6,3,1,0,3,0,2,40,79,8
6,3,4,0,5,1,2,40,76,11
6,3,17,1,5,1,2,40,127,11
6,3,20,1,5,1,2,40,112,11
6,3,17,1,0,0,2,40,103,11
6,3,13,1,3,0,2,40,103,11
6,3,14,1,2,0,2,40,103,11
6,3,11,1,4,0,2,40,103,11
6,3,17,1,6,1,2,40,79,11
7,3,19,1,0,0,3,40,93,8
7,3,17,1,4,0,3,40,93,11
7,3,12,1,5,1,3,40,103,11
7,3,21,0,5,1,3,40,103,11
7,3,17,1,0,0,3,40,103,11
7,3,15,1,0,0,3,40,124,11
7,3,10,1,4,0,3,40,112,11
7,3,22,0,4,0,3,40,112,11
7,3,17,1,5,1,3,40,93,11
7,3,17,1,1,0,3,40,93,9
7,3,15,1,3,0,3,40,124,11
7,3,17,1,4,0,3,40,112,11
7,3,10,1,6,1,3,40,103,11
7,3,13,1,6,1,3,40,93,11
7,3,23,0,0,0,3,40,93,11
7,3,14,1,1,0,3,40,87,11
7,3,2,0,2,0,3,40,93,9
7,3,13,1,6,1,3,40,93,11
8,3,21,0,2,0,3,40,93,11
8,3,18,1,5,1,3,40,112,11
8,3,20,1,5,1,3,40,112,11
8,3,18,1,6,1,3,40,93,11
8,3,18,1,0,0,3,40,93,11
8,3,10,1,2,0,3,40,112,11
8,3,10,1,3,0,3,40,38,11
8,3,10,1,0,0,3,40,83,11
8,3,7,1,3,0,3,40,38,11
9,4,7,1,5,1,3,40,11,11
9,4,3,0,4,0,3,40,103,11
9,4,19,1,5,1,3,40,103,11
9,4,4,0,6,1,3,40,127,11
9,4,16,1,6,1,3,40,127,11
9,4,12,1,0,0,3,40,127,11
9,4,4,0,0,0,3,40,93,11
9,4,19,1,1,0,3,40,58,11
9,4,11,1,2,0,3,40,30,11
9,4,18,1,5,1,3,40,76,11
9,4,15,1,1,0,3,40,103,11
10,4,19,1,4,0,4,40,103,9
10,4,13,1,3,0,4,40,103,9
10,4,3,0,5,1,4,40,76,11
10,4,11,1,6,1,4,40,58,11
10,4,18,1,6,1,4,40,103,11
10,4,9,1,0,0,4,40,103,11
10,4,12,1,1,0,4,40,93,11
10,4,18,1,6,1,4,40,4,11
11,4,21,0,2,0,4,40,15,11
11,4,5,0,5,1,4,40,93,11
11,4,11,1,6,1,4,40,38,11
11,4,10,1,0,0,4,40,93,11
11,4,12,1,0,0,4,40,127,11
11,4,11,1,4,0,4,40,127,11
11,4,22,0,2,0,4,40,67,11
12,1,19,1,1,0,4,40,93,11
12,1,18,1,3,0,4,40,127,11
12,1,17,1,6,1,4,40,58,11
12,1,18,1,5,1,4,40,79,11
12,1,17,1,6,1,4,40,76,11
12,1,18,1,4,0,4,40,38,11
12,1,13,1,6,1,4,40,103,11
1,1,18,1,4,0,1,40,103,11
1,1,12,1,5,1,1,40,76,9
2,1,17,1,0,0,1,40,103,9
2,1,18,1,2,0,1,40,103,11
2,1,20,1,2,0,1,40,103,11
2,1,13,1,3,0,1,40,103,11
2,1,13,1,0,0,1,40,103,11
2,1,19,1,0,0,1,40,103,11
2,1,17,1,1,0,1,40,103,11
2,1,16,1,2,0,1,40,103,9
2,1,18,1,2,0,1,40,103,9
2,1,18,1,2,0,1,40,103,11
2,1,13,1,3,0,1,40,103,11
2,1,9,1,5,1,1,40,103,11
2,1,17,1,6,1,1,40,103,11
2,1,18,1,0,0,1,40,103,11
2,1,18,1,1,0,1,40,103,11
2,1,18,1,2,0,1,40,103,11
2,1,17,1,2,0,1,40,103,9
2,1,18,1,3,0,1,40,103,11
2,1,19,1,3,0,1,40,103,11
2,1,19,1,4,0,1,40,103,11
2,1,12,1,6,1,1,40,103,11
2,1,12,1,6,1,1,40,103,11
2,1,11,1,0,0,1,40,103,11
2,1,18,1,0,0,1,40,103,11
2,1,19,1,1,0,1,40,4,9
3,2,14,1,0,0,1,40,103,9
3,2,12,1,1,0,1,40,103,8
3,2,13,1,1,0,1,40,79,8
3,2,18,1,2,0,1,40,127,11
4,2,17,1,5,1,2,40,90,11
4,2,18,1,3,0,2,40,103,9
4,2,16,1,0,0,2,40,21,8
4,2,15,1,3,0,2,40,103,11
5,2,16,1,2,0,2,40,21,11
5,2,13,1,0,0,2,40,103,11
5,2,11,1,3,0,2,40,103,11
5,2,14,1,1,0,2,40,103,11
6,3,8,1,0,0,2,40,21,8
6,3,8,1,1,0,2,40,103,11
6,3,22,0,2,0,2,40,21,9
7,3,12,1,4,0,3,40,103,11
7,3,21,0,3,0,3,40,103,11
7,3,20,1,3,0,3,40,15,11
7,3,11,1,2,0,3,40,103,11
7,3,10,1,1,0,3,40,103,11
7,3,16,1,1,0,3,40,103,11
7,3,15,1,4,0,3,40,103,8
7,3,11,1,6,1,3,40,21,8
7,3,21,0,0,0,3,40,103,11
7,3,22,0,0,0,3,40,103,11
8,3,22,0,0,0,3,40,103,9
8,3,22,0,0,0,3,40,112,11
8,3,13,1,0,0,3,40,103,11
8,3,18,1,0,0,3,40,21,11
8,3,16,1,1,0,3,40,103,11
9,4,8,1,1,0,3,40,21,9
9,4,11,1,3,0,3,40,15,8
9,4,21,0,0,0,3,40,103,11
9,4,13,1,1,0,3,40,103,11
9,4,10,1,4,0,3,40,103,11
9,4,10,1,2,0,3,40,103,11
10,4,21,0,2,0,4,40,103,11
10,4,15,1,6,1,4,40,103,11
11,4,18,1,3,0,4,40,103,11
11,4,9,1,6,1,4,40,98,11
12,1,13,1,1,0,4,40,98,11
12,1,16,1,1,0,4,40,103,11
12,1,10,1,5,1,4,40,90,11
2,1,17,1,3,0,1,40,103,11
2,1,18,1,5,1,1,40,79,11
2,1,16,1,4,0,1,40,103,11
3,2,17,1,6,1,1,40,58,8
4,2,14,1,3,0,2,40,103,11
6,3,20,1,3,0,2,40,103,11
7,3,18,1,3,0,3,40,103,9
8,3,18,1,3,0,3,40,103,11
9,4,11,1,2,0,3,40,79,11
11,4,17,1,0,0,4,40,79,11
11,4,17,1,1,0,4,40,112,11
1,1,17,1,1,0,1,40,93,11
2,1,19,1,6,1,1,40,93,11
2,1,13,1,0,0,1,40,103,11
2,1,11,1,5,1,1,40,103,11
2,1,19,1,0,0,1,40,103,11
2,1,16,1,0,0,1,40,103,11
2,1,17,1,3,0,1,40,103,11
2,1,13,1,6,1,1,40,103,11
2,1,13,1,6,1,1,40,103,11
3,2,23,0,5,1,1,40,127,11
5,2,0,0,5,1,2,40,103,11
5,2,21,0,6,1,2,40,103,11
5,2,6,0,4,0,2,40,58,11
6,3,10,1,5,1,2,40,58,11
7,3,0,0,5,1,3,40,87,11
8,3,21,0,2,0,3,40,76,11
8,3,11,1,4,0,3,40,93,11
8,3,11,1,3,0,3,40,93,11
9,4,19,1,4,0,3,40,90,11
9,4,12,1,6,1,3,40,103,11
10,4,15,1,3,0,4,40,103,11
10,4,5,0,6,1,4,40,42,11
10,4,9,1,3,0,4,40,103,11
11,4,19,1,3,0,4,40,103,11
11,4,13,1,2,0,4,40,103,11
11,4,21,0,3,0,4,40,67,11
11,4,10,1,2,0,4,40,67,11
12,1,18,1,2,0,4,40,38,11
12,1,22,0,0,0,4,40,38,11
1,1,19,1,4,0,1,31,79,11
2,1,14,1,5,1,1,31,79,9
2,1,0,0,6,1,1,31,79,11
2,1,20,1,0,0,1,31,103,11
2,1,11,1,6,1,1,31,103,11
2,1,7,1,1,0,1,31,21,11
3,2,20,1,6,1,1,31,14,9
3,2,16,1,3,0,1,31,70,8
6,3,14,1,1,0,2,31,93,11
8,3,16,1,5,1,3,31,21,9
9,4,10,1,4,0,3,31,103,11
9,4,11,1,0,0,3,31,79,9
12,1,21,0,4,0,4,31,93,11
1,1,15,1,1,0,1,31,103,11
1,1,11,1,6,1,1,31,90,11
1,1,0,0,2,0,1,31,90,11
1,1,22,0,5,1,1,31,93,11
1,1,17,1,3,0,1,31,90,11
1,1,19,1,5,1,1,31,79,11
1,1,16,1,1,0,1,31,90,11
2,1,18,1,1,0,1,31,103,11
2,1,17,1,5,1,1,31,79,11
2,1,20,1,1,0,1,31,90,11
2,1,5,0,2,0,1,31,90,11
2,1,16,1,6,1,1,31,103,11
2,1,17,1,0,0,1,31,79,11
2,1,18,1,6,1,1,31,103,11
3,2,22,0,3,0,1,31,90,11
3,2,20,1,0,0,1,31,93,11
3,2,7,1,2,0,1,31,112,11
3,2,13,1,2,0,1,31,103,11
3,2,14,1,3,0,1,31,127,11
4,2,1,0,6,1,2,31,106,9
4,2,6,0,6,1,2,31,93,11
4,2,16,1,1,0,2,31,93,9
4,2,18,1,2,0,2,31,103,11
4,2,14,1,5,1,2,31,14,8
4,2,15,1,4,0,2,31,103,11
5,2,1,0,0,0,2,31,93,11
5,2,20,1,0,0,2,31,93,9
5,2,15,1,0,0,2,31,4,11
5,2,21,0,0,0,2,31,103,11
5,2,10,1,5,1,2,31,103,11
5,2,21,0,1,0,2,31,127,11
5,2,18,1,4,0,2,31,93,11
5,2,16,1,2,0,2,31,79,11
6,3,15,1,2,0,2,31,93,11
6,3,1,0,3,0,2,31,90,11
6,3,13,1,4,0,2,31,93,11
6,3,13,1,6,1,2,31,4,11
6,3,23,0,5,1,2,31,103,11
6,3,22,0,0,0,2,31,90,11
6,3,11,1,2,0,2,31,90,11
6,3,0,0,3,0,2,31,90,11
6,3,21,0,4,0,2,31,93,11
7,3,16,1,6,1,3,31,93,11
7,3,17,1,2,0,3,31,4,11
7,3,0,0,0,0,3,31,90,11
7,3,22,0,3,0,3,31,103,11
7,3,2,0,4,0,3,31,93,11
7,3,17,1,6,1,3,31,103,11
7,3,21,0,1,0,3,31,103,11
7,3,23,0,3,0,3,31,103,11
7,3,17,1,5,1,3,31,93,11
7,3,12,1,6,1,3,31,93,11
7,3,1,0,0,0,3,31,127,11
7,3,0,0,3,0,3,31,90,11
7,3,18,1,3,0,3,31,40,11
7,3,8,1,4,0,3,31,93,11
7,3,1,0,5,1,3,31,90,11
8,3,7,1,1,0,3,31,93,11
8,3,23,0,2,0,3,31,103,11
8,3,12,1,3,0,3,31,90,9
8,3,17,1,4,0,3,31,93,11
8,3,4,0,5,1,3,31,103,11
8,3,20,1,5,1,3,31,65,11
8,3,14,1,1,0,3,31,65,11
8,3,8,1,3,0,3,31,103,11
8,3,23,0,3,0,3,31,93,11
8,3,12,1,6,1,3,31,93,11
8,3,11,1,6,1,3,31,93,11
8,3,19,1,2,0,3,31,103,11
8,3,3,0,3,0,3,31,103,11
8,3,17,1,0,0,3,31,67,11
8,3,12,1,1,0,3,31,90,11
8,3,14,1,4,0,3,31,93,11
9,4,0,0,4,0,3,31,90,11
9,4,23,0,5,1,3,31,90,11
9,4,21,0,0,0,3,31,90,11
9,4,21,0,1,0,3,31,4,11
9,4,19,1,2,0,3,31,127,11
9,4,10,1,4,0,3,31,127,11
9,4,4,0,6,1,3,31,82,11
10,4,8,1,5,1,4,31,4,11
10,4,14,1,0,0,4,31,15,9
10,4,19,1,3,0,4,31,90,11
10,4,16,1,0,0,4,31,4,11
10,4,19,1,1,0,4,31,90,11
11,4,19,1,2,0,4,31,90,11
11,4,23,0,0,0,4,31,90,9
11,4,10,1,5,1,4,31,103,11
11,4,16,1,1,0,4,31,79,11
12,1,11,1,5,1,4,31,28,11
12,1,7,1,2,0,4,31,90,11
12,1,8,1,0,0,4,31,79,11
12,1,10,1,1,0,4,31,90,11
12,1,15,1,5,1,4,31,90,11
12,1,10,1,4,0,4,31,79,11
2,1,16,1,4,0,1,31,22,11
4,2,14,1,5,1,2,31,103,11
1,1,10,1,0,0,1,31,76,11
1,1,17,1,3,0,1,31,4,11
1,1,4,0,4,0,1,31,21,11
1,1,12,1,5,1,1,31,67,11
1,1,18,1,6,1,1,31,93,11
1,1,11,1,2,0,1,31,113,9
1,1,17,1,2,0,1,31,38,11
1,1,16,1,4,0,1,31,90,11
1,1,15,1,5,1,1,31,90,11
1,1,12,1,6,1,1,31,93,11
1,1,18,1,6,1,1,31,90,11
1,1,0,0,0,0,1,31,103,11
1,1,22,0,0,0,1,31,67,11
1,1,14,1,1,0,1,31,103,11
1,1,17,1,1,0,1,31,90,11
1,1,18,1,1,0,1,31,93,11
1,1,21,0,1,0,1,31,67,11
1,1,21,0,2,0,1,31,103,11
1,1,14,1,3,0,1,31,28,11
1,1,22,0,3,0,1,31,110,11
1,1,8,1,3,0,1,31,127,11
1,1,1,0,4,0,1,31,90,11
1,1,1,0,6,1,1,31,127,11
1,1,17,1,0,0,1,31,103,11
1,1,7,1,3,0,1,31,112,11
1,1,18,1,3,0,1,31,79,11
1,1,18,1,3,0,1,31,79,11
1,1,21,0,3,0,1,31,90,11
1,1,18,1,4,0,1,31,90,11
1,1,9,1,5,1,1,31,93,11
1,1,20,1,6,1,1,31,90,11
1,1,1,0,0,0,1,31,101,11
1,1,4,0,1,0,1,31,103,11
2,1,18,1,3,0,1,31,67,11
2,1,20,1,4,0,1,31,67,11
2,1,22,0,5,1,1,31,21,9
2,1,11,1,6,1,1,31,79,11
2,1,17,1,0,0,1,31,103,11
2,1,19,1,0,0,1,31,79,11
2,1,20,1,0,0,1,31,98,11
2,1,14,1,2,0,1,31,93,9
2,1,15,1,3,0,1,31,79,11
2,1,21,0,4,0,1,31,38,11
2,1,14,1,4,0,1,31,90,11
2,1,17,1,4,0,1,31,38,11
2,1,1,0,5,1,1,31,90,11
2,1,18,1,5,1,1,31,67,11
2,1,7,1,6,1,1,31,67,11
2,1,0,0,1,0,1,31,15,9
2,1,2,0,1,0,1,31,21,11
2,1,5,0,1,0,1,31,90,11
2,1,20,1,2,0,1,31,127,11
2,1,10,1,2,0,1,31,127,11
2,1,10,1,2,0,1,31,90,11
2,1,15,1,3,0,1,31,67,11
2,1,22,0,3,0,1,31,90,11
2,1,8,1,5,1,1,31,103,11
2,1,16,1,5,1,1,31,93,11
2,1,20,1,5,1,1,31,67,11
2,1,18,1,1,0,1,31,93,11
2,1,21,0,1,0,1,31,93,9
2,1,21,0,2,0,1,31,38,11
2,1,21,0,2,0,1,31,90,11
2,1,21,0,2,0,1,31,90,11
2,1,20,1,2,0,1,31,93,11
2,1,12,1,3,0,1,31,103,11
2,1,19,1,3,0,1,31,93,11
2,1,22,0,4,0,1,31,90,11
2,1,21,0,5,1,1,31,103,11
2,1,2,0,6,1,1,31,90,11
2,1,11,1,6,1,1,31,103,11
3,2,12,1,4,0,1,31,79,11
3,2,14,1,4,0,1,31,79,11
3,2,14,1,3,0,1,31,103,11
3,2,21,0,3,0,1,31,90,11
3,2,6,0,6,1,1,31,90,11
3,2,14,1,6,1,1,31,79,11
3,2,14,1,6,1,1,31,67,11
3,2,21,0,0,0,1,31,67,11
3,2,13,1,2,0,1,31,84,11
3,2,20,1,2,0,1,31,67,11
3,2,22,0,2,0,1,31,90,9
3,2,21,0,5,1,1,31,90,11
3,2,0,0,6,1,1,31,67,11
3,2,1,0,6,1,1,31,90,11
3,2,14,1,0,0,1,31,93,11
3,2,15,1,0,0,1,31,93,11
3,2,17,1,0,0,1,31,67,11
3,2,16,1,0,0,1,31,90,11
3,2,20,1,1,0,1,31,103,9
3,2,7,1,3,0,1,31,93,11
3,2,2,0,3,0,1,31,103,11
3,2,22,0,4,0,1,31,67,11
3,2,13,1,4,0,1,31,28,11
3,2,18,1,4,0,1,31,79,11
4,2,16,1,5,1,2,31,46,11
4,2,14,1,6,1,2,31,103,11
4,2,21,0,0,0,2,31,67,11
4,2,11,1,2,0,2,31,67,11
4,2,23,0,5,1,2,31,90,11
4,2,23,0,5,1,2,31,90,11
4,2,12,1,0,0,2,31,67,9
4,2,18,1,1,0,2,31,90,11
4,2,21,0,2,0,2,31,93,11
4,2,2,0,3,0,2,31,127,11
4,2,18,1,3,0,2,31,90,11
4,2,21,0,5,1,2,31,103,11
4,2,12,1,5,1,2,31,79,9
4,2,20,1,6,1,2,31,127,11
4,2,0,0,2,0,2,31,127,11
4,2,21,0,3,0,2,31,93,11
4,2,18,1,4,0,2,31,90,11
4,2,20,1,4,0,2,31,103,11
4,2,22,0,6,1,2,31,48,9
4,2,14,1,1,0,2,31,127,11
4,2,16,1,1,0,2,31,103,11
4,2,4,0,2,0,2,31,21,9
4,2,12,1,4,0,2,31,114,11
4,2,3,0,6,1,2,31,79,11
5,2,2,0,3,0,2,31,101,11
5,2,20,1,3,0,2,31,21,11
5,2,9,1,4,0,2,31,90,11
5,2,11,1,4,0,2,31,93,11
5,2,20,1,0,0,2,31,93,11
5,2,3,0,4,0,2,31,21,11
5,2,12,1,1,0,2,31,103,11
5,2,20,1,2,0,2,31,93,11
5,2,14,1,5,1,2,31,4,11
5,2,21,0,6,1,2,31,93,11
5,2,14,1,3,0,2,31,103,11
5,2,19,1,4,0,2,31,90,11
5,2,17,1,5,1,2,31,24,8
5,2,15,1,6,1,2,31,21,9
5,2,18,1,6,1,2,31,98,11
5,2,4,0,0,0,2,31,98,11
6,3,10,1,4,0,2,31,38,11
6,3,15,1,6,1,2,31,38,11
6,3,17,1,6,1,2,31,90,11
6,3,21,0,2,0,2,31,21,11
6,3,11,1,5,1,2,31,93,11
6,3,14,1,5,1,2,31,93,11
6,3,17,1,6,1,2,31,101,11
6,3,17,1,3,0,2,31,103,11
6,3,12,1,0,0,2,31,101,11
6,3,17,1,0,0,2,31,103,11
6,3,16,1,0,0,2,31,109,9
6,3,22,0,0,0,2,31,103,11
6,3,22,0,1,0,2,31,98,11
6,3,15,1,2,0,2,31,67,11
6,3,22,0,2,0,2,31,28,11
6,3,16,1,3,0,2,31,93,11
6,3,14,1,3,0,2,31,24,9
6,3,16,1,4,0,2,31,93,11
6,3,23,0,5,1,2,31,28,11
6,3,17,1,5,1,2,31,93,11
6,3,0,0,6,1,2,31,4,11
6,3,16,1,1,0,2,31,28,9
6,3,13,1,2,0,2,31,103,11
6,3,17,1,2,0,2,31,57,11
6,3,21,0,2,0,2,31,103,11
6,3,16,1,3,0,2,31,67,11
6,3,11,1,3,0,2,31,93,11
6,3,20,1,4,0,2,31,90,11
7,3,9,1,5,1,3,31,93,11
7,3,18,1,6,1,3,31,103,11
7,3,17,1,1,0,3,31,103,11
7,3,2,0,6,1,3,31,103,11
7,3,0,0,0,0,3,31,103,11
7,3,14,1,2,0,3,31,103,11
7,3,14,1,2,0,3,31,93,11
7,3,2,0,3,0,3,31,79,11
7,3,7,1,3,0,3,31,93,11
7,3,14,1,3,0,3,31,93,11
7,3,12,1,3,0,3,31,101,11
7,3,17,1,6,1,3,31,127,11
7,3,18,1,6,1,3,31,93,11
7,3,22,0,6,1,3,31,93,11
7,3,15,1,0,0,3,31,76,11
7,3,14,1,1,0,3,31,103,11
7,3,10,1,2,0,3,31,93,11
7,3,17,1,2,0,3,31,93,11
7,3,14,1,3,0,3,31,90,11
7,3,14,1,3,0,3,31,103,11
7,3,14,1,5,1,3,31,93,11
7,3,15,1,5,1,3,31,26,11
7,3,16,1,5,1,3,31,103,9
7,3,13,1,5,1,3,31,90,11
7,3,0,0,6,1,3,31,93,11
7,3,4,0,0,0,3,31,103,11
7,3,17,1,0,0,3,31,84,11
7,3,17,1,1,0,3,31,103,11
7,3,23,0,1,0,3,31,90,11
7,3,19,1,2,0,3,31,38,11
7,3,22,0,2,0,3,31,67,11
7,3,18,1,2,0,3,31,15,11
7,3,0,0,3,0,3,31,60,11
7,3,9,1,4,0,3,31,93,11
7,3,12,1,4,0,3,31,1,11
7,3,16,1,4,0,3,31,90,11
7,3,20,1,4,0,3,31,109,11
7,3,20,1,6,1,3,31,67,11
7,3,17,1,0,0,3,31,90,11
8,3,21,0,4,0,3,31,21,11
8,3,10,1,6,1,3,31,4,11
8,3,12,1,6,1,3,31,28,11
8,3,16,1,6,1,3,31,28,11
8,3,18,1,6,1,3,31,28,11
8,3,19,1,6,1,3,31,4,11
8,3,21,0,6,1,3,31,93,11
8,3,1,0,0,0,3,31,90,11
8,3,3,0,0,0,3,31,43,11
8,3,9,1,2,0,3,31,46,11
8,3,13,1,2,0,3,31,65,8
8,3,18,1,3,0,3,31,103,11
8,3,20,1,3,0,3,31,112,11
8,3,4,0,4,0,3,31,98,9
8,3,3,0,6,1,3,31,90,11
8,3,3,0,6,1,3,31,90,11
8,3,14,1,6,1,3,31,103,11
8,3,13,1,6,1,3,31,111,11
8,3,18,1,6,1,3,31,93,11
8,3,23,0,6,1,3,31,98,11
8,3,9,1,0,0,3,31,28,11
8,3,14,1,0,0,3,31,28,11
8,3,5,0,1,0,3,31,93,11
8,3,14,1,1,0,3,31,103,11
8,3,23,0,2,0,3,31,14,9
8,3,3,0,2,0,3,31,90,11
8,3,5,0,2,0,3,31,21,9
8,3,4,0,4,0,3,31,93,11
8,3,13,1,5,1,3,31,93,11
8,3,2,0,6,1,3,31,93,11
8,3,3,0,6,1,3,31,93,11
8,3,9,1,0,0,3,31,90,11
8,3,14,1,0,0,3,31,90,11
8,3,14,1,0,0,3,31,93,11
8,3,23,0,0,0,3,31,124,11
8,3,0,0,1,0,3,31,124,11
8,3,19,1,2,0,3,31,21,11
8,3,7,1,3,0,3,31,90,9
8,3,13,1,3,0,3,31,4,11
8,3,16,1,3,0,3,31,103,11
8,3,17,1,3,0,3,31,28,11
8,3,17,1,3,0,3,31,28,11
8,3,19,1,3,0,3,31,28,11
8,3,16,1,5,1,3,31,93,11
8,3,1,0,6,1,3,31,1,11
8,3,22,0,6,1,3,31,90,11
8,3,0,0,0,0,3,31,90,11
8,3,17,1,1,0,3,31,93,11
8,3,12,1,2,0,3,31,90,11
8,3,15,1,2,0,3,31,90,11
8,3,15,1,2,0,3,31,28,11
8,3,9,1,3,0,3,31,4,11
8,3,14,1,3,0,3,31,90,11
9,4,16,1,4,0,3,31,93,11
9,4,16,1,4,0,3,31,93,9
9,4,17,1,5,1,3,31,93,11
9,4,10,1,6,1,3,31,90,11
9,4,20,1,0,0,3,31,112,11
9,4,12,1,0,0,3,31,24,11
9,4,9,1,1,0,3,31,112,11
9,4,14,1,1,0,3,31,67,11
9,4,8,1,6,1,3,31,127,11
9,4,18,1,6,1,3,31,90,11
9,4,17,1,0,0,3,31,67,11
9,4,12,1,1,0,3,31,21,11
9,4,1,0,4,0,3,31,112,11
9,4,20,1,6,1,3,31,93,11
9,4,17,1,2,0,3,31,103,11
9,4,18,1,5,1,3,31,28,11
9,4,17,1,6,1,3,31,93,11
9,4,15,1,6,1,3,31,90,11
9,4,18,1,0,0,3,31,93,11
9,4,19,1,3,0,3,31,90,11
9,4,9,1,5,1,3,31,98,11
10,4,13,1,0,0,4,31,79,11
10,4,14,1,0,0,4,31,67,11
10,4,16,1,3,0,4,31,90,11
10,4,15,1,6,1,4,31,93,11
10,4,18,1,6,1,4,31,127,11
10,4,16,1,1,0,4,31,103,11
10,4,14,1,5,1,4,31,90,11
10,4,2,0,1,0,4,31,103,11
10,4,4,0,1,0,4,31,90,11
10,4,23,0,2,0,4,31,90,11
10,4,2,0,5,1,4,31,90,11
10,4,13,1,0,0,4,31,21,11
10,4,20,1,0,0,4,31,103,11
11,4,19,1,2,0,4,31,28,11
11,4,18,1,0,0,4,31,21,11
11,4,14,1,1,0,4,31,4,11
11,4,11,1,3,0,4,31,76,11
11,4,17,1,3,0,4,31,24,11
11,4,17,1,4,0,4,31,38,11
11,4,18,1,5,1,4,31,79,9
11,4,13,1,0,0,4,31,90,11
11,4,22,0,0,0,4,31,79,11
11,4,1,0,1,0,4,31,90,11
11,4,17,1,1,0,4,31,103,11
11,4,19,1,2,0,4,31,38,11
11,4,11,1,2,0,4,31,90,11
11,4,8,1,3,0,4,31,67,11
11,4,17,1,3,0,4,31,38,11
11,4,15,1,4,0,4,31,38,11
11,4,21,0,4,0,4,31,38,11
11,4,18,1,5,1,4,31,76,11
11,4,18,1,5,1,4,31,67,11
11,4,18,1,5,1,4,31,67,11
11,4,17,1,6,1,4,31,38,11
11,4,18,1,6,1,4,31,38,11
11,4,6,0,1,0,4,31,105,11
11,4,9,1,2,0,4,31,127,11
11,4,8,1,3,0,4,31,76,9
11,4,3,0,4,0,4,31,103,11
11,4,10,1,6,1,4,31,127,11
11,4,11,1,6,1,4,31,79,11
11,4,15,1,2,0,4,31,26,11
11,4,17,1,2,0,4,31,103,11
11,4,15,1,3,0,4,31,90,11
12,1,15,1,4,0,4,31,67,11
12,1,17,1,4,0,4,31,93,11
12,1,7,1,6,1,4,31,67,11
12,1,15,1,0,0,4,31,127,11
12,1,21,0,0,0,4,31,38,11
12,1,18,1,1,0,4,31,90,11
12,1,21,0,5,1,4,31,67,11
12,1,22,0,6,1,4,31,90,11
12,1,10,1,0,0,4,31,127,11
12,1,12,1,1,0,4,31,127,11
12,1,20,1,1,0,4,31,93,11
12,1,18,1,5,1,4,31,38,11
12,1,22,0,0,0,4,31,90,11
12,1,21,0,1,0,4,31,38,11
12,1,10,1,3,0,4,31,67,9
12,1,20,1,4,0,4,31,48,11
12,1,7,1,6,1,4,31,15,11
12,1,15,1,1,0,4,31,67,11
12,1,1,0,2,0,4,31,46,11
12,1,10,1,2,0,4,31,4,11
12,1,11,1,3,0,4,31,90,11
12,1,17,1,4,0,4,31,103,11
12,1,12,1,5,1,4,31,90,11
12,1,20,1,6,1,4,31,79,11
1,1,19,1,2,0,1,31,103,11
1,1,15,1,3,0,1,31,27,11
1,1,7,1,1,0,1,31,93,11
2,1,6,0,3,0,1,31,93,11
2,1,21,0,0,0,1,31,93,11
2,1,21,0,2,0,1,31,93,11
2,1,16,1,5,1,1,31,57,11
3,2,3,0,6,1,1,31,103,11
3,2,16,1,3,0,1,31,124,11
3,2,9,1,1,0,1,31,21,11
3,2,20,1,6,1,1,31,103,11
4,2,13,1,5,1,2,31,103,11
4,2,17,1,6,1,2,31,93,11
5,2,12,1,6,1,2,31,124,11
5,2,19,1,5,1,2,31,79,9
5,2,20,1,2,0,2,31,57,11
6,3,13,1,2,0,2,31,93,11
7,3,3,0,3,0,3,31,21,11
7,3,14,1,2,0,3,31,26,11
7,3,13,1,5,1,3,31,21,11
7,3,15,1,5,1,3,31,103,11
7,3,22,0,1,0,3,31,21,11
7,3,18,1,3,0,3,31,90,11
7,3,19,1,6,1,3,31,90,11
8,3,3,0,3,0,3,31,103,11
9,4,11,1,3,0,3,31,10,11
9,4,21,0,5,1,3,31,124,11
9,4,17,1,0,0,3,31,28,11
9,4,16,1,1,0,3,31,93,11
10,4,14,1,0,0,4,31,93,11
10,4,17,1,6,1,4,31,103,11
10,4,21,0,4,0,4,31,15,9
11,4,9,1,3,0,4,31,103,11
12,1,18,1,4,0,4,31,103,11
12,1,17,1,5,1,4,31,103,11
12,1,19,1,1,0,4,31,46,11
12,1,13,1,3,0,4,31,91,9
1,1,23,0,0,0,1,31,124,11
1,1,10,1,1,0,1,31,103,11
1,1,16,1,0,0,1,31,21,11
2,1,14,1,3,0,1,31,79,9
2,1,12,1,1,0,1,31,21,11
2,1,12,1,3,0,1,31,15,9
2,1,22,0,3,0,1,31,38,11
2,1,16,1,1,0,1,31,127,11
2,1,3,0,3,0,1,31,90,11
2,1,8,1,4,0,1,31,38,11
2,1,14,1,5,1,1,31,93,11
3,2,2,0,0,0,1,31,42,11
3,2,23,0,1,0,1,31,111,9
3,2,23,0,3,0,1,31,79,11
4,2,16,1,0,0,2,31,67,11
4,2,8,1,2,0,2,31,83,11
4,2,11,1,4,0,2,31,124,11
4,2,18,1,2,0,2,31,15,11
5,2,17,1,1,0,2,31,79,11
6,3,11,1,5,1,2,31,21,11
6,3,16,1,6,1,2,31,15,11
6,3,16,1,5,1,2,31,93,11
7,3,13,1,3,0,3,31,111,11
7,3,15,1,6,1,3,31,93,11
8,3,20,1,4,0,3,31,103,11
9,4,12,1,4,0,3,31,21,11
9,4,17,1,1,0,3,31,79,11
9,4,19,1,1,0,3,31,90,11
9,4,10,1,2,0,3,31,103,11
10,4,15,1,2,0,4,31,111,8
12,1,1,0,4,0,4,31,21,11
12,1,14,1,1,0,4,31,21,11
12,1,22,0,4,0,4,31,21,11
1,1,0,0,6,1,1,35,98,11
1,1,1,0,6,1,1,35,101,11
1,1,13,1,6,1,1,35,98,11
1,1,18,1,6,1,1,35,94,11
1,1,11,1,0,0,1,35,90,11
1,1,0,0,1,0,1,35,79,8
1,1,19,1,1,0,1,35,38,11
1,1,20,1,2,0,1,35,90,11
1,1,1,0,3,0,1,35,90,11
1,1,12,1,3,0,1,35,79,11
1,1,16,1,4,0,1,35,98,11
1,1,0,0,5,1,1,35,93,11
1,1,15,1,5,1,1,35,103,11
1,1,14,1,6,1,1,35,103,11
1,1,15,1,6,1,1,35,103,11
1,1,13,1,0,0,1,35,127,11
1,1,12,1,1,0,1,35,127,11
1,1,20,1,2,0,1,35,79,11
1,1,1,0,4,0,1,35,88,11
1,1,7,1,5,1,1,35,98,11
1,1,15,1,5,1,1,35,103,11
1,1,11,1,6,1,1,35,67,11
1,1,12,1,0,0,1,35,90,11
1,1,14,1,0,0,1,35,103,11
1,1,12,1,1,0,1,35,103,11
1,1,15,1,1,0,1,35,103,11
1,1,1,0,4,0,1,35,80,11
1,1,15,1,4,0,1,35,103,11
1,1,17,1,4,0,1,35,103,11
1,1,17,1,5,1,1,35,127,11
1,1,3,0,6,1,1,35,127,11
1,1,20,1,6,1,1,35,103,11
1,1,4,0,1,0,1,35,127,11
1,1,16,1,4,0,1,35,98,11
1,1,18,1,6,1,1,35,101,11
1,1,21,0,1,0,1,35,98,11
1,1,23,0,1,0,1,35,101,11
2,1,1,0,2,0,1,35,21,11
2,1,23,0,2,0,1,35,98,11
2,1,9,1,3,0,1,35,15,11
2,1,14,1,3,0,1,35,103,11
2,1,9,1,4,0,1,35,111,11
2,1,20,1,4,0,1,35,76,11
2,1,1,0,5,1,1,35,93,11
2,1,13,1,5,1,1,35,93,11
2,1,14,1,5,1,1,35,93,11
2,1,10,1,6,1,1,35,127,11
2,1,20,1,0,0,1,35,10,11
2,1,11,1,2,0,1,35,79,11
2,1,14,1,3,0,1,35,98,11
2,1,15,1,4,0,1,35,67,11
2,1,21,0,4,0,1,35,127,11
2,1,22,0,5,1,1,35,98,11
2,1,13,1,6,1,1,35,98,11
2,1,13,1,6,1,1,35,98,11
2,1,16,1,6,1,1,35,98,11
2,1,23,0,6,1,1,35,98,11
2,1,23,0,6,1,1,35,79,11
2,1,15,1,0,0,1,35,98,11
2,1,6,0,3,0,1,35,103,11
2,1,10,1,3,0,1,35,127,11
2,1,12,1,3,0,1,35,98,11
2,1,12,1,3,0,1,35,127,11
2,1,20,1,3,0,1,35,98,11
2,1,14,1,4,0,1,35,93,11
2,1,19,1,4,0,1,35,88,11
2,1,18,1,6,1,1,35,67,11
2,1,20,1,6,1,1,35,127,11
2,1,18,1,0,0,1,35,10,11
2,1,1,0,1,0,1,35,103,11
2,1,14,1,2,0,1,35,127,11
2,1,18,1,2,0,1,35,103,11
2,1,20,1,5,1,1,35,127,11
2,1,12,1,6,1,1,35,93,11
2,1,22,0,6,1,1,35,98,11
2,1,16,1,1,0,1,35,79,11
2,1,21,0,1,0,1,35,98,11
3,2,23,0,2,0,1,35,127,11
3,2,0,0,3,0,1,35,127,11
3,2,0,0,3,0,1,35,127,11
3,2,4,0,3,0,1,35,127,11
3,2,5,0,4,0,1,35,98,11
3,2,23,0,4,0,1,35,98,11
3,2,21,0,1,0,1,35,98,11
3,2,8,1,2,0,1,35,98,11
3,2,10,1,2,0,1,35,67,11
3,2,13,1,2,0,1,35,98,11
3,2,19,1,2,0,1,35,21,11
3,2,20,1,2,0,1,35,98,11
3,2,22,0,2,0,1,35,103,11
3,2,23,0,2,0,1,35,98,11
3,2,0,0,4,0,1,35,98,11
3,2,22,0,4,0,1,35,93,11
3,2,8,1,6,1,1,35,79,11
3,2,18,1,6,1,1,35,38,11
3,2,20,1,6,1,1,35,21,11
3,2,11,1,0,0,1,35,76,11
3,2,14,1,0,0,1,35,4,11
3,2,13,1,1,0,1,35,93,11
3,2,20,1,1,0,1,35,101,11
3,2,23,0,1,0,1,35,98,11
3,2,14,1,3,0,1,35,93,11
3,2,21,0,4,0,1,35,79,11
3,2,20,1,5,1,1,35,127,11
3,2,4,0,0,0,1,35,88,11
3,2,22,0,0,0,1,35,127,11
3,2,12,1,1,0,1,35,98,11
3,2,22,0,1,0,1,35,98,11
3,2,10,1,2,0,1,35,93,11
3,2,2,0,3,0,1,35,67,11
3,2,23,0,3,0,1,35,98,11
3,2,18,1,0,0,1,35,103,11
3,2,9,1,3,0,1,35,93,11
3,2,19,1,3,0,1,35,93,11
3,2,15,1,4,0,1,35,98,11
4,2,10,1,6,1,2,35,93,11
4,2,20,1,0,0,2,35,15,11
4,2,5,0,2,0,2,35,80,11
4,2,21,0,3,0,2,35,67,11
4,2,19,1,6,1,2,35,67,11
4,2,20,1,2,0,2,35,79,8
4,2,10,1,3,0,2,35,98,11
4,2,15,1,3,0,2,35,91,11
4,2,18,1,3,0,2,35,103,11
4,2,17,1,4,0,2,35,93,11
4,2,9,1,5,1,2,35,21,11
4,2,10,1,5,1,2,35,103,11
4,2,15,1,5,1,2,35,98,11
4,2,20,1,5,1,2,35,103,11
4,2,2,0,6,1,2,35,103,11
4,2,13,1,6,1,2,35,79,11
4,2,17,1,6,1,2,35,101,11
4,2,23,0,6,1,2,35,103,11
4,2,20,1,4,0,2,35,103,11
4,2,21,0,6,1,2,35,98,11
4,2,14,1,0,0,2,35,113,11
4,2,22,0,1,0,2,35,103,11
4,2,22,0,1,0,2,35,103,11
4,2,22,0,1,0,2,35,103,11
4,2,22,0,1,0,2,35,103,11
4,2,6,0,2,0,2,35,21,11
4,2,12,1,6,1,2,35,103,11
4,2,14,1,6,1,2,35,93,11
5,2,14,1,0,0,2,35,103,11
5,2,11,1,1,0,2,35,93,11
5,2,18,1,3,0,2,35,67,11
5,2,15,1,6,1,2,35,103,11
5,2,20,1,6,1,2,35,21,11
5,2,13,1,0,0,2,35,93,11
5,2,11,1,2,0,2,35,79,11
5,2,19,1,2,0,2,35,79,11
5,2,22,0,4,0,2,35,93,11
5,2,20,1,5,1,2,35,79,11
5,2,13,1,6,1,2,35,79,11
5,2,21,0,6,1,2,35,76,11
5,2,7,1,0,0,2,35,79,11
5,2,10,1,2,0,2,35,79,11
5,2,16,1,2,0,2,35,37,11
5,2,19,1,2,0,2,35,93,11
5,2,23,0,2,0,2,35,67,11
5,2,7,1,6,1,2,35,79,11
5,2,21,0,0,0,2,35,10,11
5,2,5,0,1,0,2,35,76,11
5,2,20,1,3,0,2,35,103,11
5,2,23,0,5,1,2,35,90,11
5,2,16,1,1,0,2,35,103,11
6,3,18,1,4,0,2,35,93,11
6,3,12,1,2,0,2,35,76,11
6,3,23,0,2,0,2,35,103,11
6,3,5,0,3,0,2,35,79,11
6,3,22,0,4,0,2,35,103,11
6,3,13,1,5,1,2,35,103,11
6,3,2,0,6,1,2,35,98,11
6,3,3,0,3,0,2,35,103,11
6,3,3,0,3,0,2,35,103,11
6,3,11,1,3,0,2,35,93,11
6,3,1,0,4,0,2,35,88,11
6,3,11,1,4,0,2,35,103,11
6,3,12,1,5,1,2,35,24,11
6,3,7,1,6,1,2,35,75,11
6,3,19,1,6,1,2,35,67,11
6,3,20,1,1,0,2,35,98,11
6,3,22,0,1,0,2,35,103,11
6,3,20,1,2,0,2,35,93,11
6,3,13,1,4,0,2,35,127,11
6,3,0,0,5,1,2,35,103,11
6,3,16,1,5,1,2,35,93,11
6,3,20,1,5,1,2,35,67,11
6,3,21,0,5,1,2,35,103,11
6,3,0,0,1,0,2,35,103,11
6,3,12,1,1,0,2,35,102,11
6,3,22,0,1,0,2,35,103,11
6,3,20,1,2,0,2,35,93,11
6,3,23,0,2,0,2,35,103,11
6,3,13,1,3,0,2,35,127,11
7,3,6,0,5,1,3,35,98,11
7,3,23,0,5,1,3,35,103,11
7,3,23,0,5,1,3,35,103,11
7,3,21,0,1,0,3,35,103,11
7,3,2,0,3,0,3,35,76,11
7,3,23,0,3,0,3,35,103,11
7,3,5,0,5,1,3,35,67,11
7,3,11,1,5,1,3,35,67,11
7,3,9,1,6,1,3,35,103,11
7,3,9,1,6,1,3,35,103,11
7,3,14,1,6,1,3,35,21,11
7,3,10,1,6,1,3,35,103,11
7,3,16,1,5,1,3,35,93,11
7,3,4,0,5,1,3,35,103,11
7,3,3,0,3,0,3,35,98,11
7,3,4,0,3,0,3,35,98,11
7,3,11,1,3,0,3,35,93,11
7,3,10,1,4,0,3,35,76,11
7,3,17,1,4,0,3,35,98,11
7,3,23,0,5,1,3,35,98,11
7,3,8,1,6,1,3,35,93,11
7,3,8,1,6,1,3,35,93,11
7,3,9,1,6,1,3,35,79,11
7,3,18,1,0,0,3,35,103,11
7,3,12,1,1,0,3,35,76,11
7,3,17,1,1,0,3,35,103,11
7,3,17,1,2,0,3,35,90,11
7,3,17,1,2,0,3,35,90,11
7,3,21,0,2,0,3,35,93,11
7,3,6,0,2,0,3,35,93,11
7,3,17,1,2,0,3,35,98,11
7,3,18,1,3,0,3,35,103,11
7,3,17,1,5,1,3,35,18,11
8,3,23,0,3,0,3,35,103,11
8,3,15,1,4,0,3,35,37,11
8,3,3,0,6,1,3,35,93,11
8,3,20,1,6,1,3,35,93,11
8,3,14,1,0,0,3,35,58,11
8,3,10,1,1,0,3,35,79,11
8,3,20,1,4,0,3,35,103,11
8,3,4,0,5,1,3,35,82,11
8,3,3,0,2,0,3,35,93,11
8,3,22,0,3,0,3,35,103,11
8,3,22,0,3,0,3,35,76,11
8,3,0,0,4,0,3,35,76,11
8,3,13,1,4,0,3,35,79,8
8,3,21,0,4,0,3,35,93,11
8,3,18,1,0,0,3,35,76,11
8,3,9,1,2,0,3,35,93,11
8,3,9,1,1,0,3,35,127,11
8,3,12,1,3,0,3,35,127,8
8,3,21,0,3,0,3,35,103,11
9,4,11,1,5,1,3,35,93,11
9,4,11,1,0,0,3,35,103,11
9,4,20,1,3,0,3,35,66,11
9,4,21,0,4,0,3,35,67,11
9,4,15,1,5,1,3,35,93,11
9,4,14,1,6,1,3,35,21,11
9,4,22,0,0,0,3,35,82,11
9,4,11,1,1,0,3,35,127,11
9,4,17,1,1,0,3,35,76,11
9,4,3,0,1,0,3,35,98,11
9,4,19,1,4,0,3,35,76,11
9,4,5,0,6,1,3,35,103,11
9,4,21,0,6,1,3,35,21,11
9,4,19,1,0,0,3,35,103,11
9,4,2,0,1,0,3,35,103,11
9,4,20,1,1,0,3,35,103,11
9,4,22,0,1,0,3,35,103,11
9,4,14,1,2,0,3,35,103,11
9,4,19,1,5,1,3,35,21,11
9,4,17,1,6,1,3,35,76,11
9,4,18,1,6,1,3,35,93,11
9,4,19,1,6,1,3,35,93,11
9,4,10,1,0,0,3,35,103,11
9,4,1,0,1,0,3,35,103,11
9,4,10,1,2,0,3,35,76,11
9,4,21,0,3,0,3,35,114,11
9,4,19,1,5,1,3,35,15,11
10,4,9,1,1,0,4,35,76,11
10,4,10,1,2,0,4,35,21,11
10,4,13,1,2,0,4,35,21,11
10,4,11,1,4,0,4,35,127,11
10,4,17,1,4,0,4,35,103,11
10,4,1,0,5,1,4,35,103,11
10,4,20,1,6,1,4,35,21,11
10,4,21,0,1,0,4,35,38,11
10,4,10,1,4,0,4,35,98,11
10,4,14,1,4,0,4,35,90,11
10,4,2,0,6,1,4,35,98,11
10,4,20,1,6,1,4,35,127,11
10,4,22,0,6,1,4,35,103,11
10,4,18,1,2,0,4,35,15,8
10,4,5,0,0,0,4,35,101,11
10,4,2,0,5,1,4,35,76,11
10,4,16,1,0,0,4,35,79,11
11,4,0,0,2,0,4,35,98,11
11,4,11,1,3,0,4,35,93,11
11,4,9,1,4,0,4,35,21,11
11,4,20,1,6,1,4,35,67,11
11,4,7,1,2,0,4,35,21,11
11,4,15,1,4,0,4,35,79,11
11,4,15,1,4,0,4,35,103,11
11,4,4,0,0,0,4,35,98,11
11,4,2,0,2,0,4,35,79,9
11,4,20,1,3,0,4,35,24,11
11,4,17,1,4,0,4,35,21,11
11,4,15,1,0,0,4,35,48,11
11,4,20,1,0,0,4,35,67,11
11,4,15,1,5,1,4,35,79,11
11,4,14,1,0,0,4,35,103,11
11,4,19,1,0,0,4,35,38,11
11,4,1,0,2,0,4,35,21,11
12,1,1,0,4,0,4,35,98,11
12,1,12,1,6,1,4,35,38,11
12,1,18,1,6,1,4,35,103,11
12,1,1,0,2,0,4,35,79,11
12,1,20,1,2,0,4,35,127,11
12,1,22,0,2,0,4,35,67,11
12,1,22,0,2,0,4,35,103,11
12,1,13,1,6,1,4,35,79,11
12,1,15,1,0,0,4,35,21,11
12,1,17,1,0,0,4,35,98,11
12,1,19,1,0,0,4,35,76,11
12,1,17,1,1,0,4,35,98,11
12,1,20,1,2,0,4,35,79,11
12,1,18,1,3,0,4,35,98,11
12,1,19,1,3,0,4,35,90,11
12,1,17,1,4,0,4,35,98,11
12,1,21,0,4,0,4,35,21,11
12,1,14,1,5,1,4,35,98,11
12,1,18,1,6,1,4,35,103,11
12,1,12,1,0,0,4,35,98,11
12,1,14,1,1,0,4,35,103,11
12,1,9,1,3,0,4,35,98,11
12,1,7,1,4,0,4,35,103,11
12,1,15,1,4,0,4,35,58,11
12,1,21,0,4,0,4,35,10,11
12,1,21,0,4,0,4,35,103,11
12,1,11,1,5,1,4,35,103,11
12,1,20,1,5,1,4,35,98,11
12,1,14,1,6,1,4,35,103,11
12,1,4,0,0,0,4,35,98,11
12,1,5,0,0,0,4,35,98,11
12,1,16,1,0,0,4,35,79,11
12,1,5,0,1,0,4,35,93,11
12,1,14,1,1,0,4,35,38,11
12,1,11,1,3,0,4,35,103,11
12,1,14,1,3,0,4,35,103,11
12,1,5,0,4,0,4,35,103,11
12,1,5,0,4,0,4,35,103,11
12,1,21,0,4,0,4,35,103,11
12,1,21,0,6,1,4,35,101,11
1,1,6,0,1,0,1,35,76,11
1,1,13,1,3,0,1,35,38,11
2,1,15,1,3,0,1,35,93,11
2,1,13,1,5,1,1,35,103,11
2,1,0,0,6,1,1,35,103,11
2,1,23,0,6,1,1,35,127,11
3,2,11,1,4,0,1,35,15,11
3,2,17,1,5,1,1,35,93,11
3,2,22,0,2,0,1,35,76,11
5,2,10,1,1,0,2,35,68,11
5,2,17,1,1,0,2,35,93,11
6,3,20,1,6,1,2,35,103,11
6,3,21,0,2,0,2,35,10,11
6,3,21,0,3,0,2,35,93,11
6,3,17,1,4,0,2,35,68,11
6,3,11,1,4,0,2,35,93,11
6,3,3,0,5,1,2,35,103,11
6,3,12,1,1,0,2,35,93,11
7,3,13,1,6,1,3,35,90,11
7,3,20,1,1,0,3,35,21,11
7,3,14,1,2,0,3,35,93,11
7,3,8,1,0,0,3,35,4,11
7,3,20,1,3,0,3,35,26,11
7,3,16,1,6,1,3,35,4,11
7,3,13,1,5,1,3,35,103,11
7,3,10,1,6,1,3,35,24,11
8,3,22,0,1,0,3,35,65,9
8,3,11,1,5,1,3,35,103,11
8,3,12,1,2,0,3,35,112,11
8,3,21,0,1,0,3,35,93,11
8,3,2,0,2,0,3,35,90,11
8,3,6,0,2,0,3,35,4,11
9,4,13,1,6,1,3,35,79,9
9,4,17,1,0,0,3,35,4,11
9,4,13,1,1,0,3,35,103,11
9,4,22,0,3,0,3,35,127,11
10,4,11,1,6,1,4,35,93,11
10,4,19,1,3,0,4,35,103,11
10,4,4,0,1,0,4,35,76,9
11,4,0,0,5,1,4,35,21,11
11,4,17,1,6,1,4,35,93,11
11,4,15,1,3,0,4,35,28,11
12,1,18,1,5,1,4,35,93,11
12,1,22,0,6,1,4,35,90,11
12,1,17,1,1,0,4,35,118,9
12,1,20,1,1,0,4,35,98,11
12,1,16,1,2,0,4,35,103,11
12,1,12,1,0,0,4,35,98,11
12,1,3,0,6,1,4,35,76,11
1,1,14,1,3,0,1,35,93,11
4,2,15,1,5,1,2,35,93,11
4,2,2,0,3,0,2,35,93,11
6,3,11,1,1,0,2,35,112,11
7,3,0,0,1,0,3,35,76,11
7,3,14,1,4,0,3,35,103,11
7,3,18,1,6,1,3,35,93,11
9,4,10,1,3,0,3,35,48,11
11,4,18,1,2,0,4,35,93,11
11,4,15,1,3,0,4,35,112,11
11,4,17,1,3,0,4,35,76,11
11,4,3,0,1,0,4,35,21,11
12,1,17,1,5,1,4,35,112,11
1,1,13,1,4,0,1,35,15,11
4,2,0,0,1,0,2,35,94,11
4,2,18,1,1,0,2,35,21,11
4,2,11,1,4,0,2,35,93,11
4,2,12,1,5,1,2,35,93,11
5,2,12,1,5,1,2,35,76,11
7,3,10,1,0,0,3,35,88,11
7,3,1,0,4,0,3,35,98,11
7,3,4,0,2,0,3,35,87,11
8,3,13,1,4,0,3,35,87,11
9,4,10,1,0,0,3,35,112,11
9,4,4,0,1,0,3,35,38,11
9,4,11,1,3,0,3,35,21,11
10,4,13,1,4,0,4,35,79,11
11,4,10,1,3,0,4,35,93,11
12,1,11,1,1,0,4,35,103,11
11,4,18,1,3,0,4,35,112,11
2,1,11,1,0,0,1,35,93,11
3,2,7,1,3,0,1,35,127,11
4,2,13,1,6,1,2,35,79,11
4,2,21,0,3,0,2,35,93,11
4,2,20,1,4,0,2,35,66,11
4,2,18,1,3,0,2,35,103,11
4,2,9,1,4,0,2,35,103,11
5,2,12,1,2,0,2,35,112,11
6,3,20,1,2,0,2,35,93,11
11,4,16,1,5,1,4,35,57,11
11,4,0,0,6,1,4,35,110,11
11,4,16,1,4,0,4,35,103,11
2,1,18,1,2,0,1,35,79,11
2,1,0,0,3,0,1,35,111,11
2,1,8,1,4,0,1,35,4,11
2,1,20,1,4,0,1,35,4,11
2,1,10,1,6,1,1,35,4,11
3,2,14,1,6,1,1,35,79,11
3,2,15,1,0,0,1,35,93,11
3,2,19,1,1,0,1,35,103,11
3,2,17,1,4,0,1,35,103,11
3,2,21,0,6,1,1,35,103,11
3,2,19,1,0,0,1,35,4,11
4,2,14,1,4,0,2,35,4,11
4,2,23,0,4,0,2,35,103,11
5,2,21,0,2,0,2,35,112,11
5,2,14,1,6,1,2,35,103,11
5,2,11,1,1,0,2,35,103,11
5,2,21,0,3,0,2,35,103,11
6,3,16,1,4,0,2,35,1,11
6,3,20,1,2,0,2,35,103,11
7,3,7,1,4,0,3,35,103,11
7,3,15,1,3,0,3,35,109,9
7,3,3,0,4,0,3,35,103,11
7,3,10,1,0,0,3,35,14,11
7,3,15,1,0,0,3,35,103,11
7,3,6,0,4,0,3,35,103,11
8,3,13,1,1,0,3,35,46,9
8,3,10,1,2,0,3,35,112,11
8,3,18,1,2,0,3,35,93,11
8,3,12,1,0,0,3,35,93,11
8,3,13,1,3,0,3,35,76,11
9,4,13,1,4,0,3,35,4,11
11,4,14,1,0,0,4,35,103,11
11,4,15,1,2,0,4,35,103,11
12,1,17,1,6,1,4,35,103,11
12,1,20,1,3,0,4,35,113,11
1,1,17,1,2,0,1,45,80,11
1,1,3,0,3,0,1,45,79,9
1,1,19,1,4,0,1,45,90,11
1,1,19,1,5,1,1,45,79,11
1,1,18,1,1,0,1,45,93,11
2,1,11,1,0,0,1,45,24,11
2,1,23,0,1,0,1,45,98,11
2,1,18,1,5,1,1,45,38,11
2,1,17,1,3,0,1,45,15,11
2,1,17,1,6,1,1,45,103,11
2,1,19,1,6,1,1,45,103,11
2,1,13,1,1,0,1,45,93,11
3,2,23,0,0,0,1,45,103,11
3,2,8,1,5,1,1,45,98,11
3,2,21,0,4,0,1,45,67,11
4,2,12,1,3,0,2,45,90,11
4,2,7,1,6,1,2,45,79,11
4,2,9,1,0,0,2,45,79,11
4,2,15,1,0,0,2,45,83,11
4,2,7,1,0,0,2,45,90,11
4,2,14,1,1,0,2,45,111,8
4,2,16,1,6,1,2,45,90,11
4,2,9,1,4,0,2,45,93,11
4,2,12,1,6,1,2,45,108,11
5,2,21,0,3,0,2,45,67,11
5,2,18,1,5,1,2,45,76,11
5,2,5,0,6,1,2,45,79,8
5,2,2,0,3,0,2,45,98,11
6,3,16,1,5,1,2,45,93,11
6,3,12,1,0,0,2,45,79,11
6,3,19,1,2,0,2,45,76,11
6,3,14,1,5,1,2,45,103,11
6,3,17,1,2,0,2,45,103,11
6,3,5,0,2,0,2,45,89,9
7,3,21,0,2,0,3,45,103,11
7,3,15,1,2,0,3,45,111,11
7,3,13,1,3,0,3,45,93,11
9,4,21,0,5,1,3,45,21,11
9,4,19,1,1,0,3,45,21,11
10,4,20,1,5,1,4,45,127,11
10,4,17,1,6,1,4,45,103,11
10,4,15,1,6,1,4,45,103,11
10,4,23,0,0,0,4,45,93,9
10,4,14,1,5,1,4,45,76,11
10,4,6,0,6,1,4,45,98,11
11,4,13,1,6,1,4,45,79,11
11,4,15,1,4,0,4,45,26,11
11,4,22,0,6,1,4,45,38,11
11,4,22,0,3,0,4,45,67,11
11,4,21,0,3,0,4,45,79,11
11,4,18,1,5,1,4,45,79,11
11,4,11,1,6,1,4,45,67,11
11,4,11,1,6,1,4,45,79,11
11,4,19,1,6,1,4,45,79,11
12,1,10,1,1,0,4,45,79,11
12,1,13,1,6,1,4,45,90,11
12,1,13,1,1,0,4,45,79,11
3,2,2,0,6,1,1,45,90,11
4,2,9,1,6,1,2,45,79,11
5,2,17,1,2,0,2,45,15,11
5,2,16,1,2,0,2,45,90,9
7,3,14,1,1,0,3,45,93,9
7,3,19,1,2,0,3,45,112,11
9,4,23,0,5,1,3,45,21,11
10,4,23,0,4,0,4,45,66,11
10,4,1,0,5,1,4,45,93,8
10,4,15,1,2,0,4,45,76,11
11,4,0,0,6,1,4,45,93,11
12,1,17,1,1,0,4,45,1,9
12,1,0,0,3,0,4,45,26,11
12,1,1,0,3,0,4,45,14,9
4,2,16,1,2,0,2,45,79,9
4,2,23,0,6,1,2,45,38,11
4,2,9,1,2,0,2,45,79,8
4,2,21,0,5,1,2,45,111,11
7,3,11,1,4,0,3,45,103,11
7,3,10,1,6,1,3,45,84,11
8,3,17,1,4,0,3,45,93,11
1,1,15,1,6,1,1,45,90,11
1,1,11,1,1,0,1,45,90,11
1,1,19,1,0,0,1,45,79,11
2,1,22,0,5,1,1,45,79,11
2,1,9,1,0,0,1,45,127,11
2,1,12,1,0,0,1,45,103,11
2,1,10,1,4,0,1,45,103,11
2,1,17,1,5,1,1,45,103,11
2,1,18,1,5,1,1,45,103,11
2,1,17,1,5,1,1,45,103,11
2,1,13,1,6,1,1,45,127,11
2,1,16,1,6,1,1,45,93,11
2,1,13,1,6,1,1,45,103,11
2,1,19,1,6,1,1,45,103,11
2,1,11,1,2,0,1,45,103,11
2,1,18,1,2,0,1,45,103,11
2,1,20,1,2,0,1,45,93,11
2,1,13,1,5,1,1,45,103,11
2,1,14,1,6,1,1,45,103,11
2,1,16,1,6,1,1,45,103,11
2,1,18,1,6,1,1,45,103,11
2,1,12,1,6,1,1,45,93,11
2,1,19,1,6,1,1,45,103,11
3,2,21,0,4,0,1,45,67,11
3,2,18,1,1,0,1,45,103,11
3,2,21,0,4,0,1,45,103,11
3,2,18,1,0,0,1,45,103,11
3,2,9,1,5,1,1,45,90,11
3,2,20,1,6,1,1,45,67,11
3,2,16,1,5,1,1,45,90,11
3,2,22,0,6,1,1,45,103,11
3,2,14,1,0,0,1,45,90,11
3,2,15,1,4,0,1,45,103,11
4,2,20,1,5,1,2,45,103,11
4,2,7,1,1,0,2,45,48,11
4,2,20,1,4,0,2,45,79,11
4,2,22,0,5,1,2,45,10,11
6,3,1,0,4,0,2,45,21,11
6,3,18,1,6,1,2,45,103,11
7,3,17,1,4,0,3,45,21,11
7,3,5,0,5,1,3,45,90,11
7,3,15,1,2,0,3,45,103,11
8,3,8,1,3,0,3,45,103,11
8,3,6,0,5,1,3,45,103,11
8,3,12,1,5,1,3,45,103,11
8,3,17,1,4,0,3,45,103,11
8,3,23,0,5,1,3,45,103,11
9,4,0,0,4,0,3,45,103,11
9,4,14,1,2,0,3,45,65,11
9,4,21,0,2,0,3,45,127,11
11,4,10,1,2,0,4,45,79,11
11,4,5,0,3,0,4,45,127,11
11,4,4,0,3,0,4,45,127,11
11,4,17,1,6,1,4,45,103,11
11,4,0,0,0,0,4,45,67,11
12,1,11,1,0,0,4,45,103,11
12,1,4,0,1,0,4,45,127,11
12,1,17,1,4,0,4,45,103,11
12,1,7,1,5,1,4,45,38,8
12,1,22,0,5,1,4,45,38,11
12,1,9,1,6,1,4,45,127,11
12,1,17,1,1,0,4,45,103,11
1,1,22,0,6,1,1,22,103,11
1,1,22,0,1,0,1,22,103,11
1,1,14,1,1,0,1,22,103,11
1,1,18,1,3,0,1,22,126,11
1,1,18,1,4,0,1,22,103,11
1,1,1,0,4,0,1,22,103,11
1,1,8,1,0,0,1,22,32,9
1,1,21,0,2,0,1,22,103,11
1,1,22,0,3,0,1,22,103,11
1,1,20,1,0,0,1,22,79,9
1,1,20,1,4,0,1,22,103,11
1,1,19,1,0,0,1,22,67,11
2,1,9,1,6,1,1,22,103,11
2,1,19,1,0,0,1,22,90,11
2,1,20,1,6,1,1,22,103,11
2,1,17,1,0,0,1,22,79,8
2,1,14,1,0,0,1,22,79,8
2,1,3,0,2,0,1,22,103,11
2,1,21,0,4,0,1,22,79,11
2,1,15,1,5,1,1,22,103,11
2,1,14,1,5,1,1,22,103,11
2,1,10,1,6,1,1,22,79,11
2,1,9,1,6,1,1,22,103,11
2,1,19,1,0,0,1,22,103,11
2,1,13,1,0,0,1,22,124,11
2,1,14,1,3,0,1,22,103,11
3,2,16,1,4,0,1,22,103,11
3,2,11,1,6,1,1,22,103,11
3,2,18,1,6,1,1,22,15,11
3,2,18,1,0,0,1,22,93,11
3,2,11,1,3,0,1,22,103,11
3,2,18,1,5,1,1,22,103,11
3,2,23,0,6,1,1,22,103,11
3,2,23,0,6,1,1,22,103,11
3,2,22,0,0,0,1,22,103,11
3,2,0,0,1,0,1,22,103,11
3,2,15,1,3,0,1,22,103,11
3,2,21,0,3,0,1,22,103,11
3,2,20,1,4,0,1,22,103,11
3,2,19,1,4,0,1,22,103,11
4,2,16,1,0,0,2,22,103,11
4,2,17,1,2,0,2,22,103,11
4,2,21,0,4,0,2,22,112,11
4,2,0,0,6,1,2,22,90,11
4,2,14,1,6,1,2,22,16,9
4,2,7,1,6,1,2,22,67,11
4,2,23,0,4,0,2,22,103,11
4,2,0,0,0,0,2,22,103,11
4,2,0,0,0,0,2,22,103,11
4,2,0,0,0,0,2,22,103,11
4,2,23,0,4,0,2,22,48,9
4,2,18,1,4,0,2,22,103,11
4,2,23,0,5,1,2,22,103,11
4,2,8,1,5,1,2,22,103,11
4,2,6,0,5,1,2,22,103,11
5,2,17,1,4,0,2,22,103,11
5,2,15,1,4,0,2,22,103,11
5,2,0,0,6,1,2,22,90,11
5,2,0,0,6,1,2,22,90,11
5,2,15,1,2,0,2,22,109,11
6,3,8,1,1,0,2,22,21,11
6,3,15,1,1,0,2,22,33,11
6,3,15,1,2,0,2,22,103,11
6,3,19,1,2,0,2,22,103,11
6,3,0,0,3,0,2,22,125,11
6,3,3,0,5,1,2,22,103,11
6,3,11,1,5,1,2,22,103,11
6,3,18,1,5,1,2,22,58,11
6,3,1,0,0,0,2,22,98,11
6,3,4,0,0,0,2,22,103,11
6,3,1,0,2,0,2,22,103,11
6,3,0,0,2,0,2,22,103,11
6,3,18,1,2,0,2,22,90,11
6,3,0,0,2,0,2,22,103,11
6,3,1,0,3,0,2,22,103,11
6,3,1,0,3,0,2,22,103,11
6,3,1,0,3,0,2,22,103,11
6,3,1,0,3,0,2,22,103,11
7,3,12,1,0,0,3,22,93,11
7,3,20,1,4,0,3,22,103,11
7,3,21,0,3,0,3,22,103,11
7,3,11,1,3,0,3,22,15,8
7,3,15,1,4,0,3,22,38,11
7,3,4,0,3,0,3,22,103,11
7,3,0,0,5,1,3,22,103,11
8,3,10,1,4,0,3,22,21,11
8,3,17,1,0,0,3,22,103,11
8,3,7,1,2,0,3,22,79,11
8,3,21,0,5,1,3,22,103,11
8,3,16,1,5,1,3,22,103,11
9,4,1,0,5,1,3,22,65,11
9,4,18,1,2,0,3,22,15,11
9,4,1,0,2,0,3,22,58,11
9,4,18,1,3,0,3,22,103,11
9,4,14,1,0,0,3,22,110,11
9,4,21,0,4,0,3,22,112,11
9,4,3,0,5,1,3,22,103,11
9,4,14,1,1,0,3,22,15,9
10,4,17,1,2,0,4,22,103,11
10,4,19,1,4,0,4,22,103,11
10,4,20,1,6,1,4,22,103,11
10,4,16,1,6,1,4,22,14,11
10,4,20,1,2,0,4,22,127,11
10,4,19,1,2,0,4,22,127,11
10,4,16,1,5,1,4,22,103,11
10,4,18,1,5,1,4,22,103,11
10,4,13,1,1,0,4,22,4,11
11,4,14,1,2,0,4,22,103,11
11,4,12,1,2,0,4,22,21,11
11,4,13,1,6,1,4,22,93,11
11,4,20,1,2,0,4,22,127,8
11,4,15,1,2,0,4,22,21,11
11,4,13,1,2,0,4,22,103,11
11,4,12,1,3,0,4,22,90,11
11,4,8,1,4,0,4,22,103,11
11,4,18,1,0,0,4,22,103,11
11,4,13,1,0,0,4,22,103,11
11,4,19,1,3,0,4,22,79,11
12,1,17,1,6,1,4,22,103,11
12,1,8,1,0,0,4,22,114,11
12,1,12,1,0,0,4,22,103,11
12,1,12,1,0,0,4,22,103,11
12,1,18,1,0,0,4,22,103,11
12,1,20,1,3,0,4,22,103,11
12,1,7,1,4,0,4,22,103,11
12,1,17,1,3,0,4,22,124,11
12,1,12,1,5,1,4,22,103,11
12,1,22,0,1,0,4,22,79,11
12,1,15,1,2,0,4,22,103,11
12,1,18,1,2,0,4,22,103,11
12,1,12,1,5,1,4,22,79,9
12,1,1,0,0,0,4,22,79,8
12,1,21,0,1,0,4,22,103,11
12,1,16,1,1,0,4,22,103,11
12,1,11,1,1,0,4,22,103,11
12,1,1,0,6,1,4,22,103,11
12,1,18,1,6,1,4,22,103,11
1,1,16,1,0,0,1,22,79,9
1,1,17,1,2,0,1,22,103,11
1,1,20,1,3,0,1,22,66,9
2,1,12,1,5,1,1,22,79,11
2,1,15,1,5,1,1,22,124,9
2,1,13,1,1,0,1,22,103,11
2,1,10,1,4,0,1,22,103,11
2,1,12,1,3,0,1,22,76,11
2,1,18,1,3,0,1,22,103,11
3,2,12,1,5,1,1,22,112,11
3,2,22,0,1,0,1,22,66,11
4,2,20,1,6,1,2,22,103,11
4,2,17,1,5,1,2,22,112,11
5,2,8,1,1,0,2,22,79,9
6,3,18,1,1,0,2,22,21,9
6,3,14,1,4,0,2,22,4,11
6,3,18,1,5,1,2,22,103,11
6,3,16,1,3,0,2,22,93,11
7,3,20,1,4,0,3,22,103,11
7,3,16,1,1,0,3,22,93,11
7,3,13,1,1,0,3,22,15,9
7,3,20,1,1,0,3,22,93,11
7,3,10,1,0,0,3,22,38,11
7,3,23,0,2,0,3,22,93,11
8,3,6,0,5,1,3,22,21,9
8,3,12,1,0,0,3,22,14,11
8,3,0,0,1,0,3,22,15,11
8,3,19,1,3,0,3,22,112,11
8,3,19,1,3,0,3,22,112,11
8,3,20,1,3,0,3,22,112,11
8,3,16,1,4,0,3,22,93,11
8,3,12,1,5,1,3,22,57,11
8,3,9,1,2,0,3,22,103,11
8,3,17,1,2,0,3,22,103,11
8,3,17,1,3,0,3,22,103,11
8,3,16,1,3,0,3,22,93,11
9,4,16,1,6,1,3,22,103,11
9,4,23,0,0,0,3,22,65,8
9,4,21,0,1,0,3,22,112,11
9,4,3,0,3,0,3,22,114,11
10,4,13,1,0,0,4,22,103,11
10,4,3,0,4,0,4,22,98,11
10,4,18,1,1,0,4,22,112,11
10,4,7,1,2,0,4,22,112,11
10,4,14,1,6,1,4,22,4,11
10,4,19,1,1,0,4,22,21,9
10,4,20,1,0,0,4,22,103,11
11,4,14,1,3,0,4,22,4,11
11,4,12,1,2,0,4,22,103,11
11,4,20,1,2,0,4,22,79,11
11,4,18,1,0,0,4,22,98,11
12,1,18,1,5,1,4,22,103,11
12,1,20,1,0,0,4,22,79,9
12,1,10,1,2,0,4,22,79,11
1,1,11,1,2,0,1,22,79,11
1,1,19,1,3,0,1,22,90,11
1,1,13,1,1,0,1,22,90,11
1,1,16,1,3,0,1,22,112,11
1,1,19,1,6,1,1,22,111,11
2,1,17,1,6,1,1,22,103,11
3,2,18,1,5,1,1,22,103,11
4,2,11,1,2,0,2,22,38,11
4,2,11,1,2,0,2,22,38,11
7,3,1,0,4,0,3,22,90,11
7,3,19,1,5,1,3,22,103,11
7,3,17,1,5,1,3,22,93,11
7,3,14,1,6,1,3,22,103,11
7,3,0,0,4,0,3,22,93,11
9,4,22,0,2,0,3,22,58,11
9,4,22,0,2,0,3,22,58,11
11,4,12,1,3,0,4,22,103,11
11,4,21,0,1,0,4,22,15,11
11,4,11,1,2,0,4,22,103,11
1,1,15,1,4,0,1,22,46,9
2,1,14,1,5,1,1,22,93,11
2,1,11,1,0,0,1,22,93,11
2,1,20,1,1,0,1,22,103,11
2,1,12,1,1,0,1,22,103,11
2,1,9,1,2,0,1,22,14,11
2,1,15,1,4,0,1,22,103,11
2,1,12,1,5,1,1,22,103,11
2,1,18,1,6,1,1,22,103,11
2,1,14,1,0,0,1,22,103,11
4,2,19,1,5,1,2,22,103,11
4,2,19,1,2,0,2,22,79,11
4,2,15,1,5,1,2,22,103,11
7,3,21,0,1,0,3,22,93,11
7,3,17,1,1,0,3,22,103,11
7,3,13,1,0,0,3,22,90,11
8,3,21,0,4,0,3,22,124,11
8,3,21,0,5,1,3,22,93,11
8,3,14,1,0,0,3,22,103,11
8,3,13,1,0,0,3,22,103,11
8,3,23,0,0,0,3,22,103,11
1,1,11,1,6,1,1,6,28,11
1,1,9,1,6,1,1,6,103,11
2,1,10,1,3,0,1,6,90,11
2,1,11,1,0,0,1,6,103,11
2,1,17,1,6,1,1,6,4,11
2,1,18,1,2,0,1,6,4,11
2,1,15,1,5,1,1,6,28,11
2,1,22,0,1,0,1,6,98,11
3,2,13,1,5,1,1,6,103,11
3,2,19,1,2,0,1,6,103,11
3,2,13,1,3,0,1,6,103,11
3,2,16,1,3,0,1,6,27,11
3,2,13,1,4,0,1,6,124,11
4,2,20,1,5,1,2,6,93,11
4,2,20,1,6,1,2,6,4,11
4,2,18,1,6,1,2,6,79,11
4,2,12,1,5,1,2,6,27,11
4,2,13,1,5,1,2,6,27,11
5,2,17,1,3,0,2,6,57,11
8,3,18,1,4,0,3,6,76,11
9,4,18,1,6,1,3,6,28,11
9,4,4,0,3,0,3,6,90,11
10,4,15,1,2,0,4,6,93,11
11,4,9,1,2,0,4,6,103,11
11,4,18,1,1,0,4,6,90,11
12,1,10,1,4,0,4,6,93,11
12,1,1,0,5,1,4,6,103,11
2,1,20,1,5,1,1,6,112,11
3,2,11,1,0,0,1,6,76,11
3,2,20,1,1,0,1,6,90,11
4,2,13,1,3,0,2,6,76,9
4,2,17,1,1,0,2,6,76,11
5,2,19,1,0,0,2,6,76,11
6,3,22,0,6,1,2,6,76,11
6,3,21,0,2,0,2,6,76,9
10,4,22,0,2,0,4,6,76,11
10,4,12,1,0,0,4,6,76,11
11,4,14,1,1,0,4,6,76,11
1,1,13,1,6,1,1,6,101,11
1,1,12,1,6,1,1,6,101,11
1,1,10,1,6,1,1,6,93,11
1,1,18,1,0,0,1,6,93,11
1,1,18,1,0,0,1,6,98,11
1,1,20,1,1,0,1,6,79,11
1,1,12,1,2,0,1,6,67,11
1,1,17,1,2,0,1,6,93,11
1,1,17,1,2,0,1,6,101,11
1,1,22,0,2,0,1,6,38,11
1,1,22,0,2,0,1,6,101,11
1,1,19,1,3,0,1,6,79,11
1,1,19,1,3,0,1,6,67,11
1,1,21,0,3,0,1,6,38,11
1,1,15,1,3,0,1,6,101,11
1,1,11,1,3,0,1,6,93,11
1,1,19,1,4,0,1,6,67,11
1,1,14,1,5,1,1,6,67,11
1,1,18,1,5,1,1,6,98,11
1,1,17,1,6,1,1,6,67,11
1,1,19,1,6,1,1,6,101,11
1,1,0,0,0,0,1,6,93,11
1,1,23,0,0,0,1,6,98,11
1,1,16,1,0,0,1,6,127,11
1,1,12,1,0,0,1,6,101,11
1,1,0,0,1,0,1,6,101,11
1,1,15,1,1,0,1,6,67,11
1,1,13,1,1,0,1,6,101,11
1,1,20,1,2,0,1,6,67,11
1,1,2,0,2,0,1,6,67,11
1,1,15,1,3,0,1,6,98,11
1,1,8,1,4,0,1,6,101,11
1,1,0,0,5,1,1,6,101,11
1,1,18,1,6,1,1,6,38,11
1,1,14,1,6,1,1,6,101,11
1,1,14,1,6,1,1,6,101,11
1,1,6,0,6,1,1,6,101,11
1,1,5,0,6,1,1,6,101,11
1,1,11,1,6,1,1,6,101,11
1,1,15,1,0,0,1,6,98,11
1,1,17,1,1,0,1,6,4,11
1,1,19,1,1,0,1,6,90,11
1,1,20,1,1,0,1,6,109,11
1,1,21,0,1,0,1,6,21,11
1,1,10,1,1,0,1,6,90,11
2,1,1,0,2,0,1,6,90,11
2,1,20,1,2,0,1,6,90,11
2,1,15,1,4,0,1,6,90,11
2,1,0,0,4,0,1,6,93,11
2,1,16,1,4,0,1,6,90,11
2,1,14,1,4,0,1,6,79,11
2,1,21,0,4,0,1,6,38,11
2,1,23,0,5,1,1,6,98,11
2,1,20,1,5,1,1,6,67,11
2,1,20,1,5,1,1,6,79,11
2,1,20,1,6,1,1,6,90,11
2,1,16,1,6,1,1,6,90,11
2,1,14,1,6,1,1,6,90,11
2,1,13,1,6,1,1,6,67,11
2,1,13,1,0,0,1,6,38,11
2,1,8,1,0,0,1,6,93,11
2,1,12,1,0,0,1,6,93,11
2,1,19,1,0,0,1,6,90,11
2,1,21,0,1,0,1,6,21,11
2,1,19,1,1,0,1,6,79,11
2,1,12,1,1,0,1,6,98,11
2,1,17,1,1,0,1,6,93,11
2,1,20,1,1,0,1,6,103,11
2,1,14,1,1,0,1,6,4,11
2,1,19,1,1,0,1,6,98,11
2,1,20,1,2,0,1,6,38,11
2,1,4,0,3,0,1,6,48,11
2,1,16,1,3,0,1,6,103,11
2,1,0,0,3,0,1,6,90,11
2,1,13,1,3,0,1,6,90,11
2,1,10,1,4,0,1,6,93,11
2,1,15,1,4,0,1,6,93,11
2,1,13,1,4,0,1,6,93,11
2,1,12,1,5,1,1,6,28,11
2,1,20,1,5,1,1,6,79,11
2,1,13,1,5,1,1,6,93,11
2,1,5,0,6,1,1,6,67,11
2,1,16,1,6,1,1,6,90,11
2,1,17,1,6,1,1,6,38,11
2,1,18,1,6,1,1,6,76,11
2,1,10,1,0,0,1,6,98,11
2,1,16,1,0,0,1,6,28,11
2,1,19,1,0,0,1,6,98,11
2,1,18,1,1,0,1,6,93,11
2,1,9,1,1,0,1,6,76,11
2,1,17,1,2,0,1,6,67,11
2,1,18,1,2,0,1,6,90,11
2,1,20,1,3,0,1,6,79,11
2,1,9,1,3,0,1,6,79,11
2,1,15,1,3,0,1,6,38,11
2,1,18,1,3,0,1,6,112,11
2,1,16,1,3,0,1,6,101,11
2,1,15,1,4,0,1,6,90,11
2,1,23,0,5,1,1,6,90,11
2,1,2,0,5,1,1,6,90,11
2,1,12,1,6,1,1,6,90,11
2,1,11,1,6,1,1,6,90,11
2,1,17,1,6,1,1,6,90,11
2,1,21,0,6,1,1,6,90,11
2,1,4,0,0,0,1,6,90,11
2,1,6,0,0,0,1,6,90,11
2,1,10,1,0,0,1,6,90,11
2,1,17,1,0,0,1,6,90,11
2,1,23,0,0,0,1,6,90,11
2,1,11,1,1,0,1,6,90,11
2,1,17,1,1,0,1,6,90,11
3,2,12,1,2,0,1,6,127,11
3,2,20,1,2,0,1,6,67,11
3,2,10,1,2,0,1,6,93,11
3,2,18,1,2,0,1,6,93,11
3,2,10,1,4,0,1,6,67,11
3,2,10,1,4,0,1,6,93,11
3,2,20,1,5,1,1,6,76,11
3,2,2,0,6,1,1,6,67,11
3,2,21,0,6,1,1,6,79,11
3,2,23,0,6,1,1,6,67,11
3,2,17,1,2,0,1,6,90,11
3,2,18,1,2,0,1,6,90,11
3,2,20,1,2,0,1,6,90,11
3,2,18,1,6,1,1,6,93,11
3,2,20,1,6,1,1,6,93,11
3,2,18,1,0,0,1,6,79,11
3,2,9,1,1,0,1,6,90,11
3,2,13,1,1,0,1,6,90,11
3,2,14,1,1,0,1,6,90,11
3,2,9,1,2,0,1,6,90,11
3,2,13,1,3,0,1,6,67,11
3,2,9,1,5,1,1,6,90,11
3,2,19,1,5,1,1,6,79,11
3,2,21,0,5,1,1,6,90,11
3,2,10,1,6,1,1,6,93,11
3,2,12,1,6,1,1,6,79,11
3,2,12,1,6,1,1,6,11,11
3,2,18,1,6,1,1,6,90,11
3,2,0,0,6,1,1,6,90,11
3,2,3,0,0,0,1,6,93,11
3,2,3,0,0,0,1,6,21,11
3,2,9,1,0,0,1,6,90,11
3,2,18,1,0,0,1,6,67,11
3,2,19,1,0,0,1,6,93,11
3,2,23,0,1,0,1,6,90,11
3,2,23,0,1,0,1,6,90,11
3,2,19,1,2,0,1,6,90,11
3,2,18,1,2,0,1,6,90,11
3,2,9,1,5,1,1,6,90,11
3,2,13,1,5,1,1,6,83,11
3,2,21,0,6,1,1,6,93,11
3,2,0,0,0,0,1,6,90,11
3,2,2,0,0,0,1,6,67,9
3,2,11,1,2,0,1,6,79,11
3,2,22,0,3,0,1,6,90,11
3,2,22,0,3,0,1,6,93,11
3,2,0,0,4,0,1,6,90,11
3,2,23,0,4,0,1,6,98,11
4,2,13,1,5,1,2,6,93,11
4,2,8,1,6,1,2,6,93,11
4,2,21,0,6,1,2,6,101,11
4,2,20,1,2,0,2,6,38,11
4,2,12,1,2,0,2,6,90,11
4,2,11,1,2,0,2,6,90,11
4,2,21,0,2,0,2,6,124,11
4,2,20,1,3,0,2,6,38,11
4,2,14,1,3,0,2,6,93,11
4,2,13,1,4,0,2,6,103,11
4,2,15,1,4,0,2,6,66,11
4,2,20,1,4,0,2,6,127,11
4,2,10,1,4,0,2,6,67,11
4,2,7,1,6,1,2,6,67,11
4,2,9,1,6,1,2,6,93,11
4,2,19,1,6,1,2,6,76,11
4,2,21,0,6,1,2,6,67,11
4,2,15,1,0,0,2,6,90,11
4,2,20,1,0,0,2,6,67,11
4,2,16,1,0,0,2,6,93,11
4,2,23,0,2,0,2,6,90,11
4,2,9,1,2,0,2,6,93,11
4,2,8,1,2,0,2,6,93,11
4,2,15,1,3,0,2,6,79,9
4,2,9,1,3,0,2,6,79,9
4,2,1,0,4,0,2,6,16,11
4,2,11,1,4,0,2,6,67,11
4,2,14,1,5,1,2,6,90,11
4,2,19,1,5,1,2,6,103,11
4,2,22,0,5,1,2,6,98,9
4,2,15,1,6,1,2,6,38,11
4,2,0,0,6,1,2,6,98,11
4,2,5,0,6,1,2,6,98,11
4,2,23,0,6,1,2,6,38,9
4,2,2,0,0,0,2,6,67,11
4,2,16,1,1,0,2,6,93,9
4,2,6,0,2,0,2,6,38,11
4,2,18,1,3,0,2,6,93,11
4,2,9,1,3,0,2,6,93,11
4,2,4,0,4,0,2,6,90,11
4,2,19,1,4,0,2,6,90,9
4,2,23,0,4,0,2,6,90,11
4,2,12,1,4,0,2,6,90,11
4,2,21,0,6,1,2,6,90,11
4,2,10,1,6,1,2,6,90,11
4,2,5,0,0,0,2,6,129,11
4,2,1,0,0,0,2,6,90,11
4,2,13,1,1,0,2,6,90,11
4,2,3,0,1,0,2,6,93,11
4,2,1,0,1,0,2,6,98,11
4,2,7,1,3,0,2,6,90,11
4,2,20,1,4,0,2,6,93,11
4,2,5,0,4,0,2,6,90,11
4,2,19,1,4,0,2,6,93,11
4,2,14,1,4,0,2,6,90,11
4,2,22,0,5,1,2,6,90,11
4,2,22,0,6,1,2,6,98,11
4,2,16,1,6,1,2,6,93,11
4,2,2,0,6,1,2,6,90,11
4,2,12,1,6,1,2,6,38,11
5,2,21,0,0,0,2,6,90,11
5,2,8,1,0,0,2,6,93,11
5,2,21,0,1,0,2,6,67,11
5,2,11,1,1,0,2,6,93,11
5,2,22,0,4,0,2,6,90,11
5,2,15,1,6,1,2,6,93,11
5,2,11,1,6,1,2,6,67,11
5,2,12,1,6,1,2,6,93,11
5,2,12,1,0,0,2,6,38,11
5,2,20,1,2,0,2,6,90,11
5,2,6,0,3,0,2,6,83,11
5,2,23,0,4,0,2,6,90,11
5,2,2,0,5,1,2,6,90,11
5,2,2,0,5,1,2,6,90,11
5,2,2,0,5,1,2,6,90,11
5,2,18,1,5,1,2,6,90,11
5,2,11,1,6,1,2,6,93,11
5,2,23,0,6,1,2,6,90,11
5,2,23,0,0,0,2,6,98,11
5,2,18,1,0,0,2,6,90,11
5,2,16,1,0,0,2,6,67,11
5,2,15,1,3,0,2,6,90,11
5,2,10,1,4,0,2,6,90,11
5,2,15,1,4,0,2,6,90,11
5,2,3,0,6,1,2,6,90,11
5,2,3,0,6,1,2,6,90,11
5,2,13,1,1,0,2,6,93,11
5,2,16,1,2,0,2,6,103,11
5,2,13,1,3,0,2,6,76,11
5,2,15,1,0,0,2,6,90,11
5,2,13,1,1,0,2,6,117,11
5,2,3,0,1,0,2,6,115,11
6,3,11,1,3,0,2,6,93,11
6,3,18,1,5,1,2,6,90,11
6,3,21,0,6,1,2,6,90,11
6,3,11,1,6,1,2,6,103,11
6,3,3,0,0,0,2,6,90,9
6,3,9,1,1,0,2,6,103,11
6,3,14,1,1,0,2,6,93,11
6,3,21,0,4,0,2,6,93,11
6,3,11,1,6,1,2,6,38,11
6,3,19,1,0,0,2,6,90,11
6,3,21,0,0,0,2,6,90,11
6,3,20,1,1,0,2,6,103,11
6,3,18,1,1,0,2,6,93,11
6,3,10,1,1,0,2,6,93,11
6,3,2,0,2,0,2,6,76,9
6,3,14,1,2,0,2,6,21,11
6,3,16,1,5,1,2,6,67,11
6,3,18,1,5,1,2,6,38,11
6,3,2,0,5,1,2,6,90,11
6,3,3,0,5,1,2,6,67,11
6,3,14,1,6,1,2,6,93,11
6,3,21,0,6,1,2,6,93,11
6,3,22,0,0,0,2,6,90,11
6,3,9,1,0,0,2,6,90,11
6,3,19,1,1,0,2,6,67,11
6,3,0,0,2,0,2,6,90,11
6,3,18,1,2,0,2,6,91,11
6,3,22,0,3,0,2,6,90,11
6,3,11,1,5,1,2,6,90,11
6,3,21,0,6,1,2,6,98,11
6,3,10,1,6,1,2,6,93,11
6,3,0,0,6,1,2,6,98,11
6,3,13,1,6,1,2,6,76,11
6,3,12,1,6,1,2,6,67,11
6,3,13,1,1,0,2,6,93,11
6,3,2,0,1,0,2,6,38,11
6,3,5,0,2,0,2,6,38,11
6,3,3,0,4,0,2,6,90,11
6,3,3,0,4,0,2,6,90,11
7,3,7,1,5,1,3,6,90,11
7,3,21,0,5,1,3,6,90,11
7,3,17,1,5,1,3,6,90,11
7,3,12,1,5,1,3,6,67,11
7,3,20,1,6,1,3,6,90,11
7,3,14,1,0,0,3,6,79,11
7,3,15,1,0,0,3,6,67,11
7,3,21,0,0,0,3,6,90,11
7,3,10,1,1,0,3,6,38,11
7,3,13,1,2,0,3,6,67,11
7,3,20,1,3,0,3,6,93,11
7,3,13,1,3,0,3,6,93,11
7,3,11,1,5,1,3,6,90,11
7,3,1,0,6,1,3,6,90,11
7,3,10,1,6,1,3,6,90,11
7,3,22,0,6,1,3,6,90,11
7,3,20,1,6,1,3,6,90,11
7,3,10,1,6,1,3,6,67,11
7,3,0,0,0,0,3,6,90,11
7,3,12,1,1,0,3,6,90,11
7,3,1,0,1,0,3,6,90,11
7,3,1,0,1,0,3,6,41,11
7,3,9,1,2,0,3,6,67,11
7,3,14,1,4,0,3,6,98,11
7,3,20,1,4,0,3,6,93,11
7,3,11,1,4,0,3,6,93,11
7,3,23,0,4,0,3,6,48,9
7,3,2,0,5,1,3,6,109,11
7,3,17,1,6,1,3,6,58,11
7,3,19,1,1,0,3,6,90,11
7,3,21,0,3,0,3,6,67,11
7,3,12,1,4,0,3,6,90,11
7,3,1,0,4,0,3,6,38,11
7,3,16,1,4,0,3,6,90,11
7,3,3,0,5,1,3,6,38,11
7,3,1,0,5,1,3,6,90,11
7,3,12,1,5,1,3,6,90,11
7,3,19,1,6,1,3,6,90,11
7,3,1,0,0,0,3,6,90,11
7,3,18,1,0,0,3,6,90,11
7,3,19,1,0,0,3,6,79,11
7,3,17,1,1,0,3,6,90,11
7,3,2,0,2,0,3,6,90,11
7,3,21,0,4,0,3,6,90,11
8,3,20,1,3,0,3,6,90,11
8,3,21,0,3,0,3,6,38,11
8,3,19,1,3,0,3,6,90,11
8,3,21,0,4,0,3,6,90,11
8,3,10,1,5,1,3,6,90,11
8,3,22,0,1,0,3,6,90,11
8,3,5,0,3,0,3,6,90,11
8,3,11,1,3,0,3,6,90,11
8,3,20,1,3,0,3,6,90,11
8,3,5,0,5,1,3,6,90,11
8,3,19,1,1,0,3,6,90,11
8,3,6,0,3,0,3,6,90,11
8,3,6,0,3,0,3,6,90,11
8,3,13,1,4,0,3,6,90,11
8,3,14,1,4,0,3,6,90,11
8,3,19,1,4,0,3,6,90,11
8,3,19,1,5,1,3,6,90,11
8,3,22,0,6,1,3,6,90,11
8,3,15,1,0,0,3,6,90,9
8,3,12,1,0,0,3,6,79,9
8,3,4,0,1,0,3,6,90,11
8,3,13,1,1,0,3,6,67,11
8,3,14,1,1,0,3,6,90,11
8,3,15,1,1,0,3,6,90,11
8,3,7,1,2,0,3,6,90,11
8,3,8,1,2,0,3,6,38,11
8,3,19,1,3,0,3,6,90,11
8,3,19,1,4,0,3,6,38,11
8,3,19,1,4,0,3,6,90,11
8,3,19,1,4,0,3,6,90,11
8,3,20,1,4,0,3,6,38,11
8,3,19,1,5,1,3,6,38,11
8,3,23,0,5,1,3,6,90,11
8,3,22,0,6,1,3,6,67,11
8,3,22,0,6,1,3,6,80,11
8,3,13,1,1,0,3,6,90,11
8,3,21,0,1,0,3,6,48,11
8,3,16,1,3,0,3,6,67,11
9,4,11,1,4,0,3,6,90,11
9,4,18,1,4,0,3,6,90,11
9,4,9,1,5,1,3,6,90,11
9,4,11,1,6,1,3,6,90,11
9,4,20,1,1,0,3,6,90,11
9,4,19,1,2,0,3,6,90,11
9,4,21,0,4,0,3,6,79,11
9,4,1,0,6,1,3,6,90,11
9,4,21,0,0,0,3,6,90,11
9,4,4,0,2,0,3,6,90,11
9,4,19,1,2,0,3,6,90,11
9,4,20,1,2,0,3,6,90,11
9,4,13,1,4,0,3,6,90,11
9,4,10,1,5,1,3,6,38,11
9,4,12,1,5,1,3,6,103,11
9,4,12,1,5,1,3,6,76,11
9,4,20,1,5,1,3,6,93,11
9,4,3,0,6,1,3,6,67,11
9,4,19,1,6,1,3,6,93,11
9,4,13,1,0,0,3,6,93,11
9,4,20,1,1,0,3,6,93,11
9,4,18,1,1,0,3,6,93,11
9,4,20,1,1,0,3,6,67,11
9,4,8,1,5,1,3,6,93,11
9,4,23,0,6,1,3,6,98,11
9,4,19,1,6,1,3,6,103,11
9,4,11,1,6,1,3,6,98,11
9,4,10,1,0,0,3,6,93,11
9,4,20,1,3,0,3,6,67,11
9,4,20,1,3,0,3,6,93,11
9,4,9,1,3,0,3,6,93,11
10,4,9,1,1,0,4,6,90,11
10,4,11,1,3,0,4,6,90,11
10,4,14,1,3,0,4,6,67,11
10,4,3,0,4,0,4,6,117,11
10,4,3,0,4,0,4,6,117,11
10,4,21,0,4,0,4,6,21,11
10,4,12,1,6,1,4,6,93,11
10,4,15,1,0,0,4,6,93,11
10,4,19,1,0,0,4,6,67,11
10,4,15,1,0,0,4,6,90,11
10,4,3,0,0,0,4,6,98,11
10,4,16,1,2,0,4,6,93,11
10,4,13,1,3,0,4,6,90,11
10,4,15,1,3,0,4,6,90,11
10,4,22,0,6,1,4,6,58,11
10,4,2,0,2,0,4,6,38,11
10,4,23,0,4,0,4,6,90,11
10,4,23,0,6,1,4,6,93,11
10,4,13,1,6,1,4,6,93,11
10,4,10,1,6,1,4,6,93,11
10,4,11,1,6,1,4,6,67,11
10,4,20,1,1,0,4,6,93,11
10,4,8,1,2,0,4,6,2,11
10,4,5,0,2,0,4,6,98,11
10,4,10,1,5,1,4,6,90,11
10,4,19,1,5,1,4,6,90,11
10,4,13,1,6,1,4,6,90,11
10,4,0,0,0,0,4,6,90,11
10,4,17,1,0,0,4,6,90,11
10,4,17,1,1,0,4,6,90,11
11,4,13,1,2,0,4,6,14,11
11,4,23,0,2,0,4,6,38,11
11,4,23,0,2,0,4,6,21,9
11,4,0,0,3,0,4,6,41,11
11,4,11,1,2,0,4,6,90,11
11,4,13,1,2,0,4,6,90,11
11,4,12,1,3,0,4,6,90,11
11,4,16,1,3,0,4,6,90,11
11,4,10,1,4,0,4,6,90,11
11,4,11,1,4,0,4,6,90,11
11,4,14,1,4,0,4,6,90,11
11,4,9,1,5,1,4,6,90,11
11,4,3,0,6,1,4,6,58,11
11,4,19,1,1,0,4,6,79,11
11,4,20,1,2,0,4,6,90,11
11,4,0,0,3,0,4,6,90,11
11,4,20,1,3,0,4,6,90,11
11,4,9,1,4,0,4,6,38,11
11,4,21,0,5,1,4,6,58,11
11,4,14,1,6,1,4,6,93,11
11,4,17,1,6,1,4,6,93,11
11,4,12,1,0,0,4,6,24,11
11,4,17,1,0,0,4,6,93,11
11,4,19,1,0,0,4,6,67,11
11,4,10,1,0,0,4,6,90,11
11,4,15,1,4,0,4,6,38,11
11,4,17,1,4,0,4,6,93,11
11,4,19,1,6,1,4,6,98,11
11,4,23,0,6,1,4,6,98,11
11,4,13,1,6,1,4,6,98,11
11,4,20,1,6,1,4,6,79,11
11,4,19,1,6,1,4,6,79,11
11,4,12,1,0,0,4,6,90,11
11,4,16,1,0,0,4,6,38,11
11,4,17,1,0,0,4,6,38,11
11,4,20,1,0,0,4,6,98,11
11,4,14,1,1,0,4,6,67,11
11,4,17,1,1,0,4,6,66,11
11,4,21,0,3,0,4,6,66,11
12,1,23,0,5,1,4,6,38,11
12,1,12,1,6,1,4,6,90,11
12,1,17,1,6,1,4,6,79,11
12,1,19,1,0,0,4,6,79,11
12,1,17,1,2,0,4,6,38,11
12,1,19,1,2,0,4,6,90,11
12,1,22,0,3,0,4,6,54,11
12,1,13,1,4,0,4,6,67,11
12,1,14,1,4,0,4,6,67,11
12,1,21,0,5,1,4,6,67,11
12,1,7,1,6,1,4,6,59,11
12,1,12,1,6,1,4,6,67,11
12,1,15,1,6,1,4,6,90,11
12,1,3,0,0,0,4,6,76,9
12,1,17,1,0,0,4,6,67,11
12,1,21,0,0,0,4,6,38,11
12,1,9,1,1,0,4,6,90,11
12,1,17,1,1,0,4,6,93,11
12,1,11,1,1,0,4,6,93,11
12,1,22,0,1,0,4,6,90,11
12,1,12,1,2,0,4,6,38,11
12,1,17,1,2,0,4,6,79,11
12,1,20,1,3,0,4,6,67,11
12,1,19,1,4,0,4,6,67,11
12,1,13,1,4,0,4,6,90,11
12,1,19,1,4,0,4,6,38,11
12,1,19,1,5,1,4,6,67,11
12,1,11,1,5,1,4,6,90,11
12,1,11,1,6,1,4,6,120,11
12,1,12,1,6,1,4,6,98,11
12,1,18,1,6,1,4,6,98,11
12,1,13,1,6,1,4,6,90,11
12,1,18,1,6,1,4,6,38,11
12,1,18,1,1,0,4,6,38,11
12,1,15,1,1,0,4,6,90,11
12,1,17,1,1,0,4,6,38,11
12,1,17,1,1,0,4,6,98,11
12,1,0,0,2,0,4,6,67,11
12,1,10,1,2,0,4,6,90,11
12,1,16,1,2,0,4,6,38,11
12,1,20,1,3,0,4,6,90,11
12,1,10,1,3,0,4,6,90,11
12,1,4,0,4,0,4,6,38,11
12,1,12,1,6,1,4,6,90,11
12,1,11,1,0,0,4,6,67,11
12,1,13,1,0,0,4,6,38,11
12,1,20,1,1,0,4,6,90,11
12,1,15,1,1,0,4,6,38,11
12,1,18,1,1,0,4,6,38,11
12,1,13,1,1,0,4,6,98,11
12,1,2,0,1,0,4,6,67,11
12,1,20,1,2,0,4,6,79,11
12,1,12,1,2,0,4,6,90,11
12,1,19,1,3,0,4,6,38,11
12,1,19,1,4,0,4,6,98,11
12,1,14,1,4,0,4,6,79,11
12,1,18,1,4,0,4,6,38,11
12,1,16,1,5,1,4,6,79,11
12,1,15,1,6,1,4,6,67,11
12,1,14,1,6,1,4,6,90,11
1,1,17,1,1,0,1,6,103,11
1,1,14,1,6,1,1,6,127,11
1,1,5,0,3,0,1,6,90,11
1,1,1,0,4,0,1,6,90,11
1,1,17,1,4,0,1,6,103,11
2,1,5,0,2,0,1,6,127,11
2,1,12,1,5,1,1,6,93,11
2,1,3,0,6,1,1,6,90,11
2,1,7,1,4,0,1,6,79,11
2,1,12,1,6,1,1,6,38,9
2,1,14,1,5,1,1,6,93,11
2,1,12,1,1,0,1,6,14,11
3,2,10,1,3,0,1,6,76,11
3,2,21,0,4,0,1,6,79,11
3,2,19,1,3,0,1,6,24,11
3,2,11,1,3,0,1,6,93,11
3,2,17,1,1,0,1,6,90,11
3,2,4,0,4,0,1,6,15,11
4,2,12,1,5,1,2,6,93,11
4,2,10,1,6,1,2,6,112,11
4,2,3,0,1,0,2,6,79,11
5,2,14,1,6,1,2,6,79,11
5,2,12,1,6,1,2,6,90,11
5,2,14,1,2,0,2,6,90,11
6,3,11,1,4,0,2,6,90,11
6,3,11,1,5,1,2,6,90,11
6,3,12,1,6,1,2,6,90,11
6,3,20,1,1,0,2,6,10,11
6,3,22,0,1,0,2,6,93,11
6,3,13,1,2,0,2,6,103,11
6,3,10,1,3,0,2,6,90,11
6,3,21,0,4,0,2,6,93,11
6,3,20,1,5,1,2,6,93,11
6,3,11,1,6,1,2,6,93,11
6,3,15,1,3,0,2,6,93,11
6,3,18,1,3,0,2,6,103,11
7,3,20,1,0,0,3,6,93,11
7,3,18,1,4,0,3,6,93,11
7,3,10,1,6,1,3,6,21,11
7,3,22,0,6,1,3,6,21,11
7,3,14,1,4,0,3,6,103,11
7,3,10,1,5,1,3,6,93,11
7,3,9,1,2,0,3,6,103,11
7,3,4,0,5,1,3,6,93,11
8,3,20,1,3,0,3,6,103,11
8,3,8,1,6,1,3,6,90,11
8,3,20,1,2,0,3,6,10,11
8,3,13,1,5,1,3,6,93,11
8,3,15,1,5,1,3,6,93,11
8,3,20,1,1,0,3,6,93,11
8,3,14,1,6,1,3,6,93,11
8,3,20,1,0,0,3,6,93,11
8,3,12,1,1,0,3,6,93,11
8,3,17,1,2,0,3,6,93,11
8,3,20,1,3,0,3,6,93,11
8,3,17,1,0,0,3,6,103,11
9,4,9,1,0,0,3,6,93,11
9,4,15,1,1,0,3,6,112,11
9,4,20,1,0,0,3,6,93,11
9,4,0,0,1,0,3,6,93,11
9,4,10,1,1,0,3,6,103,11
9,4,8,1,4,0,3,6,93,11
10,4,18,1,3,0,4,6,15,11
10,4,19,1,1,0,4,6,93,11
10,4,20,1,0,0,4,6,93,11
10,4,1,0,4,0,4,6,38,11
10,4,22,0,5,1,4,6,103,11
10,4,14,1,6,1,4,6,93,11
10,4,1,0,1,0,4,6,127,11
10,4,12,1,1,0,4,6,93,11
10,4,13,1,1,0,4,6,103,11
10,4,12,1,0,0,4,6,93,11
10,4,15,1,0,0,4,6,93,11
10,4,15,1,1,0,4,6,93,11
10,4,18,1,1,0,4,6,103,11
11,4,18,1,3,0,4,6,93,11
12,1,17,1,5,1,4,6,79,11
12,1,20,1,3,0,4,6,79,11
12,1,12,1,6,1,4,6,79,11
12,1,1,0,5,1,4,6,93,11
1,1,12,1,2,0,1,6,93,11
1,1,22,0,3,0,1,6,103,11
1,1,15,1,6,1,1,6,103,11
1,1,20,1,2,0,1,6,79,11
1,1,21,0,2,0,1,6,79,11
1,1,12,1,4,0,1,6,127,11
1,1,7,1,2,0,1,6,79,11
1,1,20,1,3,0,1,6,90,11
1,1,23,0,0,0,1,6,93,11
1,1,10,1,4,0,1,6,38,11
1,1,15,1,5,1,1,6,79,11
1,1,17,1,1,0,1,6,98,11
2,1,17,1,2,0,1,6,93,11
2,1,12,1,4,0,1,6,79,11
2,1,19,1,5,1,1,6,103,11
2,1,20,1,6,1,1,6,127,11
2,1,21,0,6,1,1,6,127,11
2,1,11,1,3,0,1,6,127,11
2,1,21,0,3,0,1,6,127,11
2,1,15,1,6,1,1,6,127,11
2,1,23,0,2,0,1,6,127,11
2,1,17,1,3,0,1,6,87,8
2,1,11,1,4,0,1,6,93,11
2,1,12,1,0,0,1,6,103,11
3,2,19,1,2,0,1,6,90,11
3,2,21,0,6,1,1,6,79,11
3,2,15,1,1,0,1,6,90,11
3,2,11,1,2,0,1,6,26,11
3,2,19,1,4,0,1,6,93,11
3,2,19,1,5,1,1,6,103,11
3,2,18,1,0,0,1,6,93,11
3,2,18,1,1,0,1,6,103,11
3,2,15,1,6,1,1,6,93,11
3,2,6,0,2,0,1,6,103,11
3,2,23,0,2,0,1,6,76,11
3,2,20,1,5,1,1,6,90,11
3,2,13,1,0,0,1,6,57,11
3,2,15,1,4,0,1,6,76,11
4,2,9,1,5,1,2,6,93,11
4,2,19,1,3,0,2,6,93,11
4,2,14,1,4,0,2,6,90,11
4,2,20,1,4,0,2,6,93,11
4,2,20,1,2,0,2,6,90,11
4,2,0,0,5,1,2,6,93,11
4,2,17,1,5,1,2,6,93,11
4,2,21,0,2,0,2,6,93,11
4,2,17,1,3,0,2,6,93,11
4,2,17,1,5,1,2,6,93,11
4,2,22,0,1,0,2,6,93,11
4,2,7,1,2,0,2,6,93,11
4,2,16,1,2,0,2,6,93,11
4,2,20,1,5,1,2,6,93,11
4,2,13,1,5,1,2,6,93,11
5,2,22,0,4,0,2,6,103,11
5,2,21,0,6,1,2,6,93,11
5,2,11,1,2,0,2,6,103,11
5,2,11,1,2,0,2,6,103,11
5,2,15,1,3,0,2,6,103,11
5,2,22,0,1,0,2,6,90,11
5,2,2,0,2,0,2,6,103,11
5,2,17,1,0,0,2,6,79,11
5,2,23,0,2,0,2,6,90,11
5,2,19,1,2,0,2,6,28,11
6,3,21,0,4,0,2,6,93,11
6,3,8,1,4,0,2,6,24,11
6,3,21,0,5,1,2,6,103,11
6,3,8,1,5,1,2,6,93,11
6,3,11,1,4,0,2,6,103,11
6,3,23,0,0,0,2,6,103,11
6,3,18,1,5,1,2,6,103,11
6,3,23,0,3,0,2,6,79,11
6,3,14,1,4,0,2,6,103,11
7,3,23,0,5,1,3,6,103,11
7,3,22,0,5,1,3,6,103,11
7,3,12,1,5,1,3,6,21,11
7,3,12,1,3,0,3,6,93,11
7,3,21,0,1,0,3,6,103,11
7,3,0,0,3,0,3,6,103,11
7,3,21,0,1,0,3,6,103,11
7,3,13,1,2,0,3,6,103,8
7,3,10,1,2,0,3,6,112,11
7,3,14,1,6,1,3,6,90,11
7,3,4,0,1,0,3,6,79,8
7,3,15,1,1,0,3,6,21,11
8,3,19,1,3,0,3,6,21,11
8,3,15,1,3,0,3,6,93,11
8,3,15,1,0,0,3,6,103,11
8,3,22,0,6,1,3,6,93,11
8,3,15,1,2,0,3,6,15,9
8,3,12,1,4,0,3,6,90,11
8,3,14,1,5,1,3,6,93,11
8,3,12,1,5,1,3,6,80,11
8,3,20,1,6,1,3,6,28,11
8,3,1,0,2,0,3,6,93,11
9,4,22,0,2,0,3,6,21,11
9,4,12,1,6,1,3,6,103,11
9,4,15,1,6,1,3,6,93,11
9,4,19,1,3,0,3,6,93,11
9,4,23,0,1,0,3,6,93,11
9,4,3,0,2,0,3,6,127,11
9,4,15,1,3,0,3,6,127,11
9,4,11,1,6,1,3,6,127,9
9,4,16,1,1,0,3,6,103,11
10,4,19,1,6,1,4,6,93,11
10,4,2,0,6,1,4,6,93,11
10,4,8,1,0,0,4,6,127,11
10,4,20,1,0,0,4,6,103,11
10,4,14,1,3,0,4,6,93,11
10,4,18,1,4,0,4,6,93,11
10,4,14,1,4,0,4,6,93,11
10,4,5,0,5,1,4,6,21,11
10,4,18,1,5,1,4,6,103,11
10,4,3,0,6,1,4,6,93,11
10,4,15,1,0,0,4,6,93,11
10,4,9,1,1,0,4,6,93,11
10,4,14,1,2,0,4,6,24,11
10,4,19,1,3,0,4,6,79,11
10,4,11,1,4,0,4,6,93,11
10,4,17,1,0,0,4,6,93,11
10,4,6,0,0,0,4,6,93,11
10,4,18,1,1,0,4,6,93,11
11,4,9,1,3,0,4,6,79,11
11,4,19,1,0,0,4,6,93,11
11,4,11,1,1,0,4,6,103,11
11,4,12,1,2,0,4,6,28,11
11,4,9,1,2,0,4,6,93,11
11,4,17,1,3,0,4,6,93,11
11,4,22,0,4,0,4,6,93,11
11,4,23,0,4,0,4,6,93,11
11,4,19,1,6,1,4,6,93,11
11,4,16,1,1,0,4,6,103,11
11,4,16,1,0,0,4,6,93,11
12,1,17,1,3,0,4,6,90,11
12,1,18,1,3,0,4,6,103,11
12,1,3,0,5,1,4,6,127,11
12,1,19,1,6,1,4,6,93,11
12,1,19,1,1,0,4,6,79,11
12,1,22,0,3,0,4,6,93,11
12,1,23,0,5,1,4,6,93,11
12,1,22,0,2,0,4,6,79,11
12,1,14,1,6,1,4,6,127,11
12,1,15,1,3,0,4,6,79,11
12,1,19,1,3,0,4,6,90,11
12,1,10,1,4,0,4,6,90,11
1,1,18,1,6,1,1,6,79,11
1,1,15,1,5,1,1,6,76,9
1,1,21,0,6,1,1,6,79,11
3,2,1,0,4,0,1,6,90,11
3,2,0,0,5,1,1,6,76,9
5,2,9,1,2,0,2,6,76,9
5,2,13,1,5,1,2,6,103,11
7,3,15,1,5,1,3,6,103,11
9,4,8,1,4,0,3,6,21,11
11,4,19,1,1,0,4,6,14,11
12,1,8,1,4,0,4,6,93,11
12,1,12,1,6,1,4,6,112,11
1,1,8,1,0,0,1,6,90,11
1,1,19,1,4,0,1,6,90,11
1,1,12,1,0,0,1,6,93,11
1,1,10,1,5,1,1,6,90,11
1,1,14,1,1,0,1,6,90,11
2,1,16,1,6,1,1,6,103,11
2,1,13,1,4,0,1,6,38,11
2,1,18,1,3,0,1,6,38,11
3,2,17,1,3,0,1,6,93,11
5,2,11,1,1,0,2,6,90,11
5,2,2,0,6,1,2,6,4,11
6,3,18,1,5,1,2,6,79,11
7,3,19,1,2,0,3,6,93,11
8,3,17,1,1,0,3,6,90,11
8,3,12,1,4,0,3,6,21,11
9,4,16,1,6,1,3,6,79,9
10,4,23,0,4,0,4,6,79,9
10,4,0,0,0,0,4,6,90,11
11,4,13,1,6,1,4,6,90,11
11,4,3,0,2,0,4,6,90,11
12,1,17,1,5,1,4,6,103,11
12,1,8,1,2,0,4,6,90,11
12,1,12,1,3,0,4,6,38,9
12,1,7,1,0,0,4,6,90,11
12,1,16,1,2,0,4,6,90,11
1,1,0,0,6,1,1,1,38,11
1,1,15,1,1,0,1,1,127,11
1,1,5,0,2,0,1,1,21,11
1,1,1,0,4,0,1,1,79,11
1,1,2,0,5,1,1,1,127,11
1,1,14,1,1,0,1,1,112,11
1,1,14,1,3,0,1,1,127,11
1,1,16,1,6,1,1,1,21,11
2,1,15,1,2,0,1,1,127,11
2,1,18,1,3,0,1,1,103,11
2,1,12,1,4,0,1,1,79,11
2,1,13,1,5,1,1,1,112,11
2,1,13,1,1,0,1,1,127,11
2,1,21,0,6,1,1,1,103,11
2,1,17,1,1,0,1,1,66,11
2,1,18,1,2,0,1,1,67,11
2,1,8,1,5,1,1,1,79,11
2,1,18,1,5,1,1,1,93,11
2,1,11,1,6,1,1,1,93,11
2,1,20,1,0,0,1,1,93,11
2,1,20,1,3,0,1,1,93,11
2,1,16,1,4,0,1,1,57,11
3,2,16,1,2,0,1,1,93,11
3,2,21,0,3,0,1,1,67,11
3,2,12,1,0,0,1,1,127,11
3,2,2,0,5,1,1,1,127,11
3,2,7,1,6,1,1,1,38,11
3,2,19,1,0,0,1,1,93,11
3,2,20,1,0,0,1,1,93,11
3,2,23,0,0,0,1,1,127,11
3,2,8,1,3,0,1,1,103,11
3,2,11,1,4,0,1,1,103,11
3,2,16,1,4,0,1,1,103,11
3,2,21,0,4,0,1,1,103,11
4,2,14,1,6,1,2,1,79,11
4,2,22,0,3,0,2,1,79,11
4,2,17,1,3,0,2,1,127,11
5,2,12,1,1,0,2,1,93,11
5,2,4,0,4,0,2,1,93,11
5,2,6,0,4,0,2,1,93,11
5,2,12,1,4,0,2,1,127,11
5,2,3,0,1,0,2,1,15,9
5,2,20,1,0,0,2,1,66,11
5,2,10,1,2,0,2,1,103,11
5,2,16,1,6,1,2,1,93,11
5,2,16,1,2,0,2,1,93,11
5,2,16,1,2,0,2,1,93,11
5,2,17,1,2,0,2,1,103,11
6,3,15,1,6,1,2,1,93,11
6,3,14,1,4,0,2,1,48,11
6,3,20,1,2,0,2,1,112,11
6,3,23,0,2,0,2,1,93,11
6,3,23,0,3,0,2,1,93,11
6,3,10,1,0,0,2,1,103,11
6,3,21,0,0,0,2,1,21,11
6,3,21,0,3,0,2,1,93,11
6,3,21,0,0,0,2,1,67,11
6,3,23,0,2,0,2,1,93,11
6,3,11,1,3,0,2,1,103,11
6,3,21,0,4,0,2,1,93,11
7,3,0,0,5,1,3,1,103,11
7,3,0,0,0,0,3,1,103,11
7,3,22,0,2,0,3,1,103,11
7,3,1,0,3,0,3,1,103,11
7,3,9,1,3,0,3,1,24,11
7,3,21,0,3,0,3,1,127,11
7,3,22,0,3,0,3,1,93,11
7,3,23,0,3,0,3,1,103,11
7,3,22,0,4,0,3,1,103,11
7,3,21,0,5,1,3,1,103,11
7,3,23,0,3,0,3,1,103,11
7,3,19,1,4,0,3,1,103,11
7,3,20,1,4,0,3,1,93,11
7,3,11,1,6,1,3,1,127,11
7,3,22,0,6,1,3,1,93,11
7,3,16,1,1,0,3,1,93,11
7,3,21,0,1,0,3,1,93,11
7,3,9,1,3,0,3,1,112,11
7,3,11,1,3,0,3,1,21,11
7,3,16,1,4,0,3,1,127,11
7,3,9,1,5,1,3,1,127,11
7,3,17,1,5,1,3,1,103,11
7,3,17,1,5,1,3,1,93,11
7,3,2,0,0,0,3,1,103,11
7,3,5,0,1,0,3,1,79,11
7,3,22,0,1,0,3,1,93,11
7,3,22,0,1,0,3,1,127,11
7,3,14,1,2,0,3,1,93,11
7,3,4,0,5,1,3,1,93,11
7,3,2,0,6,1,3,1,93,11
7,3,8,1,6,1,3,1,93,11
7,3,13,1,6,1,3,1,93,11
8,3,12,1,3,0,3,1,93,11
8,3,19,1,3,0,3,1,103,11
8,3,2,0,4,0,3,1,93,11
8,3,13,1,4,0,3,1,93,11
8,3,14,1,6,1,3,1,93,11
8,3,22,0,6,1,3,1,93,11
8,3,12,1,0,0,3,1,57,11
8,3,15,1,2,0,3,1,125,11
8,3,21,0,2,0,3,1,127,11
8,3,1,0,3,0,3,1,103,11
8,3,20,1,4,0,3,1,93,11
8,3,9,1,5,1,3,1,112,11
8,3,14,1,5,1,3,1,93,11
8,3,19,1,0,0,3,1,93,11
8,3,18,1,4,0,3,1,19,11
8,3,22,0,6,1,3,1,103,11
8,3,18,1,0,0,3,1,103,11
9,4,21,0,5,1,3,1,93,11
9,4,16,1,6,1,3,1,79,11
9,4,19,1,6,1,3,1,67,11
9,4,1,0,1,0,3,1,112,11
9,4,9,1,2,0,3,1,112,11
9,4,23,0,4,0,3,1,127,11
9,4,19,1,6,1,3,1,93,11
9,4,20,1,6,1,3,1,79,11
9,4,13,1,2,0,3,1,57,11
9,4,18,1,6,1,3,1,57,11
9,4,21,0,6,1,3,1,57,11
9,4,23,0,6,1,3,1,103,11
9,4,20,1,0,0,3,1,93,11
9,4,8,1,4,0,3,1,103,11
9,4,23,0,5,1,3,1,103,11
9,4,14,1,1,0,3,1,103,11
10,4,10,1,6,1,4,1,93,11
10,4,11,1,0,0,4,1,93,11
10,4,18,1,3,0,4,1,93,11
10,4,15,1,4,0,4,1,4,11
10,4,17,1,6,1,4,1,93,11
10,4,21,0,1,0,4,1,38,11
10,4,16,1,2,0,4,1,103,11
10,4,17,1,2,0,4,1,103,11
10,4,20,1,5,1,4,1,93,11
10,4,16,1,6,1,4,1,93,11
11,4,19,1,3,0,4,1,93,11
11,4,21,0,4,0,4,1,21,11
11,4,8,1,5,1,4,1,28,11
11,4,19,1,0,0,4,1,103,11
11,4,19,1,1,0,4,1,21,11
11,4,22,0,3,0,4,1,127,11
11,4,6,0,2,0,4,1,112,11
11,4,18,1,1,0,4,1,112,11
12,1,18,1,0,0,4,1,21,11
12,1,16,1,2,0,4,1,79,11
12,1,22,0,5,1,4,1,103,11
12,1,10,1,6,1,4,1,79,11
12,1,19,1,0,0,4,1,79,11
12,1,9,1,1,0,4,1,21,11
12,1,20,1,2,0,4,1,127,11
1,1,0,0,6,1,1,1,90,11
1,1,8,1,6,1,1,1,67,11
1,1,17,1,6,1,1,1,67,11
1,1,0,0,0,0,1,1,90,11
1,1,0,0,0,0,1,1,90,11
1,1,1,0,0,0,1,1,90,11
1,1,1,0,0,0,1,1,90,11
1,1,3,0,0,0,1,1,38,11
1,1,10,1,0,0,1,1,90,11
1,1,1,0,1,0,1,1,90,11
1,1,1,0,1,0,1,1,90,11
1,1,7,1,1,0,1,1,103,11
1,1,16,1,1,0,1,1,90,11
1,1,15,1,2,0,1,1,90,11
1,1,21,0,3,0,1,1,66,11
1,1,22,0,3,0,1,1,90,11
1,1,23,0,3,0,1,1,90,11
1,1,0,0,4,0,1,1,90,11
1,1,0,0,4,0,1,1,90,11
1,1,1,0,4,0,1,1,90,11
1,1,18,1,4,0,1,1,93,11
1,1,0,0,5,1,1,1,90,11
1,1,1,0,5,1,1,1,90,11
1,1,2,0,5,1,1,1,90,11
1,1,2,0,5,1,1,1,90,11
1,1,13,1,5,1,1,1,112,11
1,1,15,1,5,1,1,1,67,11
1,1,18,1,5,1,1,1,67,11
1,1,19,1,5,1,1,1,103,11
1,1,21,0,5,1,1,1,90,11
1,1,0,0,6,1,1,1,90,11
1,1,1,0,6,1,1,1,90,11
1,1,1,0,6,1,1,1,90,11
1,1,2,0,6,1,1,1,90,11
1,1,3,0,6,1,1,1,80,11
1,1,8,1,6,1,1,1,90,11
1,1,17,1,6,1,1,1,67,11
1,1,17,1,6,1,1,1,67,11
1,1,14,1,0,0,1,1,103,11
1,1,21,0,0,0,1,1,93,11
1,1,22,0,0,0,1,1,67,11
1,1,16,1,1,0,1,1,90,11
1,1,13,1,4,0,1,1,67,11
1,1,18,1,4,0,1,1,67,11
1,1,13,1,6,1,1,1,90,11
1,1,15,1,1,0,1,1,67,11
1,1,11,1,3,0,1,1,79,11
1,1,14,1,3,0,1,1,93,11
1,1,18,1,3,0,1,1,90,11
1,1,12,1,1,0,1,1,90,11
1,1,9,1,3,0,1,1,90,11
1,1,18,1,3,0,1,1,90,11
1,1,20,1,4,0,1,1,67,11
1,1,13,1,5,1,1,1,67,11
2,1,17,1,2,0,1,1,79,11
2,1,18,1,2,0,1,1,90,11
2,1,18,1,2,0,1,1,67,11
2,1,2,0,3,0,1,1,90,11
2,1,9,1,3,0,1,1,107,11
2,1,15,1,4,0,1,1,90,11
2,1,21,0,5,1,1,1,67,11
2,1,8,1,5,1,1,1,90,11
2,1,19,1,6,1,1,1,67,11
2,1,18,1,6,1,1,1,90,11
2,1,15,1,6,1,1,1,90,11
2,1,13,1,6,1,1,1,90,11
2,1,13,1,6,1,1,1,90,11
2,1,13,1,6,1,1,1,90,11
2,1,14,1,0,0,1,1,90,11
2,1,21,0,0,0,1,1,38,11
2,1,20,1,1,0,1,1,90,11
2,1,12,1,2,0,1,1,90,11
2,1,3,0,2,0,1,1,90,11
2,1,0,0,3,0,1,1,90,11
2,1,7,1,3,0,1,1,112,11
2,1,12,1,3,0,1,1,90,11
2,1,16,1,3,0,1,1,67,11
2,1,17,1,3,0,1,1,93,11
2,1,8,1,4,0,1,1,38,11
2,1,14,1,4,0,1,1,103,11
2,1,19,1,4,0,1,1,90,11
2,1,20,1,4,0,1,1,90,11
2,1,13,1,5,1,1,1,103,11
2,1,9,1,6,1,1,1,90,11
2,1,14,1,6,1,1,1,93,11
2,1,15,1,6,1,1,1,103,11
2,1,12,1,0,0,1,1,90,11
2,1,15,1,0,0,1,1,67,11
2,1,19,1,1,0,1,1,67,11
2,1,12,1,2,0,1,1,90,11
2,1,14,1,2,0,1,1,103,11
2,1,18,1,3,0,1,1,103,11
2,1,22,0,3,0,1,1,90,11
2,1,0,0,6,1,1,1,90,11
2,1,21,0,6,1,1,1,90,11
2,1,19,1,0,0,1,1,21,11
2,1,2,0,2,0,1,1,90,11
2,1,5,0,2,0,1,1,90,11
2,1,9,1,2,0,1,1,90,11
2,1,11,1,3,0,1,1,90,11
2,1,14,1,3,0,1,1,103,11
2,1,13,1,5,1,1,1,90,11
2,1,9,1,6,1,1,1,90,11
2,1,16,1,6,1,1,1,90,11
2,1,11,1,1,0,1,1,103,11
3,2,19,1,2,0,1,1,90,11
3,2,13,1,3,0,1,1,103,11
3,2,12,1,4,0,1,1,103,11
3,2,16,1,6,1,1,1,90,11
3,2,1,0,0,0,1,1,67,11
3,2,23,0,0,0,1,1,90,11
3,2,1,0,2,0,1,1,118,11
3,2,11,1,2,0,1,1,90,11
3,2,11,1,3,0,1,1,93,11
3,2,15,1,4,0,1,1,90,11
3,2,11,1,5,1,1,1,90,11
3,2,11,1,5,1,1,1,79,11
3,2,19,1,5,1,1,1,90,11
3,2,1,0,6,1,1,1,90,11
3,2,20,1,6,1,1,1,67,11
3,2,23,0,6,1,1,1,90,11
3,2,18,1,0,0,1,1,67,11
3,2,20,1,1,0,1,1,67,11
3,2,11,1,3,0,1,1,90,11
3,2,2,0,5,1,1,1,66,11
3,2,22,0,5,1,1,1,67,11
3,2,1,0,6,1,1,1,90,11
3,2,21,0,6,1,1,1,90,11
3,2,23,0,0,0,1,1,90,11
3,2,20,1,0,0,1,1,90,11
3,2,0,0,2,0,1,1,90,11
3,2,10,1,5,1,1,1,90,11
3,2,14,1,0,0,1,1,90,11
3,2,18,1,1,0,1,1,67,11
3,2,15,1,1,0,1,1,90,11
3,2,12,1,3,0,1,1,103,11
3,2,12,1,3,0,1,1,93,11
3,2,17,1,3,0,1,1,67,11
3,2,19,1,4,0,1,1,103,11
4,2,9,1,6,1,2,1,21,11
4,2,23,0,1,0,2,1,90,11
4,2,11,1,2,0,2,1,90,11
4,2,23,0,2,0,2,1,90,11
4,2,23,0,3,0,2,1,90,11
4,2,12,1,5,1,2,1,38,11
4,2,23,0,5,1,2,1,90,11
4,2,5,0,6,1,2,1,90,11
4,2,1,0,0,0,2,1,90,11
4,2,4,0,0,0,2,1,90,11
4,2,5,0,0,0,2,1,90,11
4,2,6,0,0,0,2,1,90,11
4,2,6,0,1,0,2,1,79,11
4,2,23,0,2,0,2,1,90,11
4,2,2,0,3,0,2,1,90,11
4,2,2,0,3,0,2,1,90,11
4,2,2,0,3,0,2,1,90,11
4,2,3,0,3,0,2,1,90,11
4,2,4,0,3,0,2,1,90,11
4,2,5,0,3,0,2,1,90,11
4,2,21,0,3,0,2,1,90,11
4,2,16,1,3,0,2,1,103,11
4,2,5,0,6,1,2,1,79,11
4,2,23,0,0,0,2,1,90,11
4,2,21,0,1,0,2,1,93,11
4,2,18,1,2,0,2,1,90,11
4,2,21,0,6,1,2,1,127,11
4,2,21,0,0,0,2,1,90,11
4,2,22,0,0,0,2,1,93,11
4,2,0,0,2,0,2,1,90,11
4,2,11,1,2,0,2,1,127,11
4,2,21,0,2,0,2,1,127,11
4,2,22,0,2,0,2,1,90,11
4,2,22,0,2,0,2,1,127,11
4,2,22,0,2,0,2,1,90,11
4,2,9,1,3,0,2,1,103,11
4,2,17,1,6,1,2,1,103,11
5,2,19,1,1,0,2,1,103,11
5,2,21,0,1,0,2,1,103,11
5,2,13,1,3,0,2,1,103,11
5,2,14,1,3,0,2,1,103,11
5,2,21,0,3,0,2,1,103,11
5,2,23,0,3,0,2,1,67,11
5,2,21,0,4,0,2,1,90,11
5,2,13,1,5,1,2,1,67,11
5,2,19,1,3,0,2,1,103,11
5,2,22,0,3,0,2,1,93,11
5,2,16,1,4,0,2,1,103,11
5,2,18,1,5,1,2,1,103,11
5,2,13,1,0,0,2,1,90,11
5,2,6,0,1,0,2,1,79,11
5,2,22,0,2,0,2,1,93,11
5,2,12,1,3,0,2,1,103,11
5,2,22,0,4,0,2,1,103,11
5,2,9,1,0,0,2,1,103,11
5,2,22,0,0,0,2,1,90,11
5,2,11,1,2,0,2,1,103,11
5,2,16,1,2,0,2,1,103,11
6,3,11,1,3,0,2,1,103,11
6,3,23,0,4,0,2,1,90,11
6,3,19,1,0,0,2,1,93,11
6,3,21,0,1,0,2,1,103,11
6,3,2,0,2,0,2,1,103,11
6,3,12,1,2,0,2,1,67,11
6,3,18,1,3,0,2,1,103,11
6,3,19,1,3,0,2,1,103,11
6,3,19,1,3,0,2,1,103,11
6,3,18,1,4,0,2,1,103,11
6,3,22,0,4,0,2,1,103,11
6,3,0,0,6,1,2,1,103,11
6,3,12,1,6,1,2,1,103,11
6,3,0,0,0,0,2,1,93,11
6,3,3,0,0,0,2,1,76,11
6,3,20,1,2,0,2,1,103,11
6,3,7,1,5,1,2,1,112,11
6,3,22,0,6,1,2,1,103,11
6,3,21,0,1,0,2,1,103,11
6,3,22,0,1,0,2,1,103,11
6,3,22,0,2,0,2,1,103,11
6,3,0,0,3,0,2,1,103,11
6,3,1,0,3,0,2,1,103,11
6,3,6,0,3,0,2,1,21,11
6,3,20,1,3,0,2,1,103,11
6,3,20,1,4,0,2,1,93,11
6,3,22,0,6,1,2,1,103,11
6,3,10,1,0,0,2,1,93,11
6,3,13,1,0,0,2,1,13,11
6,3,1,0,2,0,2,1,103,11
6,3,10,1,2,0,2,1,103,11
6,3,14,1,2,0,2,1,103,11
6,3,14,1,3,0,2,1,103,11
6,3,16,1,3,0,2,1,103,11
6,3,23,0,4,0,2,1,26,11
6,3,14,1,4,0,2,1,76,11
7,3,22,0,6,1,3,1,93,11
7,3,19,1,0,0,3,1,103,11
7,3,12,1,1,0,3,1,103,11
7,3,20,1,1,0,3,1,103,11
7,3,15,1,2,0,3,1,103,11
7,3,19,1,2,0,3,1,103,11
7,3,23,0,2,0,3,1,93,11
7,3,0,0,3,0,3,1,93,11
7,3,1,0,3,0,3,1,93,11
7,3,10,1,3,0,3,1,90,11
7,3,21,0,3,0,3,1,103,11
7,3,21,0,4,0,3,1,103,11
7,3,23,0,4,0,3,1,103,11
7,3,16,1,5,1,3,1,103,11
7,3,22,0,5,1,3,1,103,11
7,3,21,0,0,0,3,1,93,11
7,3,11,1,1,0,3,1,103,11
7,3,14,1,1,0,3,1,103,11
7,3,20,1,1,0,3,1,93,11
7,3,13,1,2,0,3,1,103,11
7,3,13,1,2,0,3,1,103,11
7,3,20,1,2,0,3,1,90,11
7,3,21,0,2,0,3,1,103,11
7,3,12,1,4,0,3,1,103,11
7,3,22,0,4,0,3,1,67,11
7,3,21,0,5,1,3,1,103,11
7,3,21,0,5,1,3,1,103,11
7,3,13,1,6,1,3,1,90,11
7,3,1,0,0,0,3,1,103,11
7,3,20,1,0,0,3,1,103,11
7,3,10,1,1,0,3,1,103,11
7,3,17,1,1,0,3,1,93,11
7,3,0,0,2,0,3,1,67,11
7,3,14,1,2,0,3,1,103,11
7,3,17,1,2,0,3,1,103,11
7,3,20,1,2,0,3,1,103,11
7,3,0,0,3,0,3,1,103,11
7,3,12,1,3,0,3,1,103,11
7,3,20,1,3,0,3,1,103,11
7,3,23,0,3,0,3,1,93,11
7,3,0,0,4,0,3,1,103,11
7,3,0,0,4,0,3,1,103,11
7,3,14,1,4,0,3,1,103,11
7,3,10,1,5,1,3,1,103,11
7,3,11,1,6,1,3,1,103,11
7,3,13,1,0,0,3,1,103,11
7,3,18,1,0,0,3,1,103,11
7,3,21,0,0,0,3,1,103,11
7,3,21,0,0,0,3,1,93,11
7,3,12,1,1,0,3,1,103,11
7,3,12,1,1,0,3,1,103,11
7,3,16,1,1,0,3,1,103,11
7,3,6,0,2,0,3,1,79,11
7,3,13,1,2,0,3,1,103,11
7,3,14,1,2,0,3,1,103,11
7,3,18,1,2,0,3,1,103,11
7,3,15,1,3,0,3,1,103,11
7,3,16,1,5,1,3,1,90,11
7,3,17,1,5,1,3,1,103,11
7,3,21,0,5,1,3,1,103,11
7,3,21,0,6,1,3,1,103,11
7,3,21,0,6,1,3,1,90,11
7,3,0,0,0,0,3,1,103,11
7,3,20,1,0,0,3,1,103,11
8,3,23,0,1,0,3,1,103,11
8,3,20,1,2,0,3,1,103,11
8,3,21,0,2,0,3,1,103,11
8,3,10,1,3,0,3,1,103,11
8,3,21,0,3,0,3,1,103,11
8,3,21,0,4,0,3,1,103,11
8,3,4,0,5,1,3,1,103,11
8,3,19,1,5,1,3,1,103,11
8,3,1,0,0,0,3,1,103,11
8,3,9,1,0,0,3,1,93,11
8,3,10,1,0,0,3,1,103,11
8,3,15,1,0,0,3,1,103,11
8,3,10,1,1,0,3,1,103,11
8,3,12,1,1,0,3,1,103,11
8,3,20,1,3,0,3,1,103,11
8,3,15,1,4,0,3,1,103,11
8,3,12,1,5,1,3,1,103,11
8,3,11,1,6,1,3,1,103,11
8,3,2,0,6,1,3,1,79,11
8,3,12,1,6,1,3,1,103,11
8,3,18,1,6,1,3,1,103,11
8,3,7,1,0,0,3,1,21,11
8,3,20,1,0,0,3,1,103,11
8,3,21,0,1,0,3,1,103,11
8,3,11,1,3,0,3,1,103,11
8,3,14,1,3,0,3,1,103,11
8,3,20,1,3,0,3,1,103,11
8,3,21,0,3,0,3,1,103,11
8,3,11,1,4,0,3,1,103,11
8,3,0,0,5,1,3,1,103,11
8,3,20,1,5,1,3,1,103,11
8,3,21,0,5,1,3,1,93,11
8,3,22,0,5,1,3,1,103,11
8,3,19,1,6,1,3,1,90,11
8,3,13,1,0,0,3,1,103,11
8,3,20,1,0,0,3,1,103,11
8,3,0,0,1,0,3,1,103,11
8,3,1,0,1,0,3,1,103,11
8,3,21,0,1,0,3,1,103,11
8,3,22,0,1,0,3,1,21,11
8,3,22,0,1,0,3,1,103,11
8,3,15,1,2,0,3,1,93,11
8,3,16,1,2,0,3,1,103,11
8,3,17,1,2,0,3,1,103,11
8,3,20,1,2,0,3,1,93,11
8,3,21,0,2,0,3,1,103,11
8,3,20,1,3,0,3,1,103,11
8,3,14,1,4,0,3,1,103,11
8,3,15,1,4,0,3,1,93,11
8,3,15,1,6,1,3,1,103,11
8,3,21,0,0,0,3,1,21,11
8,3,13,1,1,0,3,1,103,11
8,3,20,1,2,0,3,1,103,11
8,3,15,1,3,0,3,1,103,11
8,3,22,0,3,0,3,1,103,11
9,4,16,1,4,0,3,1,103,11
9,4,20,1,4,0,3,1,103,11
9,4,10,1,5,1,3,1,103,11
9,4,18,1,6,1,3,1,103,11
9,4,20,1,6,1,3,1,103,11
9,4,20,1,2,0,3,1,67,11
9,4,10,1,4,0,3,1,103,11
9,4,17,1,4,0,3,1,103,11
9,4,18,1,4,0,3,1,103,11
9,4,17,1,5,1,3,1,38,11
9,4,19,1,5,1,3,1,103,11
9,4,17,1,0,0,3,1,103,11
9,4,20,1,0,0,3,1,103,11
9,4,18,1,1,0,3,1,103,11
9,4,13,1,2,0,3,1,93,11
9,4,15,1,2,0,3,1,103,11
9,4,17,1,2,0,3,1,93,11
9,4,10,1,3,0,3,1,66,11
9,4,14,1,3,0,3,1,103,11
9,4,12,1,6,1,3,1,90,11
9,4,9,1,0,0,3,1,66,11
9,4,14,1,0,0,3,1,103,11
9,4,21,0,0,0,3,1,103,11
9,4,13,1,1,0,3,1,103,11
9,4,20,1,1,0,3,1,103,11
9,4,10,1,1,0,3,1,65,9
9,4,9,1,2,0,3,1,66,11
9,4,13,1,2,0,3,1,103,11
9,4,20,1,2,0,3,1,103,11
9,4,21,0,2,0,3,1,66,11
9,4,22,0,2,0,3,1,103,11
9,4,15,1,3,0,3,1,103,11
9,4,13,1,4,0,3,1,103,11
9,4,19,1,4,0,3,1,103,11
9,4,20,1,4,0,3,1,5,11
9,4,13,1,5,1,3,1,103,11
9,4,13,1,5,1,3,1,103,11
9,4,19,1,5,1,3,1,103,11
9,4,21,0,6,1,3,1,103,11
9,4,18,1,6,1,3,1,103,11
9,4,17,1,6,1,3,1,103,11
9,4,13,1,6,1,3,1,103,11
9,4,19,1,0,0,3,1,103,11
9,4,10,1,1,0,3,1,103,11
9,4,13,1,1,0,3,1,103,11
9,4,14,1,1,0,3,1,103,11
9,4,13,1,3,0,3,1,103,11
9,4,17,1,4,0,3,1,103,11
9,4,20,1,5,1,3,1,103,11
10,4,17,1,6,1,4,1,90,11
10,4,17,1,6,1,4,1,103,11
10,4,9,1,0,0,4,1,90,11
10,4,22,0,0,0,4,1,103,11
10,4,22,0,0,0,4,1,103,11
10,4,23,0,0,0,4,1,103,11
10,4,13,1,2,0,4,1,103,11
10,4,17,1,2,0,4,1,103,11
10,4,17,1,2,0,4,1,103,11
10,4,10,1,4,0,4,1,103,11
10,4,20,1,5,1,4,1,93,11
10,4,21,0,5,1,4,1,103,11
10,4,0,0,6,1,4,1,90,11
10,4,16,1,6,1,4,1,93,11
10,4,17,1,6,1,4,1,103,11
10,4,13,1,0,0,4,1,103,11
10,4,19,1,0,0,4,1,103,11
10,4,21,0,0,0,4,1,93,11
10,4,13,1,1,0,4,1,103,11
10,4,16,1,1,0,4,1,103,11
10,4,20,1,1,0,4,1,103,11
10,4,21,0,1,0,4,1,103,11
10,4,1,0,2,0,4,1,79,11
10,4,7,1,2,0,4,1,93,9
10,4,13,1,2,0,4,1,103,11
10,4,8,1,3,0,4,1,103,11
10,4,19,1,3,0,4,1,93,11
10,4,19,1,4,0,4,1,103,11
10,4,7,1,1,0,4,1,103,11
10,4,13,1,1,0,4,1,103,11
10,4,13,1,1,0,4,1,84,11
10,4,15,1,4,0,4,1,103,11
10,4,20,1,4,0,4,1,103,11
10,4,1,0,5,1,4,1,103,11
10,4,13,1,5,1,4,1,93,11
10,4,17,1,5,1,4,1,103,11
10,4,20,1,6,1,4,1,103,11
10,4,20,1,6,1,4,1,93,11
10,4,8,1,0,0,4,1,90,11
10,4,18,1,0,0,4,1,103,11
10,4,0,0,2,0,4,1,21,11
10,4,10,1,2,0,4,1,103,11
10,4,18,1,2,0,4,1,103,11
10,4,16,1,3,0,4,1,103,11
10,4,11,1,5,1,4,1,103,11
10,4,18,1,5,1,4,1,103,11
10,4,21,0,0,0,4,1,90,11
10,4,22,0,0,0,4,1,90,11
11,4,11,1,2,0,4,1,93,11
11,4,4,0,3,0,4,1,21,11
11,4,21,0,5,1,4,1,90,11
11,4,14,1,0,0,4,1,103,11
11,4,18,1,0,0,4,1,103,11
11,4,14,1,1,0,4,1,103,11
11,4,23,0,1,0,4,1,90,11
11,4,7,1,2,0,4,1,28,11
11,4,11,1,2,0,4,1,103,11
11,4,10,1,3,0,4,1,103,11
11,4,20,1,2,0,4,1,90,11
11,4,15,1,3,0,4,1,90,11
11,4,14,1,5,1,4,1,21,11
11,4,19,1,5,1,4,1,103,11
11,4,11,1,6,1,4,1,90,11
11,4,14,1,6,1,4,1,103,11
11,4,16,1,6,1,4,1,90,11
11,4,19,1,0,0,4,1,90,11
11,4,21,0,0,0,4,1,90,11
11,4,22,0,2,0,4,1,67,11
11,4,23,0,4,0,4,1,67,11
11,4,15,1,5,1,4,1,67,11
11,4,14,1,0,0,4,1,103,11
11,4,17,1,1,0,4,1,14,11
12,1,20,1,4,0,4,1,90,11
12,1,4,0,5,1,4,1,90,11
12,1,13,1,5,1,4,1,103,11
12,1,9,1,1,0,4,1,38,11
12,1,16,1,1,0,4,1,103,11
12,1,10,1,3,0,4,1,90,11
12,1,12,1,5,1,4,1,90,11
12,1,22,0,5,1,4,1,90,11
12,1,9,1,6,1,4,1,90,11
12,1,23,0,6,1,4,1,90,11
12,1,13,1,0,0,4,1,90,11
12,1,14,1,1,0,4,1,90,11
12,1,14,1,1,0,4,1,103,11
12,1,21,0,1,0,4,1,103,11
12,1,9,1,2,0,4,1,79,9
12,1,13,1,2,0,4,1,90,11
12,1,14,1,2,0,4,1,103,11
12,1,16,1,2,0,4,1,103,11
12,1,12,1,5,1,4,1,79,11
12,1,18,1,5,1,4,1,21,9
12,1,21,0,5,1,4,1,67,11
12,1,7,1,6,1,4,1,90,11
12,1,23,0,6,1,4,1,111,11
12,1,3,0,1,0,4,1,90,11
12,1,18,1,1,0,4,1,67,11
12,1,15,1,2,0,4,1,90,11
12,1,4,0,3,0,4,1,90,11
12,1,7,1,5,1,4,1,90,11
12,1,9,1,5,1,4,1,90,11
12,1,12,1,6,1,4,1,79,11
12,1,9,1,0,0,4,1,90,11
12,1,4,0,1,0,4,1,21,11
12,1,2,0,5,1,4,1,90,11
12,1,21,0,5,1,4,1,103,11
12,1,20,1,6,1,4,1,79,11
12,1,21,0,6,1,4,1,38,11
1,1,8,1,1,0,1,1,79,11
1,1,12,1,3,0,1,1,38,11
1,1,14,1,6,1,1,1,21,11
2,1,16,1,0,0,1,1,38,11
2,1,15,1,3,0,1,1,103,11
3,2,18,1,1,0,1,1,93,11
6,3,11,1,5,1,2,1,93,11
7,3,8,1,4,0,3,1,103,11
8,3,20,1,5,1,3,1,112,11
10,4,12,1,6,1,4,1,93,11
10,4,19,1,6,1,4,1,93,11
10,4,22,0,6,1,4,1,103,11
10,4,13,1,0,0,4,1,103,11
10,4,11,1,1,0,4,1,103,11
11,4,18,1,4,0,4,1,38,11
3,2,11,1,2,0,1,1,21,11
4,2,23,0,2,0,2,1,14,11
8,3,15,1,4,0,3,1,21,11
10,4,11,1,3,0,4,1,103,11
10,4,12,1,6,1,4,1,103,11
10,4,23,0,3,0,4,1,103,11
10,4,18,1,0,0,4,1,103,11
11,4,18,1,5,1,4,1,28,11
11,4,11,1,6,1,4,1,93,11
12,1,18,1,6,1,4,1,90,11
1,1,9,1,0,0,1,1,79,11
3,2,4,0,0,0,1,1,90,11
7,3,14,1,5,1,3,1,103,11
7,3,6,0,3,0,3,1,103,11
10,4,19,1,6,1,4,1,103,11
10,4,18,1,2,0,4,1,103,11
11,4,16,1,6,1,4,1,103,11
1,1,13,1,6,1,1,1,103,11
1,1,20,1,0,0,1,1,127,11
1,1,20,1,2,0,1,1,127,11
1,1,15,1,1,0,1,1,79,11
1,1,14,1,1,0,1,1,106,8
2,1,23,0,1,0,1,1,67,11
2,1,20,1,5,1,1,1,79,11
2,1,14,1,1,0,1,1,127,11
2,1,17,1,5,1,1,1,103,11
2,1,18,1,5,1,1,1,103,11
2,1,15,1,6,1,1,1,103,11
2,1,7,1,2,0,1,1,112,11
3,2,14,1,2,0,1,1,103,11
4,2,20,1,6,1,2,1,103,11
4,2,12,1,4,0,2,1,103,11
4,2,11,1,4,0,2,1,93,11
5,2,23,0,0,0,2,1,127,11
5,2,0,0,1,0,2,1,127,11
5,2,2,0,1,0,2,1,127,11
5,2,12,1,5,1,2,1,103,11
5,2,22,0,5,1,2,1,103,11
6,3,7,1,5,1,2,1,87,8
6,3,13,1,2,0,2,1,93,9
6,3,13,1,4,0,2,1,103,11
6,3,16,1,0,0,2,1,21,11
7,3,14,1,0,0,3,1,103,11
7,3,13,1,3,0,3,1,103,11
7,3,12,1,2,0,3,1,103,11
7,3,10,1,4,0,3,1,103,11
7,3,19,1,6,1,3,1,21,11
7,3,13,1,2,0,3,1,79,11
8,3,18,1,4,0,3,1,103,11
8,3,13,1,4,0,3,1,93,11
8,3,17,1,4,0,3,1,58,11
8,3,6,0,6,1,3,1,79,9
9,4,21,0,5,1,3,1,103,11
9,4,18,1,0,0,3,1,93,11
10,4,19,1,0,0,4,1,103,11
10,4,13,1,6,1,4,1,28,11
10,4,20,1,2,0,4,48,103,11
10,4,23,0,6,1,4,48,103,11
10,4,18,1,1,0,4,1,101,11
11,4,14,1,4,0,4,1,125,11
11,4,19,1,0,0,4,1,90,11
11,4,7,1,1,0,4,1,76,11
11,4,6,0,2,0,4,48,112,11
11,4,22,0,3,0,4,48,103,11
12,1,13,1,6,1,4,48,90,11
12,1,16,1,1,0,4,1,103,11
12,1,23,0,4,0,4,1,127,11
12,1,23,0,5,1,4,1,127,11
12,1,0,0,5,1,4,1,127,11
3,2,16,1,4,0,1,1,103,11
1,1,21,0,0,0,1,1,103,11
1,1,16,1,5,1,1,1,103,11
1,1,16,1,2,0,1,1,79,11
2,1,18,1,3,0,1,1,103,11
2,1,8,1,0,0,1,1,21,11
2,1,10,1,3,0,1,1,103,11
2,1,11,1,5,1,1,1,103,11
2,1,12,1,6,1,1,1,103,11
2,1,13,1,6,1,1,1,103,11
2,1,15,1,6,1,1,1,59,9
2,1,14,1,0,0,1,1,79,11
2,1,10,1,2,0,1,1,98,11
2,1,20,1,3,0,1,1,79,11
2,1,18,1,2,0,1,1,103,11
2,1,18,1,3,0,1,1,103,11
2,1,13,1,6,1,1,1,103,11
2,1,11,1,6,1,1,1,103,11
3,2,16,1,2,0,1,1,103,11
3,2,18,1,4,0,1,1,112,11
3,2,14,1,6,1,1,1,79,11
3,2,11,1,6,1,1,1,83,11
3,2,14,1,6,1,1,1,103,11
3,2,11,1,3,0,1,1,103,11
4,2,21,0,4,0,2,1,103,11
4,2,23,0,4,0,2,1,103,11
4,2,23,0,5,1,2,1,103,11
4,2,14,1,1,0,2,1,26,11
4,2,10,1,5,1,2,1,103,11
4,2,18,1,5,1,2,1,103,11
5,2,10,1,4,0,2,1,103,11
5,2,20,1,5,1,2,1,90,11
6,3,19,1,4,0,2,1,80,11
7,3,22,0,0,0,3,1,103,11
7,3,16,1,3,0,3,1,21,11
7,3,22,0,5,1,3,1,103,11
7,3,18,1,4,0,3,1,21,11
7,3,16,1,5,1,3,1,84,11
7,3,11,1,1,0,3,1,103,11
8,3,19,1,5,1,3,1,103,11
8,3,11,1,0,0,3,1,103,11
8,3,18,1,6,1,3,1,127,11
8,3,10,1,5,1,3,1,103,11
8,3,11,1,5,1,3,1,103,11
8,3,9,1,0,0,3,1,93,11
8,3,19,1,3,0,3,1,103,11
9,4,15,1,0,0,3,1,90,11
9,4,19,1,1,0,3,1,90,11
9,4,16,1,1,0,3,1,90,11
9,4,3,0,6,1,3,1,103,11
9,4,11,1,6,1,3,1,93,11
9,4,20,1,2,0,3,1,21,11
10,4,13,1,5,1,4,1,103,11
10,4,8,1,4,0,4,1,21,11
10,4,18,1,0,0,4,1,103,11
10,4,16,1,5,1,4,1,103,11
10,4,20,1,5,1,4,1,103,11
10,4,5,0,5,1,4,1,38,11
10,4,18,1,0,0,4,1,103,11
11,4,19,1,2,0,4,1,14,11
11,4,18,1,2,0,4,1,79,11
11,4,16,1,3,0,4,1,38,11
12,1,19,1,2,0,4,1,90,11
12,1,16,1,3,0,4,1,103,11
12,1,12,1,3,0,4,1,103,11
12,1,23,0,4,0,4,1,90,11
12,1,14,1,4,0,4,1,103,11
1,1,19,1,3,0,1,15,90,11
1,1,22,0,4,0,1,15,90,11
1,1,14,1,0,0,1,15,127,11
1,1,18,1,0,0,1,15,127,11
1,1,5,0,0,0,1,15,93,11
1,1,17,1,3,0,1,15,67,11
1,1,22,0,2,0,1,15,79,11
1,1,22,0,5,1,1,15,79,11
2,1,11,1,3,0,1,15,79,11
2,1,21,0,4,0,1,15,79,11
2,1,12,1,5,1,1,15,90,11
2,1,15,1,6,1,1,15,90,11
2,1,19,1,6,1,1,15,90,11
2,1,17,1,0,0,1,15,79,9
2,1,21,0,1,0,1,15,90,11
2,1,18,1,2,0,1,15,79,9
2,1,11,1,5,1,1,15,79,9
2,1,12,1,0,0,1,15,90,11
2,1,0,0,3,0,1,15,15,11
3,2,15,1,4,0,1,15,90,11
3,2,10,1,6,1,1,15,90,11
3,2,1,0,4,0,1,15,90,11
4,2,21,0,1,0,2,15,90,11
4,2,20,1,1,0,2,15,21,11
4,2,22,0,1,0,2,15,90,11
4,2,11,1,0,0,2,15,90,11
4,2,12,1,0,0,2,15,103,11
5,2,22,0,0,0,2,15,127,11
5,2,20,1,1,0,2,15,79,11
5,2,19,1,3,0,2,15,103,11
6,3,21,0,4,0,2,15,103,11
6,3,3,0,2,0,2,15,79,11
6,3,21,0,4,0,2,15,79,11
6,3,15,1,6,1,2,15,103,11
6,3,10,1,5,1,2,15,103,11
7,3,21,0,6,1,3,15,103,11
7,3,18,1,3,0,3,15,66,11
7,3,3,0,6,1,3,15,14,11
7,3,14,1,6,1,3,15,112,11
7,3,23,0,4,0,3,15,90,11
8,3,21,0,3,0,3,15,103,11
8,3,21,0,6,1,3,15,103,11
8,3,15,1,2,0,3,15,103,11
8,3,4,0,3,0,3,15,21,11
9,4,0,0,6,1,3,15,93,11
9,4,14,1,6,1,3,15,76,11
9,4,22,0,0,0,3,15,21,11
9,4,16,1,5,1,3,15,79,11
9,4,3,0,0,0,3,15,90,11
9,4,14,1,1,0,3,15,93,11
9,4,17,1,3,0,3,15,103,11
9,4,23,0,4,0,3,15,90,11
9,4,8,1,6,1,3,15,103,11
9,4,9,1,0,0,3,15,103,11
10,4,17,1,1,0,4,15,103,11
10,4,16,1,1,0,4,15,15,11
10,4,21,0,5,1,4,15,21,11
10,4,14,1,6,1,4,15,21,11
11,4,21,0,3,0,4,15,93,11
11,4,14,1,6,1,4,15,80,11
11,4,12,1,6,1,4,15,79,11
11,4,18,1,0,0,4,15,79,11
12,1,12,1,5,1,4,15,21,9
12,1,12,1,6,1,4,15,93,11
12,1,18,1,0,0,4,15,103,11
12,1,5,0,1,0,4,15,90,11
12,1,18,1,6,1,4,15,90,11
12,1,20,1,0,0,4,15,14,11
12,1,12,1,2,0,4,15,90,11
1,1,13,1,6,1,1,15,79,11
4,2,20,1,5,1,2,15,127,11
4,2,13,1,0,0,2,15,79,11
8,3,19,1,4,0,3,15,112,11
11,4,22,0,0,0,4,15,90,11
11,4,18,1,0,0,4,15,79,11
12,1,0,0,3,0,4,15,103,11
12,1,9,1,4,0,4,15,79,9
2,1,18,1,6,1,1,15,90,11
2,1,19,1,4,0,1,15,90,11
3,2,21,0,2,0,1,15,112,11
4,2,18,1,4,0,2,15,93,11
4,2,12,1,5,1,2,15,90,11
4,2,14,1,0,0,2,15,90,11
5,2,9,1,3,0,2,15,90,11
5,2,14,1,3,0,2,15,90,11
6,3,21,0,3,0,2,15,103,11
6,3,14,1,3,0,2,15,90,11
7,3,9,1,2,0,3,15,21,11
8,3,11,1,6,1,3,15,93,11
8,3,15,1,2,0,3,15,21,11
8,3,9,1,0,0,3,15,15,11
9,4,8,1,6,1,3,15,93,11
10,4,22,0,2,0,4,15,103,11
10,4,0,0,4,0,4,15,21,11
11,4,19,1,0,0,4,15,103,11
11,4,0,0,3,0,4,15,90,11
12,1,0,0,6,1,4,15,112,11
12,1,18,1,1,0,4,15,127,11
12,1,23,0,2,0,4,15,127,11
12,1,20,1,6,1,4,15,38,11
1,1,14,1,1,0,1,15,38,11
1,1,23,0,0,0,1,15,127,11
1,1,19,1,2,0,1,15,79,11
2,1,18,1,3,0,1,15,38,11
2,1,19,1,3,0,1,15,127,11
2,1,18,1,5,1,1,15,67,11
2,1,3,0,5,1,1,15,21,9
2,1,14,1,6,1,1,15,112,11
2,1,18,1,0,0,1,15,79,11
2,1,20,1,3,0,1,15,79,11
2,1,11,1,0,0,1,15,79,11
2,1,6,0,3,0,1,15,46,11
2,1,23,0,4,0,1,15,127,11
3,2,19,1,4,0,1,15,79,11
3,2,23,0,0,0,1,15,127,11
3,2,15,1,6,1,1,15,127,11
3,2,2,0,4,0,1,15,14,9
4,2,15,1,5,1,2,15,15,9
4,2,16,1,3,0,2,15,93,11
5,2,11,1,6,1,2,15,15,11
5,2,13,1,4,0,2,15,21,11
5,2,14,1,0,0,2,15,79,11
5,2,22,0,0,0,2,15,21,8
6,3,18,1,2,0,2,15,21,8
7,3,1,0,0,0,3,15,127,11
7,3,14,1,2,0,3,15,4,11
7,3,1,0,2,0,3,15,93,11
7,3,20,1,0,0,3,15,14,11
8,3,0,0,4,0,3,15,103,11
8,3,0,0,4,0,3,15,111,11
8,3,21,0,3,0,3,15,93,11
8,3,11,1,3,0,3,15,38,11
8,3,22,0,6,1,3,15,118,8
8,3,4,0,2,0,3,15,21,8
9,4,12,1,4,0,3,15,14,8
9,4,11,1,5,1,3,15,93,11
9,4,12,1,6,1,3,15,21,11
9,4,20,1,0,0,3,15,79,9
11,4,0,0,6,1,4,15,127,11
11,4,11,1,2,0,4,15,93,11
12,1,1,0,5,1,4,15,127,11
1,1,20,1,3,0,1,15,76,11
1,1,17,1,3,0,1,15,14,11
2,1,12,1,2,0,1,15,127,11
2,1,21,0,3,0,1,15,38,11
2,1,13,1,6,1,1,15,79,8
3,2,13,1,4,0,1,15,79,11
4,2,0,0,6,1,2,15,112,11
4,2,9,1,6,1,2,15,112,11
4,2,1,0,6,1,2,15,112,11
4,2,19,1,4,0,2,15,79,11
5,2,16,1,0,0,2,15,21,11
5,2,4,0,3,0,2,15,21,11
5,2,16,1,2,0,2,15,93,11
6,3,12,1,0,0,2,15,93,11
7,3,13,1,5,1,3,15,110,11
7,3,1,0,6,1,3,15,15,11
7,3,22,0,0,0,3,15,93,11
8,3,23,0,1,0,3,15,106,11
8,3,10,1,2,0,3,15,93,11
8,3,14,1,1,0,3,6,76,9
9,4,14,1,0,0,3,15,110,11
9,4,1,0,5,1,3,15,93,11
9,4,21,0,5,1,3,15,76,9
9,4,15,1,4,0,3,15,111,9
9,4,22,0,6,1,3,15,127,11
9,4,2,0,0,0,3,15,103,11
10,4,21,0,5,1,4,15,127,11
10,4,18,1,2,0,4,15,79,11
10,4,23,0,3,0,4,15,93,11
10,4,8,1,3,0,4,15,58,8
10,4,1,0,4,0,4,15,21,11
10,4,21,0,4,0,4,15,127,11
11,4,18,1,6,1,4,15,21,11
12,1,22,0,5,1,4,15,127,11
12,1,20,1,1,0,4,15,127,11
12,1,16,1,4,0,4,15,38,11
1,1,23,0,5,1,1,3,103,11
1,1,18,1,2,0,1,3,112,11
1,1,21,0,3,0,1,3,67,11
1,1,20,1,6,1,1,3,79,8
1,1,9,1,4,0,1,3,103,11
2,1,17,1,2,0,1,3,103,11
2,1,19,1,6,1,1,3,79,11
2,1,22,0,0,0,1,3,103,11
2,1,17,1,0,0,1,3,103,11
2,1,18,1,2,0,1,3,38,11
2,1,21,0,2,0,1,3,67,11
2,1,18,1,3,0,1,3,103,11
2,1,16,1,4,0,1,3,67,11
2,1,13,1,0,0,1,3,103,11
2,1,20,1,2,0,1,3,103,11
3,2,10,1,6,1,1,3,103,11
3,2,13,1,1,0,1,3,93,11
3,2,10,1,4,0,1,3,103,11
3,2,16,1,6,1,1,3,93,11
3,2,15,1,3,0,1,3,76,11
4,2,12,1,6,1,2,3,103,11
4,2,19,1,1,0,2,3,103,11
4,2,23,0,2,0,2,3,103,11
4,2,22,0,5,1,2,3,103,11
4,2,16,1,4,0,2,3,103,11
4,2,22,0,4,0,2,3,79,11
4,2,18,1,5,1,2,3,93,11
5,2,21,0,2,0,2,3,103,11
5,2,9,1,6,1,2,3,67,11
6,3,18,1,0,0,2,3,103,11
6,3,12,1,2,0,2,3,124,11
7,3,20,1,0,0,3,3,93,11
7,3,19,1,5,1,3,3,79,9
7,3,13,1,3,0,3,3,93,11
8,3,11,1,1,0,3,3,38,11
8,3,10,1,3,0,3,3,83,9
8,3,23,0,4,0,3,3,93,11
8,3,7,1,2,0,3,3,103,11
8,3,20,1,4,0,3,3,90,11
9,4,12,1,6,1,3,3,79,11
9,4,19,1,4,0,3,3,21,11
9,4,9,1,3,0,3,3,103,11
9,4,19,1,0,0,3,3,93,11
10,4,13,1,3,0,4,3,90,11
10,4,19,1,4,0,4,3,93,11
10,4,14,1,1,0,4,3,103,11
11,4,2,0,4,0,4,3,103,11
11,4,19,1,6,1,4,3,67,11
11,4,19,1,1,0,4,3,67,11
11,4,7,1,6,1,4,3,67,11
11,4,21,0,2,0,4,3,67,11
12,1,14,1,0,0,4,3,79,11
12,1,13,1,4,0,4,3,24,11
12,1,12,1,5,1,4,3,103,11
12,1,11,1,0,0,4,3,103,11
12,1,22,0,0,0,4,3,103,11
2,1,17,1,4,0,1,3,103,11
4,2,20,1,3,0,2,3,93,11
5,2,14,1,0,0,2,3,93,11
7,3,18,1,1,0,3,3,127,11
7,3,7,1,2,0,3,3,60,11
7,3,7,1,5,1,3,3,21,11
8,3,9,1,6,1,3,3,103,11
9,4,16,1,6,1,3,3,103,11
10,4,13,1,0,0,4,3,93,11
11,4,18,1,3,0,4,3,67,11
12,1,11,1,6,1,4,3,48,11
12,1,21,0,6,1,4,3,79,11
12,1,0,0,6,1,4,3,79,11
1,1,20,1,4,0,1,3,79,8
2,1,13,1,3,0,1,3,103,11
2,1,19,1,0,0,1,3,79,11
3,2,14,1,6,1,1,3,103,11
3,2,17,1,6,1,1,3,103,11
4,2,23,0,1,0,2,3,79,11
6,3,16,1,6,1,2,3,67,11
1,1,17,1,0,0,1,3,112,11
2,1,17,1,5,1,1,3,103,11
2,1,14,1,4,0,1,3,21,11
5,2,12,1,0,0,2,3,38,8
7,3,22,0,5,1,3,3,103,11
9,4,21,0,0,0,3,3,79,11
9,4,21,0,2,0,3,3,79,11
11,4,12,1,0,0,4,3,93,11
1,1,16,1,2,0,1,3,127,11
1,1,15,1,3,0,1,3,58,9
1,1,17,1,5,1,1,3,90,11
1,1,13,1,6,1,1,3,127,11
2,1,22,0,1,0,1,3,127,11
2,1,22,0,1,0,1,3,127,11
2,1,10,1,2,0,1,3,90,11
2,1,17,1,5,1,1,3,21,11
2,1,12,1,0,0,1,3,103,11
2,1,15,1,2,0,1,3,103,11
2,1,13,1,3,0,1,3,103,11
2,1,8,1,5,1,1,3,79,11
3,2,23,0,5,1,1,3,90,11
3,2,19,1,3,0,1,3,103,11
3,2,12,1,0,0,1,3,127,11
6,3,19,1,3,0,2,3,91,11
6,3,16,1,5,1,2,3,90,11
6,3,15,1,6,1,2,3,47,11
7,3,15,1,1,0,3,3,28,11
7,3,12,1,5,1,3,3,40,11
8,3,13,1,6,1,3,3,93,11
8,3,8,1,6,1,3,3,15,11
9,4,11,1,4,0,3,3,90,11
9,4,9,1,5,1,3,3,90,11
11,4,13,1,4,0,4,3,90,11
11,4,17,1,4,0,4,3,127,11
4,2,13,1,1,0,2,3,79,9
5,2,8,1,6,1,2,3,90,11
5,2,8,1,1,0,2,3,90,11
6,3,13,1,2,0,2,3,90,11
7,3,13,1,6,1,3,3,21,11
8,3,20,1,3,0,3,3,90,11
9,4,19,1,0,0,3,3,90,11
9,4,14,1,4,0,3,3,90,11
9,4,11,1,0,0,3,3,90,11
11,4,11,1,3,0,4,3,90,11
11,4,8,1,5,1,4,3,90,11
11,4,9,1,6,1,4,3,90,11
1,1,19,1,0,0,1,36,79,11
1,1,23,0,2,0,1,36,79,11
1,1,20,1,2,0,1,36,98,11
1,1,13,1,2,0,1,36,79,11
1,1,18,1,5,1,1,36,93,11
1,1,17,1,5,1,1,36,98,11
1,1,19,1,0,0,1,36,48,11
1,1,15,1,2,0,1,36,103,11
1,1,17,1,2,0,1,36,103,11
1,1,23,0,3,0,1,36,103,11
1,1,12,1,4,0,1,36,10,11
1,1,15,1,1,0,1,36,93,11
1,1,8,1,3,0,1,36,79,8
1,1,19,1,3,0,1,36,79,11
1,1,3,0,5,1,1,36,103,11
1,1,19,1,6,1,1,36,79,11
1,1,2,0,6,1,1,36,38,11
1,1,12,1,0,0,1,36,1,11
2,1,21,0,4,0,1,36,103,11
2,1,11,1,5,1,1,36,98,11
2,1,22,0,6,1,1,36,98,11
2,1,15,1,1,0,1,36,98,11
2,1,2,0,2,0,1,36,79,11
2,1,16,1,2,0,1,36,79,11
2,1,8,1,3,0,1,36,98,11
2,1,11,1,3,0,1,36,98,11
2,1,11,1,3,0,1,36,38,11
2,1,17,1,4,0,1,36,93,11
2,1,20,1,5,1,1,36,98,11
2,1,13,1,5,1,1,36,98,11
2,1,8,1,5,1,1,36,98,11
2,1,13,1,6,1,1,36,79,11
2,1,8,1,2,0,1,36,76,11
2,1,15,1,4,0,1,36,93,11
2,1,23,0,4,0,1,36,76,11
2,1,20,1,5,1,1,36,98,11
2,1,12,1,0,0,1,36,98,11
2,1,19,1,1,0,1,36,14,9
2,1,22,0,2,0,1,36,103,11
2,1,19,1,2,0,1,36,67,11
3,2,20,1,2,0,1,36,103,11
3,2,19,1,5,1,1,36,79,11
3,2,18,1,5,1,1,36,67,11
3,2,3,0,6,1,1,36,38,11
3,2,22,0,1,0,1,36,103,11
3,2,18,1,3,0,1,36,67,11
3,2,10,1,6,1,1,36,98,11
3,2,19,1,3,0,1,36,93,11
3,2,15,1,3,0,1,36,67,11
3,2,18,1,6,1,1,36,98,11
4,2,15,1,5,1,2,36,98,11
4,2,13,1,6,1,2,36,98,11
4,2,7,1,1,0,2,36,76,8
4,2,22,0,2,0,2,36,103,11
4,2,13,1,2,0,2,36,76,11
4,2,20,1,3,0,2,36,79,11
4,2,14,1,0,0,2,36,98,11
4,2,23,0,1,0,2,36,93,11
4,2,19,1,1,0,2,36,93,11
4,2,12,1,2,0,2,36,98,11
4,2,15,1,5,1,2,36,79,9
4,2,8,1,6,1,2,36,93,11
4,2,20,1,0,0,2,36,93,11
4,2,21,0,2,0,2,36,38,11
4,2,14,1,5,1,2,36,103,11
4,2,15,1,6,1,2,36,93,11
5,2,17,1,1,0,2,36,103,11
5,2,7,1,4,0,2,36,103,11
5,2,18,1,0,0,2,36,76,11
5,2,16,1,0,0,2,36,38,9
5,2,14,1,2,0,2,36,126,11
5,2,20,1,4,0,2,36,103,11
5,2,0,0,2,0,2,36,103,11
5,2,11,1,6,1,2,36,103,11
5,2,10,1,1,0,2,36,127,11
5,2,16,1,3,0,2,36,67,11
5,2,22,0,0,0,2,36,79,11
5,2,20,1,1,0,2,36,98,11
6,3,13,1,3,0,2,36,93,11
6,3,15,1,3,0,2,36,48,11
6,3,19,1,5,1,2,36,93,11
6,3,19,1,6,1,2,36,103,11
6,3,21,0,2,0,2,36,98,11
6,3,21,0,2,0,2,36,15,11
6,3,12,1,3,0,2,36,98,11
6,3,9,1,5,1,2,36,103,11
6,3,12,1,0,0,2,36,93,11
6,3,8,1,1,0,2,36,76,11
6,3,15,1,2,0,2,36,103,11
6,3,8,1,6,1,2,36,103,11
6,3,8,1,1,0,2,36,15,11
6,3,14,1,2,0,2,36,1,11
6,3,2,0,3,0,2,36,93,11
7,3,3,0,5,1,3,36,103,11
7,3,19,1,4,0,3,36,48,11
7,3,20,1,5,1,3,36,103,11
7,3,9,1,0,0,3,36,93,11
8,3,22,0,5,1,3,36,79,11
8,3,18,1,6,1,3,36,76,11
8,3,1,0,0,0,3,36,76,11
8,3,13,1,2,0,3,36,103,11
8,3,22,0,4,0,3,36,103,11
8,3,21,0,6,1,3,36,103,11
8,3,17,1,0,0,3,36,24,11
8,3,17,1,1,0,3,36,93,11
8,3,10,1,3,0,3,36,79,11
8,3,12,1,3,0,3,36,76,11
8,3,19,1,4,0,3,36,103,11
8,3,14,1,3,0,3,36,38,11
8,3,16,1,3,0,3,36,93,11
8,3,20,1,4,0,3,36,103,11
8,3,18,1,4,0,3,36,103,11
8,3,16,1,5,1,3,36,103,11
8,3,22,0,6,1,3,36,93,11
8,3,18,1,6,1,3,36,103,11
8,3,22,0,0,0,3,36,38,11
8,3,20,1,2,0,3,36,76,11
9,4,20,1,4,0,3,36,76,11
9,4,21,0,6,1,3,36,103,11
9,4,22,0,2,0,3,36,98,11
9,4,21,0,5,1,3,36,93,11
9,4,6,0,1,0,3,36,98,11
9,4,6,0,2,0,3,36,98,11
9,4,7,1,4,0,3,36,98,11
9,4,13,1,5,1,3,36,93,11
9,4,3,0,6,1,3,36,98,11
9,4,8,1,4,0,3,36,48,11
9,4,9,1,4,0,3,36,93,11
9,4,1,0,5,1,3,36,103,11
9,4,18,1,6,1,3,36,103,11
9,4,12,1,3,0,3,36,67,11
9,4,2,0,3,0,3,36,66,11
10,4,19,1,3,0,4,36,103,11
10,4,22,0,6,1,4,36,98,11
10,4,11,1,6,1,4,36,76,11
10,4,18,1,1,0,4,36,103,11
10,4,11,1,2,0,4,36,103,11
10,4,19,1,1,0,4,36,93,11
10,4,21,0,1,0,4,36,57,11
11,4,18,1,2,0,4,36,98,11
11,4,18,1,4,0,4,36,79,11
11,4,18,1,5,1,4,36,103,11
11,4,21,0,3,0,4,36,79,11
11,4,19,1,2,0,4,36,103,11
11,4,11,1,1,0,4,36,67,11
11,4,12,1,4,0,4,36,79,11
11,4,16,1,6,1,4,36,67,11
11,4,13,1,1,0,4,36,103,11
11,4,13,1,2,0,4,36,98,11
11,4,21,0,3,0,4,36,103,11
12,1,22,0,4,0,4,36,103,11
12,1,11,1,4,0,4,36,76,11
12,1,8,1,0,0,4,36,90,11
12,1,18,1,1,0,4,36,79,11
12,1,11,1,4,0,4,36,98,11
12,1,12,1,6,1,4,36,38,11
12,1,10,1,1,0,4,36,67,11
12,1,0,0,2,0,4,36,98,11
12,1,8,1,2,0,4,36,98,11
12,1,14,1,5,1,4,36,103,11
12,1,21,0,5,1,4,36,98,11
12,1,14,1,6,1,4,36,98,11
12,1,9,1,6,1,4,36,98,11
12,1,14,1,1,0,4,36,67,11
12,1,13,1,1,0,4,36,93,11
12,1,11,1,2,0,4,36,74,11
12,1,17,1,2,0,4,36,67,11
12,1,12,1,5,1,4,36,98,11
12,1,23,0,5,1,4,36,98,11
1,1,17,1,3,0,1,36,103,11
2,1,13,1,0,0,1,36,98,11
2,1,19,1,0,0,1,36,79,11
2,1,16,1,6,1,1,36,93,11
3,2,10,1,1,0,1,36,93,11
3,2,20,1,4,0,1,36,98,11
7,3,0,0,6,1,3,36,93,11
8,3,22,0,6,1,3,36,15,11
8,3,9,1,0,0,3,36,46,11
9,4,20,1,4,0,3,36,103,11
9,4,19,1,6,1,3,36,103,11
10,4,15,1,0,0,4,36,76,11
10,4,12,1,2,0,4,36,76,11
10,4,21,0,5,1,4,36,4,11
11,4,12,1,4,0,4,36,93,11
11,4,20,1,3,0,4,36,38,11
12,1,17,1,6,1,4,36,76,11
12,1,17,1,0,0,4,36,103,11
12,1,18,1,1,0,4,36,98,11
2,1,19,1,0,0,1,36,103,11
9,4,11,1,6,1,3,36,76,11
1,1,0,0,0,0,1,36,90,11
1,1,17,1,1,0,1,36,79,11
1,1,20,1,0,0,1,36,127,11
1,1,8,1,1,0,1,36,38,11
2,1,7,1,5,1,1,36,93,11
2,1,20,1,4,0,1,36,38,11
2,1,8,1,5,1,1,36,79,11
2,1,21,0,0,0,1,36,93,11
2,1,19,1,2,0,1,36,79,11
2,1,6,0,3,0,1,36,21,11
2,1,9,1,6,1,1,36,127,11
3,2,15,1,1,0,1,36,127,11
3,2,3,0,1,0,1,36,21,11
3,2,13,1,4,0,1,36,90,11
3,2,23,0,5,1,1,36,103,11
4,2,22,0,4,0,2,36,4,11
5,2,3,0,4,0,2,36,127,11
5,2,10,1,6,1,2,36,103,11
6,3,21,0,3,0,2,36,103,11
7,3,6,0,0,0,3,36,26,11
7,3,14,1,4,0,3,36,103,11
9,4,11,1,5,1,3,36,103,11
10,4,17,1,2,0,4,36,38,11
11,4,11,1,6,1,4,36,127,11
12,1,11,1,5,1,4,36,127,11
12,1,19,1,6,1,4,36,38,11
12,1,15,1,0,0,4,36,127,11
1,1,16,1,4,0,1,36,79,8
2,1,15,1,4,0,1,36,79,8
3,2,3,0,3,0,1,36,90,11
5,2,12,1,0,0,2,36,90,11
6,3,3,0,4,0,2,36,48,11
7,3,2,0,3,0,3,36,93,11
10,4,14,1,0,0,4,36,90,11
11,4,8,1,6,1,4,36,38,11
11,4,17,1,2,0,4,36,112,11
12,1,18,1,5,1,4,36,90,11
12,1,3,0,3,0,4,36,21,11
12,1,15,1,3,0,4,36,103,11
12,1,22,0,3,0,4,36,90,11
12,1,19,1,0,0,4,36,93,11
12,1,18,1,3,0,4,36,90,11
1,1,0,0,6,1,1,36,21,11
2,1,12,1,2,0,1,36,90,11
2,1,20,1,3,0,1,36,90,11
2,1,19,1,6,1,1,36,38,11
3,2,12,1,2,0,1,36,93,11
4,2,10,1,4,0,2,36,90,11
7,3,21,0,2,0,3,36,66,11
7,3,15,1,3,0,3,36,93,11
10,4,7,1,6,1,4,36,90,11
12,1,1,0,4,0,4,36,90,11
1,1,1,0,4,0,1,30,127,11
1,1,8,1,5,1,1,30,21,11
1,1,14,1,6,1,1,30,90,11
1,1,17,1,5,1,1,30,79,11
2,1,21,0,0,0,1,30,93,11
2,1,13,1,1,0,1,30,90,11
2,1,15,1,2,0,1,30,90,11
2,1,18,1,3,0,1,30,90,11
3,2,0,0,0,0,1,30,79,11
4,2,14,1,3,0,2,30,21,11
4,2,18,1,4,0,2,30,79,11
6,3,0,0,2,0,2,30,106,11
7,3,12,1,2,0,3,30,103,11
7,3,12,1,3,0,3,30,46,11
8,3,10,1,1,0,3,30,93,11
10,4,13,1,1,0,4,30,15,11
11,4,17,1,4,0,4,30,90,11
12,1,14,1,2,0,4,30,90,11
12,1,10,1,1,0,4,30,79,11
12,1,20,1,3,0,4,30,79,8
1,1,7,1,6,1,1,30,127,11
8,3,7,1,6,1,3,30,4,11
8,3,6,0,3,0,3,30,70,11
8,3,14,1,4,0,3,30,4,11
9,4,10,1,2,0,3,30,4,11
9,4,16,1,5,1,3,30,93,11
10,4,12,1,4,0,4,30,21,11
10,4,12,1,0,0,4,30,21,11
10,4,21,0,4,0,4,30,90,11
11,4,15,1,3,0,4,30,103,11
11,4,20,1,5,1,4,30,38,11
1,1,4,0,3,0,1,5,127,11
2,1,20,1,0,0,1,5,79,9
4,2,1,0,6,1,2,5,90,11
6,3,15,1,5,1,2,5,93,11
7,3,12,1,5,1,3,5,127,11
7,3,2,0,6,1,3,5,127,11
9,4,23,0,6,1,3,5,112,11
9,4,1,0,0,0,3,5,112,11
10,4,21,0,6,1,4,5,112,11
12,1,13,1,2,0,4,5,93,11
1,1,16,1,2,0,1,30,127,11
1,1,14,1,4,0,1,30,110,9
2,1,19,1,1,0,1,30,127,11
2,1,16,1,0,0,1,30,127,11
2,1,13,1,2,0,1,30,38,11
4,2,23,0,3,0,2,30,127,11
4,2,20,1,0,0,2,30,103,11
4,2,15,1,2,0,2,30,93,11
7,3,14,1,2,0,3,30,127,11
9,4,15,1,1,0,3,30,93,11
9,4,11,1,2,0,3,30,93,11
10,4,14,1,6,1,4,30,127,11
11,4,19,1,6,1,4,30,15,11
5,2,10,1,6,1,2,30,103,11
2,1,14,1,4,0,1,30,21,11
2,1,12,1,0,0,1,30,21,11
2,1,18,1,1,0,1,30,21,11
3,2,23,0,5,1,1,30,15,11
3,2,4,0,0,0,1,30,15,11
3,2,5,0,3,0,1,30,79,11
4,2,19,1,4,0,2,30,79,11
4,2,17,1,6,1,2,30,79,11
6,3,18,1,6,1,2,30,112,11
9,4,3,0,4,0,3,30,93,11
10,4,14,1,4,0,4,30,21,11
11,4,9,1,5,1,4,30,93,11
11,4,17,1,6,1,4,30,1,11
7,3,21,0,5,1,3,30,65,9
10,4,9,1,6,1,4,30,14,11
3,2,15,1,2,0,1,30,15,11
4,2,19,1,3,0,2,30,79,11
4,2,18,1,6,1,2,30,93,11
4,2,20,1,6,1,2,30,84,11
6,3,14,1,5,1,2,30,79,11
8,3,21,0,1,0,3,30,112,11
8,3,23,0,5,1,3,30,112,11
8,3,1,0,6,1,3,30,112,11
8,3,21,0,3,0,3,30,112,11
8,3,13,1,3,0,3,30,79,11
9,4,17,1,5,1,3,30,10,11
2,1,19,1,0,0,1,2,103,11
3,2,13,1,5,1,1,2,63,11
3,2,20,1,0,0,1,2,98,11
3,2,12,1,2,0,1,2,103,11
3,2,13,1,6,1,1,2,46,11
3,2,12,1,6,1,1,2,67,11
3,2,6,0,0,0,1,2,28,11
3,2,13,1,1,0,1,2,93,11
5,2,20,1,0,0,2,2,127,11
5,2,4,0,1,0,2,2,127,11
5,2,22,0,1,0,2,2,103,11
5,2,19,1,2,0,2,2,93,11
5,2,13,1,6,1,2,2,67,11
6,3,19,1,3,0,2,2,103,11
6,3,14,1,2,0,2,2,21,11
7,3,9,1,0,0,3,2,21,11
7,3,17,1,2,0,3,2,93,11
7,3,11,1,0,0,3,2,124,11
7,3,9,1,1,0,3,2,103,11
10,4,10,1,2,0,4,2,93,11
10,4,16,1,0,0,4,2,90,11
10,4,21,0,6,1,4,2,79,11
11,4,10,1,4,0,4,2,21,11
12,1,12,1,1,0,4,2,127,11
12,1,20,1,1,0,4,2,67,11
1,1,15,1,3,0,1,2,93,11
2,1,20,1,6,1,1,2,127,11
2,1,23,0,0,0,1,2,79,11
3,2,8,1,2,0,1,2,28,11
3,2,23,0,0,0,1,2,111,9
3,2,19,1,3,0,1,2,93,11
3,2,22,0,1,0,1,2,93,11
3,2,21,0,5,1,1,2,38,11
3,2,10,1,6,1,1,2,93,11
5,2,13,1,2,0,2,2,79,11
6,3,9,1,5,1,2,2,38,9
6,3,18,1,5,1,2,2,127,11
7,3,16,1,3,0,3,2,21,11
8,3,16,1,1,0,3,2,79,11
8,3,1,0,3,0,3,2,21,11
10,4,11,1,3,0,4,2,103,11
10,4,12,1,4,0,4,2,79,11
11,4,19,1,4,0,4,2,112,11
11,4,23,0,5,1,4,2,103,11
11,4,1,0,3,0,4,2,79,11
2,1,20,1,5,1,1,5,112,11
2,1,1,0,1,0,1,5,98,11
2,1,7,1,0,0,1,5,127,11
2,1,22,0,6,1,1,5,103,11
2,1,16,1,0,0,1,5,93,11
2,1,18,1,0,0,1,5,1,11
3,2,19,1,4,0,1,5,101,11
3,2,12,1,0,0,1,5,28,11
3,2,9,1,2,0,1,5,93,11
4,2,10,1,5,1,2,5,28,11
4,2,20,1,4,0,2,5,103,11
7,3,13,1,5,1,3,5,83,11
7,3,21,0,5,1,3,5,93,11
7,3,22,0,6,1,3,5,93,11
8,3,18,1,6,1,3,5,67,11
9,4,15,1,6,1,3,5,103,11
9,4,14,1,6,1,3,5,110,11
10,4,15,1,1,0,4,5,103,11
11,4,16,1,6,1,4,5,127,11
11,4,18,1,6,1,4,5,38,9
12,1,16,1,4,0,4,5,93,11
7,3,14,1,5,1,3,5,127,11
11,4,12,1,1,0,4,5,93,11
2,1,13,1,4,0,1,5,67,11
2,1,11,1,5,1,1,5,103,11
6,3,4,0,5,1,2,5,21,11
10,4,20,1,2,0,4,5,79,11
1,1,12,1,6,1,1,2,21,11
1,1,18,1,3,0,1,2,93,11
1,1,22,0,0,0,1,2,79,11
2,1,10,1,6,1,1,2,127,11
2,1,16,1,6,1,1,2,127,11
2,1,20,1,6,1,1,2,103,11
2,1,16,1,0,0,1,2,127,11
2,1,14,1,2,0,1,2,79,11
2,1,4,0,4,0,1,2,21,11
2,1,14,1,5,1,1,2,127,11
2,1,20,1,5,1,1,2,93,11
2,1,15,1,0,0,1,2,93,11
4,2,15,1,3,0,2,2,21,11
4,2,14,1,5,1,2,2,21,11
4,2,13,1,6,1,2,2,127,11
4,2,11,1,5,1,2,2,103,11
4,2,14,1,6,1,2,2,93,11
4,2,13,1,1,0,2,2,103,11
4,2,13,1,1,0,2,2,93,11
4,2,13,1,4,0,2,2,93,11
5,2,17,1,6,1,2,2,19,11
5,2,14,1,0,0,2,2,21,11
5,2,17,1,1,0,2,2,103,11
5,2,23,0,2,0,2,2,21,11
6,3,12,1,2,0,2,2,93,11
6,3,15,1,4,0,2,2,103,11
6,3,15,1,5,1,2,2,21,11
6,3,23,0,5,1,2,2,103,11
6,3,13,1,0,0,2,2,103,11
6,3,18,1,3,0,2,2,103,11
6,3,21,0,1,0,2,2,93,11
6,3,15,1,2,0,2,2,57,11
6,3,22,0,5,1,2,2,103,11
6,3,21,0,1,0,2,2,103,11
6,3,22,0,1,0,2,2,93,11
7,3,20,1,6,1,3,2,21,11
7,3,12,1,2,0,3,2,103,11
7,3,15,1,5,1,3,2,93,11
7,3,13,1,6,1,3,2,103,11
7,3,5,0,1,0,3,2,21,11
7,3,15,1,2,0,3,2,93,11
7,3,16,1,2,0,3,2,103,11
7,3,11,1,0,0,3,2,103,11
8,3,3,0,2,0,3,2,15,8
8,3,19,1,2,0,3,2,103,11
8,3,13,1,6,1,3,2,79,11
8,3,15,1,5,1,3,2,103,11
8,3,15,1,0,0,3,2,103,11
8,3,12,1,0,0,3,2,93,11
8,3,14,1,1,0,3,2,103,11
8,3,17,1,2,0,3,2,93,8
9,4,23,0,0,0,3,2,58,11
9,4,7,1,1,0,3,2,21,11
9,4,1,0,6,1,3,2,103,11
9,4,21,0,1,0,3,2,103,11
9,4,19,1,1,0,3,2,93,11
10,4,17,1,6,1,4,2,103,11
10,4,19,1,4,0,4,2,103,11
10,4,17,1,3,0,4,2,10,11
10,4,19,1,3,0,4,2,21,11
10,4,17,1,4,0,4,2,103,11
10,4,20,1,4,0,4,2,93,11
10,4,19,1,5,1,4,2,93,11
10,4,21,0,5,1,4,2,93,11
10,4,21,0,5,1,4,2,93,11
10,4,8,1,6,1,4,2,127,11
10,4,10,1,1,0,4,2,93,11
10,4,12,1,2,0,4,2,93,11
10,4,9,1,3,0,4,2,93,11
10,4,3,0,6,1,4,2,93,11
10,4,8,1,6,1,4,2,93,11
10,4,13,1,6,1,4,2,93,11
11,4,20,1,3,0,4,2,103,11
11,4,1,0,4,0,4,2,15,11
11,4,11,1,1,0,4,2,127,11
11,4,18,1,3,0,4,2,69,11
11,4,19,1,5,1,4,2,38,11
11,4,8,1,6,1,4,2,127,11
11,4,19,1,3,0,4,2,127,11
12,1,13,1,6,1,4,2,127,11
12,1,20,1,1,0,4,2,127,11
12,1,11,1,3,0,4,2,21,11
12,1,14,1,5,1,4,2,15,11
12,1,12,1,6,1,4,2,21,11
12,1,17,1,2,0,4,2,103,11
12,1,18,1,2,0,4,2,103,11
12,1,19,1,2,0,4,2,127,11
12,1,19,1,4,0,4,2,103,11
1,1,1,0,6,1,1,28,127,11
1,1,15,1,0,0,1,28,125,11
1,1,10,1,4,0,1,28,103,11
1,1,13,1,5,1,1,28,21,8
1,1,6,0,1,0,1,28,21,11
1,1,12,1,3,0,1,28,93,9
1,1,17,1,3,0,1,28,79,11
2,1,14,1,2,0,1,28,103,11
2,1,18,1,4,0,1,28,127,11
2,1,12,1,4,0,1,28,103,11
2,1,20,1,4,0,1,28,79,11
2,1,21,0,4,0,1,28,127,11
2,1,13,1,6,1,1,28,1,11
2,1,17,1,6,1,1,28,127,8
2,1,22,0,0,0,1,28,103,11
2,1,15,1,1,0,1,28,21,11
2,1,1,0,5,1,1,28,127,8
2,1,13,1,6,1,1,28,103,11
3,2,4,0,5,1,1,28,21,11
3,2,13,1,5,1,1,28,127,11
3,2,14,1,1,0,1,28,103,11
3,2,19,1,2,0,1,28,46,11
3,2,20,1,5,1,1,28,127,11
3,2,21,0,1,0,1,28,79,11
3,2,3,0,5,1,1,28,91,11
4,2,19,1,2,0,2,28,93,9
4,2,13,1,3,0,2,28,76,8
4,2,15,1,6,1,2,28,103,11
4,2,21,0,0,0,2,28,93,11
4,2,7,1,5,1,2,28,103,11
4,2,18,1,0,0,2,28,127,11
4,2,3,0,4,0,2,28,127,11
4,2,17,1,4,0,2,28,118,11
5,2,23,0,0,0,2,28,127,11
5,2,16,1,3,0,2,28,127,9
5,2,10,1,4,0,2,28,21,11
5,2,15,1,4,0,2,28,103,11
5,2,21,0,5,1,2,28,93,11
5,2,19,1,6,1,2,28,103,11
5,2,12,1,2,0,2,28,67,11
5,2,20,1,3,0,2,28,66,11
5,2,2,0,4,0,2,28,21,8
5,2,12,1,6,1,2,28,93,11
5,2,12,1,6,1,2,28,103,11
5,2,14,1,6,1,2,28,127,11
5,2,15,1,0,0,2,28,103,11
5,2,9,1,1,0,2,28,103,11
5,2,10,1,2,0,2,28,103,11
5,2,13,1,3,0,2,28,93,11
5,2,22,0,0,0,2,28,103,11
5,2,16,1,1,0,2,28,127,11
6,3,15,1,3,0,2,28,103,11
6,3,18,1,3,0,2,28,38,11
6,3,1,0,6,1,2,28,76,11
6,3,13,1,1,0,2,28,93,11
6,3,21,0,4,0,2,28,24,11
6,3,11,1,0,0,2,28,93,11
6,3,13,1,2,0,2,28,76,8
6,3,12,1,3,0,2,28,103,11
6,3,15,1,4,0,2,28,103,11
6,3,13,1,5,1,2,28,93,11
6,3,23,0,5,1,2,28,103,11
6,3,1,0,6,1,2,28,93,11
6,3,7,1,0,0,2,28,15,11
6,3,19,1,0,0,2,28,112,11
7,3,20,1,5,1,3,28,76,11
7,3,9,1,0,0,3,28,103,11
7,3,14,1,0,0,3,28,103,11
7,3,13,1,1,0,3,28,103,11
7,3,8,1,5,1,3,28,93,11
7,3,8,1,2,0,3,28,93,11
7,3,16,1,2,0,3,28,93,11
7,3,20,1,2,0,3,28,93,11
7,3,14,1,3,0,3,28,67,11
7,3,7,1,6,1,3,28,21,11
7,3,8,1,0,0,3,28,93,11
7,3,13,1,0,0,3,28,21,8
7,3,16,1,2,0,3,28,67,11
7,3,6,0,5,1,3,28,79,11
7,3,17,1,5,1,3,28,93,11
8,3,5,0,4,0,3,28,21,11
8,3,22,0,4,0,3,28,127,11
8,3,22,0,6,1,3,28,24,11
8,3,20,1,0,0,3,28,93,11
8,3,16,1,1,0,3,28,93,11
8,3,8,1,2,0,3,28,93,11
8,3,11,1,2,0,3,28,93,11
8,3,14,1,2,0,3,28,127,11
8,3,17,1,3,0,3,28,93,11
8,3,14,1,1,0,3,28,21,11
8,3,22,0,2,0,3,28,103,11
8,3,17,1,5,1,3,28,103,11
8,3,21,0,5,1,3,28,21,11
8,3,20,1,6,1,3,28,103,11
8,3,21,0,0,0,3,28,93,11
8,3,16,1,1,0,3,28,93,11
8,3,18,1,1,0,3,28,21,11
8,3,17,1,1,0,3,28,93,11
8,3,0,0,2,0,3,28,103,11
8,3,15,1,3,0,3,28,48,8
8,3,16,1,1,0,3,28,93,11
8,3,16,1,2,0,3,28,93,11
8,3,10,1,3,0,3,28,103,11
9,4,21,0,5,1,3,28,127,11
9,4,4,0,2,0,3,28,112,11
9,4,11,1,5,1,3,28,21,11
9,4,13,1,3,0,3,28,21,11
9,4,14,1,3,0,3,28,103,11
9,4,19,1,2,0,3,28,93,11
9,4,2,0,3,0,3,28,32,11
9,4,22,0,4,0,3,28,93,11
9,4,18,1,5,1,3,28,127,11
9,4,16,1,0,0,3,28,103,11
9,4,2,0,4,0,3,28,42,11
9,4,22,0,5,1,3,28,127,11
10,4,23,0,4,0,4,28,67,11
10,4,19,1,0,0,4,28,103,11
10,4,11,1,2,0,4,28,93,11
10,4,13,1,3,0,4,28,125,11
10,4,0,0,5,1,4,28,14,9
10,4,12,1,5,1,4,28,93,11
10,4,5,0,5,1,4,28,68,8
10,4,3,0,6,1,4,28,127,11
10,4,13,1,1,0,4,28,21,9
10,4,19,1,4,0,4,28,103,11
10,4,3,0,6,1,4,28,48,9
10,4,9,1,6,1,4,28,24,11
10,4,10,1,1,0,4,28,103,11
10,4,11,1,1,0,4,28,103,11
10,4,15,1,1,0,4,28,103,11
11,4,17,1,6,1,4,28,103,11
11,4,20,1,1,0,4,28,79,11
11,4,2,0,2,0,4,28,93,11
11,4,17,1,2,0,4,28,93,11
11,4,11,1,4,0,4,28,103,11
11,4,13,1,4,0,4,28,93,11
11,4,12,1,6,1,4,28,103,11
11,4,8,1,0,0,4,28,79,8
11,4,21,0,2,0,4,28,21,11
11,4,10,1,4,0,4,28,127,11
11,4,19,1,2,0,4,28,103,11
11,4,22,0,3,0,4,28,67,11
12,1,6,0,0,0,4,28,93,11
12,1,14,1,1,0,4,28,93,11
12,1,18,1,1,0,4,28,93,11
12,1,11,1,4,0,4,28,127,11
12,1,11,1,5,1,4,28,127,11
12,1,0,0,0,0,4,28,127,11
12,1,23,0,0,0,4,28,24,11
12,1,7,1,6,1,4,28,67,11
12,1,17,1,3,0,4,28,127,11
12,1,16,1,4,0,4,28,21,9
12,1,9,1,6,1,4,28,127,11
1,1,13,1,0,0,1,28,4,11
1,1,18,1,0,0,1,28,93,11
2,1,16,1,6,1,1,28,90,11
2,1,10,1,4,0,1,28,93,11
2,1,13,1,5,1,1,28,90,11
4,2,12,1,4,0,2,28,28,11
4,2,14,1,4,0,2,28,93,9
4,2,20,1,5,1,2,28,93,11
5,2,15,1,4,0,2,28,58,11
5,2,18,1,3,0,2,28,93,11
5,2,19,1,3,0,2,28,93,11
5,2,17,1,3,0,2,28,93,9
5,2,19,1,1,0,2,28,127,11
5,2,17,1,2,0,2,28,35,9
6,3,1,0,0,0,2,28,10,11
6,3,12,1,6,1,2,28,28,11
6,3,17,1,0,0,2,28,127,11
6,3,18,1,4,0,2,28,103,11
6,3,6,0,5,1,2,28,95,11
7,3,20,1,6,1,3,28,127,11
7,3,20,1,5,1,3,28,127,11
8,3,19,1,4,0,3,28,67,11
8,3,10,1,0,0,3,28,79,11
9,4,19,1,1,0,3,28,93,11
11,4,17,1,1,0,4,28,28,11
11,4,16,1,2,0,4,28,90,11
12,1,13,1,1,0,4,28,127,11
12,1,9,1,2,0,4,28,127,11
1,1,13,1,1,0,1,28,98,11
1,1,12,1,2,0,1,28,76,11
1,1,22,0,4,0,1,28,98,11
1,1,12,1,2,0,1,28,79,11
1,1,11,1,5,1,1,28,98,11
1,1,0,0,0,0,1,28,98,11
1,1,16,1,5,1,1,28,10,11
2,1,19,1,3,0,1,28,98,11
2,1,8,1,0,0,1,28,98,11
2,1,21,0,5,1,1,28,93,11
2,1,20,1,3,0,1,28,103,11
2,1,20,1,4,0,1,28,98,11
3,2,21,0,2,0,1,28,103,11
3,2,12,1,0,0,1,28,103,11
4,2,0,0,2,0,2,28,14,11
4,2,20,1,5,1,2,28,79,11
4,2,12,1,2,0,2,28,21,11
4,2,17,1,3,0,2,28,103,11
4,2,19,1,2,0,2,28,103,11
4,2,19,1,6,1,2,28,103,11
5,2,21,0,4,0,2,28,103,11
5,2,9,1,1,0,2,28,103,11
6,3,13,1,4,0,2,28,98,11
6,3,21,0,0,0,2,28,103,11
6,3,12,1,2,0,2,28,76,11
6,3,12,1,4,0,2,28,103,11
6,3,20,1,5,1,2,28,93,11
6,3,15,1,4,0,2,28,103,11
6,3,21,0,5,1,2,28,103,11
7,3,12,1,5,1,3,28,103,11
7,3,21,0,0,0,3,28,103,11
7,3,22,0,0,0,3,28,103,11
7,3,20,1,4,0,3,28,103,11
7,3,13,1,0,0,3,28,21,8
7,3,3,0,5,1,3,28,103,11
7,3,20,1,5,1,3,28,103,11
8,3,7,1,2,0,3,28,15,11
8,3,3,0,0,0,3,28,91,11
8,3,16,1,5,1,3,28,93,11
8,3,21,0,0,0,3,28,103,11
8,3,15,1,2,0,3,28,21,11
8,3,3,0,3,0,3,28,21,11
8,3,4,0,4,0,3,28,93,11
8,3,20,1,6,1,3,28,103,11
9,4,22,0,1,0,3,28,112,11
9,4,13,1,3,0,3,28,103,11
9,4,16,1,2,0,3,28,93,11
9,4,19,1,1,0,3,28,103,11
9,4,19,1,2,0,3,28,103,11
9,4,19,1,5,1,3,28,38,11
9,4,19,1,0,0,3,28,93,11
9,4,18,1,1,0,3,28,112,11
10,4,14,1,1,0,4,28,76,11
10,4,2,0,5,1,4,28,103,11
10,4,6,0,0,0,4,28,98,11
11,4,0,0,2,0,4,28,93,11
11,4,16,1,4,0,4,28,21,11
11,4,18,1,0,0,4,28,103,11
11,4,18,1,2,0,4,28,103,11
11,4,18,1,6,1,4,28,103,11
11,4,9,1,1,0,4,28,103,11
12,1,21,0,4,0,4,28,103,11
12,1,11,1,1,0,4,28,21,8
1,1,21,0,4,0,1,28,38,11
10,4,19,1,0,0,4,28,79,11
12,1,16,1,0,0,4,28,111,8
1,1,17,1,0,0,1,46,103,11
1,1,11,1,0,0,1,46,103,11
1,1,17,1,3,0,1,46,67,11
1,1,12,1,5,1,1,46,90,11
1,1,20,1,6,1,1,46,67,11
1,1,20,1,1,0,1,46,67,11
1,1,23,0,6,1,1,46,90,11
1,1,11,1,6,1,1,46,90,11
2,1,15,1,5,1,1,46,67,9
2,1,15,1,6,1,1,46,90,11
2,1,15,1,6,1,1,46,90,11
2,1,13,1,2,0,1,46,58,11
2,1,17,1,4,0,1,46,90,11
2,1,19,1,0,0,1,46,90,11
2,1,17,1,3,0,1,46,90,11
3,2,9,1,4,0,1,46,90,11
3,2,18,1,5,1,1,46,90,11
3,2,16,1,3,0,1,46,90,11
3,2,16,1,6,1,1,46,67,11
3,2,22,0,2,0,1,46,67,11
3,2,11,1,0,0,1,46,1,11
3,2,15,1,0,0,1,46,14,11
3,2,18,1,3,0,1,46,93,11
3,2,6,0,4,0,1,46,90,11
4,2,12,1,3,0,2,46,79,11
4,2,3,0,4,0,2,46,90,11
4,2,9,1,5,1,2,46,93,11
5,2,18,1,4,0,2,46,67,11
5,2,20,1,3,0,2,46,67,11
5,2,9,1,5,1,2,46,21,11
5,2,11,1,2,0,2,46,93,11
5,2,11,1,4,0,2,46,21,11
5,2,17,1,4,0,2,46,90,11
5,2,18,1,0,0,2,46,67,11
6,3,15,1,5,1,2,46,124,11
6,3,20,1,5,1,2,46,112,11
6,3,19,1,4,0,2,46,93,11
6,3,14,1,6,1,2,46,93,11
6,3,22,0,0,0,2,46,67,11
6,3,21,0,1,0,2,46,79,11
6,3,11,1,2,0,2,46,90,11
7,3,20,1,3,0,3,46,1,11
7,3,6,0,4,0,3,46,79,11
7,3,8,1,5,1,3,46,90,11
7,3,0,0,4,0,3,46,1,11
7,3,9,1,4,0,3,46,90,11
7,3,17,1,4,0,3,46,90,11
8,3,1,0,4,0,3,46,103,11
8,3,19,1,4,0,3,46,90,11
8,3,13,1,1,0,3,46,59,11
8,3,18,1,1,0,3,46,90,11
8,3,20,1,6,1,3,46,90,11
9,4,23,0,5,1,3,46,67,11
9,4,20,1,6,1,3,46,93,11
10,4,5,0,6,1,4,46,21,11
10,4,19,1,1,0,4,46,124,11
10,4,10,1,5,1,4,46,28,11
10,4,12,1,0,0,4,46,67,9
10,4,17,1,0,0,4,46,67,11
10,4,21,0,0,0,4,46,4,11
10,4,12,1,1,0,4,46,67,11
10,4,17,1,3,0,4,46,106,11
10,4,18,1,5,1,4,46,90,11
10,4,13,1,6,1,4,46,67,11
11,4,15,1,3,0,4,46,67,11
11,4,18,1,1,0,4,46,90,11
11,4,19,1,5,1,4,46,67,11
11,4,19,1,0,0,4,46,67,11
11,4,17,1,0,0,4,46,67,11
11,4,12,1,5,1,4,46,38,11
12,1,18,1,4,0,4,46,79,11
12,1,22,0,6,1,4,46,93,11
12,1,5,0,5,1,4,46,79,11
12,1,14,1,6,1,4,46,67,11
12,1,22,0,6,1,4,46,90,11
12,1,19,1,1,0,4,46,90,11
12,1,17,1,2,0,4,46,67,11
12,1,18,1,5,1,4,46,93,11
12,1,15,1,5,1,4,46,103,11
12,1,21,0,2,0,4,46,79,11
12,1,19,1,5,1,4,46,67,11
1,1,15,1,1,0,1,46,103,11
1,1,20,1,4,0,1,46,79,11
1,1,13,1,5,1,1,46,90,11
4,2,18,1,6,1,2,46,15,9
4,2,1,0,1,0,2,46,21,11
6,3,23,0,5,1,2,46,21,11
6,3,14,1,6,1,2,46,103,11
6,3,16,1,5,1,2,46,90,9
6,3,19,1,5,1,2,46,93,11
6,3,10,1,0,0,2,46,93,11
7,3,22,0,0,0,3,46,4,11
7,3,12,1,1,0,3,46,103,11
7,3,11,1,4,0,3,46,38,11
7,3,20,1,3,0,3,46,28,11
7,3,23,0,3,0,3,46,93,11
7,3,3,0,4,0,3,46,103,11
7,3,18,1,0,0,3,46,21,11
8,3,12,1,2,0,3,46,32,9
8,3,13,1,2,0,3,46,21,11
8,3,15,1,2,0,3,46,93,11
8,3,0,0,1,0,3,46,127,11
9,4,5,0,4,0,3,46,21,11
9,4,7,1,6,1,3,46,14,9
12,1,22,0,0,0,4,46,48,11
3,2,13,1,3,0,1,46,103,11
6,3,20,1,4,0,2,46,93,11
7,3,15,1,6,1,3,46,28,11
7,3,2,0,6,1,3,46,21,11
9,4,18,1,1,0,3,46,65,11
3,2,15,1,3,0,1,46,4,11
4,2,17,1,1,0,2,46,10,11
5,2,17,1,5,1,2,46,21,11
6,3,13,1,4,0,2,46,26,11
7,3,9,1,2,0,3,46,10,11
7,3,13,1,0,0,3,46,79,9
8,3,9,1,5,1,3,46,21,11
1,1,14,1,0,0,1,46,79,11
1,1,16,1,1,0,1,46,103,11
2,1,15,1,3,0,1,46,57,11
2,1,14,1,5,1,1,46,35,11
2,1,13,1,0,0,1,46,11,9
3,2,21,0,0,0,1,46,15,11
3,2,13,1,6,1,1,46,57,11
4,2,13,1,5,1,2,46,4,11
5,2,15,1,6,1,2,46,76,9
5,2,0,0,1,0,2,46,76,9
5,2,13,1,2,0,2,46,4,11
5,2,10,1,5,1,2,46,127,11
6,3,14,1,0,0,2,46,28,11
6,3,13,1,4,0,2,46,103,11
7,3,9,1,1,0,3,46,28,9
7,3,0,0,6,1,3,46,24,11
7,3,22,0,4,0,3,46,4,11
8,3,10,1,5,1,3,46,21,9
8,3,18,1,5,1,3,46,93,11
9,4,12,1,0,0,3,46,21,9
10,4,17,1,4,0,4,46,124,11
11,4,18,1,2,0,4,46,98,11
12,1,16,1,0,0,4,46,79,11
12,1,16,1,3,0,4,46,4,11
3,2,18,1,6,1,1,46,10,11
4,2,12,1,6,1,2,46,4,11
9,4,10,1,5,1,3,46,26,9
10,4,13,1,6,1,4,46,79,11
11,4,12,1,2,0,4,46,90,11
11,4,4,0,0,0,4,46,21,9
10,4,22,0,4,0,4,46,46,11
1,1,0,0,6,1,1,46,79,11
1,1,17,1,0,0,1,46,38,11
1,1,18,1,3,0,1,46,79,11
2,1,17,1,2,0,1,46,14,8
2,1,11,1,4,0,1,46,103,11
2,1,10,1,0,0,1,46,79,11
2,1,19,1,1,0,1,46,67,11
2,1,13,1,2,0,1,46,93,11
3,2,17,1,1,0,1,46,93,11
3,2,17,1,3,0,1,46,93,9
3,2,18,1,1,0,1,46,79,11
3,2,15,1,4,0,1,46,103,11
3,2,14,1,6,1,1,46,103,11
3,2,12,1,0,0,1,46,103,9
3,2,14,1,0,0,1,46,93,11
3,2,20,1,2,0,1,46,103,11
3,2,12,1,4,0,1,46,103,11
4,2,16,1,2,0,2,46,111,11
4,2,0,0,5,1,2,46,26,11
4,2,19,1,0,0,2,46,67,11
4,2,19,1,4,0,2,46,79,11
4,2,17,1,3,0,2,46,103,11
4,2,13,1,6,1,2,46,103,11
5,2,14,1,1,0,2,46,111,11
5,2,15,1,1,0,2,46,103,11
6,3,3,0,0,0,2,46,93,11
6,3,20,1,0,0,2,46,103,11
6,3,6,0,6,1,2,46,112,11
7,3,1,0,0,0,3,46,90,11
7,3,12,1,5,1,3,46,103,11
7,3,15,1,0,0,3,46,103,11
7,3,12,1,5,1,3,46,103,11
8,3,3,0,1,0,3,46,103,11
8,3,22,0,5,1,3,46,126,11
8,3,22,0,6,1,3,46,103,11
11,4,23,0,4,0,4,46,103,11
12,1,13,1,5,1,4,46,26,11
12,1,13,1,6,1,4,46,103,11
12,1,11,1,5,1,4,46,93,11
12,1,21,0,6,1,4,46,79,11
12,1,16,1,1,0,4,46,103,11
12,1,15,1,1,0,4,46,103,11
12,1,18,1,3,0,4,46,79,11
12,1,20,1,4,0,4,46,103,11
1,1,14,1,6,1,1,13,93,11
1,1,20,1,4,0,1,13,38,11
1,1,12,1,0,0,1,13,127,11
1,1,8,1,2,0,1,13,90,11
1,1,13,1,0,0,1,13,67,11
2,1,14,1,5,1,1,13,127,11
2,1,17,1,6,1,1,13,90,11
2,1,22,0,2,0,1,13,67,11
2,1,11,1,4,0,1,13,67,11
2,1,16,1,4,0,1,13,93,11
3,2,19,1,4,0,1,13,38,11
3,2,19,1,0,0,1,13,67,11
3,2,17,1,2,0,1,13,88,11
3,2,20,1,3,0,1,13,67,11
3,2,10,1,4,0,1,13,93,11
3,2,15,1,2,0,1,13,127,11
3,2,9,1,3,0,1,13,38,11
4,2,9,1,0,0,2,13,67,11
4,2,1,0,2,0,2,13,79,11
4,2,20,1,5,1,2,13,38,11
4,2,20,1,0,0,2,13,38,11
4,2,17,1,4,0,2,13,93,11
5,2,14,1,3,0,2,13,79,11
6,3,21,0,4,0,2,13,93,11
6,3,17,1,1,0,2,13,15,9
7,3,9,1,3,0,3,13,38,11
8,3,9,1,0,0,3,13,93,11
9,4,6,0,4,0,3,13,93,11
11,4,14,1,2,0,4,13,93,11
11,4,19,1,6,1,4,13,90,11
12,1,10,1,5,1,4,13,90,11
12,1,20,1,3,0,4,13,90,11
12,1,0,0,6,1,4,13,88,11
12,1,15,1,6,1,4,13,87,11
1,1,6,0,2,0,1,13,90,11
2,1,9,1,6,1,1,13,79,9
4,2,8,1,5,1,2,13,79,9
1,1,14,1,4,0,1,48,38,11
1,1,18,1,6,1,1,48,103,11
1,1,2,0,6,1,1,48,90,11
2,1,16,1,6,1,1,48,79,11
2,1,14,1,1,0,1,48,1,11
2,1,18,1,2,0,1,48,103,11
2,1,2,0,6,1,1,48,38,11
3,2,17,1,5,1,1,48,103,11
3,2,11,1,4,0,1,48,93,11
4,2,16,1,0,0,2,48,67,11
5,2,18,1,0,0,2,48,103,11
5,2,0,0,1,0,2,48,103,11
6,3,17,1,4,0,2,48,93,11
7,3,17,1,6,1,3,48,93,11
7,3,18,1,6,1,3,48,93,11
8,3,11,1,2,0,3,48,103,11
8,3,20,1,0,0,3,48,103,11
8,3,13,1,3,0,3,48,103,11
8,3,0,0,6,1,3,48,14,8
8,3,10,1,5,1,3,48,67,11
9,4,18,1,5,1,3,48,103,11
10,4,19,1,6,1,4,48,103,11
10,4,14,1,0,0,4,48,59,11
10,4,19,1,0,0,4,48,93,11
10,4,0,0,4,0,4,48,28,11
11,4,1,0,4,0,4,48,65,11
11,4,18,1,4,0,4,48,103,11
12,1,16,1,5,1,4,48,1,11
2,1,19,1,1,0,1,48,79,11
7,3,20,1,1,0,3,48,93,11
7,3,14,1,0,0,3,48,93,11
7,3,18,1,3,0,3,48,93,11
8,3,16,1,4,0,3,48,1,11
9,4,12,1,1,0,3,48,93,11
1,1,1,0,4,0,1,48,103,11
2,1,15,1,6,1,1,48,127,11
3,2,11,1,5,1,1,48,103,11
10,4,14,1,6,1,4,48,109,11
12,1,18,1,3,0,4,48,103,11
1,1,13,1,0,0,1,48,90,11
2,1,14,1,3,0,1,48,93,11
2,1,14,1,5,1,1,48,103,11
2,1,21,0,0,0,1,48,38,11
2,1,15,1,0,0,1,48,90,11
2,1,13,1,0,0,1,48,28,11
2,1,15,1,0,0,1,48,4,11
2,1,15,1,3,0,1,48,4,11
2,1,19,1,1,0,1,48,93,11
3,2,17,1,5,1,1,48,67,11
3,2,15,1,4,0,1,48,103,11
4,2,11,1,3,0,2,48,21,9
4,2,5,0,0,0,2,48,79,11
4,2,16,1,1,0,2,48,21,11
5,2,13,1,1,0,2,48,79,9
10,4,10,1,5,1,4,48,21,11
10,4,13,1,6,1,4,48,93,11
11,4,16,1,4,0,4,48,111,11
11,4,14,1,4,0,4,48,103,11
1,1,11,1,6,1,1,7,21,11
1,1,2,0,1,0,1,7,79,8
1,1,5,0,1,0,1,7,38,11
1,1,15,1,0,0,1,7,90,11
1,1,10,1,2,0,1,7,90,11
1,1,14,1,3,0,1,7,28,11
1,1,7,1,4,0,1,7,112,11
2,1,2,0,2,0,1,7,79,11
2,1,12,1,5,1,1,7,79,11
2,1,14,1,5,1,1,7,79,11
2,1,21,0,1,0,1,7,21,11
2,1,17,1,0,0,1,7,93,11
2,1,15,1,3,0,1,7,90,11
2,1,19,1,3,0,1,7,103,11
2,1,17,1,5,1,1,7,90,11
2,1,13,1,0,0,1,7,90,11
3,2,23,0,4,0,1,7,90,11
3,2,20,1,0,0,1,7,21,11
3,2,21,0,0,0,1,7,112,11
3,2,23,0,3,0,1,7,93,11
4,2,17,1,5,1,2,7,90,11
4,2,22,0,4,0,2,7,14,8
5,2,9,1,2,0,2,7,90,11
5,2,6,0,6,1,2,7,65,11
5,2,13,1,5,1,2,7,21,11
5,2,13,1,1,0,2,7,67,11
6,3,11,1,4,0,2,7,90,11
6,3,9,1,5,1,2,7,90,11
6,3,12,1,6,1,2,7,90,11
7,3,13,1,0,0,3,7,93,11
7,3,17,1,3,0,3,7,93,11
7,3,15,1,6,1,3,7,21,11
7,3,15,1,2,0,3,7,103,11
8,3,11,1,1,0,3,7,28,11
8,3,9,1,2,0,3,7,21,11
8,3,7,1,6,1,3,7,90,11
8,3,4,0,2,0,3,7,90,11
9,4,23,0,6,1,3,7,79,11
9,4,18,1,2,0,3,7,33,11
10,4,18,1,1,0,4,7,76,11
10,4,13,1,3,0,4,7,79,11
10,4,14,1,5,1,4,7,127,11
10,4,15,1,1,0,4,7,67,11
10,4,18,1,2,0,4,7,90,11
11,4,13,1,4,0,4,7,14,11
11,4,3,0,5,1,4,7,1,11
11,4,15,1,0,0,4,7,90,11
11,4,19,1,4,0,4,7,15,11
11,4,17,1,6,1,4,7,90,11
11,4,23,0,6,1,4,7,90,11
11,4,20,1,0,0,4,7,103,11
11,4,0,0,1,0,4,7,90,11
12,1,16,1,6,1,4,7,103,11
12,1,16,1,5,1,4,7,76,11
12,1,23,0,4,0,4,7,90,11
1,1,8,1,0,0,1,7,127,11
1,1,1,0,6,1,1,7,112,11
1,1,17,1,3,0,1,7,21,8
1,1,15,1,6,1,1,7,69,11
1,1,16,1,0,0,1,7,90,11
1,1,10,1,1,0,1,7,111,9
2,1,15,1,3,0,1,7,93,11
2,1,4,0,4,0,1,7,21,9
2,1,21,0,6,1,1,7,32,11
2,1,12,1,1,0,1,7,79,11
2,1,17,1,3,0,1,7,127,9
2,1,22,0,5,1,1,7,79,11
2,1,20,1,3,0,1,7,4,11
2,1,10,1,5,1,1,7,38,11
2,1,12,1,5,1,1,7,93,11
2,1,18,1,5,1,1,7,103,11
2,1,13,1,0,0,1,7,14,8
3,2,18,1,6,1,1,7,14,8
3,2,14,1,2,0,1,7,127,11
3,2,13,1,5,1,1,7,114,11
3,2,18,1,6,1,1,7,76,11
3,2,22,0,5,1,1,7,103,11
3,2,14,1,5,1,1,7,103,11
3,2,18,1,0,0,1,7,103,11
3,2,18,1,0,0,1,7,103,11
3,2,12,1,3,0,1,7,90,8
3,2,9,1,4,0,1,7,4,11
4,2,21,0,4,0,2,7,4,11
4,2,22,0,4,0,2,7,4,11
4,2,20,1,1,0,2,7,57,11
4,2,15,1,2,0,2,7,103,11
4,2,16,1,3,0,2,7,103,11
4,2,20,1,4,0,2,7,103,11
4,2,14,1,2,0,2,7,90,11
4,2,12,1,5,1,2,7,103,11
5,2,2,0,0,0,2,7,15,11
5,2,15,1,0,0,2,7,93,11
5,2,23,0,2,0,2,7,67,8
5,2,19,1,2,0,2,7,95,11
5,2,13,1,4,0,2,7,93,11
5,2,14,1,0,0,2,7,21,9
5,2,20,1,0,0,2,7,93,11
5,2,15,1,4,0,2,7,4,11
6,3,14,1,3,0,2,7,13,11
6,3,21,0,3,0,2,7,65,11
6,3,11,1,0,0,2,7,103,11
6,3,8,1,2,0,2,7,93,11
6,3,15,1,3,0,2,7,27,11
6,3,16,1,3,0,2,7,4,11
6,3,13,1,5,1,2,7,90,11
6,3,21,0,6,1,2,7,93,11
6,3,10,1,6,1,2,7,93,11
7,3,19,1,5,1,3,7,93,11
7,3,15,1,6,1,3,7,48,11
7,3,17,1,1,0,3,7,93,11
7,3,20,1,4,0,3,7,124,11
7,3,11,1,4,0,3,7,93,11
7,3,22,0,5,1,3,7,93,11
7,3,20,1,3,0,3,7,124,11
7,3,11,1,3,0,3,7,46,11
7,3,7,1,4,0,3,7,93,11
7,3,12,1,6,1,3,7,116,9
7,3,13,1,6,1,3,7,93,11
7,3,14,1,6,1,3,7,122,11
7,3,17,1,0,0,3,7,124,11
7,3,12,1,1,0,3,7,93,11
7,3,13,1,1,0,3,7,79,11
7,3,13,1,4,0,3,7,46,11
7,3,11,1,5,1,3,7,46,11
7,3,13,1,0,0,3,7,103,11
7,3,15,1,0,0,3,7,90,11
7,3,15,1,1,0,3,7,103,11
7,3,18,1,2,0,3,7,103,11
7,3,11,1,2,0,3,7,93,11
7,3,23,0,2,0,3,7,38,9
7,3,10,1,3,0,3,7,103,11
7,3,16,1,3,0,3,7,103,11
7,3,13,1,4,0,3,7,93,11
7,3,12,1,4,0,3,7,93,11
7,3,14,1,6,1,3,7,93,11
8,3,15,1,2,0,3,7,93,11
8,3,0,0,2,0,3,7,93,11
8,3,20,1,6,1,3,7,103,11
8,3,20,1,0,0,3,7,27,11
8,3,12,1,3,0,3,7,10,11
8,3,10,1,6,1,3,7,46,11
8,3,22,0,4,0,3,7,93,11
8,3,13,1,2,0,3,7,110,9
8,3,11,1,3,0,3,7,4,11
8,3,17,1,5,1,3,7,103,11
8,3,18,1,6,1,3,7,127,11
8,3,8,1,0,0,3,7,90,11
8,3,20,1,2,0,3,7,46,11
9,4,12,1,4,0,3,7,93,11
9,4,9,1,5,1,3,7,46,11
9,4,9,1,0,0,3,7,103,11
9,4,18,1,2,0,3,7,91,11
9,4,11,1,0,0,3,7,93,11
9,4,15,1,3,0,3,7,93,11
9,4,10,1,4,0,3,7,57,11
9,4,1,0,1,0,3,7,21,11
9,4,19,1,2,0,3,7,79,11
9,4,16,1,1,0,3,7,93,11
10,4,18,1,0,0,4,7,93,11
10,4,13,1,6,1,4,7,79,11
10,4,14,1,0,0,4,7,4,11
10,4,17,1,3,0,4,7,103,11
10,4,15,1,4,0,4,7,4,11
10,4,17,1,0,0,4,7,79,11
10,4,11,1,0,0,4,7,90,11
10,4,18,1,1,0,4,7,103,11
10,4,11,1,4,0,4,7,4,11
10,4,5,0,0,0,4,7,90,11
10,4,15,1,1,0,4,7,93,11
11,4,13,1,1,0,4,7,103,11
11,4,14,1,5,1,4,7,103,11
11,4,9,1,5,1,4,7,93,11
11,4,21,0,0,0,4,7,93,11
11,4,19,1,3,0,4,7,91,11
11,4,10,1,5,1,4,7,21,11
11,4,15,1,6,1,4,7,93,11
11,4,6,0,6,1,4,7,90,9
11,4,21,0,3,0,4,7,127,11
12,1,16,1,4,0,4,7,21,11
1,1,14,1,1,0,1,7,21,11
1,1,11,1,3,0,1,7,93,11
1,1,10,1,0,0,1,7,79,8
1,1,22,0,4,0,1,7,93,11
1,1,15,1,0,0,1,7,98,11
1,1,12,1,0,0,1,7,93,11
1,1,6,0,4,0,1,7,93,11
1,1,3,0,4,0,1,7,1,11
1,1,7,1,0,0,1,7,90,11
2,1,23,0,4,0,1,7,93,11
2,1,12,1,5,1,1,7,76,11
2,1,11,1,5,1,1,7,93,11
2,1,11,1,5,1,1,7,79,11
2,1,22,0,6,1,1,7,75,11
2,1,17,1,1,0,1,7,90,11
2,1,16,1,3,0,1,7,93,11
2,1,16,1,5,1,1,7,93,11
2,1,11,1,1,0,1,7,21,11
2,1,12,1,2,0,1,7,93,11
2,1,20,1,3,0,1,7,127,11
2,1,2,0,4,0,1,7,21,11
2,1,6,0,6,1,1,7,21,11
3,2,15,1,2,0,1,7,103,11
3,2,19,1,1,0,1,7,103,11
3,2,13,1,3,0,1,7,93,11
3,2,8,1,6,1,1,7,93,11
3,2,13,1,6,1,1,7,93,11
3,2,19,1,6,1,1,7,93,11
3,2,1,0,0,0,1,7,93,11
3,2,22,0,0,0,1,7,103,11
3,2,17,1,0,0,1,7,93,11
3,2,21,0,4,0,1,7,79,11
3,2,9,1,5,1,1,7,93,11
3,2,1,0,0,0,1,7,15,11
3,2,10,1,1,0,1,7,103,11
3,2,18,1,3,0,1,7,93,11
3,2,20,1,3,0,1,7,24,11
3,2,16,1,4,0,1,7,28,11
4,2,7,1,6,1,2,7,93,11
4,2,11,1,6,1,2,7,93,11
4,2,14,1,2,0,2,7,98,11
4,2,3,0,5,1,2,7,93,11
4,2,18,1,5,1,2,7,98,11
4,2,20,1,5,1,2,7,38,11
4,2,6,0,6,1,2,7,103,11
4,2,13,1,2,0,2,7,93,11
4,2,14,1,5,1,2,7,76,11
5,2,17,1,0,0,2,7,79,11
5,2,14,1,2,0,2,7,103,11
5,2,12,1,5,1,2,7,28,11
5,2,17,1,6,1,2,7,83,11
5,2,2,0,2,0,2,7,76,11
5,2,19,1,5,1,2,7,83,11
5,2,17,1,1,0,2,7,93,11
5,2,16,1,1,0,2,7,103,11
6,3,14,1,5,1,2,7,93,11
6,3,18,1,1,0,2,7,93,11
6,3,16,1,2,0,2,7,1,11
6,3,17,1,2,0,2,7,1,11
6,3,16,1,3,0,2,7,1,11
6,3,14,1,5,1,2,7,103,11
6,3,13,1,0,0,2,7,90,11
6,3,12,1,2,0,2,7,93,11
7,3,2,0,5,1,3,7,99,11
7,3,5,0,1,0,3,7,24,8
7,3,13,1,1,0,3,7,76,9
7,3,13,1,1,0,3,7,76,11
7,3,18,1,1,0,3,7,93,11
7,3,14,1,2,0,3,7,46,11
7,3,8,1,3,0,3,7,1,11
7,3,14,1,4,0,3,7,1,11
7,3,11,1,5,1,3,7,90,11
7,3,19,1,4,0,3,7,103,11
7,3,16,1,1,0,3,7,90,11
7,3,5,0,0,0,3,7,127,11
7,3,14,1,0,0,3,7,90,11
8,3,12,1,3,0,3,7,93,11
8,3,11,1,3,0,3,7,93,11
8,3,15,1,0,0,3,7,21,11
8,3,20,1,1,0,3,7,21,11
8,3,18,1,4,0,3,7,93,11
8,3,20,1,6,1,3,7,21,11
8,3,16,1,1,0,3,7,103,11
8,3,18,1,3,0,3,7,93,11
8,3,16,1,4,0,3,7,103,11
8,3,12,1,6,1,3,7,93,11
9,4,15,1,1,0,3,7,103,11
9,4,11,1,6,1,3,7,103,11
9,4,12,1,6,1,3,7,90,11
9,4,12,1,2,0,3,7,76,11
9,4,10,1,4,0,3,7,103,11
9,4,19,1,4,0,3,7,103,11
10,4,1,0,0,0,4,7,127,11
10,4,23,0,0,0,4,7,76,11
10,4,23,0,1,0,4,7,127,11
10,4,23,0,1,0,4,7,127,11
10,4,15,1,1,0,4,7,93,8
10,4,11,1,1,0,4,7,103,11
10,4,14,1,4,0,4,7,28,11
10,4,16,1,5,1,4,7,76,11
10,4,14,1,6,1,4,7,93,11
10,4,8,1,3,0,4,7,93,11
11,4,7,1,2,0,4,7,24,11
11,4,9,1,4,0,4,7,93,11
11,4,10,1,4,0,4,7,93,11
11,4,16,1,4,0,4,7,93,11
11,4,9,1,5,1,4,7,1,11
11,4,23,0,0,0,4,7,93,11
11,4,19,1,5,1,4,7,79,11
11,4,6,0,0,0,4,7,24,11
11,4,17,1,0,0,4,7,93,11
12,1,19,1,1,0,4,7,90,11
12,1,12,1,1,0,4,7,93,11
12,1,16,1,2,0,4,7,93,11
12,1,8,1,4,0,4,7,103,11
12,1,11,1,4,0,4,7,118,11
12,1,23,0,5,1,4,7,79,11
12,1,8,1,0,0,4,7,76,11
12,1,16,1,0,0,4,7,103,11
12,1,18,1,2,0,4,7,103,11
12,1,11,1,6,1,4,7,90,11
12,1,12,1,6,1,4,7,38,11
12,1,0,0,0,0,4,7,90,11
12,1,13,1,1,0,4,7,79,11
12,1,17,1,5,1,4,7,93,11
1,1,6,0,1,0,1,7,103,11
1,1,16,1,2,0,1,7,90,11
3,2,15,1,6,1,1,7,4,11
3,2,17,1,5,1,1,7,79,11
5,2,17,1,1,0,2,7,90,11
7,3,14,1,2,0,3,7,93,11
10,4,5,0,5,1,4,7,112,11
1,1,15,1,1,0,1,12,93,11
1,1,16,1,1,0,1,12,103,11
1,1,5,0,2,0,1,12,15,11
1,1,17,1,3,0,1,12,79,11
1,1,19,1,4,0,1,12,38,11
1,1,16,1,5,1,1,12,90,11
1,1,11,1,2,0,1,12,85,11
1,1,22,0,5,1,1,12,38,11
1,1,14,1,0,0,1,12,90,11
1,1,21,0,0,0,1,12,79,11
1,1,15,1,1,0,1,12,95,9
2,1,16,1,2,0,1,12,67,11
2,1,0,0,6,1,1,12,95,11
2,1,3,0,4,0,1,12,67,11
2,1,14,1,5,1,1,12,93,11
2,1,23,0,5,1,1,12,79,11
2,1,14,1,6,1,1,12,103,11
2,1,8,1,1,0,1,12,15,11
2,1,6,0,2,0,1,12,79,11
3,2,19,1,5,1,1,12,24,8
3,2,11,1,2,0,1,12,103,11
3,2,13,1,3,0,1,12,103,11
3,2,1,0,4,0,1,12,21,11
3,2,13,1,0,0,1,12,95,11
3,2,7,1,1,0,1,12,79,11
3,2,13,1,1,0,1,12,21,11
3,2,11,1,2,0,1,12,93,11
3,2,15,1,4,0,1,12,38,11
3,2,13,1,6,1,1,12,79,11
3,2,1,0,4,0,1,12,21,11
3,2,12,1,5,1,1,12,38,11
3,2,0,0,0,0,1,12,93,11
3,2,15,1,0,0,1,12,103,11
3,2,18,1,1,0,1,12,112,11
4,2,3,0,5,1,2,12,67,11
4,2,1,0,0,0,2,12,90,11
4,2,20,1,0,0,2,12,79,11
4,2,19,1,1,0,2,12,67,11
4,2,20,1,0,0,2,12,93,11
4,2,14,1,3,0,2,12,110,11
4,2,15,1,6,1,2,12,90,11
4,2,17,1,5,1,2,12,38,11
4,2,15,1,6,1,2,12,67,11
5,2,21,0,3,0,2,12,21,11
5,2,2,0,0,0,2,12,93,11
5,2,13,1,2,0,2,12,48,11
5,2,13,1,4,0,2,12,93,11
5,2,10,1,5,1,2,12,90,11
5,2,6,0,0,0,2,12,21,11
5,2,10,1,0,0,2,12,93,11
5,2,22,0,2,0,2,12,79,11
6,3,18,1,3,0,2,12,93,11
6,3,10,1,5,1,2,12,21,11
6,3,15,1,1,0,2,12,103,11
6,3,16,1,1,0,2,12,75,11
6,3,17,1,1,0,2,12,93,11
6,3,16,1,2,0,2,12,93,11
6,3,19,1,2,0,2,12,79,11
6,3,9,1,4,0,2,12,90,11
6,3,5,0,5,1,2,12,15,11
6,3,19,1,0,0,2,12,93,11
6,3,15,1,5,1,2,12,67,11
6,3,12,1,1,0,2,12,103,11
6,3,18,1,3,0,2,12,103,11
6,3,16,1,5,1,2,12,103,11
6,3,23,0,5,1,2,12,79,11
6,3,16,1,6,1,2,12,38,11
6,3,12,1,2,0,2,12,21,11
6,3,8,1,4,0,2,12,21,11
7,3,17,1,6,1,3,12,103,11
7,3,19,1,0,0,3,12,93,11
7,3,12,1,1,0,3,12,47,11
7,3,0,0,4,0,3,12,38,11
7,3,19,1,4,0,3,12,103,11
7,3,17,1,0,0,3,12,21,11
7,3,21,0,0,0,3,12,103,11
7,3,1,0,2,0,3,12,76,11
7,3,17,1,3,0,3,12,67,11
7,3,14,1,4,0,3,12,21,11
7,3,12,1,6,1,3,12,48,11
8,3,12,1,5,1,3,12,79,11
8,3,22,0,6,1,3,12,21,11
8,3,22,0,0,0,3,12,79,11
8,3,8,1,1,0,3,12,15,11
8,3,15,1,1,0,3,12,112,11
8,3,10,1,3,0,3,12,103,11
8,3,14,1,3,0,3,12,90,11
8,3,2,0,2,0,3,12,21,11
8,3,10,1,4,0,3,12,90,11
8,3,11,1,5,1,3,12,112,11
8,3,19,1,2,0,3,12,93,11
8,3,14,1,3,0,3,12,93,11
8,3,11,1,6,1,3,12,38,11
8,3,16,1,0,0,3,12,103,11
8,3,14,1,3,0,3,12,103,11
9,4,15,1,5,1,3,12,103,11
9,4,20,1,6,1,3,12,79,11
9,4,7,1,0,0,3,12,67,11
9,4,15,1,6,1,3,12,82,11
9,4,9,1,1,0,3,12,21,11
9,4,13,1,2,0,3,12,127,11
9,4,19,1,5,1,3,12,21,11
9,4,23,0,6,1,3,12,103,11
10,4,1,0,6,1,4,12,38,11
10,4,15,1,6,1,4,12,103,11
10,4,22,0,2,0,4,12,21,11
10,4,20,1,5,1,4,12,67,11
10,4,13,1,0,0,4,12,103,11
10,4,3,0,5,1,4,12,93,11
10,4,9,1,0,0,4,12,21,11
10,4,10,1,4,0,4,12,106,11
10,4,17,1,6,1,4,12,90,11
10,4,15,1,1,0,4,12,46,8
11,4,10,1,3,0,4,12,75,11
11,4,13,1,0,0,4,12,83,11
11,4,13,1,1,0,4,12,15,11
11,4,9,1,4,0,4,12,90,11
11,4,15,1,5,1,4,12,79,11
11,4,1,0,6,1,4,12,21,11
11,4,19,1,1,0,4,12,15,11
11,4,21,0,1,0,4,12,90,11
11,4,5,0,2,0,4,12,82,11
11,4,10,1,5,1,4,12,112,11
11,4,11,1,5,1,4,12,21,11
11,4,14,1,0,0,4,12,15,11
11,4,21,0,4,0,4,12,38,11
11,4,3,0,3,0,4,12,67,11
12,1,14,1,4,0,4,12,93,11
12,1,21,0,5,1,4,12,38,11
12,1,14,1,6,1,4,12,103,11
12,1,19,1,2,0,4,12,38,11
12,1,14,1,4,0,4,12,67,9
12,1,9,1,5,1,4,12,67,11
12,1,18,1,5,1,4,12,67,11
12,1,11,1,3,0,4,12,38,11
12,1,1,0,3,0,4,12,76,11
12,1,12,1,5,1,4,12,38,11
12,1,18,1,5,1,4,12,38,11
12,1,15,1,6,1,4,12,79,11
12,1,19,1,2,0,4,12,79,11
12,1,6,0,4,0,4,12,79,11
12,1,21,0,4,0,4,12,38,11
12,1,14,1,6,1,4,12,90,11
1,1,21,0,1,0,1,12,38,8
4,2,16,1,4,0,2,12,93,11
7,3,15,1,0,0,3,12,1,11
7,3,19,1,0,0,3,12,1,11
8,3,11,1,2,0,3,12,79,11
9,4,20,1,5,1,3,12,58,11
12,1,0,0,5,1,4,12,21,11
12,1,21,0,6,1,4,12,1,11
12,1,13,1,5,1,4,12,93,11
12,1,14,1,3,0,4,12,79,11
1,1,3,0,2,0,1,12,112,11
1,1,14,1,5,1,1,12,1,11
1,1,4,0,4,0,1,12,79,11
2,1,8,1,3,0,1,12,88,11
3,2,14,1,0,0,1,12,14,11
3,2,21,0,3,0,1,12,93,11
5,2,20,1,0,0,2,12,93,11
5,2,1,0,0,0,2,12,15,11
6,3,13,1,5,1,2,12,79,11
6,3,22,0,6,1,2,12,90,11
7,3,12,1,6,1,3,12,21,11
7,3,17,1,2,0,3,12,103,11
8,3,21,0,3,0,3,12,127,11
8,3,12,1,4,0,3,12,93,11
8,3,4,0,6,1,3,12,79,11
8,3,15,1,1,0,3,12,103,11
8,3,15,1,5,1,3,12,79,11
9,4,21,0,1,0,3,12,112,11
9,4,6,0,2,0,3,12,112,11
10,4,14,1,4,0,4,12,76,11
2,1,23,0,4,0,1,12,103,11
2,1,18,1,6,1,1,12,103,11
3,2,16,1,2,0,1,12,93,11
4,2,18,1,5,1,2,12,21,11
7,3,22,0,5,1,3,12,103,11
7,3,0,0,0,0,3,12,103,11
7,3,4,0,0,0,3,12,90,11
7,3,5,0,0,0,3,12,90,11
7,3,1,0,1,0,3,12,103,11
8,3,12,1,2,0,3,12,93,9
8,3,16,1,2,0,3,12,103,11
8,3,19,1,2,0,3,12,93,8
8,3,8,1,6,1,3,12,127,8
8,3,21,0,0,0,3,12,93,11
8,3,3,0,2,0,3,12,93,11
8,3,6,0,5,1,3,12,103,11
10,4,17,1,6,1,4,12,112,11
11,4,13,1,1,0,4,12,103,11
12,1,21,0,2,0,4,12,90,11
12,1,0,0,3,0,4,12,90,11
12,1,9,1,3,0,4,12,38,9
12,1,2,0,5,1,4,12,127,11
12,1,19,1,0,0,4,12,103,9
12,1,13,1,6,1,4,12,28,11
12,1,17,1,5,1,4,12,93,11
1,1,18,1,3,0,1,12,103,11
3,2,19,1,3,0,1,12,103,11
8,3,17,1,0,0,3,12,48,11
8,3,23,0,2,0,3,12,79,11
1,1,20,1,0,0,1,12,103,11
1,1,15,1,1,0,1,12,93,11
1,1,20,1,3,0,1,12,127,11
1,1,17,1,6,1,1,12,67,9
1,1,12,1,1,0,1,12,103,11
2,1,21,0,5,1,1,12,90,11
2,1,20,1,6,1,1,12,98,11
2,1,11,1,4,0,1,12,79,11
2,1,8,1,1,0,1,12,21,11
3,2,23,0,1,0,1,12,103,11
3,2,14,1,6,1,1,12,28,11
3,2,16,1,6,1,1,12,103,11
4,2,1,0,5,1,2,12,21,11
5,2,0,0,0,0,2,12,127,11
7,3,22,0,5,1,3,12,21,11
7,3,14,1,4,0,3,12,58,8
7,3,17,1,6,1,3,12,103,11
8,3,20,1,3,0,3,12,112,11
8,3,16,1,0,0,3,12,93,9
8,3,15,1,2,0,3,12,103,11
9,4,9,1,0,0,3,12,4,11
9,4,2,0,2,0,3,12,111,11
10,4,15,1,2,0,4,12,90,11
10,4,8,1,0,0,4,12,21,11
11,4,15,1,2,0,4,12,127,11
11,4,0,0,6,1,4,12,126,11
11,4,18,1,2,0,4,12,101,11
12,1,21,0,1,0,4,12,66,11
12,1,23,0,1,0,4,12,79,11
1,1,13,1,6,1,1,12,127,11
1,1,2,0,0,0,1,12,22,11
4,2,14,1,6,1,2,12,98,11
7,3,14,1,0,0,3,12,93,11
7,3,20,1,0,0,3,12,93,11
2,1,8,1,3,0,1,12,38,11
2,1,19,1,4,0,1,12,103,11
4,2,14,1,5,1,2,12,22,11
7,3,16,1,4,0,3,12,93,11
7,3,12,1,6,1,3,12,76,11
8,3,1,0,4,0,3,12,112,11
10,4,11,1,4,0,4,12,21,11
1,1,16,1,3,0,1,29,10,11
1,1,17,1,4,0,1,29,93,11
1,1,15,1,3,0,1,29,15,11
2,1,19,1,0,0,1,29,79,11
2,1,15,1,4,0,1,29,93,8
2,1,18,1,4,0,1,29,103,11
3,2,16,1,2,0,1,29,21,9
3,2,23,0,3,0,1,29,93,11
3,2,10,1,4,0,1,29,103,11
3,2,13,1,1,0,1,29,93,11
3,2,16,1,2,0,1,29,93,11
3,2,15,1,5,1,1,29,103,11
3,2,9,1,1,0,1,29,93,11
3,2,18,1,4,0,1,29,93,11
4,2,23,0,2,0,2,29,24,11
4,2,15,1,3,0,2,29,67,11
4,2,4,0,6,1,2,29,93,11
4,2,15,1,0,0,2,29,93,11
4,2,0,0,6,1,2,29,79,11
4,2,12,1,6,1,2,29,93,11
4,2,20,1,6,1,2,29,4,11
4,2,8,1,0,0,2,29,124,11
4,2,21,0,6,1,2,29,125,11
4,2,8,1,6,1,2,29,124,11
4,2,22,0,1,0,2,29,36,11
5,2,8,1,0,0,2,29,21,11
5,2,12,1,2,0,2,29,93,11
5,2,22,0,6,1,2,29,21,8
5,2,9,1,0,0,2,29,93,11
5,2,15,1,2,0,2,29,93,11
5,2,13,1,0,0,2,29,93,11
5,2,17,1,4,0,2,29,21,11
5,2,10,1,6,1,2,29,127,11
5,2,2,0,0,0,2,29,93,11
5,2,22,0,0,0,2,29,93,11
6,3,23,0,6,1,2,29,21,8
6,3,13,1,6,1,2,29,21,11
6,3,6,0,0,0,2,29,21,11
6,3,14,1,1,0,2,29,21,9
6,3,15,1,2,0,2,29,103,11
6,3,12,1,3,0,2,29,103,11
6,3,21,0,6,1,2,29,93,11
6,3,19,1,0,0,2,29,79,11
6,3,13,1,3,0,2,29,103,11
7,3,14,1,6,1,3,29,93,11
7,3,6,0,0,0,3,29,93,11
7,3,17,1,2,0,3,29,4,11
7,3,2,0,4,0,3,29,4,11
7,3,13,1,5,1,3,29,93,11
7,3,7,1,1,0,3,29,57,11
7,3,23,0,4,0,3,29,93,11
7,3,13,1,1,0,3,29,16,11
7,3,13,1,5,1,3,29,48,11
7,3,10,1,2,0,3,29,79,11
7,3,23,0,2,0,3,29,103,11
7,3,20,1,0,0,3,29,93,11
7,3,16,1,0,0,3,29,103,11
8,3,15,1,2,0,3,29,103,11
8,3,18,1,3,0,3,29,93,11
8,3,15,1,6,1,3,29,90,11
8,3,13,1,0,0,3,29,103,11
8,3,20,1,0,0,3,29,93,11
8,3,20,1,4,0,3,29,93,11
8,3,21,0,5,1,3,29,125,11
8,3,9,1,1,0,3,29,127,11
8,3,22,0,2,0,3,29,112,11
8,3,12,1,4,0,3,29,79,11
8,3,11,1,5,1,3,29,93,11
8,3,14,1,1,0,3,29,67,11
8,3,2,0,3,0,3,29,93,11
8,3,13,1,5,1,3,29,93,11
8,3,4,0,3,0,3,29,80,11
8,3,10,1,3,0,3,29,93,11
9,4,13,1,5,1,3,29,21,8
9,4,0,0,5,1,3,29,103,11
9,4,12,1,5,1,3,29,93,9
9,4,12,1,2,0,3,29,58,8
9,4,19,1,4,0,3,29,93,11
9,4,14,1,3,0,3,29,103,11
9,4,10,1,4,0,3,29,15,11
9,4,12,1,5,1,3,29,93,11
9,4,17,1,6,1,3,29,93,11
9,4,15,1,3,0,3,29,112,11
9,4,14,1,5,1,3,29,15,11
10,4,20,1,3,0,4,29,87,9
10,4,16,1,6,1,4,29,93,11
10,4,12,1,5,1,4,29,93,11
10,4,22,0,0,0,4,29,15,8
10,4,12,1,3,0,4,29,93,11
10,4,18,1,4,0,4,29,67,11
10,4,11,1,1,0,4,29,93,11
11,4,21,0,2,0,4,29,109,11
11,4,11,1,2,0,4,29,93,11
11,4,8,1,0,0,4,29,112,11
11,4,16,1,2,0,4,29,93,11
11,4,11,1,3,0,4,29,93,11
11,4,22,0,4,0,4,29,112,11
11,4,11,1,1,0,4,29,69,11
11,4,13,1,3,0,4,29,79,11
11,4,23,0,4,0,4,29,127,11
12,1,12,1,2,0,4,29,93,11
12,1,17,1,2,0,4,29,93,11
12,1,9,1,5,1,4,29,93,11
12,1,18,1,0,0,4,29,79,11
12,1,10,1,6,1,4,29,93,11
1,1,11,1,1,0,1,29,93,11
3,2,10,1,3,0,1,29,85,11
3,2,18,1,1,0,1,29,90,11
6,3,19,1,4,0,2,29,1,11
6,3,12,1,6,1,2,29,93,11
7,3,11,1,2,0,3,29,103,11
8,3,23,0,2,0,3,29,21,11
8,3,4,0,0,0,3,29,127,11
8,3,23,0,5,1,3,29,103,11
9,4,10,1,3,0,3,29,1,11
11,4,11,1,0,0,4,29,93,11
12,1,10,1,5,1,4,29,127,11
1,1,14,1,3,0,1,29,93,11
1,1,19,1,4,0,1,29,93,9
2,1,19,1,6,1,1,29,103,11
2,1,18,1,1,0,1,29,103,11
2,1,19,1,2,0,1,29,127,11
3,2,15,1,0,0,1,29,4,11
3,2,10,1,2,0,1,29,93,11
4,2,7,1,4,0,2,29,14,11
4,2,23,0,4,0,2,29,127,11
4,2,22,0,2,0,2,29,127,11
4,2,21,0,6,1,2,29,127,11
5,2,19,1,5,1,2,29,87,11
5,2,20,1,5,1,2,29,76,11
5,2,15,1,1,0,2,29,79,11
5,2,9,1,3,0,2,29,93,11
6,3,12,1,2,0,2,29,103,11
6,3,1,0,3,0,2,29,127,11
6,3,1,0,3,0,2,29,127,11
6,3,0,0,4,0,2,29,127,11
6,3,1,0,4,0,2,29,127,11
6,3,2,0,4,0,2,29,127,11
7,3,11,1,3,0,3,29,93,11
7,3,14,1,2,0,3,29,93,11
7,3,13,1,0,0,3,29,127,11
7,3,9,1,1,0,3,29,127,11
7,3,15,1,0,0,3,29,21,11
8,3,0,0,3,0,3,29,76,11
8,3,13,1,5,1,3,29,21,11
9,4,21,0,4,0,3,29,88,11
9,4,14,1,5,1,3,29,76,11
9,4,13,1,6,1,3,29,93,11
9,4,11,1,2,0,3,29,93,11
9,4,23,0,6,1,3,29,48,11
9,4,11,1,2,0,3,29,103,11
9,4,14,1,4,0,3,29,129,11
9,4,16,1,5,1,3,29,21,9
10,4,22,0,0,0,4,29,21,11
11,4,21,0,1,0,4,29,93,11
11,4,10,1,0,0,4,29,93,11
11,4,22,0,1,0,4,29,112,11
11,4,23,0,1,0,4,29,112,11
12,1,17,1,4,0,4,29,93,11
12,1,18,1,6,1,4,29,93,11
12,1,17,1,4,0,4,29,93,11
1,1,12,1,6,1,1,29,58,11
1,1,17,1,0,0,1,29,93,11
1,1,16,1,2,0,1,29,28,11
1,1,11,1,3,0,1,29,27,11
1,1,19,1,3,0,1,29,28,11
1,1,11,1,3,0,1,29,79,11
1,1,18,1,0,0,1,29,28,11
1,1,8,1,1,0,1,29,15,9
1,1,16,1,3,0,1,29,28,11
1,1,17,1,0,0,1,29,4,11
2,1,15,1,2,0,1,29,124,11
2,1,1,0,0,0,1,29,127,11
2,1,14,1,1,0,1,29,93,11
2,1,18,1,2,0,1,29,93,11
3,2,16,1,3,0,1,29,103,11
3,2,18,1,0,0,1,29,4,11
3,2,15,1,1,0,1,29,93,11
3,2,17,1,6,1,1,29,103,11
3,2,20,1,1,0,1,29,93,11
4,2,10,1,2,0,2,29,90,11
4,2,11,1,1,0,2,29,93,11
4,2,17,1,2,0,2,29,93,11
4,2,13,1,5,1,2,29,93,11
4,2,21,0,2,0,2,29,67,11
4,2,23,0,5,1,2,29,21,11
4,2,0,0,6,1,2,29,38,11
4,2,13,1,6,1,2,29,93,11
5,2,18,1,5,1,2,29,93,11
5,2,12,1,6,1,2,29,93,11
6,3,14,1,2,0,2,29,38,11
7,3,15,1,4,0,3,29,93,11
7,3,19,1,4,0,3,29,93,11
7,3,0,0,4,0,3,29,93,11
7,3,1,0,6,1,3,29,10,11
8,3,1,0,2,0,3,29,93,11
8,3,20,1,4,0,3,29,103,11
8,3,14,1,3,0,3,29,76,11
8,3,9,1,3,0,3,29,93,11
9,4,15,1,6,1,3,29,79,11
10,4,9,1,1,0,4,29,28,11
11,4,14,1,3,0,4,29,93,11
11,4,17,1,5,1,4,29,28,11
11,4,11,1,4,0,4,29,93,11
11,4,17,1,6,1,4,29,93,11
11,4,11,1,0,0,4,29,93,11
11,4,18,1,2,0,4,29,28,11
12,1,17,1,6,1,4,29,93,11
12,1,17,1,2,0,4,29,93,11
12,1,17,1,3,0,4,29,28,11
12,1,10,1,1,0,4,29,28,11
1,1,2,0,2,0,1,29,90,11
2,1,20,1,6,1,1,29,112,11
3,2,18,1,6,1,1,29,127,11
3,2,18,1,3,0,1,29,93,11
3,2,17,1,2,0,1,29,21,11
3,2,21,0,4,0,1,29,118,11
4,2,17,1,1,0,2,29,127,11
4,2,13,1,6,1,2,29,90,11
4,2,23,0,2,0,2,29,76,11
4,2,9,1,2,0,2,29,93,11
5,2,13,1,2,0,2,29,127,11
5,2,22,0,3,0,2,29,127,11
5,2,14,1,1,0,2,29,93,11
5,2,22,0,0,0,2,29,93,11
6,3,18,1,5,1,2,29,67,11
6,3,11,1,1,0,2,29,1,11
6,3,1,0,1,0,2,29,114,11
7,3,19,1,1,0,3,29,127,11
7,3,22,0,0,0,3,29,103,11
7,3,9,1,5,1,3,29,103,11
7,3,14,1,6,1,3,29,93,11
7,3,15,1,1,0,3,29,93,11
7,3,5,0,2,0,3,29,103,11
7,3,15,1,2,0,3,29,93,9
7,3,17,1,4,0,3,29,103,11
7,3,17,1,5,1,3,29,103,11
7,3,18,1,5,1,3,29,103,9
7,3,19,1,5,1,3,29,93,11
7,3,20,1,6,1,3,29,103,11
8,3,21,0,3,0,3,29,127,11
8,3,20,1,0,0,3,29,93,11
8,3,14,1,0,0,3,29,127,11
8,3,10,1,2,0,3,29,76,11
9,4,23,0,2,0,3,29,112,11
9,4,17,1,1,0,3,29,124,9
9,4,22,0,5,1,3,29,103,11
9,4,12,1,1,0,3,29,48,11
9,4,23,0,4,0,3,29,103,11
9,4,10,1,4,0,3,29,103,11
9,4,12,1,4,0,3,29,103,11
9,4,14,1,4,0,3,29,103,11
9,4,14,1,5,1,3,29,103,9
9,4,12,1,4,0,3,29,103,9
9,4,16,1,5,1,3,29,90,11
10,4,16,1,2,0,4,29,103,9
10,4,4,0,4,0,4,29,15,11
10,4,1,0,0,0,4,29,21,11
11,4,16,1,3,0,4,29,93,11
11,4,4,0,0,0,4,29,109,11
11,4,20,1,1,0,4,29,67,11
12,1,8,1,4,0,4,29,67,11
2,1,7,1,3,0,1,29,103,11
3,2,22,0,2,0,1,29,1,11
4,2,2,0,5,1,2,29,70,11
4,2,17,1,6,1,2,29,21,9
5,2,7,1,4,0,2,29,93,9
5,2,14,1,2,0,2,29,79,11
6,3,15,1,1,0,2,29,93,11
7,3,0,0,6,1,3,29,103,11
7,3,12,1,6,1,3,29,103,11
7,3,11,1,2,0,3,29,103,11
7,3,16,1,6,1,3,29,103,11
8,3,14,1,1,0,3,29,93,11
8,3,14,1,1,0,3,29,93,11
8,3,15,1,1,0,3,29,103,11
8,3,14,1,3,0,3,29,103,11
9,4,9,1,0,0,3,29,103,11
9,4,15,1,1,0,3,29,79,11
10,4,13,1,6,1,4,29,38,11
11,4,15,1,2,0,4,29,1,11
11,4,15,1,4,0,4,29,103,11
12,1,20,1,3,0,4,29,38,11
1,1,9,1,2,0,1,10,93,11
1,1,12,1,3,0,1,10,90,11
1,1,6,0,4,0,1,10,93,11
1,1,19,1,5,1,1,10,93,11
1,1,14,1,6,1,1,10,93,11
1,1,18,1,6,1,1,10,103,11
1,1,23,0,2,0,1,10,93,8
1,1,11,1,5,1,1,10,93,11
1,1,18,1,6,1,1,10,93,11
1,1,19,1,3,0,1,10,38,11
1,1,8,1,3,0,1,10,87,11
1,1,17,1,6,1,1,10,76,11
1,1,11,1,0,0,1,10,93,11
1,1,20,1,5,1,1,10,93,11
1,1,12,1,5,1,1,10,93,11
1,1,17,1,1,0,1,10,90,11
2,1,22,0,2,0,1,10,67,11
2,1,12,1,2,0,1,10,90,11
2,1,14,1,2,0,1,10,28,11
2,1,16,1,4,0,1,10,93,11
2,1,17,1,5,1,1,10,82,11
2,1,18,1,1,0,1,10,67,11
2,1,17,1,3,0,1,10,93,11
2,1,18,1,0,0,1,10,93,11
2,1,21,0,0,0,1,10,67,11
2,1,16,1,1,0,1,10,67,11
2,1,16,1,2,0,1,10,93,11
2,1,13,1,5,1,1,10,93,11
2,1,21,0,5,1,1,10,87,11
2,1,19,1,5,1,1,10,103,11
2,1,1,0,6,1,1,10,93,11
2,1,20,1,0,0,1,10,38,11
2,1,7,1,2,0,1,10,103,11
2,1,16,1,5,1,1,10,93,11
2,1,17,1,1,0,1,10,21,11
2,1,9,1,1,0,1,10,93,11
3,2,0,0,2,0,1,10,93,11
3,2,22,0,2,0,1,10,93,11
3,2,19,1,4,0,1,10,93,11
3,2,21,0,5,1,1,10,93,11
3,2,9,1,6,1,1,10,93,11
3,2,11,1,1,0,1,10,93,11
3,2,22,0,2,0,1,10,90,11
3,2,14,1,2,0,1,10,93,11
3,2,17,1,3,0,1,10,93,11
3,2,18,1,6,1,1,10,93,11
3,2,20,1,4,0,1,10,93,11
3,2,14,1,5,1,1,10,93,11
3,2,15,1,1,0,1,10,93,11
3,2,21,0,1,0,1,10,103,11
3,2,13,1,3,0,1,10,93,9
3,2,15,1,4,0,1,10,22,11
3,2,15,1,6,1,1,10,93,11
3,2,18,1,0,0,1,10,28,11
3,2,16,1,3,0,1,10,90,11
4,2,15,1,5,1,2,10,112,11
4,2,19,1,6,1,2,10,103,9
4,2,13,1,0,0,2,10,93,11
4,2,0,0,0,0,2,10,103,9
4,2,14,1,0,0,2,10,93,11
4,2,14,1,1,0,2,10,93,11
4,2,19,1,1,0,2,10,90,11
4,2,13,1,3,0,2,10,48,11
4,2,17,1,5,1,2,10,21,11
4,2,18,1,0,0,2,10,93,8
4,2,14,1,2,0,2,10,93,11
4,2,12,1,2,0,2,10,93,11
4,2,12,1,3,0,2,10,93,11
4,2,6,0,4,0,2,10,22,11
4,2,20,1,6,1,2,10,90,11
4,2,1,0,0,0,2,10,93,11
4,2,18,1,0,0,2,10,93,11
4,2,21,0,3,0,2,10,90,11
4,2,11,1,5,1,2,10,93,11
4,2,18,1,0,0,2,10,93,11
4,2,1,0,1,0,2,10,90,11
4,2,0,0,2,0,2,10,90,11
4,2,3,0,2,0,2,10,90,11
4,2,0,0,2,0,2,10,90,11
4,2,2,0,2,0,2,10,90,11
4,2,5,0,3,0,2,10,90,11
4,2,20,1,6,1,2,10,90,11
4,2,15,1,6,1,2,10,67,11
4,2,9,1,6,1,2,10,90,11
4,2,10,1,6,1,2,10,90,11
4,2,7,1,6,1,2,10,90,11
5,2,22,0,0,0,2,10,90,11
5,2,22,0,0,0,2,10,90,11
5,2,20,1,1,0,2,10,127,11
5,2,11,1,2,0,2,10,93,11
5,2,18,1,2,0,2,10,93,11
5,2,0,0,2,0,2,10,127,11
5,2,3,0,2,0,2,10,127,11
5,2,8,1,2,0,2,10,57,11
5,2,2,0,2,0,2,10,90,11
5,2,3,0,2,0,2,10,90,11
5,2,15,1,6,1,2,10,93,11
5,2,20,1,1,0,2,10,93,11
5,2,13,1,2,0,2,10,93,11
5,2,12,1,4,0,2,10,93,11
5,2,17,1,6,1,2,10,93,11
5,2,8,1,1,0,2,10,93,11
5,2,19,1,2,0,2,10,93,11
5,2,10,1,2,0,2,10,93,11
5,2,9,1,2,0,2,10,93,11
5,2,11,1,3,0,2,10,90,11
5,2,12,1,6,1,2,10,93,11
5,2,10,1,6,1,2,10,93,11
5,2,4,0,0,0,2,10,90,11
5,2,20,1,1,0,2,10,67,11
5,2,22,0,1,0,2,10,87,11
6,3,10,1,4,0,2,10,93,11
6,3,23,0,4,0,2,10,90,11
6,3,14,1,0,0,2,10,93,11
6,3,18,1,0,0,2,10,93,11
6,3,18,1,0,0,2,10,79,11
6,3,17,1,2,0,2,10,93,11
6,3,23,0,2,0,2,10,93,11
6,3,20,1,3,0,2,10,19,11
6,3,21,0,0,0,2,10,79,11
6,3,0,0,2,0,2,10,93,11
6,3,15,1,2,0,2,10,90,11
6,3,1,0,4,0,2,10,93,8
6,3,4,0,5,1,2,10,90,11
6,3,17,1,0,0,2,10,90,11
6,3,12,1,2,0,2,10,90,11
6,3,15,1,2,0,2,10,67,11
6,3,18,1,4,0,2,10,90,11
7,3,22,0,5,1,3,10,93,11
7,3,0,0,6,1,3,10,93,11
7,3,9,1,1,0,3,10,93,11
7,3,20,1,1,0,3,10,93,11
7,3,9,1,2,0,3,10,67,11
7,3,23,0,4,0,3,10,93,11
7,3,17,1,4,0,3,10,11,11
7,3,22,0,4,0,3,10,93,11
7,3,3,0,5,1,3,10,21,11
7,3,10,1,5,1,3,10,93,11
7,3,23,0,5,1,3,10,90,11
7,3,12,1,5,1,3,10,30,11
7,3,20,1,6,1,3,10,90,11
7,3,8,1,0,0,3,10,93,11
7,3,23,0,3,0,3,10,93,11
7,3,16,1,3,0,3,10,90,11
7,3,8,1,4,0,3,10,80,11
7,3,5,0,4,0,3,10,90,11
7,3,7,1,5,1,3,10,90,11
7,3,10,1,5,1,3,10,90,11
7,3,18,1,5,1,3,10,90,11
7,3,5,0,5,1,3,10,90,11
7,3,1,0,0,0,3,10,93,9
7,3,21,0,0,0,3,10,90,9
7,3,18,1,1,0,3,10,90,11
7,3,1,0,2,0,3,10,90,11
7,3,7,1,3,0,3,10,90,11
7,3,9,1,5,1,3,10,90,11
7,3,22,0,6,1,3,10,90,11
7,3,13,1,0,0,3,10,30,11
7,3,21,0,0,0,3,10,90,11
7,3,4,0,4,0,3,10,90,11
7,3,22,0,6,1,3,10,38,11
7,3,12,1,6,1,3,10,93,11
8,3,3,0,1,0,3,10,90,11
8,3,0,0,2,0,3,10,90,11
8,3,22,0,5,1,3,10,90,11
8,3,21,0,3,0,3,10,90,11
8,3,16,1,6,1,3,10,90,11
8,3,20,1,2,0,3,10,87,11
8,3,5,0,3,0,3,10,90,11
8,3,20,1,4,0,3,10,90,11
8,3,11,1,5,1,3,10,90,8
8,3,21,0,6,1,3,10,90,11
8,3,8,1,0,0,3,10,90,11
8,3,23,0,3,0,3,10,90,9
9,4,20,1,4,0,3,10,93,11
9,4,10,1,5,1,3,10,90,11
9,4,12,1,5,1,3,10,90,11
9,4,18,1,3,0,3,10,90,11
9,4,0,0,2,0,3,10,90,11
9,4,16,1,2,0,3,10,86,9
9,4,22,0,0,0,3,10,90,11
9,4,6,0,2,0,3,10,76,11
9,4,14,1,2,0,3,10,93,9
9,4,4,0,3,0,3,10,93,11
9,4,22,0,3,0,3,10,90,9
9,4,23,0,3,0,3,10,90,9
9,4,15,1,4,0,3,10,93,11
9,4,17,1,4,0,3,10,90,11
9,4,1,0,5,1,3,10,93,11
9,4,0,0,5,1,3,10,90,11
9,4,22,0,5,1,3,10,93,11
9,4,3,0,6,1,3,10,93,11
9,4,12,1,6,1,3,10,93,11
9,4,19,1,0,0,3,10,93,11
9,4,10,1,2,0,3,10,90,11
9,4,16,1,2,0,3,10,93,11
9,4,16,1,3,0,3,10,76,11
9,4,22,0,4,0,3,10,90,8
9,4,1,0,5,1,3,10,87,11
10,4,11,1,6,1,4,10,90,11
10,4,12,1,6,1,4,10,93,11
10,4,18,1,0,0,4,10,90,11
10,4,15,1,0,0,4,10,90,11
10,4,17,1,4,0,4,10,93,8
10,4,3,0,5,1,4,10,90,11
10,4,12,1,5,1,4,10,93,11
10,4,23,0,0,0,4,10,90,11
10,4,20,1,1,0,4,10,90,11
10,4,21,0,2,0,4,10,90,8
10,4,22,0,4,0,4,10,90,11
10,4,2,0,5,1,4,10,59,11
10,4,11,1,6,1,4,10,90,11
10,4,22,0,0,0,4,10,93,11
10,4,22,0,2,0,4,10,66,11
10,4,21,0,2,0,4,10,66,11
10,4,18,1,3,0,4,10,93,11
10,4,23,0,5,1,4,10,67,11
11,4,16,1,2,0,4,10,103,11
11,4,12,1,2,0,4,10,93,11
11,4,13,1,3,0,4,10,93,11
11,4,11,1,5,1,4,10,48,11
11,4,17,1,6,1,4,10,93,11
11,4,15,1,0,0,4,10,93,11
11,4,12,1,0,0,4,10,15,11
11,4,23,0,4,0,4,10,93,11
11,4,5,0,4,0,4,10,93,11
11,4,23,0,4,0,4,10,93,11
11,4,13,1,5,1,4,10,76,11
11,4,16,1,2,0,4,10,93,8
11,4,10,1,4,0,4,10,93,8
11,4,15,1,5,1,4,10,93,11
11,4,10,1,5,1,4,10,93,11
11,4,19,1,5,1,4,10,67,9
11,4,10,1,6,1,4,10,93,11
11,4,16,1,6,1,4,10,38,11
11,4,15,1,6,1,4,10,79,11
11,4,17,1,0,0,4,10,93,11
11,4,11,1,4,0,4,10,93,11
11,4,20,1,4,0,4,10,93,11
11,4,19,1,6,1,4,10,93,11
11,4,19,1,0,0,4,10,90,11
11,4,14,1,2,0,4,10,93,11
12,1,0,0,6,1,4,10,93,11
12,1,4,0,6,1,4,10,121,11
12,1,16,1,0,0,4,10,79,11
12,1,17,1,3,0,4,10,38,11
12,1,13,1,1,0,4,10,93,11
12,1,18,1,2,0,4,10,93,11
12,1,18,1,5,1,4,10,93,11
12,1,19,1,2,0,4,10,103,11
12,1,20,1,3,0,4,10,103,11
1,1,10,1,4,0,1,10,103,11
1,1,17,1,6,1,1,10,52,11
1,1,9,1,2,0,1,10,93,11
2,1,19,1,0,0,1,10,93,11
3,2,19,1,2,0,1,10,93,11
3,2,15,1,3,0,1,10,93,11
3,2,15,1,5,1,1,10,93,11
3,2,20,1,4,0,1,10,93,11
3,2,13,1,2,0,1,10,4,11
3,2,10,1,4,0,1,10,93,11
3,2,11,1,2,0,1,10,93,11
3,2,12,1,4,0,1,10,15,11
4,2,14,1,2,0,2,10,93,11
6,3,13,1,6,1,2,10,1,11
6,3,10,1,2,0,2,10,93,11
6,3,18,1,4,0,2,10,112,11
7,3,21,0,5,1,3,10,15,9
7,3,11,1,6,1,3,10,103,11
7,3,21,0,6,1,3,10,125,11
7,3,18,1,6,1,3,10,79,11
7,3,11,1,0,0,3,10,127,11
8,3,14,1,6,1,3,10,127,11
8,3,6,0,3,0,3,10,21,11
9,4,16,1,4,0,3,10,124,11
9,4,15,1,5,1,3,10,127,11
10,4,20,1,2,0,4,10,82,11
10,4,12,1,1,0,4,10,1,11
11,4,22,0,5,1,4,10,112,11
11,4,11,1,4,0,4,10,93,11
11,4,7,1,1,0,4,10,1,11
12,1,20,1,1,0,4,10,93,11
12,1,20,1,1,0,4,10,93,11
1,1,11,1,6,1,1,10,93,11
1,1,17,1,0,0,1,10,93,11
2,1,19,1,3,0,1,10,103,11
2,1,18,1,4,0,1,10,90,11
3,2,0,0,1,0,1,10,93,11
3,2,11,1,2,0,1,10,103,11
3,2,7,1,4,0,1,10,90,11
3,2,17,1,0,0,1,10,103,11
4,2,13,1,5,1,2,10,93,11
6,3,10,1,2,0,2,10,93,11
6,3,19,1,4,0,2,10,87,11
7,3,20,1,6,1,3,10,103,8
9,4,19,1,1,0,3,10,93,11
10,4,14,1,2,0,4,10,98,11
1,1,17,1,1,0,1,10,79,11
1,1,10,1,2,0,1,10,93,11
1,1,18,1,6,1,1,10,93,11
1,1,19,1,5,1,1,10,103,11
1,1,18,1,0,0,1,10,93,11
1,1,15,1,3,0,1,10,93,11
2,1,14,1,2,0,1,10,93,11
2,1,11,1,0,0,1,10,103,11
2,1,12,1,5,1,1,10,93,11
3,2,11,1,3,0,1,10,93,11
3,2,12,1,5,1,1,10,103,11
3,2,10,1,0,0,1,10,93,11
3,2,17,1,5,1,1,10,93,11
3,2,12,1,0,0,1,10,15,11
3,2,9,1,0,0,1,10,93,11
3,2,19,1,1,0,1,10,93,11
4,2,14,1,1,0,2,10,93,11
4,2,19,1,4,0,2,10,93,11
4,2,19,1,3,0,2,10,93,11
4,2,21,0,1,0,2,10,103,11
4,2,16,1,5,1,2,10,103,11
4,2,9,1,4,0,2,10,93,11
5,2,21,0,1,0,2,10,93,11
5,2,9,1,3,0,2,10,93,11
5,2,14,1,3,0,2,10,127,11
5,2,11,1,4,0,2,10,103,11
6,3,15,1,6,1,2,10,93,11
6,3,16,1,0,0,2,10,21,8
6,3,9,1,0,0,2,10,93,11
7,3,17,1,5,1,3,10,93,11
7,3,13,1,5,1,3,10,21,11
8,3,11,1,5,1,3,10,103,11
8,3,23,0,5,1,3,10,93,11
8,3,4,0,5,1,3,10,93,11
9,4,1,0,1,0,3,10,103,11
11,4,9,1,0,0,4,10,21,11
11,4,13,1,3,0,4,10,93,11
12,1,16,1,6,1,4,10,93,11
1,1,2,0,3,0,1,10,90,11
2,1,12,1,4,0,1,10,21,11
2,1,22,0,6,1,1,10,79,11
2,1,15,1,3,0,1,10,93,11
2,1,22,0,2,0,1,10,67,11
2,1,17,1,6,1,1,10,21,11
2,1,0,0,6,1,1,10,21,11
3,2,19,1,2,0,1,10,93,11
3,2,14,1,3,0,1,10,93,11
3,2,20,1,1,0,1,10,79,11
3,2,23,0,0,0,1,10,98,11
4,2,1,0,6,1,2,10,93,11
4,2,19,1,3,0,2,10,103,11
4,2,15,1,4,0,2,10,93,11
4,2,14,1,5,1,2,10,93,11
4,2,17,1,6,1,2,10,103,11
4,2,17,1,4,0,2,10,103,11
4,2,20,1,4,0,2,10,93,11
4,2,18,1,4,0,2,10,103,11
5,2,14,1,5,1,2,10,93,11
5,2,21,0,1,0,2,10,109,8
5,2,8,1,6,1,2,10,103,11
5,2,9,1,1,0,2,10,67,11
6,3,21,0,4,0,2,10,122,11
6,3,10,1,0,0,2,10,93,11
6,3,17,1,2,0,2,10,67,11
6,3,17,1,2,0,2,10,127,11
6,3,0,0,3,0,2,10,127,11
6,3,3,0,3,0,2,10,67,11
6,3,20,1,0,0,2,10,87,11
6,3,13,1,3,0,2,10,103,11
6,3,11,1,4,0,2,10,93,11
6,3,5,0,5,1,2,10,103,11
7,3,1,0,5,1,3,10,76,11
7,3,13,1,0,0,3,10,50,11
7,3,13,1,4,0,3,10,93,11
7,3,22,0,4,0,3,10,15,11
7,3,4,0,5,1,3,10,79,11
8,3,9,1,6,1,3,10,79,9
8,3,15,1,6,1,3,10,93,11
8,3,22,0,1,0,3,10,76,11
8,3,4,0,2,0,3,10,76,11
8,3,11,1,4,0,3,10,76,11
9,4,0,0,4,0,3,10,67,11
9,4,10,1,6,1,3,10,93,11
9,4,2,0,0,0,3,10,76,11
9,4,3,0,0,0,3,10,76,11
9,4,11,1,1,0,3,10,84,11
10,4,5,0,5,1,4,10,58,11
10,4,12,1,6,1,4,10,79,9
11,4,9,1,4,0,4,10,93,9
11,4,13,1,1,0,4,10,93,11
11,4,17,1,3,0,4,10,21,11
11,4,9,1,0,0,4,10,93,11
11,4,16,1,1,0,4,10,79,11
11,4,15,1,3,0,4,10,93,11
12,1,0,0,4,0,4,10,93,11
12,1,0,0,3,0,4,10,93,11
12,1,18,1,6,1,4,10,90,11
12,1,18,1,3,0,4,10,67,8
1,1,11,1,3,0,1,10,38,11
3,2,23,0,4,0,1,10,90,11
3,2,12,1,6,1,1,10,79,11
4,2,21,0,6,1,2,10,90,11
5,2,17,1,0,0,2,10,93,9
6,3,12,1,2,0,2,10,76,9
6,3,13,1,1,0,2,10,93,8
7,3,22,0,2,0,3,10,93,11
7,3,12,1,3,0,3,10,60,9
10,4,20,1,0,0,4,10,93,9
11,4,2,0,0,0,4,10,58,11
12,1,23,0,6,1,4,10,90,11
1,1,2,0,3,0,1,33,103,11
1,1,16,1,5,1,1,33,103,11
1,1,8,1,1,0,1,33,15,9
1,1,17,1,3,0,1,33,90,11
2,1,4,0,4,0,1,33,79,9
2,1,9,1,0,0,1,33,127,11
2,1,22,0,2,0,1,33,38,11
2,1,15,1,6,1,1,33,90,11
2,1,9,1,1,0,1,33,76,8
2,1,16,1,2,0,1,33,57,11
2,1,17,1,5,1,1,33,90,11
3,2,13,1,3,0,1,33,103,11
3,2,3,0,6,1,1,33,112,11
3,2,21,0,5,1,1,33,127,11
3,2,15,1,6,1,1,33,103,11
3,2,19,1,6,1,1,33,93,11
3,2,15,1,0,0,1,33,79,11
3,2,22,0,0,0,1,33,28,11
3,2,10,1,6,1,1,33,28,11
3,2,19,1,2,0,1,33,79,11
3,2,13,1,3,0,1,33,79,11
3,2,21,0,4,0,1,33,91,11
4,2,20,1,2,0,2,33,103,11
4,2,10,1,5,1,2,33,4,11
4,2,12,1,2,0,2,33,57,11
4,2,12,1,0,0,2,33,4,11
4,2,14,1,0,0,2,33,103,11
4,2,0,0,5,1,2,33,79,8
4,2,16,1,6,1,2,33,79,11
4,2,21,0,6,1,2,33,47,11
5,2,21,0,0,0,2,33,103,11
5,2,21,0,1,0,2,33,21,11
6,3,15,1,5,1,2,33,93,11
6,3,8,1,5,1,2,33,93,11
7,3,11,1,5,1,3,33,93,11
7,3,23,0,5,1,3,33,93,11
7,3,11,1,3,0,3,33,103,11
7,3,8,1,0,0,3,33,28,11
7,3,15,1,1,0,3,33,93,11
7,3,18,1,3,0,3,33,103,11
7,3,0,0,5,1,3,33,113,11
7,3,21,0,1,0,3,33,103,11
7,3,11,1,3,0,3,33,113,11
8,3,23,0,0,0,3,33,103,11
8,3,20,1,5,1,3,33,127,11
8,3,0,0,0,0,3,33,103,11
8,3,1,0,2,0,3,33,98,11
8,3,9,1,6,1,3,33,103,11
8,3,18,1,2,0,3,33,103,11
8,3,2,0,1,0,3,33,90,11
9,4,21,0,0,0,3,33,76,8
9,4,1,0,4,0,3,33,90,11
10,4,22,0,0,0,4,33,93,11
10,4,19,1,6,1,4,33,93,11
10,4,18,1,3,0,4,33,80,9
10,4,23,0,6,1,4,33,103,11
11,4,13,1,5,1,4,33,103,11
11,4,10,1,0,0,4,33,103,11
11,4,19,1,0,0,4,33,103,11
11,4,19,1,3,0,4,33,103,11
11,4,18,1,2,0,4,33,103,11
12,1,17,1,1,0,4,33,93,11
12,1,5,0,4,0,4,33,79,11
12,1,23,0,5,1,4,33,79,11
12,1,4,0,5,1,4,33,14,9
12,1,23,0,6,1,4,33,79,11
12,1,19,1,2,0,4,33,112,11
12,1,2,0,3,0,4,33,127,11
12,1,12,1,4,0,4,33,21,11
12,1,15,1,4,0,4,33,79,11
1,1,16,1,6,1,1,33,38,9
3,2,16,1,4,0,1,33,112,11
3,2,14,1,1,0,1,33,79,11
3,2,14,1,4,0,1,33,103,11
4,2,22,0,5,1,2,33,101,11
4,2,21,0,6,1,2,33,103,11
4,2,14,1,0,0,2,33,21,9
6,3,22,0,1,0,2,33,93,11
7,3,11,1,1,0,3,33,14,9
7,3,11,1,4,0,3,33,112,11
7,3,6,0,2,0,3,33,76,11
8,3,20,1,4,0,3,33,76,11
8,3,13,1,0,0,3,33,79,9
9,4,0,0,6,1,3,33,103,11
9,4,11,1,4,0,3,33,93,11
10,4,3,0,0,0,4,33,79,8
9,4,19,1,5,1,3,33,14,8
1,1,17,1,3,0,1,33,93,11
2,1,15,1,6,1,1,33,79,8
2,1,22,0,6,1,1,33,79,11
2,1,12,1,0,0,1,33,79,11
6,3,13,1,0,0,2,33,15,9
7,3,20,1,6,1,3,33,103,11
11,4,15,1,3,0,4,33,93,11
1,1,16,1,1,0,1,33,103,11
2,1,1,0,3,0,1,33,38,8
2,1,0,0,4,0,1,33,79,11
4,2,0,0,6,1,2,33,101,11
4,2,3,0,6,1,2,33,67,11
4,2,10,1,1,0,2,33,38,11
5,2,20,1,1,0,2,33,38,11
7,3,19,1,4,0,3,33,21,11
7,3,13,1,1,0,3,33,79,11
8,3,10,1,1,0,3,33,4,11
8,3,13,1,4,0,3,33,11,11
8,3,17,1,5,1,3,33,103,11
8,3,14,1,4,0,3,33,90,11
9,4,1,0,6,1,3,33,90,9
10,4,19,1,6,1,4,33,93,11
10,4,19,1,4,0,4,33,103,11
10,4,11,1,6,1,4,33,112,11
11,4,20,1,6,1,4,33,85,11
1,1,11,1,6,1,1,51,90,11
1,1,19,1,5,1,1,51,90,11
1,1,7,1,3,0,1,51,28,11
1,1,17,1,1,0,1,51,90,11
1,1,20,1,3,0,1,51,28,11
1,1,17,1,3,0,1,51,90,11
1,1,23,0,5,1,1,51,28,11
1,1,12,1,1,0,1,51,76,11
1,1,8,1,1,0,1,51,90,11
2,1,18,1,3,0,1,51,127,11
2,1,15,1,4,0,1,51,79,11
2,1,8,1,4,0,1,51,127,11
2,1,21,0,0,0,1,51,127,11
2,1,13,1,0,0,1,51,79,11
2,1,20,1,3,0,1,51,127,11
2,1,18,1,4,0,1,51,79,11
2,1,8,1,5,1,1,51,127,11
2,1,0,0,6,1,1,51,15,11
2,1,17,1,3,0,1,51,67,11
2,1,14,1,3,0,1,51,50,11
2,1,18,1,3,0,1,51,28,11
2,1,12,1,4,0,1,51,28,11
2,1,13,1,4,0,1,51,127,11
2,1,11,1,3,0,1,51,79,11
2,1,5,0,5,1,1,51,127,11
2,1,16,1,6,1,1,51,79,11
3,2,16,1,2,0,1,51,28,11
3,2,7,1,3,0,1,51,28,11
3,2,20,1,5,1,1,51,79,11
3,2,18,1,4,0,1,51,28,11
3,2,16,1,2,0,1,51,67,11
3,2,19,1,5,1,1,51,28,11
4,2,17,1,5,1,2,51,28,11
4,2,20,1,1,0,2,51,28,11
4,2,0,0,5,1,2,51,127,11
4,2,11,1,5,1,2,51,28,11
4,2,0,0,6,1,2,51,127,11
4,2,1,0,6,1,2,51,127,11
4,2,1,0,6,1,2,51,127,11
4,2,1,0,6,1,2,51,127,11
4,2,1,0,6,1,2,51,28,11
4,2,21,0,6,1,2,51,28,11
4,2,17,1,6,1,2,51,127,11
4,2,9,1,5,1,2,51,28,11
4,2,23,0,6,1,2,51,127,11
5,2,21,0,1,0,2,51,79,11
5,2,23,0,2,0,2,51,127,11
5,2,11,1,5,1,2,51,79,11
6,3,12,1,3,0,2,51,90,11
7,3,8,1,2,0,3,51,76,11
7,3,17,1,0,0,3,51,79,11
7,3,21,0,5,1,3,51,76,11
7,3,17,1,4,0,3,51,58,11
7,3,12,1,0,0,3,51,38,11
8,3,0,0,3,0,3,51,90,11
8,3,10,1,1,0,3,51,127,11
8,3,19,1,2,0,3,51,79,11
8,3,18,1,2,0,3,51,79,11
8,3,17,1,2,0,3,51,15,11
8,3,8,1,3,0,3,51,21,11
8,3,11,1,4,0,3,51,67,11
9,4,16,1,3,0,3,51,21,11
9,4,0,0,3,0,3,51,28,11
9,4,18,1,5,1,3,51,21,9
10,4,21,0,3,0,4,51,112,11
11,4,7,1,0,0,4,51,76,11
11,4,18,1,5,1,4,51,21,11
11,4,21,0,6,1,4,51,127,11
12,1,18,1,6,1,4,51,38,11
12,1,22,0,0,0,4,51,127,11
12,1,13,1,2,0,4,51,76,11
12,1,11,1,4,0,4,51,93,11
12,1,13,1,6,1,4,51,127,11
1,1,8,1,6,1,1,51,79,11
1,1,20,1,2,0,1,51,79,11
2,1,13,1,3,0,1,51,79,11
3,2,19,1,0,0,1,51,112,11
6,3,18,1,1,0,2,51,76,11
7,3,12,1,3,0,3,51,28,11
8,3,9,1,5,1,3,51,28,11
10,4,14,1,6,1,4,51,79,11
3,2,19,1,4,0,1,51,28,11
4,2,12,1,0,0,2,51,14,11
5,2,12,1,1,0,2,51,28,11
5,2,18,1,0,0,2,51,28,11
5,2,13,1,5,1,2,51,76,11
6,3,19,1,3,0,2,51,76,11
7,3,18,1,2,0,3,51,28,11
8,3,19,1,4,0,3,51,93,11
9,4,12,1,2,0,3,51,28,11
9,4,13,1,3,0,3,51,21,11
12,1,17,1,2,0,4,51,127,11
1,1,19,1,1,0,1,43,93,11
2,1,22,0,5,1,1,43,93,11
2,1,21,0,2,0,1,43,93,11
2,1,14,1,5,1,1,43,127,11
2,1,15,1,6,1,1,43,102,11
2,1,22,0,1,0,1,43,79,9
2,1,19,1,4,0,1,43,79,11
2,1,15,1,3,0,1,43,28,11
2,1,10,1,1,0,1,43,28,11
3,2,12,1,3,0,1,43,15,11
3,2,18,1,5,1,1,43,67,11
4,2,9,1,1,0,2,43,4,11
4,2,9,1,1,0,2,43,127,11
6,3,23,0,6,1,2,43,73,11
6,3,17,1,1,0,2,43,90,11
6,3,17,1,6,1,2,43,58,11
7,3,16,1,3,0,3,43,103,11
7,3,21,0,6,1,3,43,93,9
12,1,11,1,5,1,4,43,1,11
12,1,17,1,6,1,4,43,79,11
8,3,13,1,1,0,3,43,103,11
1,1,20,1,2,0,1,43,114,9
1,1,0,0,4,0,1,43,107,9
2,1,13,1,0,0,1,43,79,9
3,2,9,1,4,0,1,43,93,11
8,3,0,0,6,1,3,43,93,11
9,4,23,0,5,1,3,43,79,11
10,4,16,1,4,0,4,43,10,11
1,1,3,0,4,0,1,43,15,8
4,2,0,0,1,0,2,43,79,11
9,4,12,1,5,1,3,43,15,11
1,1,18,1,3,0,1,17,1,11
2,1,11,1,4,0,1,17,128,9
2,1,12,1,2,0,1,17,38,11
2,1,16,1,0,0,1,17,38,11
3,2,17,1,2,0,1,17,15,11
4,2,14,1,5,1,2,17,103,11
4,2,21,0,6,1,2,17,127,11
4,2,18,1,1,0,2,17,127,11
4,2,20,1,0,0,2,17,28,11
4,2,14,1,2,0,2,17,103,11
4,2,19,1,5,1,2,17,103,11
4,2,14,1,4,0,2,17,1,11
5,2,20,1,1,0,2,17,93,11
5,2,14,1,2,0,2,17,21,11
5,2,12,1,5,1,2,17,112,11
5,2,12,1,6,1,2,17,103,11
5,2,14,1,3,0,2,17,90,11
5,2,22,0,4,0,2,17,93,11
5,2,21,0,1,0,2,17,103,11
6,3,10,1,2,0,2,17,38,11
6,3,19,1,3,0,2,17,103,11
6,3,21,0,3,0,2,17,90,11
6,3,22,0,2,0,2,17,90,11
6,3,11,1,1,0,2,17,90,11
7,3,19,1,3,0,3,17,15,11
7,3,20,1,3,0,3,17,103,11
7,3,15,1,3,0,3,17,93,11
7,3,14,1,5,1,3,17,80,11
7,3,13,1,0,0,3,17,103,11
7,3,20,1,4,0,3,17,93,9
7,3,12,1,6,1,3,17,93,11
7,3,15,1,6,1,3,17,97,8
8,3,21,0,2,0,3,17,112,11
8,3,21,0,2,0,3,17,79,9
8,3,22,0,4,0,3,17,103,11
9,4,14,1,5,1,3,17,1,11
9,4,21,0,5,1,3,17,103,11
9,4,3,0,6,1,3,17,21,11
9,4,0,0,0,0,3,17,93,11
9,4,18,1,2,0,3,17,111,11
9,4,1,0,5,1,3,17,103,11
10,4,11,1,0,0,4,17,79,11
10,4,12,1,6,1,4,17,79,11
10,4,14,1,6,1,4,17,103,11
11,4,14,1,5,1,4,17,93,11
11,4,19,1,6,1,4,17,93,11
11,4,17,1,6,1,4,17,103,11
11,4,16,1,2,0,4,17,4,11
11,4,9,1,4,0,4,17,93,11
11,4,18,1,2,0,4,17,84,11
12,1,23,0,1,0,4,17,97,11
12,1,23,0,6,1,4,17,4,11
12,1,11,1,2,0,4,17,103,11
12,1,18,1,2,0,4,17,103,11
12,1,17,1,3,0,4,17,4,11
12,1,20,1,3,0,4,17,1,11
12,1,18,1,0,0,4,17,103,11
12,1,1,0,2,0,4,17,127,11
12,1,12,1,3,0,4,17,127,11
12,1,19,1,3,0,4,17,93,11
1,1,17,1,3,0,1,17,4,11
1,1,12,1,5,1,1,17,79,11
1,1,20,1,1,0,1,17,79,11
2,1,5,0,0,0,1,17,4,11
3,2,10,1,2,0,1,17,4,11
3,2,20,1,3,0,1,17,79,11
3,2,11,1,3,0,1,17,93,11
3,2,14,1,4,0,1,17,4,11
3,2,21,0,2,0,1,17,4,11
3,2,16,1,4,0,1,17,21,11
3,2,11,1,3,0,1,17,21,11
3,2,14,1,4,0,1,17,87,11
3,2,19,1,1,0,1,17,4,11
3,2,18,1,2,0,1,17,4,11
3,2,22,0,3,0,1,17,4,11
3,2,1,0,5,1,1,17,14,11
3,2,12,1,6,1,1,17,93,11
3,2,20,1,0,0,1,17,4,11
3,2,21,0,0,0,1,17,4,11
3,2,15,1,3,0,1,17,93,11
3,2,12,1,4,0,1,17,93,11
4,2,14,1,5,1,2,17,93,11
4,2,12,1,0,0,2,17,67,11
4,2,9,1,0,0,2,17,93,11
4,2,0,0,0,0,2,17,47,9
4,2,13,1,3,0,2,17,93,11
4,2,12,1,6,1,2,17,93,11
4,2,23,0,0,0,2,17,87,11
4,2,16,1,1,0,2,17,4,11
4,2,17,1,1,0,2,17,4,11
4,2,13,1,3,0,2,17,90,11
4,2,13,1,2,0,2,17,93,11
4,2,11,1,3,0,2,17,67,11
4,2,8,1,4,0,2,17,21,11
4,2,11,1,6,1,2,17,93,11
5,2,4,0,1,0,2,17,127,11
5,2,15,1,2,0,2,17,90,11
5,2,18,1,6,1,2,17,21,11
5,2,21,0,0,0,2,17,93,11
5,2,7,1,1,0,2,17,21,9
6,3,19,1,3,0,2,17,90,11
6,3,16,1,1,0,2,17,93,11
6,3,9,1,0,0,2,17,79,9
6,3,22,0,1,0,2,17,67,11
6,3,13,1,4,0,2,17,103,11
6,3,20,1,4,0,2,17,79,11
6,3,16,1,4,0,2,17,112,11
7,3,16,1,3,0,3,17,93,11
7,3,1,0,5,1,3,17,93,11
7,3,13,1,6,1,3,17,93,11
7,3,19,1,3,0,3,17,112,11
7,3,23,0,3,0,3,17,103,11
7,3,9,1,4,0,3,17,103,11
7,3,1,0,5,1,3,17,21,11
7,3,19,1,5,1,3,17,15,11
7,3,17,1,2,0,3,17,103,11
7,3,20,1,5,1,3,17,93,11
7,3,10,1,6,1,3,17,93,11
8,3,2,0,1,0,3,17,127,11
8,3,20,1,2,0,3,17,67,11
8,3,7,1,4,0,3,17,1,11
8,3,3,0,0,0,3,17,1,11
8,3,20,1,0,0,3,17,21,11
8,3,18,1,2,0,3,17,103,11
8,3,11,1,4,0,3,17,103,11
8,3,0,0,5,1,3,17,87,11
8,3,16,1,2,0,3,17,79,11
8,3,12,1,6,1,3,17,103,11
8,3,11,1,0,0,3,17,58,11
8,3,20,1,2,0,3,17,1,11
9,4,19,1,5,1,3,17,103,11
9,4,17,1,3,0,3,17,1,11
9,4,18,1,5,1,3,17,103,11
9,4,2,0,1,0,3,17,127,11
9,4,20,1,5,1,3,17,103,11
9,4,8,1,0,0,3,17,21,11
10,4,17,1,2,0,4,17,67,11
10,4,12,1,6,1,4,17,93,11
10,4,16,1,3,0,4,17,21,11
10,4,11,1,6,1,4,17,4,11
10,4,13,1,0,0,4,17,1,9
11,4,20,1,2,0,4,17,103,11
11,4,16,1,2,0,4,17,103,11
11,4,18,1,4,0,4,17,127,11
11,4,16,1,4,0,4,17,93,11
11,4,21,0,4,0,4,17,93,11
11,4,15,1,6,1,4,17,93,11
11,4,17,1,1,0,4,17,112,11
11,4,11,1,2,0,4,17,4,11
11,4,6,0,0,0,4,17,21,11
11,4,18,1,0,0,4,17,103,11
12,1,19,1,4,0,4,17,103,11
12,1,16,1,0,0,4,17,4,11
12,1,15,1,1,0,4,17,67,11
12,1,11,1,3,0,4,17,4,11
12,1,15,1,6,1,4,17,67,11
12,1,16,1,3,0,4,17,103,11
12,1,20,1,6,1,4,17,67,11
1,1,0,0,1,0,1,17,127,11
1,1,14,1,3,0,1,17,21,11
1,1,17,1,1,0,1,17,1,11
2,1,17,1,1,0,1,17,127,11
2,1,23,0,4,0,1,17,90,11
3,2,14,1,3,0,1,17,93,11
3,2,23,0,3,0,1,17,93,11
3,2,12,1,1,0,1,17,127,9
4,2,10,1,0,0,2,17,127,11
4,2,23,0,5,1,2,17,103,11
5,2,15,1,3,0,2,17,93,11
6,3,10,1,5,1,2,17,21,9
6,3,17,1,2,0,2,17,79,11
6,3,21,0,4,0,2,17,21,11
7,3,22,0,6,1,3,17,103,11
7,3,0,0,1,0,3,17,103,11
7,3,23,0,5,1,3,17,103,11
7,3,1,0,6,1,3,17,21,8
7,3,13,1,0,0,3,17,65,11
7,3,23,0,6,1,3,17,103,11
7,3,1,0,4,0,3,17,103,11
8,3,15,1,2,0,3,17,103,11
8,3,16,1,0,0,3,17,103,11
9,4,11,1,1,0,3,17,103,11
9,4,20,1,6,1,3,17,103,11
9,4,13,1,0,0,3,17,103,11
9,4,18,1,3,0,3,17,93,11
10,4,17,1,1,0,4,17,65,11
10,4,8,1,3,0,4,17,103,11
10,4,19,1,1,0,4,17,103,11
10,4,22,0,6,1,4,17,21,11
10,4,18,1,0,0,4,17,103,11
10,4,17,1,0,0,4,17,103,11
10,4,21,0,3,0,4,17,4,9
11,4,13,1,1,0,4,17,103,11
11,4,15,1,4,0,4,17,103,11
11,4,12,1,5,1,4,17,93,11
11,4,18,1,1,0,4,17,90,11
11,4,19,1,0,0,4,17,90,11
12,1,9,1,3,0,4,17,127,11
12,1,7,1,1,0,4,17,127,11
12,1,17,1,4,0,4,17,15,11
12,1,23,0,5,1,4,17,4,11
12,1,23,0,2,0,4,17,112,11
12,1,17,1,3,0,4,17,79,11
12,1,9,1,3,0,4,17,21,11
1,1,22,0,1,0,1,17,112,11
1,1,11,1,5,1,1,17,103,11
1,1,15,1,6,1,1,17,103,11
2,1,12,1,4,0,1,17,127,11
3,2,10,1,4,0,1,17,4,11
3,2,21,0,2,0,1,17,103,11
3,2,12,1,5,1,1,17,103,11
3,2,10,1,4,0,1,17,103,11
3,2,11,1,6,1,1,17,103,11
3,2,18,1,3,0,1,17,103,11
3,2,14,1,4,0,1,17,4,11
4,2,14,1,3,0,2,17,93,11
4,2,9,1,5,1,2,17,93,11
4,2,13,1,2,0,2,17,4,11
4,2,13,1,2,0,2,17,103,11
4,2,5,0,0,0,2,17,4,11
6,3,9,1,2,0,2,17,93,11
7,3,20,1,1,0,3,17,93,11
8,3,7,1,0,0,3,17,93,11
8,3,18,1,5,1,3,17,60,11
8,3,8,1,4,0,3,17,103,11
10,4,8,1,6,1,4,17,103,11
11,4,15,1,0,0,4,17,127,11
12,1,10,1,3,0,4,17,103,11
12,1,16,1,4,0,4,17,103,11
1,1,20,1,2,0,1,17,127,11
1,1,4,0,3,0,1,17,93,11
1,1,9,1,3,0,1,17,79,11
1,1,11,1,3,0,1,17,93,11
1,1,17,1,3,0,1,17,15,11
1,1,16,1,4,0,1,17,79,11
1,1,17,1,1,0,1,17,90,11
1,1,20,1,3,0,1,17,79,11
1,1,17,1,0,0,1,17,127,11
1,1,17,1,2,0,1,17,93,11
1,1,16,1,6,1,1,17,79,11
1,1,10,1,1,0,1,17,59,11
1,1,13,1,1,0,1,17,79,11
1,1,20,1,4,0,1,17,127,11
1,1,4,0,5,1,1,17,79,11
1,1,2,0,6,1,1,17,87,9
1,1,23,0,1,0,1,17,117,11
2,1,17,1,6,1,1,17,127,11
2,1,6,0,0,0,1,17,97,11
2,1,10,1,2,0,1,17,38,11
2,1,18,1,5,1,1,17,15,11
2,1,3,0,5,1,1,17,127,11
2,1,9,1,6,1,1,17,90,11
2,1,8,1,5,1,1,17,67,11
2,1,0,0,0,0,1,17,103,11
2,1,20,1,4,0,1,17,90,11
2,1,11,1,6,1,1,17,127,11
2,1,15,1,1,0,1,17,32,11
3,2,18,1,3,0,1,17,93,11
3,2,0,0,0,0,1,17,93,11
3,2,18,1,1,0,1,17,93,11
3,2,8,1,1,0,1,17,93,11
3,2,18,1,2,0,1,17,90,11
3,2,11,1,3,0,1,17,90,11
3,2,18,1,4,0,1,17,28,11
3,2,9,1,5,1,1,17,4,11
3,2,3,0,5,1,1,17,90,11
3,2,2,0,6,1,1,17,127,8
3,2,13,1,2,0,1,17,90,11
3,2,21,0,0,0,1,17,67,11
3,2,7,1,3,0,1,17,4,11
3,2,22,0,4,0,1,17,67,11
3,2,12,1,4,0,1,17,58,11
3,2,7,1,4,0,1,17,21,11
3,2,20,1,5,1,1,17,21,11
3,2,14,1,6,1,1,17,103,11
3,2,20,1,0,0,1,17,67,11
3,2,2,0,1,0,1,17,93,11
3,2,22,0,1,0,1,17,93,11
3,2,15,1,1,0,1,17,93,11
3,2,8,1,1,0,1,17,93,11
3,2,21,0,2,0,1,17,127,11
3,2,13,1,2,0,1,17,109,11
3,2,13,1,3,0,1,17,90,11
3,2,18,1,3,0,1,17,84,11
3,2,20,1,4,0,1,17,93,11
4,2,23,0,5,1,2,17,98,11
4,2,14,1,0,0,2,17,90,11
4,2,16,1,0,0,2,17,90,11
4,2,20,1,1,0,2,17,67,11
4,2,14,1,1,0,2,17,79,11
4,2,4,0,5,1,2,17,93,11
4,2,2,0,5,1,2,17,90,11
4,2,18,1,6,1,2,17,93,11
4,2,10,1,6,1,2,17,93,11
4,2,21,0,2,0,2,17,38,11
4,2,16,1,4,0,2,17,93,11
4,2,18,1,4,0,2,17,93,11
4,2,19,1,5,1,2,17,93,11
4,2,23,0,5,1,2,17,21,11
4,2,1,0,5,1,2,17,90,11
4,2,22,0,6,1,2,17,101,11
4,2,17,1,6,1,2,17,15,11
4,2,7,1,6,1,2,17,101,11
4,2,18,1,0,0,2,17,4,11
4,2,11,1,0,0,2,17,38,11
4,2,20,1,0,0,2,17,21,11
4,2,19,1,1,0,2,17,79,11
4,2,15,1,1,0,2,17,93,11
4,2,16,1,3,0,2,17,4,11
4,2,19,1,4,0,2,17,32,11
4,2,10,1,4,0,2,17,93,11
4,2,6,0,6,1,2,17,90,11
4,2,15,1,0,0,2,17,67,11
4,2,23,0,1,0,2,17,38,11
4,2,13,1,3,0,2,17,93,11
4,2,10,1,4,0,2,17,21,11
5,2,21,0,0,0,2,17,59,11
5,2,22,0,0,0,2,17,90,11
5,2,15,1,0,0,2,17,38,11
5,2,22,0,1,0,2,17,93,11
5,2,18,1,2,0,2,17,10,11
5,2,20,1,5,1,2,17,67,11
5,2,7,1,5,1,2,17,67,11
5,2,6,0,5,1,2,17,38,8
5,2,21,0,0,0,2,17,103,11
5,2,21,0,1,0,2,17,15,11
5,2,9,1,1,0,2,17,66,11
5,2,15,1,1,0,2,17,28,11
5,2,10,1,5,1,2,17,93,8
5,2,7,1,6,1,2,17,67,11
5,2,18,1,2,0,2,17,93,11
5,2,12,1,3,0,2,17,79,11
5,2,15,1,4,0,2,17,90,11
5,2,22,0,4,0,2,17,60,9
5,2,10,1,4,0,2,17,14,11
5,2,7,1,5,1,2,17,21,11
5,2,17,1,2,0,2,17,103,11
5,2,16,1,2,0,2,17,127,11
6,3,17,1,4,0,2,17,67,11
6,3,17,1,4,0,2,17,112,11
6,3,1,0,6,1,2,17,1,11
6,3,20,1,0,0,2,17,79,11
6,3,0,0,3,0,2,17,21,11
6,3,11,1,3,0,2,17,21,11
6,3,9,1,6,1,2,17,1,11
6,3,2,0,1,0,2,17,98,11
6,3,15,1,1,0,2,17,93,11
6,3,8,1,6,1,2,17,97,11
6,3,19,1,0,0,2,17,79,11
6,3,10,1,1,0,2,17,76,11
6,3,20,1,4,0,2,17,1,11
6,3,15,1,0,0,2,17,103,11
7,3,1,0,0,0,3,17,98,11
7,3,10,1,1,0,3,17,109,11
7,3,15,1,3,0,3,17,67,11
7,3,2,0,0,0,3,17,76,9
7,3,12,1,0,0,3,17,127,11
7,3,22,0,2,0,3,17,58,11
7,3,20,1,2,0,3,17,93,11
7,3,22,0,5,1,3,17,103,11
7,3,16,1,5,1,3,17,90,8
7,3,11,1,5,1,3,17,93,11
7,3,2,0,0,0,3,17,127,11
7,3,19,1,1,0,3,17,1,11
7,3,20,1,2,0,3,17,1,11
7,3,3,0,5,1,3,17,1,11
7,3,16,1,6,1,3,17,79,8
7,3,18,1,2,0,3,17,21,11
7,3,18,1,6,1,3,17,67,11
7,3,9,1,6,1,3,17,93,11
8,3,17,1,2,0,3,17,93,11
8,3,14,1,2,0,3,17,103,11
8,3,19,1,3,0,3,17,1,11
8,3,3,0,3,0,3,17,93,11
8,3,10,1,5,1,3,17,21,11
8,3,22,0,0,0,3,17,90,11
8,3,0,0,1,0,3,17,32,11
8,3,3,0,2,0,3,17,127,11
8,3,4,0,2,0,3,17,127,11
8,3,6,0,2,0,3,17,91,11
8,3,13,1,3,0,3,17,1,11
8,3,13,1,5,1,3,17,103,11
8,3,10,1,1,0,3,17,48,11
8,3,0,0,2,0,3,17,90,11
8,3,4,0,2,0,3,17,48,11
8,3,16,1,3,0,3,17,1,11
8,3,16,1,4,0,3,17,80,11
8,3,6,0,5,1,3,17,90,11
8,3,0,0,5,1,3,17,127,11
8,3,16,1,6,1,3,17,90,11
8,3,16,1,0,0,3,17,90,11
8,3,9,1,3,0,3,17,67,11
8,3,11,1,3,0,3,17,67,11
8,3,18,1,3,0,3,17,127,11
8,3,3,0,3,0,3,17,93,11
8,3,9,1,0,0,3,17,90,11
8,3,8,1,2,0,3,17,90,11
8,3,15,1,2,0,3,17,93,11
8,3,18,1,3,0,3,17,127,11
8,3,23,0,3,0,3,17,38,11
8,3,19,1,3,0,3,17,48,11
9,4,7,1,5,1,3,17,67,11
9,4,23,0,5,1,3,17,67,11
9,4,16,1,0,0,3,17,93,11
9,4,11,1,1,0,3,17,21,11
9,4,21,0,2,0,3,17,1,11
9,4,15,1,2,0,3,17,1,11
9,4,14,1,4,0,3,17,1,11
9,4,20,1,5,1,3,17,93,11
9,4,15,1,5,1,3,17,93,11
9,4,23,0,5,1,3,17,127,11
9,4,5,0,6,1,3,17,103,11
9,4,20,1,6,1,3,17,1,11
9,4,20,1,2,0,3,17,103,11
9,4,15,1,4,0,3,17,103,11
9,4,11,1,5,1,3,17,93,11
9,4,19,1,6,1,3,17,67,11
9,4,12,1,2,0,3,17,1,11
9,4,13,1,3,0,3,17,21,11
9,4,14,1,3,0,3,17,93,11
9,4,18,1,4,0,3,17,90,11
9,4,18,1,5,1,3,17,1,11
9,4,18,1,0,0,3,17,93,11
9,4,8,1,1,0,3,17,67,8
9,4,19,1,2,0,3,17,124,11
9,4,16,1,4,0,3,17,1,11
9,4,10,1,4,0,3,17,1,11
10,4,17,1,6,1,4,17,1,11
10,4,0,0,0,0,4,17,124,11
10,4,7,1,0,0,4,17,67,11
10,4,1,0,1,0,4,17,127,11
10,4,23,0,2,0,4,17,1,11
10,4,14,1,2,0,4,17,93,11
10,4,16,1,3,0,4,17,90,11
10,4,7,1,3,0,4,17,10,11
10,4,2,0,4,0,4,17,127,11
10,4,9,1,5,1,4,17,93,11
10,4,20,1,5,1,4,17,127,11
10,4,17,1,1,0,4,17,109,11
10,4,16,1,1,0,4,17,93,11
10,4,11,1,1,0,4,17,93,11
10,4,9,1,5,1,4,17,14,8
10,4,20,1,5,1,4,17,38,11
10,4,22,0,0,0,4,17,127,11
10,4,11,1,0,0,4,17,103,11
10,4,23,0,0,0,4,17,15,11
10,4,4,0,3,0,4,17,21,11
10,4,19,1,3,0,4,17,93,11
10,4,17,1,3,0,4,17,93,11
10,4,19,1,3,0,4,17,127,11
10,4,6,0,6,1,4,17,80,11
10,4,12,1,6,1,4,17,127,11
10,4,17,1,0,0,4,17,103,11
10,4,8,1,0,0,4,17,15,8
10,4,13,1,0,0,4,17,93,11
10,4,13,1,1,0,4,17,112,11
10,4,16,1,2,0,4,17,90,11
10,4,14,1,2,0,4,17,93,11
10,4,19,1,2,0,4,17,90,11
10,4,13,1,2,0,4,17,90,11
10,4,21,0,3,0,4,17,127,11
10,4,15,1,4,0,4,17,127,11
10,4,8,1,5,1,4,17,93,11
10,4,16,1,5,1,4,17,67,11
10,4,15,1,1,0,4,17,21,9
10,4,9,1,1,0,4,17,67,11
11,4,12,1,2,0,4,17,93,11
11,4,9,1,2,0,4,17,127,11
11,4,2,0,3,0,4,17,127,11
11,4,14,1,4,0,4,17,90,11
11,4,16,1,4,0,4,17,90,11
11,4,21,0,4,0,4,17,93,11
11,4,10,1,0,0,4,17,90,11
11,4,13,1,1,0,4,17,28,11
11,4,20,1,2,0,4,17,93,11
11,4,17,1,2,0,4,17,103,11
11,4,20,1,2,0,4,17,93,11
11,4,22,0,3,0,4,17,93,11
11,4,10,1,3,0,4,17,67,11
11,4,10,1,4,0,4,17,93,11
11,4,20,1,5,1,4,17,103,11
11,4,17,1,6,1,4,17,93,11
11,4,9,1,6,1,4,17,93,11
11,4,23,0,1,0,4,17,93,11
11,4,1,0,2,0,4,17,2,11
11,4,14,1,2,0,4,17,4,11
11,4,10,1,3,0,4,17,109,11
11,4,10,1,5,1,4,17,93,11
11,4,20,1,5,1,4,17,103,11
11,4,20,1,0,0,4,17,67,11
11,4,18,1,1,0,4,17,4,11
11,4,12,1,1,0,4,17,67,11
12,1,13,1,4,0,4,17,103,11
12,1,12,1,4,0,4,17,127,11
12,1,15,1,6,1,4,17,4,11
12,1,18,1,0,0,4,17,4,11
12,1,19,1,3,0,4,17,67,11
12,1,17,1,3,0,4,17,93,11
12,1,1,0,4,0,4,17,90,8
12,1,17,1,5,1,4,17,76,11
12,1,22,0,5,1,4,17,79,11
12,1,3,0,6,1,4,17,127,11
12,1,18,1,6,1,4,17,15,8
12,1,17,1,6,1,4,17,103,11
12,1,2,0,1,0,4,17,90,11
12,1,15,1,2,0,4,17,93,11
12,1,10,1,3,0,4,17,127,11
12,1,19,1,5,1,4,17,4,11
12,1,14,1,6,1,4,17,93,11
12,1,8,1,0,0,4,17,90,11
12,1,14,1,2,0,4,17,38,11
12,1,20,1,4,0,4,17,90,11
12,1,11,1,6,1,4,17,127,11
12,1,1,0,0,0,4,17,90,11
12,1,17,1,0,0,4,17,103,11
12,1,19,1,0,0,4,17,127,11
12,1,23,0,1,0,4,17,21,11
12,1,18,1,1,0,4,17,93,11
12,1,0,0,1,0,4,17,127,11
12,1,1,0,1,0,4,17,127,11
12,1,20,1,2,0,4,17,67,11
12,1,17,1,3,0,4,17,127,11
12,1,19,1,6,1,4,17,67,11
1,1,21,0,6,1,1,17,103,11
1,1,11,1,5,1,1,17,93,11
1,1,20,1,6,1,1,17,103,11
1,1,15,1,0,0,1,17,127,11
1,1,14,1,1,0,1,17,126,11
1,1,17,1,1,0,1,17,21,11
1,1,13,1,5,1,1,17,127,11
1,1,20,1,1,0,1,17,103,11
2,1,20,1,6,1,1,17,127,11
2,1,13,1,3,0,1,17,93,11
2,1,11,1,1,0,1,17,93,11
3,2,19,1,0,0,1,17,46,9
3,2,18,1,6,1,1,17,93,11
3,2,19,1,1,0,1,17,93,11
3,2,21,0,0,0,1,17,93,11
3,2,22,0,0,0,1,17,93,11
3,2,17,1,4,0,1,17,93,11
4,2,19,1,0,0,2,17,126,11
4,2,19,1,3,0,2,17,127,11
4,2,14,1,4,0,2,17,93,11
4,2,0,0,6,1,2,17,101,11
4,2,21,0,1,0,2,17,93,11
4,2,19,1,6,1,2,17,93,11
4,2,21,0,0,0,2,17,103,11
4,2,22,0,1,0,2,17,93,11
4,2,22,0,2,0,2,17,93,11
4,2,18,1,5,1,2,17,103,11
5,2,0,0,0,0,2,17,21,11
5,2,10,1,2,0,2,17,93,11
5,2,20,1,3,0,2,17,103,11
5,2,8,1,4,0,2,17,21,11
5,2,22,0,2,0,2,17,93,11
6,3,10,1,1,0,2,17,93,11
6,3,21,0,4,0,2,17,93,11
6,3,14,1,6,1,2,17,127,11
6,3,14,1,2,0,2,17,93,11
6,3,23,0,2,0,2,17,93,11
6,3,23,0,4,0,2,17,93,11
6,3,13,1,1,0,2,17,93,11
6,3,15,1,1,0,2,17,93,11
6,3,17,1,4,0,2,17,103,11
6,3,22,0,5,1,2,17,93,11
6,3,15,1,1,0,2,17,93,11
6,3,10,1,2,0,2,17,93,11
6,3,21,0,2,0,2,17,93,11
6,3,10,1,4,0,2,17,93,11
7,3,19,1,6,1,3,17,93,11
7,3,21,0,6,1,3,17,93,11
7,3,23,0,1,0,3,17,103,11
7,3,0,0,2,0,3,17,103,11
7,3,15,1,2,0,3,17,93,11
7,3,21,0,4,0,3,17,93,11
7,3,15,1,0,0,3,17,93,9
7,3,12,1,2,0,3,17,93,11
7,3,1,0,4,0,3,17,119,9
7,3,15,1,0,0,3,17,93,11
8,3,13,1,4,0,3,17,93,11
8,3,23,0,6,1,3,17,93,11
8,3,20,1,1,0,3,17,93,11
8,3,11,1,3,0,3,17,93,11
9,4,14,1,0,0,3,17,93,11
9,4,10,1,1,0,3,17,93,11
9,4,21,0,6,1,3,17,93,11
9,4,20,1,1,0,3,17,93,11
9,4,14,1,2,0,3,17,93,11
9,4,23,0,3,0,3,17,93,11
10,4,9,1,4,0,4,17,93,11
10,4,21,0,4,0,4,17,93,11
10,4,19,1,5,1,4,17,79,11
10,4,2,0,6,1,4,17,93,11
10,4,10,1,0,0,4,17,93,11
10,4,13,1,3,0,4,17,93,11
10,4,15,1,3,0,4,17,93,11
10,4,17,1,3,0,4,17,93,11
10,4,1,0,4,0,4,17,21,11
10,4,10,1,4,0,4,17,93,11
10,4,18,1,0,0,4,17,93,11
11,4,11,1,0,0,4,17,93,11
11,4,18,1,0,0,4,17,28,11
11,4,18,1,5,1,4,17,93,11
12,1,10,1,1,0,4,17,93,11
12,1,8,1,6,1,4,17,24,11
12,1,9,1,0,0,4,17,93,11
12,1,9,1,2,0,4,17,93,11
1,1,14,1,0,0,1,50,127,11
1,1,14,1,1,0,1,50,21,11
1,1,14,1,2,0,1,50,27,11
1,1,21,0,3,0,1,50,127,11
2,1,19,1,5,1,1,50,79,11
2,1,16,1,2,0,1,50,21,11
4,2,22,0,2,0,2,50,21,9
4,2,0,0,4,0,2,50,93,11
5,2,3,0,2,0,2,50,21,11
5,2,2,0,6,1,2,50,93,11
5,2,14,1,2,0,2,50,41,11
5,2,20,1,2,0,2,50,127,11
5,2,16,1,6,1,2,50,103,11
6,3,20,1,5,1,2,50,76,11
6,3,20,1,0,0,2,50,93,11
6,3,12,1,4,0,2,50,79,11
7,3,17,1,1,0,3,50,48,11
8,3,4,0,0,0,3,50,98,11
8,3,17,1,2,0,3,50,38,11
8,3,12,1,2,0,3,50,93,11
9,4,12,1,0,0,3,50,93,11
9,4,18,1,1,0,3,50,103,11
9,4,20,1,6,1,3,50,103,11
9,4,13,1,0,0,3,50,103,11
10,4,13,1,6,1,4,50,28,11
10,4,14,1,0,0,4,50,127,11
10,4,12,1,1,0,4,50,93,11
11,4,12,1,4,0,4,50,103,11
12,1,13,1,0,0,4,50,4,11
12,1,17,1,0,0,4,50,127,11
12,1,2,0,6,1,4,50,93,11
12,1,23,0,1,0,4,50,21,9
1,1,19,1,1,0,1,50,93,11
1,1,13,1,2,0,1,50,93,11
1,1,6,0,1,0,1,50,98,11
1,1,13,1,2,0,1,50,90,11
1,1,11,1,0,0,1,50,127,11
1,1,4,0,2,0,1,50,67,11
1,1,14,1,2,0,1,50,79,11
1,1,0,0,4,0,1,50,21,11
1,1,19,1,4,0,1,50,103,11
1,1,2,0,6,1,1,50,65,11
1,1,20,1,6,1,1,50,93,11
1,1,12,1,0,0,1,50,93,11
1,1,12,1,3,0,1,50,103,11
1,1,17,1,0,0,1,50,90,11
2,1,7,1,3,0,1,50,90,11
2,1,21,0,3,0,1,50,10,11
2,1,5,0,1,0,1,50,67,11
2,1,15,1,2,0,1,50,67,9
2,1,9,1,6,1,1,50,103,11
2,1,19,1,0,0,1,50,90,11
2,1,13,1,6,1,1,50,98,11
2,1,10,1,0,0,1,50,67,11
2,1,19,1,1,0,1,50,93,11
2,1,11,1,2,0,1,50,67,11
2,1,19,1,1,0,1,50,103,11
3,2,15,1,1,0,1,50,93,11
3,2,23,0,2,0,1,50,103,11
3,2,8,1,3,0,1,50,93,11
3,2,19,1,1,0,1,50,93,11
3,2,18,1,4,0,1,50,93,11
4,2,1,0,5,1,2,50,79,11
4,2,19,1,5,1,2,50,93,11
4,2,16,1,2,0,2,50,21,9
4,2,9,1,4,0,2,50,21,11
4,2,15,1,6,1,2,50,67,11
4,2,17,1,6,1,2,50,67,11
4,2,17,1,1,0,2,50,67,11
4,2,16,1,1,0,2,50,48,11
4,2,1,0,2,0,2,50,103,11
4,2,1,0,2,0,2,50,101,11
4,2,15,1,2,0,2,50,93,11
4,2,20,1,4,0,2,50,93,11
4,2,23,0,6,1,2,50,127,11
4,2,4,0,6,1,2,50,127,11
4,2,11,1,0,0,2,50,93,9
4,2,15,1,4,0,2,50,79,9
5,2,12,1,0,0,2,50,93,11
5,2,14,1,3,0,2,50,98,11
5,2,0,0,1,0,2,50,10,9
5,2,15,1,1,0,2,50,21,11
5,2,15,1,5,1,2,50,103,11
5,2,14,1,1,0,2,50,103,11
5,2,0,0,5,1,2,50,101,11
5,2,21,0,0,0,2,50,79,11
5,2,12,1,3,0,2,50,21,11
6,3,23,0,4,0,2,50,21,11
6,3,17,1,3,0,2,50,93,9
6,3,19,1,0,0,2,50,93,9
6,3,12,1,0,0,2,50,19,9
6,3,23,0,4,0,2,50,38,11
6,3,16,1,6,1,2,50,93,11
6,3,17,1,1,0,2,50,93,9
7,3,22,0,3,0,3,50,93,11
7,3,22,0,1,0,3,50,103,11
7,3,11,1,2,0,3,50,90,11
7,3,21,0,2,0,3,50,93,11
7,3,6,0,3,0,3,50,93,11
7,3,13,1,4,0,3,50,93,9
7,3,21,0,5,1,3,50,93,11
7,3,17,1,1,0,3,50,112,11
7,3,10,1,6,1,3,50,112,11
7,3,13,1,0,0,3,50,21,11
7,3,22,0,2,0,3,50,112,11
7,3,22,0,2,0,3,50,112,11
7,3,18,1,4,0,3,50,21,9
7,3,4,0,0,0,3,50,21,11
7,3,6,0,0,0,3,50,103,11
7,3,17,1,0,0,3,50,93,11
8,3,17,1,1,0,3,50,103,11
8,3,17,1,2,0,3,50,48,9
8,3,17,1,6,1,3,50,38,11
8,3,16,1,6,1,3,50,90,11
8,3,15,1,5,1,3,50,93,11
8,3,6,0,1,0,3,50,98,11
9,4,21,0,0,0,3,50,126,11
9,4,3,0,1,0,3,50,21,11
9,4,17,1,6,1,3,50,90,11
9,4,9,1,0,0,3,50,112,11
9,4,21,0,2,0,3,50,21,11
9,4,11,1,2,0,3,50,93,11
9,4,20,1,3,0,3,50,21,11
9,4,10,1,3,0,3,50,67,11
10,4,23,0,1,0,4,50,127,8
10,4,23,0,4,0,4,50,10,9
10,4,13,1,5,1,4,50,10,11
10,4,16,1,6,1,4,50,67,11
10,4,21,0,6,1,4,50,67,11
10,4,5,0,3,0,4,50,21,11
10,4,18,1,3,0,4,50,98,11
10,4,14,1,5,1,4,50,93,11
11,4,23,0,6,1,4,50,21,11
11,4,18,1,6,1,4,50,93,11
11,4,9,1,0,0,4,50,48,9
11,4,11,1,1,0,4,50,93,11
11,4,18,1,2,0,4,50,21,9
11,4,15,1,4,0,4,50,38,9
11,4,21,0,0,0,4,50,87,11
11,4,8,1,3,0,4,50,93,9
12,1,10,1,6,1,4,50,93,11
12,1,12,1,6,1,4,50,93,9
12,1,19,1,6,1,4,50,98,11
12,1,18,1,0,0,4,50,93,11
12,1,11,1,6,1,4,50,103,11
12,1,8,1,2,0,4,50,98,11
12,1,4,0,5,1,4,50,69,11
12,1,6,0,6,1,4,50,21,9
12,1,16,1,6,1,4,50,67,11
12,1,19,1,1,0,4,50,10,11
12,1,12,1,3,0,4,50,93,11
1,1,16,1,3,0,1,50,103,8
1,1,18,1,6,1,1,50,103,11
1,1,10,1,2,0,1,50,79,9
1,1,18,1,6,1,1,50,93,11
2,1,12,1,6,1,1,50,93,11
2,1,10,1,5,1,1,50,103,11
3,2,10,1,4,0,1,50,93,11
4,2,13,1,4,0,2,50,93,11
4,2,19,1,0,0,2,50,103,11
4,2,19,1,0,0,2,50,103,11
4,2,0,0,6,1,2,50,93,11
4,2,13,1,6,1,2,50,90,9
5,2,16,1,2,0,2,50,125,11
6,3,17,1,2,0,2,50,93,11
6,3,14,1,5,1,2,50,112,11
7,3,22,0,5,1,3,50,103,11
7,3,0,0,6,1,3,50,93,11
7,3,22,0,1,0,3,50,21,9
8,3,18,1,2,0,3,50,93,11
10,4,17,1,4,0,4,50,93,11
10,4,10,1,5,1,4,50,93,11
11,4,2,0,4,0,4,50,90,9
12,1,16,1,4,0,4,50,93,11
12,1,17,1,4,0,4,50,15,9
12,1,12,1,1,0,4,50,79,11
12,1,12,1,3,0,4,50,111,11
1,1,11,1,6,1,1,50,79,11
2,1,12,1,4,0,1,50,103,11
2,1,23,0,5,1,1,50,67,11
2,1,20,1,6,1,1,50,93,11
3,2,18,1,5,1,1,50,93,11
5,2,15,1,0,0,2,50,93,11
5,2,14,1,3,0,2,50,109,9
6,3,16,1,0,0,2,50,93,11
6,3,7,1,4,0,2,50,93,11
7,3,19,1,2,0,3,50,93,11
7,3,11,1,6,1,3,50,103,11
7,3,11,1,2,0,3,50,103,11
8,3,9,1,2,0,3,50,90,9
10,4,12,1,6,1,4,50,93,11
12,1,19,1,6,1,4,50,93,11
12,1,23,0,5,1,4,50,15,9
1,1,16,1,6,1,1,41,38,9
1,1,15,1,3,0,1,41,93,11
2,1,3,0,2,0,1,41,24,8
2,1,17,1,3,0,1,41,93,11
2,1,9,1,6,1,1,41,93,11
2,1,14,1,3,0,1,41,93,11
2,1,18,1,5,1,1,41,67,11
2,1,13,1,6,1,1,41,107,11
2,1,19,1,6,1,1,41,87,11
2,1,18,1,0,0,1,41,57,8
3,2,14,1,5,1,1,41,93,11
3,2,12,1,1,0,1,41,67,11
3,2,18,1,2,0,1,41,93,11
3,2,18,1,3,0,1,41,79,11
3,2,20,1,0,0,1,41,127,11
3,2,17,1,3,0,1,41,21,11
3,2,7,1,4,0,1,41,93,11
4,2,6,0,4,0,2,41,16,11
4,2,16,1,6,1,2,41,21,11
4,2,9,1,3,0,2,41,127,11
4,2,23,0,4,0,2,41,93,11
4,2,22,0,4,0,2,41,90,11
4,2,14,1,6,1,2,41,127,11
4,2,11,1,0,0,2,41,93,11
4,2,2,0,2,0,2,41,79,11
4,2,17,1,2,0,2,41,76,11
5,2,16,1,0,0,2,41,66,11
5,2,10,1,0,0,2,41,21,11
5,2,11,1,0,0,2,41,103,11
5,2,20,1,5,1,2,41,79,11
5,2,2,0,1,0,2,41,48,11
6,3,14,1,4,0,2,41,67,11
7,3,20,1,1,0,3,41,76,11
7,3,4,0,2,0,3,41,93,11
7,3,9,1,5,1,3,41,90,11
7,3,15,1,5,1,3,41,79,11
8,3,12,1,1,0,3,41,103,11
8,3,17,1,1,0,3,41,21,11
8,3,10,1,3,0,3,41,42,11
8,3,12,1,3,0,3,41,21,11
8,3,15,1,0,0,3,41,67,11
8,3,21,0,0,0,3,41,80,11
8,3,14,1,1,0,3,41,21,11
8,3,23,0,1,0,3,41,21,11
9,4,17,1,0,0,3,41,93,11
9,4,4,0,2,0,3,41,112,11
9,4,5,0,2,0,3,41,112,11
9,4,19,1,4,0,3,41,48,11
9,4,11,1,5,1,3,41,67,11
9,4,2,0,0,0,3,41,127,11
9,4,12,1,1,0,3,41,93,11
9,4,23,0,6,1,3,41,101,11
9,4,11,1,2,0,3,41,93,11
9,4,12,1,5,1,3,41,93,11
10,4,0,0,6,1,4,41,67,11
10,4,8,1,1,0,4,41,21,11
10,4,19,1,4,0,4,41,67,11
10,4,6,0,1,0,4,41,93,11
11,4,6,0,4,0,4,41,15,9
11,4,13,1,0,0,4,41,114,11
11,4,14,1,2,0,4,41,93,11
11,4,1,0,6,1,4,41,76,11
11,4,12,1,0,0,4,41,93,11
11,4,5,0,3,0,4,41,93,11
11,4,17,1,2,0,4,41,127,11
12,1,15,1,3,0,4,41,38,9
12,1,16,1,5,1,4,41,38,11
12,1,9,1,6,1,4,41,90,11
12,1,16,1,6,1,4,41,38,9
12,1,21,0,2,0,4,41,103,11
12,1,18,1,5,1,4,41,127,11
12,1,12,1,1,0,4,41,90,11
6,3,1,0,3,0,2,41,109,11
10,4,19,1,3,0,4,41,67,11
11,4,15,1,3,0,4,41,79,11
11,4,22,0,5,1,4,41,79,11
11,4,17,1,6,1,4,41,103,11
11,4,16,1,1,0,4,41,127,11
11,4,12,1,2,0,4,41,127,11
5,2,18,1,1,0,2,41,93,11
7,3,12,1,3,0,3,41,93,11
10,4,15,1,6,1,4,41,79,11
11,4,21,0,6,1,4,41,127,11
1,1,14,1,4,0,1,41,79,11
1,1,13,1,4,0,1,41,21,11
2,1,0,0,4,0,1,41,109,11
2,1,0,0,4,0,1,41,109,11
2,1,17,1,1,0,1,41,21,11
2,1,21,0,1,0,1,41,93,11
2,1,15,1,1,0,1,41,4,11
3,2,12,1,1,0,1,41,82,9
3,2,3,0,2,0,1,41,103,11
3,2,8,1,6,1,1,41,28,11
3,2,21,0,2,0,1,41,112,11
3,2,20,1,4,0,1,41,103,11
4,2,7,1,1,0,2,41,112,11
4,2,17,1,2,0,2,41,126,11
4,2,11,1,2,0,2,41,127,11
4,2,20,1,0,0,2,41,103,11
4,2,21,0,4,0,2,41,38,11
5,2,17,1,1,0,2,41,103,11
5,2,20,1,2,0,2,41,103,11
6,3,16,1,1,0,2,41,90,11
6,3,14,1,2,0,2,41,90,11
6,3,12,1,3,0,2,41,90,11
7,3,13,1,6,1,3,41,65,11
8,3,20,1,4,0,3,41,103,11
8,3,8,1,6,1,3,41,127,11
9,4,19,1,1,0,3,41,21,11
9,4,15,1,2,0,3,41,21,9
9,4,12,1,1,0,3,41,14,11
10,4,14,1,3,0,4,41,93,11
11,4,14,1,4,0,4,41,93,11
11,4,15,1,1,0,4,41,103,11
2,1,2,0,0,0,1,41,76,11
5,2,19,1,4,0,2,41,15,11
7,3,14,1,5,1,3,41,79,11
7,3,1,0,5,1,3,41,90,11
4,2,16,1,5,1,2,41,79,11
4,2,21,0,1,0,2,41,93,11
5,2,13,1,3,0,2,41,103,11
5,2,19,1,4,0,2,41,93,11
7,3,7,1,0,0,3,41,93,11
8,3,7,1,2,0,3,41,127,11
11,4,16,1,4,0,4,41,57,11
12,1,18,1,0,0,4,41,103,11
12,1,17,1,1,0,4,41,127,11
12,1,6,0,1,0,4,41,103,11
12,1,14,1,1,0,4,41,103,11
2,1,12,1,5,1,1,41,103,11
4,2,20,1,6,1,2,41,14,11
4,2,20,1,3,0,2,41,93,11
5,2,9,1,3,0,2,41,127,11
6,3,23,0,1,0,2,41,103,11
7,3,18,1,4,0,3,41,127,11
7,3,13,1,4,0,3,41,93,11
8,3,9,1,1,0,3,41,103,11
8,3,15,1,3,0,3,41,103,11
9,4,19,1,5,1,3,41,21,11
10,4,7,1,4,0,4,41,127,11
10,4,12,1,6,1,4,41,103,11
10,4,17,1,5,1,4,41,103,11
10,4,16,1,6,1,4,41,79,11
10,4,14,1,2,0,4,41,93,11
11,4,10,1,1,0,4,41,79,11
12,1,14,1,1,0,4,41,127,11
1,1,21,0,2,0,1,32,103,11
1,1,4,0,1,0,1,32,15,11
1,1,9,1,5,1,1,32,103,11
1,1,19,1,6,1,1,32,67,11
2,1,6,0,2,0,1,32,117,11
2,1,12,1,2,0,1,32,21,11
2,1,18,1,1,0,1,32,58,11
2,1,19,1,4,0,1,32,93,11
2,1,12,1,0,0,1,32,38,11
3,2,16,1,6,1,1,32,103,11
3,2,17,1,1,0,1,32,83,11
3,2,12,1,2,0,1,32,93,11
3,2,16,1,6,1,1,32,76,11
4,2,17,1,4,0,2,32,103,11
4,2,20,1,0,0,2,32,93,11
4,2,12,1,3,0,2,32,21,11
4,2,21,0,1,0,2,32,79,11
5,2,17,1,3,0,2,32,38,11
5,2,7,1,1,0,2,32,21,11
5,2,15,1,1,0,2,32,67,11
6,3,21,0,1,0,2,32,21,11
6,3,15,1,3,0,2,32,127,11
7,3,21,0,6,1,3,32,103,11
7,3,11,1,5,1,3,32,67,11
7,3,22,0,6,1,3,32,79,8
8,3,12,1,3,0,3,32,103,11
9,4,0,0,4,0,3,32,87,9
9,4,15,1,0,0,3,32,103,11
10,4,0,0,6,1,4,32,93,11
10,4,11,1,6,1,4,32,21,11
11,4,9,1,3,0,4,32,15,9
11,4,12,1,3,0,4,32,67,11
11,4,14,1,5,1,4,32,76,11
11,4,15,1,0,0,4,32,21,11
11,4,6,0,2,0,4,32,93,11
12,1,17,1,5,1,4,32,93,11
12,1,18,1,3,0,4,32,67,11
12,1,17,1,2,0,4,32,127,11
1,1,7,1,6,1,1,32,127,11
8,3,6,0,0,0,3,32,21,11
8,3,20,1,5,1,3,32,103,11
8,3,13,1,4,0,3,32,103,11
9,4,20,1,1,0,3,32,47,11
11,4,9,1,6,1,4,32,79,11
11,4,12,1,6,1,4,32,103,11
11,4,12,1,3,0,4,32,90,11
1,1,18,1,2,0,1,32,46,11
1,1,1,0,2,0,1,32,38,11
1,1,21,0,5,1,1,32,27,11
1,1,15,1,3,0,1,32,14,11
2,1,5,0,6,1,1,32,90,11
2,1,18,1,6,1,1,32,76,11
2,1,14,1,6,1,1,32,76,11
3,2,17,1,2,0,1,32,103,11
3,2,16,1,0,0,1,32,90,11
4,2,15,1,2,0,2,32,52,11
4,2,20,1,3,0,2,32,21,9
4,2,1,0,6,1,2,32,21,11
4,2,18,1,3,0,2,32,93,11
5,2,14,1,4,0,2,32,4,11
5,2,17,1,1,0,2,32,93,11
5,2,22,0,0,0,2,32,66,11
6,3,9,1,1,0,2,32,67,11
7,3,18,1,2,0,3,32,93,11
8,3,2,0,5,1,3,32,93,11
10,4,0,0,6,1,4,32,79,11
12,1,4,0,1,0,4,32,118,11
12,1,16,1,6,1,4,32,59,9
2,1,11,1,3,0,1,32,67,11
3,2,20,1,4,0,1,32,38,11
3,2,10,1,3,0,1,32,127,11
6,3,2,0,6,1,2,32,76,11
7,3,13,1,6,1,3,32,4,9
7,3,15,1,6,1,3,32,111,11
8,3,18,1,5,1,3,32,21,9
9,4,21,0,5,1,3,32,93,11
10,4,2,0,1,0,4,32,76,11
10,4,3,0,1,0,4,32,93,11
11,4,21,0,2,0,4,32,103,11
11,4,15,1,0,0,4,32,93,11
12,1,19,1,5,1,4,32,93,11
12,1,13,1,5,1,4,32,38,11
2,1,11,1,5,1,1,24,112,11
4,2,17,1,3,0,2,24,93,11
4,2,2,0,4,0,2,24,90,11
4,2,18,1,5,1,2,24,93,11
4,2,19,1,5,1,2,24,127,11
6,3,0,0,4,0,2,24,90,11
7,3,5,0,1,0,3,24,87,11
8,3,15,1,5,1,3,24,112,11
12,1,0,0,5,1,4,24,15,8
3,2,20,1,4,0,1,24,38,11
10,4,0,0,0,0,4,24,90,11
11,4,14,1,2,0,4,24,4,11
11,4,19,1,2,0,4,24,127,11
11,4,23,0,5,1,4,24,79,11
12,1,11,1,6,1,4,24,21,9
12,1,23,0,3,0,4,24,127,11
12,1,20,1,5,1,4,24,21,11
12,1,13,1,6,1,4,24,127,11
12,1,20,1,2,0,4,24,79,11
12,1,19,1,2,0,4,24,103,11
12,1,19,1,3,0,4,24,103,11
12,1,18,1,3,0,4,24,103,11
12,1,18,1,5,1,4,24,103,11
12,1,22,0,6,1,4,24,103,11
12,1,15,1,6,1,4,24,103,11
11,4,20,1,1,0,4,24,93,11
12,1,16,1,2,0,4,24,38,9
1,1,19,1,6,1,1,24,79,11
1,1,18,1,0,0,1,24,22,11
1,1,22,0,1,0,1,24,67,11
1,1,8,1,1,0,1,24,38,11
1,1,11,1,3,0,1,24,93,11
2,1,18,1,2,0,1,24,38,11
2,1,23,0,6,1,1,24,67,11
2,1,16,1,6,1,1,24,67,11
2,1,19,1,2,0,1,24,21,11
2,1,22,0,3,0,1,24,127,11
2,1,17,1,4,0,1,24,90,11
2,1,10,1,6,1,1,24,79,9
2,1,17,1,5,1,1,24,93,11
2,1,22,0,0,0,1,24,79,11
2,1,11,1,2,0,1,24,127,11
2,1,20,1,0,0,1,24,93,11
3,2,16,1,2,0,1,24,89,11
3,2,20,1,3,0,1,24,93,11
3,2,21,0,5,1,1,24,90,11
3,2,2,0,6,1,1,24,79,9
3,2,0,0,1,0,1,24,101,11
3,2,14,1,1,0,1,24,79,11
3,2,13,1,4,0,1,24,21,11
3,2,16,1,2,0,1,24,90,11
3,2,8,1,0,0,1,24,90,11
3,2,17,1,1,0,1,24,90,11
3,2,11,1,3,0,1,24,93,11
3,2,14,1,0,0,1,24,90,11
3,2,20,1,1,0,1,24,67,11
3,2,21,0,2,0,1,24,103,11
4,2,21,0,5,1,2,24,90,11
4,2,0,0,0,0,2,24,90,11
4,2,0,0,2,0,2,24,90,11
4,2,23,0,5,1,2,24,103,11
4,2,0,0,6,1,2,24,19,11
4,2,21,0,2,0,2,24,103,11
5,2,20,1,4,0,2,24,80,11
5,2,19,1,1,0,2,24,127,11
5,2,12,1,4,0,2,24,80,11
5,2,4,0,2,0,2,24,80,11
5,2,8,1,3,0,2,24,93,11
5,2,11,1,1,0,2,24,76,11
5,2,14,1,6,1,2,24,103,11
5,2,13,1,1,0,2,24,127,11
6,3,22,0,0,0,2,24,103,9
6,3,0,0,0,0,2,24,90,11
6,3,22,0,1,0,2,24,93,11
6,3,22,0,3,0,2,24,127,11
6,3,8,1,4,0,2,24,127,11
6,3,15,1,0,0,2,24,83,11
6,3,1,0,5,1,2,24,127,11
6,3,1,0,5,1,2,24,127,11
6,3,21,0,1,0,2,24,93,11
6,3,16,1,4,0,2,24,93,11
6,3,0,0,4,0,2,24,93,11
7,3,3,0,6,1,3,24,127,11
7,3,1,0,2,0,3,24,103,11
7,3,0,0,5,1,3,24,127,11
7,3,3,0,1,0,3,24,127,11
7,3,8,1,0,0,3,24,127,11
7,3,19,1,5,1,3,24,93,9
7,3,17,1,1,0,3,24,67,11
7,3,0,0,5,1,3,24,90,11
8,3,8,1,3,0,3,24,21,11
8,3,20,1,1,0,3,24,87,9
8,3,11,1,6,1,3,24,93,11
8,3,15,1,0,0,3,24,21,11
8,3,2,0,4,0,3,24,127,11
8,3,18,1,2,0,3,24,127,11
8,3,10,1,3,0,3,24,21,11
9,4,23,0,0,0,3,24,127,11
9,4,1,0,5,1,3,24,93,11
9,4,1,0,0,0,3,24,21,11
9,4,19,1,0,0,3,24,93,11
9,4,20,1,2,0,3,24,93,11
9,4,12,1,3,0,3,24,21,11
10,4,20,1,0,0,4,24,93,11
10,4,19,1,0,0,4,24,1,11
10,4,14,1,0,0,4,24,1,11
10,4,15,1,5,1,4,24,67,9
10,4,7,1,0,0,4,24,112,11
10,4,12,1,1,0,4,24,93,11
10,4,17,1,6,1,4,24,67,11
10,4,14,1,0,0,4,24,127,11
11,4,10,1,6,1,4,24,67,11
11,4,4,0,3,0,4,24,58,11
11,4,18,1,3,0,4,24,28,11
11,4,11,1,6,1,4,24,93,11
11,4,22,0,0,0,4,24,79,11
11,4,11,1,5,1,4,24,79,11
12,1,17,1,0,0,4,24,127,11
12,1,22,0,3,0,4,24,66,11
12,1,21,0,6,1,4,24,79,11
12,1,14,1,0,0,4,24,127,11
1,1,15,1,0,0,1,1,93,11
1,1,13,1,0,0,1,34,98,11
2,1,9,1,1,0,1,34,101,11
2,1,10,1,3,0,1,34,76,11
2,1,16,1,0,0,1,34,38,8
2,1,11,1,2,0,1,1,106,11
2,1,10,1,6,1,1,34,38,11
2,1,17,1,6,1,1,34,103,11
2,1,12,1,1,0,1,1,103,11
2,1,14,1,4,0,1,1,103,11
2,1,11,1,5,1,1,34,98,11
2,1,17,1,6,1,1,1,28,9
2,1,18,1,6,1,1,1,103,9
3,2,19,1,6,1,1,1,93,11
3,2,14,1,0,0,1,1,98,11
3,2,11,1,3,0,1,34,75,9
3,2,12,1,5,1,1,34,76,11
3,2,12,1,0,0,1,34,28,11
3,2,13,1,2,0,1,34,93,11
3,2,1,0,3,0,1,34,93,11
4,2,13,1,6,1,2,34,93,11
4,2,17,1,1,0,2,34,93,11
4,2,11,1,1,0,2,1,103,11
4,2,21,0,4,0,2,34,67,9
4,2,16,1,6,1,2,34,16,9
4,2,2,0,4,0,2,34,76,11
4,2,23,0,6,1,2,1,103,11
5,2,13,1,4,0,2,34,93,11
5,2,13,1,4,0,2,34,93,11
5,2,18,1,5,1,2,34,75,8
6,3,2,0,4,0,2,34,1,11
6,3,4,0,1,0,2,34,127,11
6,3,13,1,1,0,2,34,50,11
6,3,14,1,4,0,2,34,76,11
7,3,22,0,1,0,3,34,22,9
7,3,20,1,1,0,3,1,103,11
7,3,23,0,1,0,3,1,103,11
7,3,6,0,4,0,3,1,14,9
7,3,1,0,0,0,3,1,4,9
8,3,23,0,2,0,3,34,112,11
8,3,5,0,2,0,3,34,76,9
8,3,15,1,2,0,3,1,93,8
9,4,21,0,3,0,3,1,93,11
9,4,22,0,6,1,3,34,103,9
9,4,3,0,2,0,3,34,127,11
9,4,20,1,2,0,3,1,103,11
9,4,10,1,1,0,3,34,76,11
9,4,5,0,0,0,3,34,98,11
10,4,18,1,1,0,4,1,103,11
10,4,12,1,0,0,4,1,93,11
10,4,20,1,0,0,4,1,127,11
10,4,17,1,5,1,4,1,103,11
10,4,18,1,6,1,4,1,14,9
10,4,14,1,0,0,4,34,67,9
10,4,17,1,0,0,4,34,93,11
10,4,17,1,1,0,4,1,47,11
11,4,18,1,3,0,4,1,93,11
11,4,21,0,1,0,4,34,93,11
11,4,17,1,5,1,4,34,93,11
11,4,0,0,6,1,4,34,93,11
11,4,22,0,0,0,4,1,79,11
11,4,16,1,6,1,4,34,101,11
11,4,18,1,6,1,4,34,98,11
11,4,12,1,0,0,4,34,38,8
12,1,17,1,6,1,4,1,28,11
12,1,18,1,0,0,4,34,38,11
12,1,18,1,1,0,4,34,103,11
12,1,9,1,2,0,4,34,98,11
2,1,17,1,3,0,1,34,103,11
2,1,18,1,0,0,1,34,103,11
3,2,19,1,4,0,1,34,4,11
3,2,18,1,3,0,1,34,28,11
4,2,13,1,2,0,2,34,103,11
5,2,23,0,1,0,2,34,98,11
7,3,12,1,5,1,3,34,103,11
7,3,21,0,3,0,3,34,38,9
8,3,16,1,4,0,3,34,4,9
8,3,17,1,5,1,3,34,93,11
9,4,19,1,1,0,3,34,21,11
1,1,20,1,0,0,1,25,90,11
1,1,18,1,6,1,1,25,1,11
1,1,11,1,4,0,1,25,90,11
1,1,19,1,2,0,1,25,90,11
1,1,13,1,3,0,1,25,4,11
1,1,0,0,0,0,1,25,90,11
2,1,19,1,1,0,1,25,127,11
2,1,8,1,2,0,1,25,76,11
2,1,17,1,0,0,1,25,127,11
2,1,13,1,3,0,1,25,90,11
3,2,8,1,4,0,1,25,4,11
3,2,20,1,4,0,1,25,90,11
4,2,11,1,3,0,2,25,5,11
4,2,13,1,5,1,2,25,90,11
4,2,10,1,6,1,2,25,21,11
4,2,4,0,1,0,2,25,38,11
4,2,13,1,1,0,2,25,93,9
4,2,10,1,2,0,2,25,90,11
4,2,21,0,2,0,2,25,1,11
5,2,20,1,2,0,2,25,90,11
5,2,14,1,3,0,2,25,90,11
5,2,23,0,4,0,2,25,1,11
5,2,15,1,6,1,2,25,93,11
5,2,17,1,0,0,2,25,93,11
5,2,17,1,6,1,2,25,90,9
5,2,6,0,1,0,2,25,79,11
6,3,5,0,5,1,2,25,90,11
6,3,0,0,4,0,2,25,90,11
6,3,20,1,4,0,2,25,67,9
6,3,10,1,2,0,2,25,67,11
6,3,9,1,4,0,2,25,90,11
6,3,6,0,5,1,2,25,90,11
7,3,14,1,5,1,3,25,90,11
7,3,6,0,0,0,3,25,90,11
7,3,12,1,5,1,3,25,93,11
7,3,6,0,1,0,3,25,90,11
7,3,20,1,3,0,3,25,93,11
7,3,6,0,3,0,3,25,90,11
7,3,8,1,5,1,3,25,90,11
7,3,15,1,6,1,3,25,90,11
7,3,13,1,0,0,3,25,84,11
7,3,7,1,0,0,3,25,90,11
7,3,17,1,1,0,3,25,90,11
7,3,6,0,3,0,3,25,93,11
7,3,6,0,4,0,3,25,90,11
7,3,22,0,6,1,3,25,93,11
7,3,16,1,1,0,3,25,90,11
7,3,9,1,4,0,3,25,103,11
7,3,8,1,6,1,3,25,93,11
8,3,19,1,5,1,3,25,90,11
8,3,10,1,6,1,3,25,93,11
8,3,4,0,1,0,3,25,1,11
8,3,12,1,1,0,3,25,127,11
8,3,18,1,6,1,3,25,1,11
9,4,15,1,0,0,3,25,90,11
9,4,7,1,2,0,3,25,75,11
9,4,20,1,5,1,3,25,112,11
9,4,2,0,5,1,3,25,55,11
9,4,17,1,1,0,3,25,93,11
9,4,12,1,1,0,3,25,11,11
10,4,16,1,1,0,4,25,79,11
10,4,12,1,2,0,4,25,103,11
10,4,21,0,6,1,4,25,90,11
11,4,18,1,5,1,4,25,93,11
11,4,16,1,6,1,4,25,103,11
11,4,21,0,3,0,4,25,30,11
11,4,17,1,3,0,4,25,125,11
11,4,18,1,3,0,4,25,28,11
12,1,17,1,5,1,4,25,4,11
12,1,20,1,5,1,4,25,79,8
12,1,12,1,6,1,4,25,93,11
12,1,15,1,6,1,4,25,21,8
1,1,8,1,0,0,1,25,38,11
1,1,4,0,0,0,1,25,93,11
2,1,18,1,5,1,1,25,112,11
2,1,4,0,5,1,1,25,79,11
2,1,10,1,6,1,1,25,79,11
3,2,20,1,4,0,1,25,112,11
4,2,10,1,6,1,2,25,79,11
4,2,21,0,6,1,2,25,93,11
6,3,14,1,5,1,2,25,21,11
8,3,13,1,2,0,3,25,90,11
8,3,14,1,2,0,3,25,103,11
8,3,17,1,5,1,3,25,93,11
8,3,2,0,6,1,3,25,90,11
8,3,13,1,6,1,3,25,112,11
8,3,10,1,5,1,3,25,93,11
8,3,18,1,4,0,3,25,93,11
9,4,14,1,0,0,3,25,111,9
9,4,19,1,1,0,3,25,90,11
9,4,14,1,6,1,3,25,21,11
9,4,16,1,1,0,3,25,38,11
10,4,11,1,2,0,4,25,103,11
10,4,14,1,1,0,4,25,79,8
10,4,9,1,3,0,4,25,93,11
11,4,11,1,5,1,4,25,67,11
11,4,13,1,5,1,4,25,67,11
12,1,17,1,0,0,4,25,93,11
2,1,20,1,4,0,1,25,4,11
2,1,18,1,2,0,1,25,21,11
6,3,18,1,3,0,2,25,67,11
12,1,17,1,3,0,4,25,67,11
1,1,20,1,3,0,1,25,112,11
2,1,20,1,1,0,1,25,90,11
2,1,12,1,2,0,1,25,90,11
5,2,16,1,5,1,2,25,93,11
6,3,0,0,4,0,2,25,4,11
7,3,5,0,2,0,3,25,112,11
7,3,6,0,2,0,3,25,112,11
8,3,19,1,6,1,3,25,109,11
9,4,0,0,1,0,3,25,112,11
9,4,9,1,5,1,3,25,76,11
9,4,18,1,4,0,3,25,93,11
10,4,18,1,1,0,4,25,103,11
10,4,3,0,4,0,4,25,4,11
10,4,17,1,5,1,4,25,127,11
12,1,19,1,4,0,4,25,38,11
12,1,9,1,5,1,4,25,90,11
1,1,14,1,5,1,1,14,127,11
1,1,5,0,3,0,1,14,79,9
1,1,23,0,5,1,1,14,38,11
1,1,17,1,1,0,1,14,38,11
2,1,20,1,3,0,1,14,38,11
2,1,23,0,4,0,1,14,79,11
2,1,13,1,6,1,1,14,79,11
2,1,20,1,0,0,1,14,38,11
2,1,12,1,3,0,1,14,127,11
2,1,17,1,6,1,1,14,127,11
2,1,13,1,0,0,1,14,38,11
2,1,17,1,3,0,1,14,79,11
2,1,17,1,6,1,1,14,127,11
2,1,1,0,3,0,1,14,79,11
2,1,14,1,4,0,1,14,93,11
3,2,10,1,5,1,1,14,112,11
3,2,13,1,6,1,1,14,79,11
3,2,14,1,0,0,1,14,4,11
3,2,12,1,1,0,1,14,93,11
3,2,12,1,6,1,1,14,90,11
3,2,18,1,0,0,1,14,93,11
3,2,15,1,2,0,1,14,93,11
3,2,20,1,3,0,1,14,79,11
4,2,14,1,2,0,2,14,93,11
4,2,20,1,5,1,2,14,89,11
4,2,21,0,3,0,2,14,1,11
4,2,20,1,2,0,2,14,75,11
5,2,4,0,0,0,2,14,87,11
5,2,19,1,1,0,2,14,93,11
5,2,16,1,3,0,2,14,127,11
5,2,4,0,1,0,2,14,21,11
5,2,22,0,2,0,2,14,93,11
5,2,18,1,1,0,2,14,93,11
5,2,13,1,3,0,2,14,103,11
5,2,11,1,4,0,2,14,103,11
5,2,19,1,2,0,2,14,15,9
6,3,20,1,5,1,2,14,93,11
6,3,11,1,0,0,2,14,38,9
6,3,19,1,4,0,2,14,21,11
6,3,14,1,5,1,2,14,90,11
6,3,14,1,1,0,2,14,93,11
6,3,21,0,3,0,2,14,93,11
6,3,22,0,4,0,2,14,21,11
6,3,14,1,6,1,2,14,103,11
6,3,12,1,0,0,2,14,93,11
7,3,15,1,6,1,3,14,93,11
7,3,9,1,2,0,3,14,127,11
7,3,19,1,4,0,3,14,93,11
7,3,11,1,4,0,3,14,38,8
7,3,20,1,5,1,3,14,38,11
7,3,22,0,2,0,3,14,109,11
7,3,0,0,0,0,3,14,103,11
7,3,14,1,3,0,3,14,93,11
7,3,12,1,0,0,3,14,38,11
8,3,0,0,6,1,3,14,93,11
8,3,21,0,5,1,3,14,93,11
8,3,20,1,6,1,3,14,112,11
9,4,12,1,0,0,3,14,93,11
9,4,19,1,6,1,3,14,93,11
9,4,20,1,0,0,3,14,93,11
9,4,6,0,3,0,3,14,21,11
9,4,15,1,3,0,3,14,21,11
9,4,2,0,4,0,3,14,93,11
9,4,15,1,4,0,3,14,93,11
9,4,15,1,6,1,3,14,93,11
9,4,21,0,2,0,3,14,93,11
10,4,18,1,1,0,4,14,90,11
10,4,16,1,2,0,4,14,93,9
10,4,8,1,0,0,4,14,30,11
10,4,18,1,1,0,4,14,93,11
10,4,17,1,3,0,4,14,93,11
10,4,13,1,0,0,4,14,93,11
10,4,14,1,1,0,4,14,93,11
10,4,10,1,2,0,4,14,93,11
10,4,9,1,3,0,4,14,93,11
10,4,13,1,4,0,4,14,76,8
10,4,18,1,5,1,4,14,21,11
10,4,19,1,5,1,4,14,118,11
11,4,18,1,1,0,4,14,127,11
11,4,13,1,0,0,4,14,57,11
11,4,12,1,0,0,4,14,103,11
11,4,23,0,1,0,4,14,112,11
11,4,16,1,4,0,4,14,90,11
11,4,14,1,1,0,4,14,103,11
12,1,8,1,5,1,4,14,103,11
12,1,23,0,2,0,4,14,38,11
12,1,12,1,5,1,4,14,15,8
12,1,17,1,5,1,4,14,79,11
12,1,11,1,6,1,4,14,86,11
12,1,15,1,0,0,4,14,103,11
12,1,0,0,1,0,4,14,93,11
12,1,8,1,2,0,4,14,103,11
12,1,11,1,4,0,4,14,38,11
12,1,15,1,5,1,4,14,103,11
12,1,18,1,6,1,4,14,38,11
12,1,17,1,6,1,4,14,93,11
5,2,15,1,2,0,2,14,93,11
6,3,20,1,4,0,2,14,14,8
8,3,11,1,1,0,3,14,75,11
11,4,18,1,2,0,4,14,103,11
12,1,18,1,1,0,4,14,93,11
